<?xml version="1.0"?>
<VTKFile type="UnstructuredGrid" version="0.1" byte_order="LittleEndian">
<UnstructuredGrid>
<Piece NumberOfPoints="30958" NumberOfCells="10830">
<Points>
<DataArray type="Float64" NumberOfComponents="3" format="ascii">
-0.5 -0.5 0 -0.45592550248334041 -0.47561868934766932 0 -0.47371232112944461 -0.45731749016202339 0 -0.5 -0.5 0 -0.45592550248334041 -0.47561868934766932 0 -0.4413905506289369 -0.5 0 -0.45592550248334041 -0.47561868934766932 0 -0.4413905506289369 -0.5 0 -0.43121557488817108 -0.47378748576348279 0 -0.45592550248334041 -0.47561868934766932 0 -0.43121557488817108 -0.47378748576348279 0 -0.43252580732895191 -0.45836056110039858 0 -0.45284775296207591 -0.44693011538990751 0 -0.42976867750464293 -0.43656264640942338 0 -0.43252580732895191 -0.45836056110039858 0 -0.45592550248334041 -0.47561868934766932 0 -0.45284775296207591 -0.44693011538990751 0 -0.43252580732895191 -0.45836056110039858 0 -0.45592550248334041 -0.47561868934766932 0 -0.45284775296207591 -0.44693011538990751 0 -0.47371232112944461 -0.45731749016202339 0 -0.45284775296207591 -0.44693011538990751 0 -0.47371232112944461 -0.45731749016202339 0 -0.46738308908408582 -0.42881318236411231 0 -0.5 -0.44131726121752218 0 -0.47371232112944461 -0.45731749016202339 0 -0.46738308908408582 -0.42881318236411231 0 -0.5 -0.5 0 -0.5 -0.44131726121752218 0 -0.47371232112944461 -0.45731749016202339 0 -0.5 -0.44131726121752218 0 -0.47765353156501072 -0.39987521322326491 0 -0.46738308908408582 -0.42881318236411231 0 -0.5 -0.44131726121752218 0 -0.47765353156501072 -0.39987521322326491 0 -0.50000000000000167 -0.36650720727383179 0 -0.47765353156501072 -0.39987521322326491 0 -0.47437535224544791 -0.37502896775281319 0 -0.50000000000000167 -0.36650720727383179 0 -0.47765353156501072 -0.39987521322326491 0 -0.47437535224544791 -0.37502896775281319 0 -0.45830129023139682 -0.3849875763888661 0 -0.47437535224544791 -0.37502896775281319 0 -0.45830129023139682 -0.3849875763888661 0 -0.45986706664980681 -0.36644614721985591 0 -0.45830129023139682 -0.3849875763888661 0 -0.45986706664980681 -0.36644614721985591 0 -0.44402117167337413 -0.37374382900015268 0 -0.47765353156501072 -0.39987521322326491 0 -0.45830129023139682 -0.3849875763888661 0 -0.4520212823412027 -0.40312548185873442 0 -0.45830129023139682 -0.3849875763888661 0 -0.4520212823412027 -0.40312548185873442 0 -0.4382517494155197 -0.38975304464843818 0 -0.4520212823412027 -0.40312548185873442 0 -0.4382517494155197 -0.38975304464843818 0 -0.43310596492354703 -0.41231702616946297 0 -0.45830129023139682 -0.3849875763888661 0 -0.4382517494155197 -0.38975304464843818 0 -0.44402117167337413 -0.37374382900015268 0 -0.45284775296207591 -0.44693011538990751 0 -0.46738308908408582 -0.42881318236411231 0 -0.44806364650678071 -0.42431353233322122 0 -0.47765353156501072 -0.39987521322326491 0 -0.4520212823412027 -0.40312548185873442 0 -0.46738308908408582 -0.42881318236411231 0 -0.4520212823412027 -0.40312548185873442 0 -0.46738308908408582 -0.42881318236411231 0 -0.44806364650678071 -0.42431353233322122 0 -0.4520212823412027 -0.40312548185873442 0 -0.44806364650678071 -0.42431353233322122 0 -0.43310596492354703 -0.41231702616946297 0 -0.45284775296207591 -0.44693011538990751 0 -0.44806364650678071 -0.42431353233322122 0 -0.42976867750464293 -0.43656264640942338 0 -0.42976867750464293 -0.43656264640942338 0 -0.43310596492354703 -0.41231702616946297 0 -0.41169425891989242 -0.42406999886911673 0 -0.44806364650678071 -0.42431353233322122 0 -0.42976867750464293 -0.43656264640942338 0 -0.43310596492354703 -0.41231702616946297 0 -0.43310596492354703 -0.41231702616946297 0 -0.41169425891989242 -0.42406999886911673 0 -0.41883617485324381 -0.39607745289784418 0 -0.41169425891989242 -0.42406999886911673 0 -0.41883617485324381 -0.39607745289784418 0 -0.39063169119932423 -0.40315303398817082 0 -0.41169425891989242 -0.42406999886911673 0 -0.41883617485324381 -0.39607745289784418 0 -0.4382517494155197 -0.38975304464843818 0 -0.44402117167337413 -0.37374382900015268 0 -0.4259780907865961 -0.36808490692657192 0 -0.4382517494155197 -0.38975304464843818 0 -0.41883617485324381 -0.39607745289784418 0 -0.4259780907865961 -0.36808490692657192 0 -0.4382517494155197 -0.38975304464843818 0 -0.4259780907865961 -0.36808490692657192 0 -0.41883617485324381 -0.39607745289784418 0 -0.4259780907865961 -0.36808490692657192 0 -0.4382517494155197 -0.38975304464843818 0 -0.43310596492354703 -0.41231702616946297 0 -0.41883617485324381 -0.39607745289784418 0 -0.41883617485324381 -0.39607745289784418 0 -0.40665841491005461 -0.3822237258790786 0 -0.4259780907865961 -0.36808490692657192 0 -0.40665841491005461 -0.3822237258790786 0 -0.39063169119932423 -0.40315303398817082 0 -0.38993212657440501 -0.3759958336364489 0 -0.41883617485324381 -0.39607745289784418 0 -0.40665841491005461 -0.3822237258790786 0 -0.39063169119932423 -0.40315303398817082 0 -0.39063169119932423 -0.40315303398817082 0 -0.37150123500282473 -0.38768318673502461 0 -0.37113451574155332 -0.40237864590766592 0 -0.39063169119932423 -0.40315303398817082 0 -0.38993212657440501 -0.3759958336364489 0 -0.37150123500282473 -0.38768318673502461 0 -0.38993212657440501 -0.3759958336364489 0 -0.37204510756618903 -0.36673733170211342 0 -0.37150123500282473 -0.38768318673502461 0 -0.41169425891989242 -0.42406999886911673 0 -0.39641373886658232 -0.43730392979263499 0 -0.38551467562078362 -0.42567177453282279 0 -0.41169425891989242 -0.42406999886911673 0 -0.39063169119932423 -0.40315303398817082 0 -0.38551467562078362 -0.42567177453282279 0 -0.39063169119932423 -0.40315303398817082 0 -0.38551467562078362 -0.42567177453282279 0 -0.37308328970805432 -0.41705031483028793 0 -0.39063169119932423 -0.40315303398817082 0 -0.37308328970805432 -0.41705031483028793 0 -0.37113451574155332 -0.40237864590766592 0 -0.38551467562078362 -0.42567177453282279 0 -0.38389367793911211 -0.44741140092821108 0 -0.37371753724979678 -0.43378941887643879 0 -0.38551467562078362 -0.42567177453282279 0 -0.37371753724979678 -0.43378941887643879 0 -0.37308328970805432 -0.41705031483028793 0 -0.39641373886658232 -0.43730392979263499 0 -0.38551467562078362 -0.42567177453282279 0 -0.38389367793911211 -0.44741140092821108 0 -0.38389367793911211 -0.44741140092821108 0 -0.40455234298654102 -0.45206254484038932 0 -0.39215679422559863 -0.45964849366181049 0 -0.38389367793911211 -0.44741140092821108 0 -0.40455234298654102 -0.45206254484038932 0 -0.41169425891989242 -0.42406999886911673 0 -0.39641373886658232 -0.43730392979263499 0 -0.40455234298654102 -0.45206254484038932 0 -0.39641373886658232 -0.43730392979263499 0 -0.38389367793911211 -0.44741140092821108 0 -0.40455234298654102 -0.45206254484038932 0 -0.40455234298654102 -0.45206254484038932 0 -0.39940287714994072 -0.47224573664826142 0 -0.40728851983433328 -0.46478710227137482 0 -0.40455234298654102 -0.45206254484038932 0 -0.39215679422559863 -0.45964849366181049 0 -0.39940287714994072 -0.47224573664826142 0 -0.40455234298654102 -0.45206254484038932 0 -0.39940287714994072 -0.47224573664826142 0 -0.39215679422559863 -0.45964849366181049 0 -0.39095101046386338 -0.46913291840361709 0 -0.39940287714994072 -0.47224573664826142 0 -0.39215679422559863 -0.45964849366181049 0 -0.38233574221766292 -0.46699696578284738 0 -0.39095101046386338 -0.46913291840361709 0 -0.38389367793911211 -0.44741140092821108 0 -0.39215679422559863 -0.45964849366181049 0 -0.38233574221766292 -0.46699696578284738 0 -0.38389367793911211 -0.44741140092821108 0 -0.38233574221766292 -0.46699696578284738 0 -0.36464438235718688 -0.46807382054763852 0 -0.38489906871122281 -0.48734348242394948 0 -0.39831340525145742 -0.5 0 -0.36665092569501379 -0.50000000000000144 0 -0.38233574221766292 -0.46699696578284738 0 -0.3760718809922991 -0.47922235743067548 0 -0.38990862826225148 -0.47764047752154959 0 -0.3760718809922991 -0.47922235743067548 0 -0.38990862826225148 -0.47764047752154959 0 -0.38489906871122281 -0.48734348242394948 0 -0.38233574221766292 -0.46699696578284738 0 -0.38990862826225148 -0.47764047752154959 0 -0.39095101046386338 -0.46913291840361709 0 -0.3760718809922991 -0.47922235743067548 0 -0.38489906871122281 -0.48734348242394948 0 -0.36605375182269062 -0.49338738407924509 0 -0.38489906871122281 -0.48734348242394948 0 -0.36665092569501379 -0.50000000000000144 0 -0.38489906871122281 -0.48734348242394948 0 -0.39831340525145742 -0.5 0 -0.39909198091126519 -0.48762936426867171 0 -0.39831340525145742 -0.5 0 -0.39909198091126519 -0.48762936426867171 0 -0.41000823795494978 -0.4884870098028406 0 -0.38990862826225148 -0.47764047752154959 0 -0.38489906871122281 -0.48734348242394948 0 -0.40314721172743118 -0.47468696484789658 0 -0.38489906871122281 -0.48734348242394948 0 -0.40314721172743118 -0.47468696484789658 0 -0.38489906871122281 -0.48734348242394948 0 -0.39909198091126519 -0.48762936426867171 0 -0.40314721172743118 -0.47468696484789658 0 -0.38990862826225148 -0.47764047752154959 0 -0.40314721172743118 -0.47468696484789658 0 -0.39940287714994072 -0.47224573664826142 0 -0.38990862826225148 -0.47764047752154959 0 -0.39095101046386338 -0.46913291840361709 0 -0.39940287714994072 -0.47224573664826142 0 -0.39909198091126519 -0.48762936426867171 0 -0.40314721172743118 -0.47468696484789658 0 -0.41000823795494978 -0.4884870098028406 0 -0.40314721172743118 -0.47468696484789658 0 -0.39940287714994072 -0.47224573664826142 0 -0.40728851983433328 -0.46478710227137482 0 -0.4413905506289369 -0.5 0 -0.41000823795494978 -0.4884870098028406 0 -0.42389089395741331 -0.48500794750408349 0 -0.4413905506289369 -0.5 0 -0.39831340525145742 -0.5 0 -0.41000823795494978 -0.4884870098028406 0 -0.40314721172743118 -0.47468696484789658 0 -0.41793145465432108 -0.4767999710380294 0 -0.42139535474363959 -0.46203044727184361 0 -0.40314721172743118 -0.47468696484789658 0 -0.41793145465432108 -0.4767999710380294 0 -0.41000823795494978 -0.4884870098028406 0 -0.41793145465432108 -0.4767999710380294 0 -0.41000823795494978 -0.4884870098028406 0 -0.42389089395741331 -0.48500794750408349 0 -0.4413905506289369 -0.5 0 -0.42389089395741331 -0.48500794750408349 0 -0.43121557488817108 -0.47378748576348279 0 -0.41793145465432108 -0.4767999710380294 0 -0.43121557488817108 -0.47378748576348279 0 -0.42139535474363959 -0.46203044727184361 0 -0.41793145465432108 -0.4767999710380294 0 -0.42389089395741331 -0.48500794750408349 0 -0.43121557488817108 -0.47378748576348279 0 -0.43121557488817108 -0.47378748576348279 0 -0.43252580732895191 -0.45836056110039858 0 -0.42139535474363959 -0.46203044727184361 0 -0.42976867750464293 -0.43656264640942338 0 -0.40455234298654102 -0.45206254484038932 0 -0.43252580732895191 -0.45836056110039858 0 -0.41169425891989242 -0.42406999886911673 0 -0.40455234298654102 -0.45206254484038932 0 -0.42976867750464293 -0.43656264640942338 0 -0.41169425891989242 -0.42406999886911673 0 -0.40455234298654102 -0.45206254484038932 0 -0.40455234298654102 -0.45206254484038932 0 -0.43252580732895191 -0.45836056110039858 0 -0.42139535474363959 -0.46203044727184361 0 -0.40314721172743118 -0.47468696484789658 0 -0.42139535474363959 -0.46203044727184361 0 -0.40314721172743118 -0.47468696484789658 0 -0.40728851983433328 -0.46478710227137482 0 -0.42139535474363959 -0.46203044727184361 0 -0.40455234298654102 -0.45206254484038932 0 -0.40728851983433328 -0.46478710227137482 0 -0.42139535474363959 -0.46203044727184361 0 -0.40455234298654102 -0.45206254484038932 0 -0.43252580732895191 -0.45836056110039858 0 -0.45036872059440852 -0.26151908845811672 0 -0.43722006643490269 -0.25325551897868792 0 -0.43941780136049358 -0.24513398287473709 0 -0.45035809669368843 -0.27695583248948941 0 -0.43722006643490269 -0.25325551897868792 0 -0.46107271074859563 -0.25623587745514548 0 -0.43941780136049358 -0.24513398287473709 0 -0.45036872059440852 -0.26151908845811672 0 -0.45035809669368843 -0.27695583248948941 0 -0.43722006643490269 -0.25325551897868792 0 -0.45036872059440852 -0.26151908845811672 0 -0.46107271074859563 -0.25623587745514548 0 -0.43941780136049358 -0.24513398287473709 0 -0.43819605620570917 -0.268606131421116 0 -0.45035809669368843 -0.27695583248948941 0 -0.43722006643490269 -0.25325551897868792 0 -0.43819605620570917 -0.268606131421116 0 -0.43851500545451 -0.27951179988416902 0 -0.45035809669368843 -0.27695583248948941 0 -0.43851500545451 -0.27951179988416902 0 -0.45035809669368843 -0.27695583248948941 0 -0.44679793168662318 -0.28690717538584409 0 -0.45036872059440852 -0.26151908845811672 0 -0.45035809669368843 -0.27695583248948941 0 -0.46377492773436269 -0.27601423049252227 0 -0.46377492773436269 -0.27601423049252227 0 -0.46107271074859563 -0.25623587745514548 0 -0.48053635537429801 -0.26621436902546308 0 -0.46377492773436269 -0.27601423049252227 0 -0.46107271074859563 -0.25623587745514548 0 -0.45036872059440852 -0.26151908845811672 0 -0.46377492773436269 -0.27601423049252227 0 -0.46107271074859563 -0.25623587745514548 0 -0.46107271074859563 -0.25623587745514548 0 -0.48053635537429801 -0.26621436902546308 0 -0.46107271074859563 -0.25623587745514548 0 -0.48053635537429801 -0.26621436902546308 0 -0.47867926622696388 -0.2421595519495732 0 -0.50000000000000044 -0.25526843397644838 0 -0.48053635537429801 -0.26621436902546308 0 -0.47867926622696388 -0.2421595519495732 0 -0.50000000000000044 -0.25526843397644838 0 -0.500000000000001 -0.27619286059577941 0 -0.48053635537429801 -0.26621436902546308 0 -0.500000000000001 -0.27619286059577941 0 -0.48053635537429801 -0.26621436902546308 0 -0.500000000000001 -0.27619286059577941 0 -0.48080068152314942 -0.2785826622185143 0 -0.48570924028226709 -0.28856692172679799 0 -0.500000000000001 -0.27619286059577941 0 -0.48080068152314942 -0.2785826622185143 0 -0.48053635537429801 -0.26621436902546308 0 -0.46377492773436269 -0.27601423049252227 0 -0.48080068152314942 -0.2785826622185143 0 -0.47398288422481799 -0.28592492925200907 0 -0.46377492773436269 -0.27601423049252227 0 -0.48080068152314942 -0.2785826622185143 0 -0.48053635537429801 -0.26621436902546308 0 -0.47398288422481799 -0.28592492925200907 0 -0.47734117354064642 -0.2945201406757324 0 -0.46647714472012858 -0.29579258352989929 0 -0.47734117354064642 -0.2945201406757324 0 -0.48570924028226709 -0.28856692172679799 0 -0.48508726722467221 -0.29953810345595061 0 -0.47398288422481799 -0.28592492925200907 0 -0.47734117354064642 -0.2945201406757324 0 -0.48570924028226709 -0.28856692172679799 0 -0.48080068152314942 -0.2785826622185143 0 -0.47398288422481799 -0.28592492925200907 0 -0.48570924028226709 -0.28856692172679799 0 -0.500000000000001 -0.27619286059577941 0 -0.48570924028226709 -0.28856692172679799 0 -0.5 -0.30055648216998948 0 -0.48570924028226709 -0.28856692172679799 0 -0.5 -0.30055648216998948 0 -0.48508726722467221 -0.29953810345595061 0 -0.5 -0.30055648216998948 0 -0.48672329377701989 -0.31017295134357448 0 -0.5 -0.32492010374419938 0 -0.5 -0.30055648216998948 0 -0.48508726722467221 -0.29953810345595061 0 -0.48672329377701989 -0.31017295134357448 0 -0.47566262852342778 -0.30387402136365838 0 -0.46349612695247422 -0.30065614600029072 0 -0.47663415721126218 -0.32435645951109082 0 -0.47734117354064642 -0.2945201406757324 0 -0.48508726722467221 -0.29953810345595061 0 -0.47566262852342778 -0.30387402136365838 0 -0.48508726722467221 -0.29953810345595061 0 -0.48672329377701989 -0.31017295134357448 0 -0.47566262852342778 -0.30387402136365838 0 -0.47734117354064642 -0.2945201406757324 0 -0.47566262852342778 -0.30387402136365838 0 -0.46647714472012858 -0.29579258352989929 0 -0.45842898736354071 -0.30774639667598452 0 -0.46349612695247422 -0.30065614600029072 0 -0.46288122156699252 -0.31374540366878367 0 -0.45842898736354071 -0.30774639667598452 0 -0.45463969069802568 -0.311983695848919 0 -0.46288122156699252 -0.31374540366878367 0 -0.45842898736354071 -0.30774639667598452 0 -0.45463969069802568 -0.311983695848919 0 -0.45147553002766538 -0.30371780129106812 0 -0.46349612695247422 -0.30065614600029072 0 -0.45092619081881768 -0.29645944565025301 0 -0.45147553002766538 -0.30371780129106812 0 -0.45842898736354071 -0.30774639667598452 0 -0.46349612695247422 -0.30065614600029072 0 -0.45147553002766538 -0.30371780129106812 0 -0.47566262852342778 -0.30387402136365838 0 -0.46349612695247422 -0.30065614600029072 0 -0.46647714472012858 -0.29579258352989929 0 -0.46377492773436269 -0.27601423049252227 0 -0.46647714472012858 -0.29579258352989929 0 -0.45035809669368843 -0.27695583248948941 0 -0.46349612695247422 -0.30065614600029072 0 -0.45035809669368843 -0.27695583248948941 0 -0.46349612695247422 -0.30065614600029072 0 -0.46647714472012858 -0.29579258352989929 0 -0.46377492773436269 -0.27601423049252227 0 -0.47398288422481799 -0.28592492925200907 0 -0.46647714472012858 -0.29579258352989929 0 -0.45035809669368843 -0.27695583248948941 0 -0.46377492773436269 -0.27601423049252227 0 -0.46647714472012858 -0.29579258352989929 0 -0.45035809669368843 -0.27695583248948941 0 -0.46349612695247422 -0.30065614600029072 0 -0.44679793168662318 -0.28690717538584409 0 -0.46349612695247422 -0.30065614600029072 0 -0.45092619081881768 -0.29645944565025301 0 -0.44679793168662318 -0.28690717538584409 0 -0.45092619081881768 -0.29645944565025301 0 -0.44679793168662318 -0.28690717538584409 0 -0.44151044900238751 -0.29795013602580689 0 -0.43851500545451 -0.27951179988416902 0 -0.44679793168662318 -0.28690717538584409 0 -0.43356803416724982 -0.29044351886139752 0 -0.44679793168662318 -0.28690717538584409 0 -0.44151044900238751 -0.29795013602580689 0 -0.43356803416724982 -0.29044351886139752 0 -0.44151044900238751 -0.29795013602580689 0 -0.441149553814983 -0.30862076869856531 0 -0.42986137917786249 -0.30235642783194372 0 -0.44151044900238751 -0.29795013602580689 0 -0.441149553814983 -0.30862076869856531 0 -0.45147553002766538 -0.30371780129106812 0 -0.45463969069802568 -0.311983695848919 0 -0.441149553814983 -0.30862076869856531 0 -0.45147553002766538 -0.30371780129106812 0 -0.45092619081881768 -0.29645944565025301 0 -0.44151044900238751 -0.29795013602580689 0 -0.45147553002766538 -0.30371780129106812 0 -0.441149553814983 -0.30862076869856531 0 -0.44578013400806121 -0.32361218110417861 0 -0.43609239947218709 -0.32844214810790068 0 -0.441149553814983 -0.30862076869856531 0 -0.43609239947218709 -0.32844214810790068 0 -0.45463969069802568 -0.311983695848919 0 -0.441149553814983 -0.30862076869856531 0 -0.44578013400806121 -0.32361218110417861 0 -0.44578013400806121 -0.32361218110417861 0 -0.44330098858630063 -0.33545437840534792 0 -0.43609239947218709 -0.32844214810790068 0 -0.44330098858630063 -0.33545437840534792 0 -0.45007244187294498 -0.34413456696010702 0 -0.43103524512939112 -0.34826352751723622 0 -0.44330098858630063 -0.33545437840534792 0 -0.45352472244891912 -0.33281946833731679 0 -0.45007244187294498 -0.34413456696010702 0 -0.44578013400806121 -0.32361218110417861 0 -0.44330098858630063 -0.33545437840534792 0 -0.45352472244891912 -0.33281946833731679 0 -0.45352472244891912 -0.33281946833731679 0 -0.4663560488405098 -0.33977712769124158 0 -0.45007244187294498 -0.34413456696010702 0 -0.45352472244891912 -0.33281946833731679 0 -0.4663560488405098 -0.33977712769124158 0 -0.46120714560966192 -0.32398432030763208 0 -0.4663560488405098 -0.33977712769124158 0 -0.46120714560966192 -0.32398432030763208 0 -0.47663415721126218 -0.32435645951109082 0 -0.46349612695247422 -0.30065614600029072 0 -0.46288122156699252 -0.31374540366878367 0 -0.47663415721126218 -0.32435645951109082 0 -0.46120714560966192 -0.32398432030763208 0 -0.46288122156699252 -0.31374540366878367 0 -0.47663415721126218 -0.32435645951109082 0 -0.44578013400806121 -0.32361218110417861 0 -0.46120714560966192 -0.32398432030763208 0 -0.44578013400806121 -0.32361218110417861 0 -0.45352472244891912 -0.33281946833731679 0 -0.46120714560966192 -0.32398432030763208 0 -0.45463969069802568 -0.311983695848919 0 -0.46120714560966192 -0.32398432030763208 0 -0.46288122156699252 -0.31374540366878367 0 -0.45463969069802568 -0.311983695848919 0 -0.44578013400806121 -0.32361218110417861 0 -0.46120714560966192 -0.32398432030763208 0 -0.46349612695247422 -0.30065614600029072 0 -0.47663415721126218 -0.32435645951109082 0 -0.48672329377701989 -0.31017295134357448 0 -0.47566262852342778 -0.30387402136365838 0 -0.47663415721126218 -0.32435645951109082 0 -0.46120714560966192 -0.32398432030763208 0 -0.47663415721126218 -0.32435645951109082 0 -0.47663415721126218 -0.32435645951109082 0 -0.5 -0.32492010374419938 0 -0.48672329377701989 -0.31017295134357448 0 -0.47663415721126218 -0.32435645951109082 0 -0.5 -0.32492010374419938 0 -0.5 -0.32492010374419938 0 -0.48831707860563139 -0.34543183339246158 0 -0.5 -0.34571365550901562 0 -0.47663415721126218 -0.32435645951109082 0 -0.5 -0.32492010374419938 0 -0.48831707860563139 -0.34543183339246158 0 -0.47663415721126218 -0.32435645951109082 0 -0.48831707860563139 -0.34543183339246158 0 -0.4663560488405098 -0.33977712769124158 0 -0.47663415721126218 -0.32435645951109082 0 -0.48831707860563139 -0.34543183339246158 0 -0.4663560488405098 -0.33977712769124158 0 -0.47605487278102498 -0.3573286946582474 0 -0.48831707860563139 -0.34543183339246158 0 -0.47605487278102498 -0.3573286946582474 0 -0.48831707860563139 -0.34543183339246158 0 -0.50000000000000167 -0.36650720727383179 0 -0.48831707860563139 -0.34543183339246158 0 -0.5 -0.34571365550901562 0 -0.50000000000000167 -0.36650720727383179 0 -0.48831707860563139 -0.34543183339246158 0 -0.50000000000000167 -0.36650720727383179 0 -0.47437535224544791 -0.37502896775281319 0 -0.47605487278102498 -0.3573286946582474 0 -0.50000000000000167 -0.36650720727383179 0 -0.47437535224544791 -0.37502896775281319 0 -0.47605487278102498 -0.3573286946582474 0 -0.45986706664980681 -0.36644614721985591 0 -0.47605487278102498 -0.3573286946582474 0 -0.45986706664980681 -0.36644614721985591 0 -0.4592376142652228 -0.3527111336821569 0 -0.4663560488405098 -0.33977712769124158 0 -0.47605487278102498 -0.3573286946582474 0 -0.4592376142652228 -0.3527111336821569 0 -0.4663560488405098 -0.33977712769124158 0 -0.4592376142652228 -0.3527111336821569 0 -0.45007244187294498 -0.34413456696010702 0 -0.45986706664980681 -0.36644614721985591 0 -0.4592376142652228 -0.3527111336821569 0 -0.44449459466770891 -0.35874110752452809 0 -0.45007244187294498 -0.34413456696010702 0 -0.44449459466770891 -0.35874110752452809 0 -0.43103524512939112 -0.34826352751723622 0 -0.4592376142652228 -0.3527111336821569 0 -0.45007244187294498 -0.34413456696010702 0 -0.44449459466770891 -0.35874110752452809 0 -0.45986706664980681 -0.36644614721985591 0 -0.44449459466770891 -0.35874110752452809 0 -0.44402117167337413 -0.37374382900015268 0 -0.44449459466770891 -0.35874110752452809 0 -0.44402117167337413 -0.37374382900015268 0 -0.4259780907865961 -0.36808490692657192 0 -0.44449459466770891 -0.35874110752452809 0 -0.4259780907865961 -0.36808490692657192 0 -0.43103524512939112 -0.34826352751723622 0 -0.4259780907865961 -0.36808490692657192 0 -0.43103524512939112 -0.34826352751723622 0 -0.43103524512939112 -0.34826352751723622 0 -0.41476723255806008 -0.34829305614917999 0 -0.42248081722811498 -0.3351509484041077 0 -0.4259780907865961 -0.36808490692657192 0 -0.43103524512939112 -0.34826352751723622 0 -0.41476723255806008 -0.34829305614917999 0 -0.4259780907865961 -0.36808490692657192 0 -0.41476723255806008 -0.34829305614917999 0 -0.4259780907865961 -0.36808490692657192 0 -0.41476723255806008 -0.34829305614917999 0 -0.40489983803188451 -0.36487782097739591 0 -0.40665841491005461 -0.3822237258790786 0 -0.4259780907865961 -0.36808490692657192 0 -0.40489983803188451 -0.36487782097739591 0 -0.38993212657440501 -0.3759958336364489 0 -0.40489983803188451 -0.36487782097739591 0 -0.38653537676680239 -0.34918125292716629 0 -0.40665841491005461 -0.3822237258790786 0 -0.38993212657440501 -0.3759958336364489 0 -0.40489983803188451 -0.36487782097739591 0 -0.38993212657440501 -0.3759958336364489 0 -0.38653537676680239 -0.34918125292716629 0 -0.37204510756618903 -0.36673733170211342 0 -0.41476723255806008 -0.34829305614917999 0 -0.40489983803188451 -0.36487782097739591 0 -0.38653537676680239 -0.34918125292716629 0 -0.41476723255806008 -0.34829305614917999 0 -0.38653537676680239 -0.34918125292716629 0 -0.40355637432952279 -0.32850120537178901 0 -0.38653537676680239 -0.34918125292716629 0 -0.40355637432952279 -0.32850120537178901 0 -0.38477721971691842 -0.32364248882668623 0 -0.38653537676680239 -0.34918125292716629 0 -0.38477721971691842 -0.32364248882668623 0 -0.36538555352893431 -0.32728137424187709 0 -0.38477721971691842 -0.32364248882668623 0 -0.37656835830750068 -0.29940337795758448 0 -0.36538555352893431 -0.32728137424187709 0 -0.40355637432952279 -0.32850120537178901 0 -0.38477721971691842 -0.32364248882668623 0 -0.39234551610098573 -0.3087093545943978 0 -0.40355637432952279 -0.32850120537178901 0 -0.39234551610098573 -0.3087093545943978 0 -0.40355637432952279 -0.32850120537178901 0 -0.40734480336513768 -0.31347105001564951 0 -0.39234551610098573 -0.3087093545943978 0 -0.40734480336513768 -0.31347105001564951 0 -0.41678086386696378 -0.32229935069425408 0 -0.41735379110438048 -0.30753162656227828 0 -0.41678086386696378 -0.32229935069425408 0 -0.42780188747643882 -0.31577111551100401 0 -0.41735379110438048 -0.30753162656227828 0 -0.41678086386696378 -0.32229935069425408 0 -0.42248081722811498 -0.3351509484041077 0 -0.42614743097133312 -0.32571390877926643 0 -0.40355637432952279 -0.32850120537178901 0 -0.40734480336513768 -0.31347105001564951 0 -0.41678086386696378 -0.32229935069425408 0 -0.41476723255806008 -0.34829305614917999 0 -0.40355637432952279 -0.32850120537178901 0 -0.42248081722811498 -0.3351509484041077 0 -0.41476723255806008 -0.34829305614917999 0 -0.40355637432952279 -0.32850120537178901 0 -0.40355637432952279 -0.32850120537178901 0 -0.41678086386696378 -0.32229935069425408 0 -0.42248081722811498 -0.3351509484041077 0 -0.44330098858630063 -0.33545437840534792 0 -0.43103524512939112 -0.34826352751723622 0 -0.43609239947218709 -0.32844214810790068 0 -0.43103524512939112 -0.34826352751723622 0 -0.42248081722811498 -0.3351509484041077 0 -0.43609239947218709 -0.32844214810790068 0 -0.42248081722811498 -0.3351509484041077 0 -0.43609239947218709 -0.32844214810790068 0 -0.42614743097133312 -0.32571390877926643 0 -0.43103524512939112 -0.34826352751723622 0 -0.43609239947218709 -0.32844214810790068 0 -0.441149553814983 -0.30862076869856531 0 -0.43609239947218709 -0.32844214810790068 0 -0.42780188747643882 -0.31577111551100401 0 -0.43609239947218709 -0.32844214810790068 0 -0.42780188747643882 -0.31577111551100401 0 -0.42614743097133312 -0.32571390877926643 0 -0.41678086386696378 -0.32229935069425408 0 -0.42780188747643882 -0.31577111551100401 0 -0.42614743097133312 -0.32571390877926643 0 -0.42986137917786249 -0.30235642783194372 0 -0.41984563928856022 -0.29333889759964349 0 -0.41735379110438048 -0.30753162656227828 0 -0.42780188747643882 -0.31577111551100401 0 -0.42986137917786249 -0.30235642783194372 0 -0.41735379110438048 -0.30753162656227828 0 -0.441149553814983 -0.30862076869856531 0 -0.42780188747643882 -0.31577111551100401 0 -0.42986137917786249 -0.30235642783194372 0 -0.44151044900238751 -0.29795013602580689 0 -0.42986137917786249 -0.30235642783194372 0 -0.43356803416724982 -0.29044351886139752 0 -0.43851500545451 -0.27951179988416902 0 -0.43356803416724982 -0.29044351886139752 0 -0.42658354790697361 -0.28116722217397128 0 -0.43356803416724982 -0.29044351886139752 0 -0.41984563928856022 -0.29333889759964349 0 -0.42658354790697361 -0.28116722217397128 0 -0.42986137917786249 -0.30235642783194372 0 -0.43356803416724982 -0.29044351886139752 0 -0.41984563928856022 -0.29333889759964349 0 -0.41984563928856022 -0.29333889759964349 0 -0.41518034944709292 -0.28073432431949341 0 -0.42658354790697361 -0.28116722217397128 0 -0.41984563928856022 -0.29333889759964349 0 -0.40939390407884207 -0.28947043056936977 0 -0.41518034944709292 -0.28073432431949341 0 -0.40939390407884207 -0.28947043056936977 0 -0.40297357669485001 -0.28144706760406518 0 -0.41518034944709292 -0.28073432431949341 0 -0.41984563928856022 -0.29333889759964349 0 -0.40939390407884207 -0.28947043056936977 0 -0.40731454960739549 -0.30072348952060968 0 -0.41984563928856022 -0.29333889759964349 0 -0.40731454960739549 -0.30072348952060968 0 -0.41735379110438048 -0.30753162656227828 0 -0.40734480336513768 -0.31347105001564951 0 -0.40731454960739549 -0.30072348952060968 0 -0.41735379110438048 -0.30753162656227828 0 -0.40734480336513768 -0.31347105001564951 0 -0.40731454960739549 -0.30072348952060968 0 -0.39234551610098573 -0.3087093545943978 0 -0.40731454960739549 -0.30072348952060968 0 -0.39234551610098573 -0.3087093545943978 0 -0.39760364370646722 -0.29181957778231971 0 -0.38477721971691842 -0.32364248882668623 0 -0.39234551610098573 -0.3087093545943978 0 -0.37656835830750068 -0.29940337795758448 0 -0.39234551610098573 -0.3087093545943978 0 -0.38113465787244849 -0.2889175038170067 0 -0.39234551610098573 -0.3087093545943978 0 -0.37656835830750068 -0.29940337795758448 0 -0.38113465787244849 -0.2889175038170067 0 -0.38113465787244849 -0.2889175038170067 0 -0.39195991533043761 -0.28291561371009788 0 -0.39760364370646722 -0.29181957778231971 0 -0.39234551610098573 -0.3087093545943978 0 -0.38113465787244849 -0.2889175038170067 0 -0.39760364370646722 -0.29181957778231971 0 -0.38113465787244849 -0.2889175038170067 0 -0.3837390046112617 -0.27693427245696622 0 -0.37146839695569872 -0.28117681768371172 0 -0.37656835830750068 -0.29940337795758448 0 -0.38113465787244849 -0.2889175038170067 0 -0.37036217913420982 -0.29142453103489302 0 -0.38113465787244849 -0.2889175038170067 0 -0.39195991533043761 -0.28291561371009788 0 -0.3837390046112617 -0.27693427245696622 0 -0.39195991533043761 -0.28291561371009788 0 -0.39760364370646722 -0.29181957778231971 0 -0.40297357669485001 -0.28144706760406518 0 -0.40939390407884207 -0.28947043056936977 0 -0.40731454960739549 -0.30072348952060968 0 -0.39760364370646722 -0.29181957778231971 0 -0.40939390407884207 -0.28947043056936977 0 -0.39760364370646722 -0.29181957778231971 0 -0.40297357669485001 -0.28144706760406518 0 -0.40297357669485001 -0.28144706760406518 0 -0.39552834100258788 -0.27328439286786499 0 -0.40852481438217031 -0.2695781998703819 0 -0.39552834100258788 -0.27328439286786499 0 -0.40132990686818981 -0.25854641286685948 0 -0.40852481438217031 -0.2695781998703819 0 -0.39195991533043761 -0.28291561371009788 0 -0.40297357669485001 -0.28144706760406518 0 -0.39552834100258788 -0.27328439286786499 0 -0.39195991533043761 -0.28291561371009788 0 -0.39552834100258788 -0.27328439286786499 0 -0.3837390046112617 -0.27693427245696622 0 -0.39552834100258788 -0.27328439286786499 0 -0.3837390046112617 -0.27693427245696622 0 -0.3870214438198239 -0.26462672180734609 0 -0.3837390046112617 -0.27693427245696622 0 -0.37532127268657378 -0.27068458485576968 0 -0.3870214438198239 -0.26462672180734609 0 -0.3837390046112617 -0.27693427245696622 0 -0.37532127268657378 -0.27068458485576968 0 -0.37146839695569872 -0.28117681768371172 0 -0.37624156995803631 -0.25834304319994628 0 -0.3885075298045742 -0.25107858840937952 0 -0.37828169065392753 -0.24627482920161439 0 -0.37532127268657378 -0.27068458485576968 0 -0.37624156995803631 -0.25834304319994628 0 -0.3870214438198239 -0.26462672180734609 0 -0.37624156995803631 -0.25834304319994628 0 -0.3870214438198239 -0.26462672180734609 0 -0.3885075298045742 -0.25107858840937952 0 -0.3885075298045742 -0.25107858840937952 0 -0.40132990686818981 -0.25854641286685948 0 -0.39864410587321653 -0.2406983910953498 0 -0.3870214438198239 -0.26462672180734609 0 -0.3885075298045742 -0.25107858840937952 0 -0.40132990686818981 -0.25854641286685948 0 -0.39552834100258788 -0.27328439286786499 0 -0.3870214438198239 -0.26462672180734609 0 -0.40132990686818981 -0.25854641286685948 0 -0.40132990686818981 -0.25854641286685948 0 -0.41686650467662839 -0.25697029824265533 0 -0.41137958537725489 -0.24551148124238739 0 -0.41686650467662839 -0.25697029824265533 0 -0.40852481438217031 -0.2695781998703819 0 -0.42064743225673451 -0.2702278407134725 0 -0.41686650467662839 -0.25697029824265533 0 -0.42064743225673451 -0.2702278407134725 0 -0.42652802518444688 -0.26140135086804578 0 -0.40132990686818981 -0.25854641286685948 0 -0.41686650467662839 -0.25697029824265533 0 -0.40852481438217031 -0.2695781998703819 0 -0.40297357669485001 -0.28144706760406518 0 -0.40852481438217031 -0.2695781998703819 0 -0.41518034944709292 -0.28073432431949341 0 -0.40852481438217031 -0.2695781998703819 0 -0.41518034944709292 -0.28073432431949341 0 -0.42064743225673451 -0.2702278407134725 0 -0.41518034944709292 -0.28073432431949341 0 -0.42064743225673451 -0.2702278407134725 0 -0.42658354790697361 -0.28116722217397128 0 -0.42064743225673451 -0.2702278407134725 0 -0.43166093510393683 -0.27131218019174003 0 -0.42652802518444688 -0.26140135086804578 0 -0.42064743225673451 -0.2702278407134725 0 -0.42658354790697361 -0.28116722217397128 0 -0.43166093510393683 -0.27131218019174003 0 -0.43851500545451 -0.27951179988416902 0 -0.42658354790697361 -0.28116722217397128 0 -0.43166093510393683 -0.27131218019174003 0 -0.43819605620570917 -0.268606131421116 0 -0.43166093510393683 -0.27131218019174003 0 -0.43322617734150842 -0.26199532556149369 0 -0.43819605620570917 -0.268606131421116 0 -0.43851500545451 -0.27951179988416902 0 -0.43166093510393683 -0.27131218019174003 0 -0.43819605620570917 -0.268606131421116 0 -0.43322617734150842 -0.26199532556149369 0 -0.43722006643490269 -0.25325551897868792 0 -0.43166093510393683 -0.27131218019174003 0 -0.43322617734150842 -0.26199532556149369 0 -0.42652802518444688 -0.26140135086804578 0 -0.43322617734150842 -0.26199532556149369 0 -0.43722006643490269 -0.25325551897868792 0 -0.42791027007713273 -0.25468892597262738 0 -0.41686650467662839 -0.25697029824265533 0 -0.42791027007713273 -0.25468892597262738 0 -0.4238399105813585 -0.24518104953181019 0 -0.41686650467662839 -0.25697029824265533 0 -0.42791027007713273 -0.25468892597262738 0 -0.42652802518444688 -0.26140135086804578 0 -0.43722006643490269 -0.25325551897868792 0 -0.42791027007713273 -0.25468892597262738 0 -0.4238399105813585 -0.24518104953181019 0 -0.43322617734150842 -0.26199532556149369 0 -0.42791027007713273 -0.25468892597262738 0 -0.42652802518444688 -0.26140135086804578 0 -0.3276756922400243 -0.25574566571154062 0 -0.32023323503101819 -0.26820686197808491 0 -0.30638284853977549 -0.25853903157448832 0 -0.3276756922400243 -0.25574566571154062 0 -0.30638284853977549 -0.25853903157448832 0 -0.31824801151201237 -0.2435078566655744 0 -0.32023323503101819 -0.26820686197808491 0 -0.30638284853977549 -0.25853903157448832 0 -0.32023323503101819 -0.26820686197808491 0 -0.32360833267187261 -0.28711282480649919 0 -0.30629857954351258 -0.28405535775480878 0 -0.32023323503101819 -0.26820686197808491 0 -0.3425252691093858 -0.28376712125006581 0 -0.32360833267187261 -0.28711282480649919 0 -0.32023323503101819 -0.26820686197808491 0 -0.33895615724978162 -0.26937699028004802 0 -0.32023323503101819 -0.26820686197808491 0 -0.33895615724978162 -0.26937699028004802 0 -0.3425252691093858 -0.28376712125006581 0 -0.32023323503101819 -0.26820686197808491 0 -0.3425252691093858 -0.28376712125006581 0 -0.3276756922400243 -0.25574566571154062 0 -0.32023323503101819 -0.26820686197808491 0 -0.33895615724978162 -0.26937699028004802 0 -0.3276756922400243 -0.25574566571154062 0 -0.33895615724978162 -0.26937699028004802 0 -0.34309251613584812 -0.25911792961625429 0 -0.3276756922400243 -0.25574566571154062 0 -0.34309251613584812 -0.25911792961625429 0 -0.33717433073883762 -0.24958037198218949 0 -0.34309251613584812 -0.25911792961625429 0 -0.35166444909584671 -0.25098800909374941 0 -0.35767907946854488 -0.27054711858201103 0 -0.35166444909584671 -0.25098800909374941 0 -0.36526141905731963 -0.25189763697309769 0 -0.35767907946854488 -0.27054711858201103 0 -0.34309251613584812 -0.25911792961625429 0 -0.35166444909584671 -0.25098800909374941 0 -0.33717433073883762 -0.24958037198218949 0 -0.37624156995803631 -0.25834304319994628 0 -0.36526141905731963 -0.25189763697309769 0 -0.35767907946854488 -0.27054711858201103 0 -0.37624156995803631 -0.25834304319994628 0 -0.36526141905731963 -0.25189763697309769 0 -0.37828169065392753 -0.24627482920161439 0 -0.37532127268657378 -0.27068458485576968 0 -0.37146839695569872 -0.28117681768371172 0 -0.35767907946854488 -0.27054711858201103 0 -0.37532127268657378 -0.27068458485576968 0 -0.37624156995803631 -0.25834304319994628 0 -0.35767907946854488 -0.27054711858201103 0 -0.37146839695569872 -0.28117681768371172 0 -0.35767907946854488 -0.27054711858201103 0 -0.36011045115286727 -0.28662294552705719 0 -0.33895615724978162 -0.26937699028004802 0 -0.34309251613584812 -0.25911792961625429 0 -0.35767907946854488 -0.27054711858201103 0 -0.33895615724978162 -0.26937699028004802 0 -0.35767907946854488 -0.27054711858201103 0 -0.35767907946854488 -0.27054711858201103 0 -0.36011045115286727 -0.28662294552705719 0 -0.3425252691093858 -0.28376712125006581 0 -0.33895615724978162 -0.26937699028004802 0 -0.35767907946854488 -0.27054711858201103 0 -0.3425252691093858 -0.28376712125006581 0 -0.35045963435531241 -0.29524274481970408 0 -0.36011045115286727 -0.28662294552705719 0 -0.3425252691093858 -0.28376712125006581 0 -0.35045963435531241 -0.29524274481970408 0 -0.36011045115286727 -0.28662294552705719 0 -0.36252903138253362 -0.30100201018910511 0 -0.36011045115286727 -0.28662294552705719 0 -0.37036217913420982 -0.29142453103489302 0 -0.36252903138253362 -0.30100201018910511 0 -0.37146839695569872 -0.28117681768371172 0 -0.36011045115286727 -0.28662294552705719 0 -0.37036217913420982 -0.29142453103489302 0 -0.38113465787244849 -0.2889175038170067 0 -0.37146839695569872 -0.28117681768371172 0 -0.37036217913420982 -0.29142453103489302 0 -0.37656835830750068 -0.29940337795758448 0 -0.36252903138253362 -0.30100201018910511 0 -0.36538555352893431 -0.32728137424187709 0 -0.37656835830750068 -0.29940337795758448 0 -0.37036217913420982 -0.29142453103489302 0 -0.36252903138253362 -0.30100201018910511 0 -0.36252903138253362 -0.30100201018910511 0 -0.34946628497869259 -0.3084241425563749 0 -0.36538555352893431 -0.32728137424187709 0 -0.35045963435531241 -0.29524274481970408 0 -0.36252903138253362 -0.30100201018910511 0 -0.34946628497869259 -0.3084241425563749 0 -0.35045963435531241 -0.29524274481970408 0 -0.34946628497869259 -0.3084241425563749 0 -0.33531044956514222 -0.30068100619423921 0 -0.34946628497869259 -0.3084241425563749 0 -0.33531044956514222 -0.30068100619423921 0 -0.33268273775570062 -0.32098178791763288 0 -0.35045963435531241 -0.29524274481970408 0 -0.33531044956514222 -0.30068100619423921 0 -0.3425252691093858 -0.28376712125006581 0 -0.33531044956514222 -0.30068100619423921 0 -0.3425252691093858 -0.28376712125006581 0 -0.32360833267187261 -0.28711282480649919 0 -0.33531044956514222 -0.30068100619423921 0 -0.32360833267187261 -0.28711282480649919 0 -0.31367413011030421 -0.29885377685529751 0 -0.32360833267187261 -0.28711282480649919 0 -0.31367413011030421 -0.29885377685529751 0 -0.30629857954351258 -0.28405535775480878 0 -0.33531044956514222 -0.30068100619423921 0 -0.31367413011030421 -0.29885377685529751 0 -0.31612358893831688 -0.31616375498945248 0 -0.33970958506646642 -0.34006665683828052 0 -0.33268273775570062 -0.32098178791763288 0 -0.30734100476459469 -0.33282486595965288 0 -0.33970958506646642 -0.34006665683828052 0 -0.3253768617033827 -0.3553118147918814 0 -0.30734100476459469 -0.33282486595965288 0 -0.33531044956514222 -0.30068100619423921 0 -0.31612358893831688 -0.31616375498945248 0 -0.33268273775570062 -0.32098178791763288 0 -0.31612358893831688 -0.31616375498945248 0 -0.33268273775570062 -0.32098178791763288 0 -0.30734100476459469 -0.33282486595965288 0 -0.33970958506646642 -0.34006665683828052 0 -0.33268273775570062 -0.32098178791763288 0 -0.36538555352893431 -0.32728137424187709 0 -0.34946628497869259 -0.3084241425563749 0 -0.33268273775570062 -0.32098178791763288 0 -0.36538555352893431 -0.32728137424187709 0 -0.37656835830750068 -0.29940337795758448 0 -0.36538555352893431 -0.32728137424187709 0 -0.36538555352893431 -0.32728137424187709 0 -0.35420274875036822 -0.35515937052616953 0 -0.33970958506646642 -0.34006665683828052 0 -0.36538555352893431 -0.32728137424187709 0 -0.35420274875036822 -0.35515937052616953 0 -0.38653537676680239 -0.34918125292716629 0 -0.35420274875036822 -0.35515937052616953 0 -0.37204510756618903 -0.36673733170211342 0 -0.38653537676680239 -0.34918125292716629 0 -0.36538555352893431 -0.32728137424187709 0 -0.35420274875036822 -0.35515937052616953 0 -0.35420274875036822 -0.35515937052616953 0 -0.37204510756618903 -0.36673733170211342 0 -0.34301994397180191 -0.38303736681046202 0 -0.35420274875036822 -0.35515937052616953 0 -0.34301994397180191 -0.38303736681046202 0 -0.35420274875036822 -0.35515937052616953 0 -0.3253768617033827 -0.3553118147918814 0 -0.34301994397180191 -0.38303736681046202 0 -0.33970958506646642 -0.34006665683828052 0 -0.35420274875036822 -0.35515937052616953 0 -0.3253768617033827 -0.3553118147918814 0 -0.3253768617033827 -0.3553118147918814 0 -0.31204900453332052 -0.37024384270912031 0 -0.34301994397180191 -0.38303736681046202 0 -0.31204900453332052 -0.37024384270912031 0 -0.29659893053417608 -0.35698085071722468 0 -0.28585685630375729 -0.38113683547479649 0 -0.3253768617033827 -0.3553118147918814 0 -0.31204900453332052 -0.37024384270912031 0 -0.29659893053417608 -0.35698085071722468 0 -0.3253768617033827 -0.3553118147918814 0 -0.29659893053417608 -0.35698085071722468 0 -0.30734100476459469 -0.33282486595965288 0 -0.29659893053417608 -0.35698085071722468 0 -0.30734100476459469 -0.33282486595965288 0 -0.29659893053417608 -0.35698085071722468 0 -0.27675411974124919 -0.3488579631009856 0 -0.28431544698124528 -0.33442915193980932 0 -0.29659893053417608 -0.35698085071722468 0 -0.27662943868216638 -0.36384238840937849 0 -0.27675411974124919 -0.3488579631009856 0 -0.29659893053417608 -0.35698085071722468 0 -0.28585685630375729 -0.38113683547479649 0 -0.29659893053417608 -0.35698085071722468 0 -0.27662943868216638 -0.36384238840937849 0 -0.28585685630375729 -0.38113683547479649 0 -0.27662943868216638 -0.36384238840937849 0 -0.26623858470883432 -0.37426889416695852 0 -0.25769870212281498 -0.35796739858692722 0 -0.27662943868216638 -0.36384238840937849 0 -0.26623858470883432 -0.37426889416695852 0 -0.28585685630375729 -0.38113683547479649 0 -0.26623858470883432 -0.37426889416695852 0 -0.25769870212281498 -0.35796739858692722 0 -0.25040192324360683 -0.38401023206987173 0 -0.25769870212281498 -0.35796739858692722 0 -0.25040192324360683 -0.38401023206987173 0 -0.25769870212281498 -0.35796739858692722 0 -0.26499548100202369 -0.33192456510398283 0 -0.24504529403891351 -0.34464021838782583 0 -0.25769870212281498 -0.35796739858692722 0 -0.26499548100202369 -0.33192456510398283 0 -0.27662943868216638 -0.36384238840937849 0 -0.25769870212281498 -0.35796739858692722 0 -0.27675411974124919 -0.3488579631009856 0 -0.25769870212281498 -0.35796739858692722 0 -0.27675411974124919 -0.3488579631009856 0 -0.27156588645541502 -0.33986451367218451 0 -0.27675411974124919 -0.3488579631009856 0 -0.27156588645541502 -0.33986451367218451 0 -0.28431544698124528 -0.33442915193980932 0 -0.27156588645541502 -0.33986451367218451 0 -0.2740656824297415 -0.3261434896292168 0 -0.28431544698124528 -0.33442915193980932 0 -0.26499548100202369 -0.33192456510398283 0 -0.2740656824297415 -0.3261434896292168 0 -0.27156588645541502 -0.33986451367218451 0 -0.26499548100202369 -0.33192456510398283 0 -0.2740656824297415 -0.3261434896292168 0 -0.26499548100202369 -0.33192456510398283 0 -0.24504529403891351 -0.34464021838782583 0 -0.24876510026175269 -0.33153107173872609 0 -0.26499548100202369 -0.33192456510398283 0 -0.24504529403891351 -0.34464021838782583 0 -0.25769870212281498 -0.35796739858692722 0 -0.27156588645541502 -0.33986451367218451 0 -0.26499548100202369 -0.33192456510398283 0 -0.26499548100202369 -0.33192456510398283 0 -0.27048340336801202 -0.31233769660889699 0 -0.24876510026175269 -0.33153107173872609 0 -0.27048340336801202 -0.31233769660889699 0 -0.26733084039883692 -0.30801138743544859 0 -0.24876510026175269 -0.33153107173872609 0 -0.26733084039883692 -0.30801138743544859 0 -0.24876510026175269 -0.33153107173872609 0 -0.24746957146261719 -0.3254243120645367 0 -0.26733084039883692 -0.30801138743544859 0 -0.25137634063144387 -0.30984699885658262 0 -0.24746957146261719 -0.3254243120645367 0 -0.26733084039883692 -0.30801138743544859 0 -0.24876510026175269 -0.33153107173872609 0 -0.26499548100202369 -0.33192456510398283 0 -0.27048340336801202 -0.31233769660889699 0 -0.26499548100202369 -0.33192456510398283 0 -0.27452609456800919 -0.31793886168300611 0 -0.27048340336801202 -0.31233769660889699 0 -0.27452609456800919 -0.31793886168300611 0 -0.27048340336801202 -0.31233769660889699 0 -0.26499548100202369 -0.33192456510398283 0 -0.2740656824297415 -0.3261434896292168 0 -0.27452609456800919 -0.31793886168300611 0 -0.2740656824297415 -0.3261434896292168 0 -0.28202628111166878 -0.32210777788544209 0 -0.28431544698124528 -0.33442915193980932 0 -0.2740656824297415 -0.3261434896292168 0 -0.27452609456800919 -0.31793886168300611 0 -0.28202628111166878 -0.32210777788544209 0 -0.27452609456800919 -0.31793886168300611 0 -0.28202628111166878 -0.32210777788544209 0 -0.28380519513120339 -0.3094588418841156 0 -0.27452609456800919 -0.31793886168300611 0 -0.28380519513120339 -0.3094588418841156 0 -0.27048340336801202 -0.31233769660889699 0 -0.29213372182047231 -0.32094030461387812 0 -0.28202628111166878 -0.32210777788544209 0 -0.28380519513120339 -0.3094588418841156 0 -0.29213372182047231 -0.32094030461387812 0 -0.30157415911221452 -0.31030727654056001 0 -0.28380519513120339 -0.3094588418841156 0 -0.29213372182047231 -0.32094030461387812 0 -0.28202628111166878 -0.32210777788544209 0 -0.28431544698124528 -0.33442915193980932 0 -0.29213372182047231 -0.32094030461387812 0 -0.28431544698124528 -0.33442915193980932 0 -0.30734100476459469 -0.33282486595965288 0 -0.29659893053417608 -0.35698085071722468 0 -0.28431544698124528 -0.33442915193980932 0 -0.30734100476459469 -0.33282486595965288 0 -0.31612358893831688 -0.31616375498945248 0 -0.30734100476459469 -0.33282486595965288 0 -0.30157415911221452 -0.31030727654056001 0 -0.29213372182047231 -0.32094030461387812 0 -0.30734100476459469 -0.33282486595965288 0 -0.30157415911221452 -0.31030727654056001 0 -0.31367413011030421 -0.29885377685529751 0 -0.31612358893831688 -0.31616375498945248 0 -0.30157415911221452 -0.31030727654056001 0 -0.31367413011030421 -0.29885377685529751 0 -0.30157415911221452 -0.31030727654056001 0 -0.29789589748859119 -0.29749111038697301 0 -0.31367413011030421 -0.29885377685529751 0 -0.29789589748859119 -0.29749111038697301 0 -0.30629857954351258 -0.28405535775480878 0 -0.29789589748859119 -0.29749111038697301 0 -0.30629857954351258 -0.28405535775480878 0 -0.28354607000433862 -0.28746940643115781 0 -0.30157415911221452 -0.31030727654056001 0 -0.29789589748859119 -0.29749111038697301 0 -0.28380519513120339 -0.3094588418841156 0 -0.29789589748859119 -0.29749111038697301 0 -0.28354607000433862 -0.28746940643115781 0 -0.28380519513120339 -0.3094588418841156 0 -0.28354607000433862 -0.28746940643115781 0 -0.28380519513120339 -0.3094588418841156 0 -0.26733084039883692 -0.30801138743544859 0 -0.28354607000433862 -0.28746940643115781 0 -0.26733084039883692 -0.30801138743544859 0 -0.28380519513120339 -0.3094588418841156 0 -0.27048340336801202 -0.31233769660889699 0 -0.26733084039883692 -0.30801138743544859 0 -0.27048340336801202 -0.31233769660889699 0 -0.26733084039883692 -0.30801138743544859 0 -0.26733084039883692 -0.30801138743544859 0 -0.25137634063144387 -0.30984699885658262 0 -0.250966640413399 -0.28543328663208462 0 -0.26733084039883692 -0.30801138743544859 0 -0.250966640413399 -0.28543328663208462 0 -0.26733084039883692 -0.30801138743544859 0 -0.250966640413399 -0.28543328663208462 0 -0.26264327209695271 -0.27887679004459248 0 -0.28354607000433862 -0.28746940643115781 0 -0.26733084039883692 -0.30801138743544859 0 -0.26264327209695271 -0.27887679004459248 0 -0.28354607000433862 -0.28746940643115781 0 -0.26264327209695271 -0.27887679004459248 0 -0.27634540664857549 -0.26546400007320009 0 -0.26264327209695271 -0.27887679004459248 0 -0.27634540664857549 -0.26546400007320009 0 -0.26264327209695271 -0.27887679004459248 0 -0.25547392353826881 -0.26415959295095848 0 -0.27634540664857549 -0.26546400007320009 0 -0.26264327209695271 -0.27887679004459248 0 -0.25092156911914559 -0.27283121386408837 0 -0.25547392353826881 -0.26415959295095848 0 -0.250966640413399 -0.28543328663208462 0 -0.26264327209695271 -0.27887679004459248 0 -0.25092156911914559 -0.27283121386408837 0 -0.25547392353826881 -0.26415959295095848 0 -0.26933649939555188 -0.2507655596951005 0 -0.25148277171782979 -0.24159801242172771 0 -0.25547392353826881 -0.26415959295095848 0 -0.27634540664857549 -0.26546400007320009 0 -0.25547392353826881 -0.26415959295095848 0 -0.26933649939555188 -0.2507655596951005 0 -0.27634540664857549 -0.26546400007320009 0 -0.26933649939555188 -0.2507655596951005 0 -0.27634540664857549 -0.26546400007320009 0 -0.29297826121344139 -0.24918237737691701 0 -0.27634540664857549 -0.26546400007320009 0 -0.29976129960984088 -0.26692742542686743 0 -0.29297826121344139 -0.24918237737691701 0 -0.27634540664857549 -0.26546400007320009 0 -0.29297826121344139 -0.24918237737691701 0 -0.28354607000433862 -0.28746940643115781 0 -0.27634540664857549 -0.26546400007320009 0 -0.29976129960984088 -0.26692742542686743 0 -0.27634540664857549 -0.26546400007320009 0 -0.29976129960984088 -0.26692742542686743 0 -0.28354607000433862 -0.28746940643115781 0 -0.29976129960984088 -0.26692742542686743 0 -0.30629857954351258 -0.28405535775480878 0 -0.28354607000433862 -0.28746940643115781 0 -0.29976129960984088 -0.26692742542686743 0 -0.32023323503101819 -0.26820686197808491 0 -0.29976129960984088 -0.26692742542686743 0 -0.32023323503101819 -0.26820686197808491 0 -0.30629857954351258 -0.28405535775480878 0 -0.29976129960984088 -0.26692742542686743 0 -0.29976129960984088 -0.26692742542686743 0 -0.30638284853977549 -0.25853903157448832 0 -0.29297826121344139 -0.24918237737691701 0 -0.32023323503101819 -0.26820686197808491 0 -0.29976129960984088 -0.26692742542686743 0 -0.30638284853977549 -0.25853903157448832 0 -0.30638284853977549 -0.25853903157448832 0 -0.31824801151201237 -0.2435078566655744 0 -0.30638284853977549 -0.25853903157448832 0 -0.30487609232877261 -0.24739626858440619 0 -0.29297826121344139 -0.24918237737691701 0 -0.30638284853977549 -0.25853903157448832 0 -0.29297826121344139 -0.24918237737691701 0 -0.29976129960984088 -0.26692742542686743 0 -0.30638284853977549 -0.25853903157448832 0 -0.33967795775275539 -0.46528482429078888 0 -0.33573460983614112 -0.44941564247854948 0 -0.35029961932911491 -0.45279756603681193 0 -0.33967795775275539 -0.46528482429078888 0 -0.33573460983614112 -0.44941564247854948 0 -0.31358507975233368 -0.45846982654429141 0 -0.33573460983614112 -0.44941564247854948 0 -0.34830082858862849 -0.43939793712532038 0 -0.32726409870581152 -0.43566238451202971 0 -0.33573460983614112 -0.44941564247854948 0 -0.31358507975233368 -0.45846982654429141 0 -0.32726409870581152 -0.43566238451202971 0 -0.31358507975233368 -0.45846982654429141 0 -0.32726409870581152 -0.43566238451202971 0 -0.30735984062848543 -0.43906042424197472 0 -0.33967795775275539 -0.46528482429078888 0 -0.31358507975233368 -0.45846982654429141 0 -0.3234845229661103 -0.48099850708246772 0 -0.3234845229661103 -0.48099850708246772 0 -0.33840976348542079 -0.5 0 -0.31016860127582802 -0.5 0 -0.3234845229661103 -0.48099850708246772 0 -0.33840976348542079 -0.5 0 -0.34913228698803539 -0.48163349513119458 0 -0.33967795775275539 -0.46528482429078888 0 -0.3234845229661103 -0.48099850708246772 0 -0.34913228698803539 -0.48163349513119458 0 -0.33967795775275539 -0.46528482429078888 0 -0.34913228698803539 -0.48163349513119458 0 -0.36464438235718688 -0.46807382054763852 0 -0.33840976348542079 -0.5 0 -0.36605375182269062 -0.49338738407924509 0 -0.36665092569501379 -0.50000000000000144 0 -0.33840976348542079 -0.5 0 -0.34913228698803539 -0.48163349513119458 0 -0.36605375182269062 -0.49338738407924509 0 -0.38489906871122281 -0.48734348242394948 0 -0.36605375182269062 -0.49338738407924509 0 -0.36665092569501379 -0.50000000000000144 0 -0.34913228698803539 -0.48163349513119458 0 -0.36605375182269062 -0.49338738407924509 0 -0.36464438235718688 -0.46807382054763852 0 -0.3760718809922991 -0.47922235743067548 0 -0.36605375182269062 -0.49338738407924509 0 -0.36464438235718688 -0.46807382054763852 0 -0.36605375182269062 -0.49338738407924509 0 -0.36464438235718688 -0.46807382054763852 0 -0.38233574221766292 -0.46699696578284738 0 -0.3760718809922991 -0.47922235743067548 0 -0.36464438235718688 -0.46807382054763852 0 -0.36464438235718688 -0.46807382054763852 0 -0.36323501289168342 -0.44276025701603189 0 -0.36464438235718688 -0.46807382054763852 0 -0.35029961932911491 -0.45279756603681193 0 -0.36323501289168342 -0.44276025701603189 0 -0.33967795775275539 -0.46528482429078888 0 -0.36464438235718688 -0.46807382054763852 0 -0.35029961932911491 -0.45279756603681193 0 -0.33573460983614112 -0.44941564247854948 0 -0.34830082858862849 -0.43939793712532038 0 -0.35029961932911491 -0.45279756603681193 0 -0.34830082858862849 -0.43939793712532038 0 -0.35029961932911491 -0.45279756603681193 0 -0.36323501289168342 -0.44276025701603189 0 -0.34830082858862849 -0.43939793712532038 0 -0.36323501289168342 -0.44276025701603189 0 -0.38389367793911211 -0.44741140092821108 0 -0.36464438235718688 -0.46807382054763852 0 -0.36323501289168342 -0.44276025701603189 0 -0.38389367793911211 -0.44741140092821108 0 -0.36323501289168342 -0.44276025701603189 0 -0.38389367793911211 -0.44741140092821108 0 -0.36323501289168342 -0.44276025701603189 0 -0.37371753724979678 -0.43378941887643879 0 -0.36323501289168342 -0.44276025701603189 0 -0.36230395898908391 -0.4260376780956962 0 -0.37371753724979678 -0.43378941887643879 0 -0.36230395898908391 -0.4260376780956962 0 -0.37308328970805432 -0.41705031483028793 0 -0.36323501289168342 -0.44276025701603189 0 -0.37371753724979678 -0.43378941887643879 0 -0.36230395898908391 -0.4260376780956962 0 -0.36230395898908391 -0.4260376780956962 0 -0.37308328970805432 -0.41705031483028793 0 -0.36137290508648462 -0.40931509917536052 0 -0.36230395898908391 -0.4260376780956962 0 -0.36137290508648462 -0.40931509917536052 0 -0.37308328970805432 -0.41705031483028793 0 -0.36137290508648462 -0.40931509917536052 0 -0.37113451574155332 -0.40237864590766592 0 -0.36137290508648462 -0.40931509917536052 0 -0.34592657066438698 -0.40088608261679959 0 -0.33694982782185912 -0.4154729123913472 0 -0.36137290508648462 -0.40931509917536052 0 -0.34796101188186718 -0.42548821919549129 0 -0.33694982782185912 -0.4154729123913472 0 -0.36230395898908391 -0.4260376780956962 0 -0.36137290508648462 -0.40931509917536052 0 -0.34796101188186718 -0.42548821919549129 0 -0.34830082858862849 -0.43939793712532038 0 -0.36323501289168342 -0.44276025701603189 0 -0.36230395898908391 -0.4260376780956962 0 -0.34830082858862849 -0.43939793712532038 0 -0.36230395898908391 -0.4260376780956962 0 -0.34796101188186718 -0.42548821919549129 0 -0.37204510756618903 -0.36673733170211342 0 -0.37150123500282473 -0.38768318673502461 0 -0.34301994397180191 -0.38303736681046202 0 -0.37150123500282473 -0.38768318673502461 0 -0.37113451574155332 -0.40237864590766592 0 -0.35859103409341042 -0.39666007624906252 0 -0.36137290508648462 -0.40931509917536052 0 -0.37113451574155332 -0.40237864590766592 0 -0.35859103409341042 -0.39666007624906252 0 -0.34592657066438698 -0.40088608261679959 0 -0.35859103409341042 -0.39666007624906252 0 -0.34301994397180191 -0.38303736681046202 0 -0.36137290508648462 -0.40931509917536052 0 -0.34592657066438698 -0.40088608261679959 0 -0.35859103409341042 -0.39666007624906252 0 -0.37150123500282473 -0.38768318673502461 0 -0.35859103409341042 -0.39666007624906252 0 -0.34301994397180191 -0.38303736681046202 0 -0.34592657066438698 -0.40088608261679959 0 -0.34301994397180191 -0.38303736681046202 0 -0.32920671873071111 -0.40191343989734252 0 -0.34592657066438698 -0.40088608261679959 0 -0.32920671873071111 -0.40191343989734252 0 -0.33694982782185912 -0.4154729123913472 0 -0.34301994397180191 -0.38303736681046202 0 -0.32920671873071111 -0.40191343989734252 0 -0.313720343813994 -0.38972466079840368 0 -0.32920671873071111 -0.40191343989734252 0 -0.313720343813994 -0.38972466079840368 0 -0.31383188327575229 -0.41778732752904552 0 -0.31204900453332052 -0.37024384270912031 0 -0.34301994397180191 -0.38303736681046202 0 -0.313720343813994 -0.38972466079840368 0 -0.34796101188186718 -0.42548821919549129 0 -0.33694982782185912 -0.4154729123913472 0 -0.32726409870581152 -0.43566238451202971 0 -0.34830082858862849 -0.43939793712532038 0 -0.34796101188186718 -0.42548821919549129 0 -0.32726409870581152 -0.43566238451202971 0 -0.32920671873071111 -0.40191343989734252 0 -0.33694982782185912 -0.4154729123913472 0 -0.31383188327575229 -0.41778732752904552 0 -0.33694982782185912 -0.4154729123913472 0 -0.31383188327575229 -0.41778732752904552 0 -0.32726409870581152 -0.43566238451202971 0 -0.31383188327575229 -0.41778732752904552 0 -0.32726409870581152 -0.43566238451202971 0 -0.30735984062848543 -0.43906042424197472 0 -0.31383188327575229 -0.41778732752904552 0 -0.29314550679811441 -0.41744724027251418 0 -0.30735984062848543 -0.43906042424197472 0 -0.31383188327575229 -0.41778732752904552 0 -0.29314550679811441 -0.41744724027251418 0 -0.29650021715369129 -0.40073451098144341 0 -0.29314550679811441 -0.41744724027251418 0 -0.29650021715369129 -0.40073451098144341 0 -0.27511478207333873 -0.40529282023236818 0 -0.29314550679811441 -0.41744724027251418 0 -0.27464389254617799 -0.42451673455031552 0 -0.28645593553004828 -0.43763889627106412 0 -0.29314550679811441 -0.41744724027251418 0 -0.28645593553004828 -0.43763889627106412 0 -0.30735984062848543 -0.43906042424197472 0 -0.31204900453332052 -0.37024384270912031 0 -0.313720343813994 -0.38972466079840368 0 -0.28585685630375729 -0.38113683547479649 0 -0.313720343813994 -0.38972466079840368 0 -0.29650021715369129 -0.40073451098144341 0 -0.28585685630375729 -0.38113683547479649 0 -0.313720343813994 -0.38972466079840368 0 -0.31383188327575229 -0.41778732752904552 0 -0.29650021715369129 -0.40073451098144341 0 -0.29650021715369129 -0.40073451098144341 0 -0.28585685630375729 -0.38113683547479649 0 -0.27511478207333873 -0.40529282023236818 0 -0.26623858470883432 -0.37426889416695852 0 -0.28585685630375729 -0.38113683547479649 0 -0.26707992950458243 -0.38907048233686808 0 -0.26707992950458243 -0.38907048233686808 0 -0.27511478207333873 -0.40529282023236818 0 -0.25778750119337468 -0.40064362974034567 0 -0.28585685630375729 -0.38113683547479649 0 -0.26707992950458243 -0.38907048233686808 0 -0.27511478207333873 -0.40529282023236818 0 -0.28585685630375729 -0.38113683547479649 0 -0.27511478207333873 -0.40529282023236818 0 -0.25778750119337468 -0.40064362974034567 0 -0.25040192324360683 -0.38401023206987173 0 -0.24310514436439851 -0.41005306555281612 0 -0.26707992950458243 -0.38907048233686808 0 -0.25778750119337468 -0.40064362974034567 0 -0.25040192324360683 -0.38401023206987173 0 -0.26623858470883432 -0.37426889416695852 0 -0.26707992950458243 -0.38907048233686808 0 -0.25040192324360683 -0.38401023206987173 0 -0.27464389254617799 -0.42451673455031552 0 -0.26744301137935927 -0.44102336901526279 0 -0.28645593553004828 -0.43763889627106412 0 -0.27464389254617799 -0.42451673455031552 0 -0.26166823873097889 -0.42929777923388562 0 -0.26744301137935927 -0.44102336901526279 0 -0.29314550679811441 -0.41744724027251418 0 -0.27511478207333873 -0.40529282023236818 0 -0.27464389254617799 -0.42451673455031552 0 -0.27511478207333873 -0.40529282023236818 0 -0.27464389254617799 -0.42451673455031552 0 -0.25657773806894818 -0.41563281654541911 0 -0.27511478207333873 -0.40529282023236818 0 -0.25778750119337468 -0.40064362974034567 0 -0.25657773806894818 -0.41563281654541911 0 -0.25778750119337468 -0.40064362974034567 0 -0.25657773806894818 -0.41563281654541911 0 -0.24310514436439851 -0.41005306555281612 0 -0.25657773806894818 -0.41563281654541911 0 -0.25283385388085738 -0.42642497222592451 0 -0.2441183171264327 -0.42320957258243969 0 -0.25657773806894818 -0.41563281654541911 0 -0.25283385388085738 -0.42642497222592451 0 -0.26166823873097889 -0.42929777923388562 0 -0.27464389254617799 -0.42451673455031552 0 -0.25657773806894818 -0.41563281654541911 0 -0.26166823873097889 -0.42929777923388562 0 -0.26166823873097889 -0.42929777923388562 0 -0.25274621072981551 -0.43643523437082998 0 -0.26744301137935927 -0.44102336901526279 0 -0.25283385388085738 -0.42642497222592451 0 -0.25274621072981551 -0.43643523437082998 0 -0.24706816244508761 -0.43122536741281331 0 -0.25283385388085738 -0.42642497222592451 0 -0.26166823873097889 -0.42929777923388562 0 -0.25274621072981551 -0.43643523437082998 0 -0.25274621072981551 -0.43643523437082998 0 -0.25448898670838188 -0.44879531645786391 0 -0.24685383967320251 -0.44310520265542952 0 -0.25448898670838188 -0.44879531645786391 0 -0.26385125899463929 -0.45628551204027229 0 -0.26744301137935927 -0.44102336901526279 0 -0.25274621072981551 -0.43643523437082998 0 -0.25448898670838188 -0.44879531645786391 0 -0.26744301137935927 -0.44102336901526279 0 -0.26385125899463929 -0.45628551204027229 0 -0.2702995469715691 -0.47380511243996359 0 -0.24985909220792041 -0.46253637863549207 0 -0.25448898670838188 -0.44879531645786391 0 -0.24595033871839339 -0.45029598607061189 0 -0.24985909220792041 -0.46253637863549207 0 -0.25448898670838188 -0.44879531645786391 0 -0.26385125899463929 -0.45628551204027229 0 -0.24985909220792041 -0.46253637863549207 0 -0.26385125899463929 -0.45628551204027229 0 -0.27824655641547308 -0.45419411018260891 0 -0.2702995469715691 -0.47380511243996359 0 -0.27824655641547308 -0.45419411018260891 0 -0.29194231336195148 -0.46613746949212742 0 -0.2702995469715691 -0.47380511243996359 0 -0.27824655641547308 -0.45419411018260891 0 -0.26744301137935927 -0.44102336901526279 0 -0.28645593553004828 -0.43763889627106412 0 -0.26385125899463929 -0.45628551204027229 0 -0.27824655641547308 -0.45419411018260891 0 -0.26744301137935927 -0.44102336901526279 0 -0.29667050431175701 -0.45101873419945998 0 -0.28645593553004828 -0.43763889627106412 0 -0.30735984062848543 -0.43906042424197472 0 -0.27824655641547308 -0.45419411018260891 0 -0.29667050431175701 -0.45101873419945998 0 -0.28645593553004828 -0.43763889627106412 0 -0.27824655641547308 -0.45419411018260891 0 -0.29667050431175701 -0.45101873419945998 0 -0.29194231336195148 -0.46613746949212742 0 -0.31358507975233368 -0.45846982654429141 0 -0.29667050431175701 -0.45101873419945998 0 -0.29194231336195148 -0.46613746949212742 0 -0.31358507975233368 -0.45846982654429141 0 -0.29194231336195148 -0.46613746949212742 0 -0.31358507975233368 -0.45846982654429141 0 -0.29667050431175701 -0.45101873419945998 0 -0.30735984062848543 -0.43906042424197472 0 -0.3234845229661103 -0.48099850708246772 0 -0.31016860127582802 -0.5 0 -0.29604802017103149 -0.48576395538665612 0 -0.31358507975233368 -0.45846982654429141 0 -0.29194231336195148 -0.46613746949212742 0 -0.29604802017103149 -0.48576395538665612 0 -0.31358507975233368 -0.45846982654429141 0 -0.3234845229661103 -0.48099850708246772 0 -0.29604802017103149 -0.48576395538665612 0 -0.29194231336195148 -0.46613746949212742 0 -0.29604802017103149 -0.48576395538665612 0 -0.2702995469715691 -0.47380511243996359 0 -0.29604802017103149 -0.48576395538665612 0 -0.28192743906623519 -0.5 0 -0.2702995469715691 -0.47380511243996359 0 -0.31016860127582802 -0.5 0 -0.29604802017103149 -0.48576395538665612 0 -0.28192743906623519 -0.5 0 -0.28192743906623519 -0.5 0 -0.26315425963871047 -0.48786575563310092 0 -0.25368627685664241 -0.5 0 -0.28192743906623519 -0.5 0 -0.2702995469715691 -0.47380511243996359 0 -0.26315425963871047 -0.48786575563310092 0 -0.29194231336195148 -0.46613746949212742 0 -0.2702995469715691 -0.47380511243996359 0 -0.2702995469715691 -0.47380511243996359 0 -0.26315425963871047 -0.48786575563310092 0 -0.24865678058118659 -0.48147275538779971 0 -0.2702995469715691 -0.47380511243996359 0 -0.24865678058118659 -0.48147275538779971 0 -0.2702995469715691 -0.47380511243996359 0 -0.24865678058118659 -0.48147275538779971 0 -0.24985909220792041 -0.46253637863549207 0 -0.26315425963871047 -0.48786575563310092 0 -0.25368627685664241 -0.5 0 -0.24865678058118659 -0.48147275538779971 0 -0.25368627685664241 -0.5 0 -0.22544511464704939 -0.4999999999999995 0 -0.2268182766707795 -0.48911570410353528 0 -0.24865678058118659 -0.48147275538779971 0 -0.2268182766707795 -0.48911570410353528 0 -0.25368627685664241 -0.5 0 -0.24865678058118659 -0.48147275538779971 0 -0.2268182766707795 -0.48911570410353528 0 -0.24865678058118659 -0.48147275538779971 0 -0.22875572136311911 -0.47375865158530828 0 -0.2268182766707795 -0.48911570410353528 0 -0.24865678058118659 -0.48147275538779971 0 -0.24164925247644239 -0.47074107782607821 0 -0.24985909220792041 -0.46253637863549207 0 -0.24865678058118659 -0.48147275538779971 0 -0.24164925247644239 -0.47074107782607821 0 -0.22875572136311911 -0.47375865158530828 0 -0.24164925247644239 -0.47074107782607821 0 -0.22875572136311911 -0.47375865158530828 0 -0.23627113056335139 -0.46374970352316608 0 -0.22875572136311911 -0.47375865158530828 0 -0.2268182766707795 -0.48911570410353528 0 -0.20889459513584441 -0.48215597287654699 0 -0.22875572136311911 -0.47375865158530828 0 -0.2268182766707795 -0.48911570410353528 0 -0.22544511464704939 -0.4999999999999995 0 -0.2268182766707795 -0.48911570410353528 0 -0.20889459513584441 -0.48215597287654699 0 -0.22544511464704939 -0.4999999999999995 0 -0.2268182766707795 -0.48911570410353528 0 -0.2377691575217695 -0.44233235434718782 0 -0.2329314987290915 -0.45293211900039709 0 -0.23339219365039951 -0.43700790009464818 0 -0.23686525176162629 -0.43843740487327298 0 -0.2377691575217695 -0.44233235434718782 0 -0.23339219365039951 -0.43700790009464818 0 -0.23686525176162629 -0.43843740487327298 0 -0.2377691575217695 -0.44233235434718782 0 -0.23948069115359161 -0.43828354749174442 0 -0.23686525176162629 -0.43843740487327298 0 -0.23948069115359161 -0.43828354749174442 0 -0.23580836548519021 -0.43609589903576051 0 -0.2377691575217695 -0.44233235434718782 0 -0.24173224969787721 -0.445216656287312 0 -0.241987292716876 -0.44121550261579739 0 -0.2377691575217695 -0.44233235434718782 0 -0.241987292716876 -0.44121550261579739 0 -0.23948069115359161 -0.43828354749174442 0 -0.241987292716876 -0.44121550261579739 0 -0.23948069115359161 -0.43828354749174442 0 -0.2441005255379394 -0.43713975229731289 0 -0.25274621072981551 -0.43643523437082998 0 -0.24685383967320251 -0.44310520265542952 0 -0.2441005255379394 -0.43713975229731289 0 -0.241987292716876 -0.44121550261579739 0 -0.24685383967320251 -0.44310520265542952 0 -0.2441005255379394 -0.43713975229731289 0 -0.24173224969787721 -0.445216656287312 0 -0.241987292716876 -0.44121550261579739 0 -0.24685383967320251 -0.44310520265542952 0 -0.24173224969787721 -0.445216656287312 0 -0.24685383967320251 -0.44310520265542952 0 -0.24595033871839339 -0.45029598607061189 0 -0.25448898670838188 -0.44879531645786391 0 -0.24685383967320251 -0.44310520265542952 0 -0.24595033871839339 -0.45029598607061189 0 -0.24173224969787721 -0.445216656287312 0 -0.24595033871839339 -0.45029598607061189 0 -0.2392181310429479 -0.45078304971181149 0 -0.24595033871839339 -0.45029598607061189 0 -0.2392181310429479 -0.45078304971181149 0 -0.24146287065348329 -0.45672875073887381 0 -0.2377691575217695 -0.44233235434718782 0 -0.24173224969787721 -0.445216656287312 0 -0.2392181310429479 -0.45078304971181149 0 -0.2377691575217695 -0.44233235434718782 0 -0.2392181310429479 -0.45078304971181149 0 -0.2329314987290915 -0.45293211900039709 0 -0.23747090774721849 -0.45604840574356209 0 -0.23627113056335139 -0.46374970352316608 0 -0.2329314987290915 -0.45293211900039709 0 -0.2392181310429479 -0.45078304971181149 0 -0.23747090774721849 -0.45604840574356209 0 -0.2329314987290915 -0.45293211900039709 0 -0.23747090774721849 -0.45604840574356209 0 -0.24146287065348329 -0.45672875073887381 0 -0.23627113056335139 -0.46374970352316608 0 -0.2392181310429479 -0.45078304971181149 0 -0.23747090774721849 -0.45604840574356209 0 -0.24146287065348329 -0.45672875073887381 0 -0.24595033871839339 -0.45029598607061189 0 -0.24146287065348329 -0.45672875073887381 0 -0.24985909220792041 -0.46253637863549207 0 -0.24146287065348329 -0.45672875073887381 0 -0.24985909220792041 -0.46253637863549207 0 -0.23627113056335139 -0.46374970352316608 0 -0.24164925247644239 -0.47074107782607821 0 -0.24985909220792041 -0.46253637863549207 0 -0.23627113056335139 -0.46374970352316608 0 -0.22875572136311911 -0.47375865158530828 0 -0.23206632807918881 -0.44751730317061722 0 -0.22875572136311911 -0.47375865158530828 0 -0.23206632807918881 -0.44751730317061722 0 -0.2028613079123921 -0.45756376868831872 0 -0.22875572136311911 -0.47375865158530828 0 -0.23206632807918881 -0.44751730317061722 0 -0.2329314987290915 -0.45293211900039709 0 -0.22875572136311911 -0.47375865158530828 0 -0.23627113056335139 -0.46374970352316608 0 -0.2329314987290915 -0.45293211900039709 0 -0.2329314987290915 -0.45293211900039709 0 -0.23339219365039951 -0.43700790009464818 0 -0.23206632807918881 -0.44751730317061722 0 -0.21677489042493639 -0.43225862927956071 0 -0.23339219365039951 -0.43700790009464818 0 -0.23206632807918881 -0.44751730317061722 0 -0.2329314987290915 -0.45293211900039709 0 -0.23339219365039951 -0.43700790009464818 0 -0.23206632807918881 -0.44751730317061722 0 -0.23339219365039951 -0.43700790009464818 0 -0.23206632807918881 -0.44751730317061722 0 -0.2028613079123921 -0.45756376868831872 0 -0.21677489042493639 -0.43225862927956071 0 -0.2028613079123921 -0.45756376868831872 0 -0.19561834437122311 -0.42789333965290222 0 -0.21677489042493639 -0.43225862927956071 0 -0.2028613079123921 -0.45756376868831872 0 -0.18729420750939921 -0.47945744410910768 0 -0.172438797384598 -0.46025927108873688 0 -0.2028613079123921 -0.45756376868831872 0 -0.1834036554014071 -0.44421758234434838 0 -0.19561834437122311 -0.42789333965290222 0 -0.22544511464704939 -0.4999999999999995 0 -0.20889459513584441 -0.48215597287654699 0 -0.20011662424726229 -0.5 0 -0.22875572136311911 -0.47375865158530828 0 -0.2028613079123921 -0.45756376868831872 0 -0.20889459513584441 -0.48215597287654699 0 -0.2028613079123921 -0.45756376868831872 0 -0.20889459513584441 -0.48215597287654699 0 -0.18729420750939921 -0.47945744410910768 0 -0.20889459513584441 -0.48215597287654699 0 -0.20011662424726229 -0.5 0 -0.18729420750939921 -0.47945744410910768 0 -0.20011662424726229 -0.5 0 -0.17478813384747521 -0.5 0 -0.18729420750939921 -0.47945744410910768 0 -0.17478813384747521 -0.5 0 -0.1622185855841696 -0.48085043343593692 0 -0.18729420750939921 -0.47945744410910768 0 -0.17478813384747521 -0.5 0 -0.1622185855841696 -0.48085043343593692 0 -0.149459643447688 -0.5 0 -0.1622185855841696 -0.48085043343593692 0 -0.18729420750939921 -0.47945744410910768 0 -0.172438797384598 -0.46025927108873688 0 -0.2028613079123921 -0.45756376868831872 0 -0.172438797384598 -0.46025927108873688 0 -0.1834036554014071 -0.44421758234434838 0 -0.172438797384598 -0.46025927108873688 0 -0.1834036554014071 -0.44421758234434838 0 -0.1647488811370505 -0.43488512303540722 0 -0.172438797384598 -0.46025927108873688 0 -0.15049247263264989 -0.46077900535433353 0 -0.1647488811370505 -0.43488512303540722 0 -0.1622185855841696 -0.48085043343593692 0 -0.172438797384598 -0.46025927108873688 0 -0.15049247263264989 -0.46077900535433353 0 -0.15049247263264989 -0.46077900535433353 0 -0.13609440762946171 -0.44401334084325528 0 -0.1647488811370505 -0.43488512303540722 0 -0.15049247263264989 -0.46077900535433353 0 -0.13609440762946171 -0.44401334084325528 0 -0.12699589142704709 -0.46487534516465151 0 -0.15049247263264989 -0.46077900535433353 0 -0.12699589142704709 -0.46487534516465151 0 -0.14045827263357291 -0.47979051855801319 0 -0.12699589142704709 -0.46487534516465151 0 -0.14045827263357291 -0.47979051855801319 0 -0.12552193684441959 -0.48084453072449251 0 -0.14045827263357291 -0.47979051855801319 0 -0.12552193684441959 -0.48084453072449251 0 -0.1315987233736256 -0.48968047440794538 0 -0.14045827263357291 -0.47979051855801319 0 -0.1315987233736256 -0.48968047440794538 0 -0.149459643447688 -0.5 0 -0.12552193684441959 -0.48084453072449251 0 -0.1315987233736256 -0.48968047440794538 0 -0.11828714470863801 -0.48702508341450712 0 -0.1315987233736256 -0.48968047440794538 0 -0.149459643447688 -0.5 0 -0.1241311530479008 -0.500000000000002 0 -0.1622185855841696 -0.48085043343593692 0 -0.14045827263357291 -0.47979051855801319 0 -0.149459643447688 -0.5 0 -0.1622185855841696 -0.48085043343593692 0 -0.15049247263264989 -0.46077900535433353 0 -0.14045827263357291 -0.47979051855801319 0 -0.15236422039087649 -0.39217538851064832 0 -0.14422931401016981 -0.41809436467695199 0 -0.15236422039087649 -0.39217538851064832 0 -0.1334338734358021 -0.37654327888904449 0 -0.144887996920257 -0.36560519560912891 0 -0.15236422039087649 -0.39217538851064832 0 -0.1334338734358021 -0.37654327888904449 0 -0.15236422039087649 -0.39217538851064832 0 -0.1334338734358021 -0.37654327888904449 0 -0.1228308430551724 -0.39924578042908038 0 -0.15236422039087649 -0.39217538851064832 0 -0.14422931401016981 -0.41809436467695199 0 -0.1228308430551724 -0.39924578042908038 0 -0.14422931401016981 -0.41809436467695199 0 -0.12459350793294741 -0.4197624632777901 0 -0.1228308430551724 -0.39924578042908038 0 -0.13609440762946171 -0.44401334084325528 0 -0.14422931401016981 -0.41809436467695199 0 -0.12459350793294741 -0.4197624632777901 0 -0.13609440762946171 -0.44401334084325528 0 -0.1198921859735176 -0.43523673631311 0 -0.12459350793294741 -0.4197624632777901 0 -0.13609440762946171 -0.44401334084325528 0 -0.14422931401016981 -0.41809436467695199 0 -0.13609440762946171 -0.44401334084325528 0 -0.14422931401016981 -0.41809436467695199 0 -0.1647488811370505 -0.43488512303540722 0 -0.14422931401016981 -0.41809436467695199 0 -0.1647488811370505 -0.43488512303540722 0 -0.17399128238104961 -0.4100343640817754 0 -0.15236422039087649 -0.39217538851064832 0 -0.14422931401016981 -0.41809436467695199 0 -0.17399128238104961 -0.4100343640817754 0 -0.1834036554014071 -0.44421758234434838 0 -0.1647488811370505 -0.43488512303540722 0 -0.19561834437122311 -0.42789333965290222 0 -0.1647488811370505 -0.43488512303540722 0 -0.17399128238104961 -0.4100343640817754 0 -0.19561834437122311 -0.42789333965290222 0 -0.17399128238104961 -0.4100343640817754 0 -0.19131830064908131 -0.40104000113652333 0 -0.19561834437122311 -0.42789333965290222 0 -0.17399128238104961 -0.4100343640817754 0 -0.19561834437122311 -0.42789333965290222 0 -0.17399128238104961 -0.4100343640817754 0 -0.1773780832615405 -0.38776927740469458 0 -0.19131830064908131 -0.40104000113652333 0 -0.15236422039087649 -0.39217538851064832 0 -0.17399128238104961 -0.4100343640817754 0 -0.15236422039087649 -0.39217538851064832 0 -0.17399128238104961 -0.4100343640817754 0 -0.1773780832615405 -0.38776927740469458 0 -0.15236422039087649 -0.39217538851064832 0 -0.1773780832615405 -0.38776927740469458 0 -0.16072572416771511 -0.36553444060493578 0 -0.15236422039087649 -0.39217538851064832 0 -0.16072572416771511 -0.36553444060493578 0 -0.1773780832615405 -0.38776927740469458 0 -0.198619698747457 -0.37423050615372822 0 -0.18142904417533931 -0.36323116862206661 0 -0.1773780832615405 -0.38776927740469458 0 -0.19131830064908131 -0.40104000113652333 0 -0.198619698747457 -0.37423050615372822 0 -0.1773780832615405 -0.38776927740469458 0 -0.198619698747457 -0.37423050615372822 0 -0.19131830064908131 -0.40104000113652333 0 -0.2133961173208585 -0.40515963687944229 0 -0.198619698747457 -0.37423050615372822 0 -0.2133961173208585 -0.40515963687944229 0 -0.22167139896324739 -0.3817021592687308 0 -0.198619698747457 -0.37423050615372822 0 -0.19131830064908131 -0.40104000113652333 0 -0.2133961173208585 -0.40515963687944229 0 -0.19561834437122311 -0.42789333965290222 0 -0.2133961173208585 -0.40515963687944229 0 -0.19561834437122311 -0.42789333965290222 0 -0.21677489042493639 -0.43225862927956071 0 -0.21677489042493639 -0.43225862927956071 0 -0.23339219365039951 -0.43700790009464818 0 -0.2353769347952582 -0.42127595475592611 0 -0.2133961173208585 -0.40515963687944229 0 -0.21677489042493639 -0.43225862927956071 0 -0.2353769347952582 -0.42127595475592611 0 -0.2133961173208585 -0.40515963687944229 0 -0.2353769347952582 -0.42127595475592611 0 -0.2385997212098106 -0.39573070929989268 0 -0.2353769347952582 -0.42127595475592611 0 -0.24310514436439851 -0.41005306555281612 0 -0.2385997212098106 -0.39573070929989268 0 -0.2353769347952582 -0.42127595475592611 0 -0.2385997212098106 -0.39573070929989268 0 -0.25657773806894818 -0.41563281654541911 0 -0.24310514436439851 -0.41005306555281612 0 -0.2441183171264327 -0.42320957258243969 0 -0.24310514436439851 -0.41005306555281612 0 -0.23580836548519021 -0.43609589903576051 0 -0.23339219365039951 -0.43700790009464818 0 -0.2353769347952582 -0.42127595475592611 0 -0.2353769347952582 -0.42127595475592611 0 -0.24310514436439851 -0.41005306555281612 0 -0.23580836548519021 -0.43609589903576051 0 -0.23339219365039951 -0.43700790009464818 0 -0.2353769347952582 -0.42127595475592611 0 -0.23580836548519021 -0.43609589903576051 0 -0.24310514436439851 -0.41005306555281612 0 -0.2441183171264327 -0.42320957258243969 0 -0.23580836548519021 -0.43609589903576051 0 -0.25283385388085738 -0.42642497222592451 0 -0.2441183171264327 -0.42320957258243969 0 -0.24706816244508761 -0.43122536741281331 0 -0.2441183171264327 -0.42320957258243969 0 -0.24706816244508761 -0.43122536741281331 0 -0.2415419049503931 -0.43291730558755948 0 -0.25274621072981551 -0.43643523437082998 0 -0.24706816244508761 -0.43122536741281331 0 -0.2441005255379394 -0.43713975229731289 0 -0.24706816244508761 -0.43122536741281331 0 -0.2441005255379394 -0.43713975229731289 0 -0.2415419049503931 -0.43291730558755948 0 -0.23948069115359161 -0.43828354749174442 0 -0.2441005255379394 -0.43713975229731289 0 -0.2415419049503931 -0.43291730558755948 0 -0.2441183171264327 -0.42320957258243969 0 -0.2415419049503931 -0.43291730558755948 0 -0.23580836548519021 -0.43609589903576051 0 -0.23948069115359161 -0.43828354749174442 0 -0.2415419049503931 -0.43291730558755948 0 -0.23580836548519021 -0.43609589903576051 0 -0.23686525176162629 -0.43843740487327298 0 -0.23339219365039951 -0.43700790009464818 0 -0.23580836548519021 -0.43609589903576051 0 -0.22167139896324739 -0.3817021592687308 0 -0.2385997212098106 -0.39573070929989268 0 -0.23919426474461261 -0.37186062735317232 0 -0.2133961173208585 -0.40515963687944229 0 -0.22167139896324739 -0.3817021592687308 0 -0.2385997212098106 -0.39573070929989268 0 -0.25040192324360683 -0.38401023206987173 0 -0.24310514436439851 -0.41005306555281612 0 -0.2385997212098106 -0.39573070929989268 0 -0.25040192324360683 -0.38401023206987173 0 -0.24310514436439851 -0.41005306555281612 0 -0.2385997212098106 -0.39573070929989268 0 -0.24182250762436261 -0.37018546384385931 0 -0.25040192324360683 -0.38401023206987173 0 -0.2385997212098106 -0.39573070929989268 0 -0.24182250762436261 -0.37018546384385931 0 -0.2385997212098106 -0.39573070929989268 0 -0.23919426474461261 -0.37186062735317232 0 -0.24182250762436261 -0.37018546384385931 0 -0.2385997212098106 -0.39573070929989268 0 -0.23919426474461261 -0.37186062735317232 0 -0.25769870212281498 -0.35796739858692722 0 -0.25040192324360683 -0.38401023206987173 0 -0.24182250762436261 -0.37018546384385931 0 -0.23919426474461261 -0.37186062735317232 0 -0.24182250762436261 -0.37018546384385931 0 -0.24110292971929001 -0.34715296365179549 0 -0.23919426474461261 -0.37186062735317232 0 -0.24110292971929001 -0.34715296365179549 0 -0.22167139896324739 -0.3817021592687308 0 -0.23919426474461261 -0.37186062735317232 0 -0.21986131423337349 -0.36069173490276202 0 -0.23919426474461261 -0.37186062735317232 0 -0.21986131423337349 -0.36069173490276202 0 -0.24110292971929001 -0.34715296365179549 0 -0.21986131423337349 -0.36069173490276202 0 -0.222260390061775 -0.34459739838578363 0 -0.23157982276780331 -0.34423102430651431 0 -0.21986131423337349 -0.36069173490276202 0 -0.24110292971929001 -0.34715296365179549 0 -0.21986131423337349 -0.36069173490276202 0 -0.23157982276780331 -0.34423102430651431 0 -0.24110292971929001 -0.34715296365179549 0 -0.23157982276780331 -0.34423102430651431 0 -0.24110292971929001 -0.34715296365179549 0 -0.24157402625451441 -0.34105462008829229 0 -0.24182250762436261 -0.37018546384385931 0 -0.24504529403891351 -0.34464021838782583 0 -0.24182250762436261 -0.37018546384385931 0 -0.24110292971929001 -0.34715296365179549 0 -0.24504529403891351 -0.34464021838782583 0 -0.25769870212281498 -0.35796739858692722 0 -0.24182250762436261 -0.37018546384385931 0 -0.24504529403891351 -0.34464021838782583 0 -0.24110292971929001 -0.34715296365179549 0 -0.24157402625451441 -0.34105462008829229 0 -0.24110292971929001 -0.34715296365179549 0 -0.24504529403891351 -0.34464021838782583 0 -0.24157402625451441 -0.34105462008829229 0 -0.24110292971929001 -0.34715296365179549 0 -0.24504529403891351 -0.34464021838782583 0 -0.24504529403891351 -0.34464021838782583 0 -0.24876510026175269 -0.33153107173872609 0 -0.24746957146261719 -0.3254243120645367 0 -0.24504529403891351 -0.34464021838782583 0 -0.24746957146261719 -0.3254243120645367 0 -0.24504529403891351 -0.34464021838782583 0 -0.24247583159582589 -0.3329538060003856 0 -0.24746957146261719 -0.3254243120645367 0 -0.24504529403891351 -0.34464021838782583 0 -0.24247583159582589 -0.3329538060003856 0 -0.24157402625451441 -0.34105462008829229 0 -0.24247583159582589 -0.3329538060003856 0 -0.24746957146261719 -0.3254243120645367 0 -0.2407909923369777 -0.32626331386247259 0 -0.24247583159582589 -0.3329538060003856 0 -0.23496516986711519 -0.3296348321708939 0 -0.2407909923369777 -0.32626331386247259 0 -0.24247583159582589 -0.3329538060003856 0 -0.23496516986711519 -0.3296348321708939 0 -0.2362351534562934 -0.33650793558926878 0 -0.24247583159582589 -0.3329538060003856 0 -0.2362351534562934 -0.33650793558926878 0 -0.24157402625451441 -0.34105462008829229 0 -0.23157982276780331 -0.34423102430651431 0 -0.2362351534562934 -0.33650793558926878 0 -0.24157402625451441 -0.34105462008829229 0 -0.25137634063144387 -0.30984699885658262 0 -0.24408183128276481 -0.31647398104572322 0 -0.24746957146261719 -0.3254243120645367 0 -0.24408183128276481 -0.31647398104572322 0 -0.24746957146261719 -0.3254243120645367 0 -0.23864298899200709 -0.31988417404707697 0 -0.24746957146261719 -0.3254243120645367 0 -0.2407909923369777 -0.32626331386247259 0 -0.23864298899200709 -0.31988417404707697 0 -0.23496516986711519 -0.3296348321708939 0 -0.2407909923369777 -0.32626331386247259 0 -0.23864298899200709 -0.31988417404707697 0 -0.23496516986711519 -0.3296348321708939 0 -0.23864298899200709 -0.31988417404707697 0 -0.2304513609344136 -0.32210362010301657 0 -0.24408183128276481 -0.31647398104572322 0 -0.23864298899200709 -0.31988417404707697 0 -0.23473932850663551 -0.30999698754532229 0 -0.23864298899200709 -0.31988417404707697 0 -0.2304513609344136 -0.32210362010301657 0 -0.23473932850663551 -0.30999698754532229 0 -0.2304513609344136 -0.32210362010301657 0 -0.22319147023808569 -0.31700573471948562 0 -0.23473932850663551 -0.30999698754532229 0 -0.2304513609344136 -0.32210362010301657 0 -0.22259854919613969 -0.32496133985788228 0 -0.2281074808539634 -0.33378453426917132 0 -0.22259854919613969 -0.32496133985788228 0 -0.22319147023808569 -0.31700573471948562 0 -0.21193272177760611 -0.32127355402280761 0 -0.2304513609344136 -0.32210362010301657 0 -0.22259854919613969 -0.32496133985788228 0 -0.22319147023808569 -0.31700573471948562 0 -0.23157982276780331 -0.34423102430651431 0 -0.2362351534562934 -0.33650793558926878 0 -0.2281074808539634 -0.33378453426917132 0 -0.222260390061775 -0.34459739838578363 0 -0.23157982276780331 -0.34423102430651431 0 -0.2281074808539634 -0.33378453426917132 0 -0.23496516986711519 -0.3296348321708939 0 -0.2362351534562934 -0.33650793558926878 0 -0.2281074808539634 -0.33378453426917132 0 -0.23496516986711519 -0.3296348321708939 0 -0.2304513609344136 -0.32210362010301657 0 -0.2281074808539634 -0.33378453426917132 0 -0.22259854919613969 -0.32496133985788228 0 -0.2281074808539634 -0.33378453426917132 0 -0.21809682452295259 -0.33430327417445849 0 -0.222260390061775 -0.34459739838578363 0 -0.2281074808539634 -0.33378453426917132 0 -0.21809682452295259 -0.33430327417445849 0 -0.222260390061775 -0.34459739838578363 0 -0.21809682452295259 -0.33430327417445849 0 -0.2100740011470327 -0.34904804042676429 0 -0.20704347500694781 -0.33514409764408132 0 -0.19417729063815281 -0.34549656207349982 0 -0.2100740011470327 -0.34904804042676429 0 -0.21809682452295259 -0.33430327417445849 0 -0.20704347500694781 -0.33514409764408132 0 -0.2100740011470327 -0.34904804042676429 0 -0.21809682452295259 -0.33430327417445849 0 -0.20704347500694781 -0.33514409764408132 0 -0.21193272177760611 -0.32127355402280761 0 -0.20704347500694781 -0.33514409764408132 0 -0.21193272177760611 -0.32127355402280761 0 -0.19769349574915279 -0.32868382876163432 0 -0.21193272177760611 -0.32127355402280761 0 -0.1988123267717857 -0.31252649911079161 0 -0.2162353907756337 -0.30669317206839902 0 -0.22319147023808569 -0.31700573471948562 0 -0.21193272177760611 -0.32127355402280761 0 -0.2162353907756337 -0.30669317206839902 0 -0.22259854919613969 -0.32496133985788228 0 -0.21809682452295259 -0.33430327417445849 0 -0.21193272177760611 -0.32127355402280761 0 -0.21193272177760611 -0.32127355402280761 0 -0.1988123267717857 -0.31252649911079161 0 -0.19769349574915279 -0.32868382876163432 0 -0.1988123267717857 -0.31252649911079161 0 -0.17968086839841149 -0.30841560249560079 0 -0.18448932326724049 -0.32660721086944677 0 -0.1988123267717857 -0.31252649911079161 0 -0.19769349574915279 -0.32868382876163432 0 -0.18448932326724049 -0.32660721086944677 0 -0.20704347500694781 -0.33514409764408132 0 -0.19769349574915279 -0.32868382876163432 0 -0.19417729063815281 -0.34549656207349982 0 -0.19769349574915279 -0.32868382876163432 0 -0.19417729063815281 -0.34549656207349982 0 -0.18448932326724049 -0.32660721086944677 0 -0.19417729063815281 -0.34549656207349982 0 -0.198619698747457 -0.37423050615372822 0 -0.2100740011470327 -0.34904804042676429 0 -0.19417729063815281 -0.34549656207349982 0 -0.198619698747457 -0.37423050615372822 0 -0.18142904417533931 -0.36323116862206661 0 -0.21986131423337349 -0.36069173490276202 0 -0.198619698747457 -0.37423050615372822 0 -0.2100740011470327 -0.34904804042676429 0 -0.22167139896324739 -0.3817021592687308 0 -0.21986131423337349 -0.36069173490276202 0 -0.198619698747457 -0.37423050615372822 0 -0.21986131423337349 -0.36069173490276202 0 -0.198619698747457 -0.37423050615372822 0 -0.21986131423337349 -0.36069173490276202 0 -0.222260390061775 -0.34459739838578363 0 -0.2100740011470327 -0.34904804042676429 0 -0.23947274780980549 -0.2502998433609695 0 -0.23460244042796191 -0.26285518582871992 0 -0.2233215099851274 -0.2472906006415074 0 -0.22672225437112761 -0.26236269706963983 0 -0.21525040168121001 -0.26050484560057569 0 -0.2233215099851274 -0.2472906006415074 0 -0.22672225437112761 -0.26236269706963983 0 -0.22133308462530679 -0.27047831337123762 0 -0.21525040168121001 -0.26050484560057569 0 -0.22672225437112761 -0.26236269706963983 0 -0.23460244042796191 -0.26285518582871992 0 -0.22133308462530679 -0.27047831337123762 0 -0.22672225437112761 -0.26236269706963983 0 -0.23460244042796191 -0.26285518582871992 0 -0.22672225437112761 -0.26236269706963983 0 -0.23460244042796191 -0.26285518582871992 0 -0.2233215099851274 -0.2472906006415074 0 -0.23460244042796191 -0.26285518582871992 0 -0.2233215099851274 -0.2472906006415074 0 -0.25547392353826881 -0.26415959295095848 0 -0.23947274780980549 -0.2502998433609695 0 -0.25148277171782979 -0.24159801242172771 0 -0.25547392353826881 -0.26415959295095848 0 -0.23947274780980549 -0.2502998433609695 0 -0.23460244042796191 -0.26285518582871992 0 -0.25547392353826881 -0.26415959295095848 0 -0.23460244042796191 -0.26285518582871992 0 -0.250966640413399 -0.28543328663208462 0 -0.23460244042796191 -0.26285518582871992 0 -0.22940819998367579 -0.28267623191535529 0 -0.250966640413399 -0.28543328663208462 0 -0.25092156911914559 -0.27283121386408837 0 -0.23460244042796191 -0.26285518582871992 0 -0.25092156911914559 -0.27283121386408837 0 -0.25547392353826881 -0.26415959295095848 0 -0.23460244042796191 -0.26285518582871992 0 -0.250966640413399 -0.28543328663208462 0 -0.23460244042796191 -0.26285518582871992 0 -0.23460244042796191 -0.26285518582871992 0 -0.22133308462530679 -0.27047831337123762 0 -0.22940819998367579 -0.28267623191535529 0 -0.22133308462530679 -0.27047831337123762 0 -0.22940819998367579 -0.28267623191535529 0 -0.21358657120927879 -0.2792464540904136 0 -0.22940819998367579 -0.28267623191535529 0 -0.22062700767616111 -0.294260984872595 0 -0.21358657120927879 -0.2792464540904136 0 -0.22940819998367579 -0.28267623191535529 0 -0.22062700767616111 -0.294260984872595 0 -0.23635980210239529 -0.2957889353959775 0 -0.250966640413399 -0.28543328663208462 0 -0.22940819998367579 -0.28267623191535529 0 -0.23635980210239529 -0.2957889353959775 0 -0.25137634063144387 -0.30984699885658262 0 -0.24408183128276481 -0.31647398104572322 0 -0.23473932850663551 -0.30999698754532229 0 -0.25137634063144387 -0.30984699885658262 0 -0.250966640413399 -0.28543328663208462 0 -0.23635980210239529 -0.2957889353959775 0 -0.25137634063144387 -0.30984699885658262 0 -0.23635980210239529 -0.2957889353959775 0 -0.23473932850663551 -0.30999698754532229 0 -0.22062700767616111 -0.294260984872595 0 -0.23473932850663551 -0.30999698754532229 0 -0.2162353907756337 -0.30669317206839902 0 -0.22319147023808569 -0.31700573471948562 0 -0.23473932850663551 -0.30999698754532229 0 -0.2162353907756337 -0.30669317206839902 0 -0.22062700767616111 -0.294260984872595 0 -0.23635980210239529 -0.2957889353959775 0 -0.23473932850663551 -0.30999698754532229 0 -0.1988123267717857 -0.31252649911079161 0 -0.2162353907756337 -0.30669317206839902 0 -0.20639135945045059 -0.29842859514270559 0 -0.22062700767616111 -0.294260984872595 0 -0.2162353907756337 -0.30669317206839902 0 -0.20639135945045059 -0.29842859514270559 0 -0.1988123267717857 -0.31252649911079161 0 -0.19364453438851029 -0.29956730785622931 0 -0.17968086839841149 -0.30841560249560079 0 -0.1988123267717857 -0.31252649911079161 0 -0.20639135945045059 -0.29842859514270559 0 -0.19364453438851029 -0.29956730785622931 0 -0.20639135945045059 -0.29842859514270559 0 -0.19364453438851029 -0.29956730785622931 0 -0.19808305523384501 -0.28982784191227712 0 -0.19364453438851029 -0.29956730785622931 0 -0.19808305523384501 -0.28982784191227712 0 -0.18356153523326749 -0.28935081687544989 0 -0.19808305523384501 -0.28982784191227712 0 -0.19740440172392501 -0.276836426208243 0 -0.18356153523326749 -0.28935081687544989 0 -0.19808305523384501 -0.28982784191227712 0 -0.2079239936273049 -0.28757398146158808 0 -0.19740440172392501 -0.276836426208243 0 -0.20639135945045059 -0.29842859514270559 0 -0.19808305523384501 -0.28982784191227712 0 -0.2079239936273049 -0.28757398146158808 0 -0.22062700767616111 -0.294260984872595 0 -0.20639135945045059 -0.29842859514270559 0 -0.2079239936273049 -0.28757398146158808 0 -0.22062700767616111 -0.294260984872595 0 -0.2079239936273049 -0.28757398146158808 0 -0.21358657120927879 -0.2792464540904136 0 -0.2079239936273049 -0.28757398146158808 0 -0.21358657120927879 -0.2792464540904136 0 -0.19740440172392501 -0.276836426208243 0 -0.21358657120927879 -0.2792464540904136 0 -0.2096038913826368 -0.26908715889727142 0 -0.19740440172392501 -0.276836426208243 0 -0.22133308462530679 -0.27047831337123762 0 -0.2096038913826368 -0.26908715889727142 0 -0.21525040168121001 -0.26050484560057569 0 -0.22133308462530679 -0.27047831337123762 0 -0.21358657120927879 -0.2792464540904136 0 -0.2096038913826368 -0.26908715889727142 0 -0.19740440172392501 -0.276836426208243 0 -0.1904884651930141 -0.26423747204658449 0 -0.18100993852688221 -0.2722413906513117 0 -0.19740440172392501 -0.276836426208243 0 -0.2022930488334328 -0.26257359252136148 0 -0.1904884651930141 -0.26423747204658449 0 -0.2096038913826368 -0.26908715889727142 0 -0.19740440172392501 -0.276836426208243 0 -0.2022930488334328 -0.26257359252136148 0 -0.2022930488334328 -0.26257359252136148 0 -0.1904884651930141 -0.26423747204658449 0 -0.1939028928760779 -0.25325992034109568 0 -0.1904884651930141 -0.26423747204658449 0 -0.1939028928760779 -0.25325992034109568 0 -0.1805807412056244 -0.25767355112630708 0 -0.2022930488334328 -0.26257359252136148 0 -0.1939028928760779 -0.25325992034109568 0 -0.20710824014373291 -0.25151573203439931 0 -0.20710824014373291 -0.25151573203439931 0 -0.21525040168121001 -0.26050484560057569 0 -0.2233215099851274 -0.2472906006415074 0 -0.2096038913826368 -0.26908715889727142 0 -0.2022930488334328 -0.26257359252136148 0 -0.21525040168121001 -0.26050484560057569 0 -0.2022930488334328 -0.26257359252136148 0 -0.20710824014373291 -0.25151573203439931 0 -0.21525040168121001 -0.26050484560057569 0 -0.15689984089413189 -0.25316596460772289 0 -0.16669956537284211 -0.26265244525303499 0 -0.16864149433942541 -0.24656352656142641 0 -0.15689984089413189 -0.25316596460772289 0 -0.16669956537284211 -0.26265244525303499 0 -0.15087169973249051 -0.26890582186503093 0 -0.16669956537284211 -0.26265244525303499 0 -0.1805807412056244 -0.25767355112630708 0 -0.16864149433942541 -0.24656352656142641 0 -0.1939028928760779 -0.25325992034109568 0 -0.1805807412056244 -0.25767355112630708 0 -0.1841977928877005 -0.24367028403844149 0 -0.1904884651930141 -0.26423747204658449 0 -0.1805807412056244 -0.25767355112630708 0 -0.18100993852688221 -0.2722413906513117 0 -0.16669956537284211 -0.26265244525303499 0 -0.1805807412056244 -0.25767355112630708 0 -0.18100993852688221 -0.2722413906513117 0 -0.19740440172392501 -0.276836426208243 0 -0.18100993852688221 -0.2722413906513117 0 -0.18356153523326749 -0.28935081687544989 0 -0.18100993852688221 -0.2722413906513117 0 -0.16753875398366899 -0.27968475428593981 0 -0.18356153523326749 -0.28935081687544989 0 -0.16669956537284211 -0.26265244525303499 0 -0.16753875398366899 -0.27968475428593981 0 -0.15087169973249051 -0.26890582186503093 0 -0.16669956537284211 -0.26265244525303499 0 -0.18100993852688221 -0.2722413906513117 0 -0.16753875398366899 -0.27968475428593981 0 -0.16753875398366899 -0.27968475428593981 0 -0.1531552348425588 -0.287401246066809 0 -0.15087169973249051 -0.26890582186503093 0 -0.16753875398366899 -0.27968475428593981 0 -0.16888374398121281 -0.29447776918189528 0 -0.1531552348425588 -0.287401246066809 0 -0.16888374398121281 -0.29447776918189528 0 -0.1604823274481573 -0.30753642618567728 0 -0.1531552348425588 -0.287401246066809 0 -0.16753875398366899 -0.27968475428593981 0 -0.16888374398121281 -0.29447776918189528 0 -0.18356153523326749 -0.28935081687544989 0 -0.16888374398121281 -0.29447776918189528 0 -0.18356153523326749 -0.28935081687544989 0 -0.17968086839841149 -0.30841560249560079 0 -0.19364453438851029 -0.29956730785622931 0 -0.18356153523326749 -0.28935081687544989 0 -0.17968086839841149 -0.30841560249560079 0 -0.16888374398121281 -0.29447776918189528 0 -0.17968086839841149 -0.30841560249560079 0 -0.1604823274481573 -0.30753642618567728 0 -0.1604823274481573 -0.30753642618567728 0 -0.13903561172501711 -0.30523382521272591 0 -0.1520377829201067 -0.31886628011962442 0 -0.1604823274481573 -0.30753642618567728 0 -0.13903561172501711 -0.30523382521272591 0 -0.1531552348425588 -0.287401246066809 0 -0.13903561172501711 -0.30523382521272591 0 -0.13578708782692811 -0.28606987208717111 0 -0.12355457708442399 -0.30248809521300002 0 -0.13903561172501711 -0.30523382521272591 0 -0.1249159886074754 -0.32306640435864281 0 -0.12355457708442399 -0.30248809521300002 0 -0.13578708782692811 -0.28606987208717111 0 -0.1171551619854032 -0.28561764553386237 0 -0.12355457708442399 -0.30248809521300002 0 -0.13903561172501711 -0.30523382521272591 0 -0.13578708782692811 -0.28606987208717111 0 -0.1531552348425588 -0.287401246066809 0 -0.13903561172501711 -0.30523382521272591 0 -0.1531552348425588 -0.287401246066809 0 -0.13578708782692811 -0.28606987208717111 0 -0.1531552348425588 -0.287401246066809 0 -0.15087169973249051 -0.26890582186503093 0 -0.13578708782692811 -0.28606987208717111 0 -0.15087169973249051 -0.26890582186503093 0 -0.13057637840386721 -0.26758261397687638 0 -0.13578708782692811 -0.28606987208717111 0 -0.13057637840386721 -0.26758261397687638 0 -0.1171551619854032 -0.28561764553386237 0 -0.13057637840386721 -0.26758261397687638 0 -0.14279930361840851 -0.25207096314737348 0 -0.12625787262167751 -0.24857588056421709 0 -0.15689984089413189 -0.25316596460772289 0 -0.15087169973249051 -0.26890582186503093 0 -0.14279930361840851 -0.25207096314737348 0 -0.15087169973249051 -0.26890582186503093 0 -0.13057637840386721 -0.26758261397687638 0 -0.14279930361840851 -0.25207096314737348 0 -0.16072572416771511 -0.36553444060493578 0 -0.17624442406183111 -0.34312505687347461 0 -0.1577911741011577 -0.34258176559888259 0 -0.1773780832615405 -0.38776927740469458 0 -0.16072572416771511 -0.36553444060493578 0 -0.18142904417533931 -0.36323116862206661 0 -0.19417729063815281 -0.34549656207349982 0 -0.18142904417533931 -0.36323116862206661 0 -0.17624442406183111 -0.34312505687347461 0 -0.16072572416771511 -0.36553444060493578 0 -0.18142904417533931 -0.36323116862206661 0 -0.17624442406183111 -0.34312505687347461 0 -0.19417729063815281 -0.34549656207349982 0 -0.17624442406183111 -0.34312505687347461 0 -0.18448932326724049 -0.32660721086944677 0 -0.17624442406183111 -0.34312505687347461 0 -0.18448932326724049 -0.32660721086944677 0 -0.1663389059218876 -0.3264533248049265 0 -0.17968086839841149 -0.30841560249560079 0 -0.18448932326724049 -0.32660721086944677 0 -0.1663389059218876 -0.3264533248049265 0 -0.1604823274481573 -0.30753642618567728 0 -0.1663389059218876 -0.3264533248049265 0 -0.1520377829201067 -0.31886628011962442 0 -0.17968086839841149 -0.30841560249560079 0 -0.1604823274481573 -0.30753642618567728 0 -0.1663389059218876 -0.3264533248049265 0 -0.1663389059218876 -0.3264533248049265 0 -0.1577911741011577 -0.34258176559888259 0 -0.1487731368616356 -0.33128799138096282 0 -0.17624442406183111 -0.34312505687347461 0 -0.1663389059218876 -0.3264533248049265 0 -0.1577911741011577 -0.34258176559888259 0 -0.1487731368616356 -0.33128799138096282 0 -0.13610097300189269 -0.33258060998249722 0 -0.1412042137018493 -0.3502016780941169 0 -0.1577911741011577 -0.34258176559888259 0 -0.1487731368616356 -0.33128799138096282 0 -0.1412042137018493 -0.3502016780941169 0 -0.1487731368616356 -0.33128799138096282 0 -0.14013691126985681 -0.32123688619307889 0 -0.13610097300189269 -0.33258060998249722 0 -0.1663389059218876 -0.3264533248049265 0 -0.1487731368616356 -0.33128799138096282 0 -0.1520377829201067 -0.31886628011962442 0 -0.13903561172501711 -0.30523382521272591 0 -0.1520377829201067 -0.31886628011962442 0 -0.14013691126985681 -0.32123688619307889 0 -0.1487731368616356 -0.33128799138096282 0 -0.1520377829201067 -0.31886628011962442 0 -0.14013691126985681 -0.32123688619307889 0 -0.13903561172501711 -0.30523382521272591 0 -0.14013691126985681 -0.32123688619307889 0 -0.1249159886074754 -0.32306640435864281 0 -0.13903561172501711 -0.30523382521272591 0 -0.1249159886074754 -0.32306640435864281 0 -0.14013691126985681 -0.32123688619307889 0 -0.13610097300189269 -0.33258060998249722 0 -0.1249159886074754 -0.32306640435864281 0 -0.1269195882955631 -0.34018116663540188 0 -0.13610097300189269 -0.33258060998249722 0 -0.1412042137018493 -0.3502016780941169 0 -0.1269195882955631 -0.34018116663540188 0 -0.13610097300189269 -0.33258060998249722 0 -0.1249159886074754 -0.32306640435864281 0 -0.1269195882955631 -0.34018116663540188 0 -0.1412042137018493 -0.3502016780941169 0 -0.12381757738367349 -0.3565711504051996 0 -0.1412042137018493 -0.3502016780941169 0 -0.12381757738367349 -0.3565711504051996 0 -0.1412042137018493 -0.3502016780941169 0 -0.144887996920257 -0.36560519560912891 0 -0.12381757738367349 -0.3565711504051996 0 -0.16072572416771511 -0.36553444060493578 0 -0.1577911741011577 -0.34258176559888259 0 -0.1412042137018493 -0.3502016780941169 0 -0.15236422039087649 -0.39217538851064832 0 -0.16072572416771511 -0.36553444060493578 0 -0.144887996920257 -0.36560519560912891 0 -0.16072572416771511 -0.36553444060493578 0 -0.1412042137018493 -0.3502016780941169 0 -0.144887996920257 -0.36560519560912891 0 -0.1334338734358021 -0.37654327888904449 0 -0.144887996920257 -0.36560519560912891 0 -0.12381757738367349 -0.3565711504051996 0 -0.1064309410654978 -0.36294062271628258 0 -0.12381757738367349 -0.3565711504051996 0 -0.1334338734358021 -0.37654327888904449 0 -0.12381757738367349 -0.3565711504051996 0 -0.11664136411419609 -0.37627507301885033 0 -0.1064309410654978 -0.36294062271628258 0 -0.12381757738367349 -0.3565711504051996 0 -0.11664136411419609 -0.37627507301885033 0 -0.1064309410654978 -0.36294062271628258 0 -0.087077666250644462 -0.3700305592517994 0 -0.1021192114292966 -0.38471114942328782 0 -0.1064309410654978 -0.36294062271628258 0 -0.11664136411419609 -0.37627507301885033 0 -0.1021192114292966 -0.38471114942328782 0 -0.1064309410654978 -0.36294062271628258 0 -0.087077666250644462 -0.3700305592517994 0 -0.1064309410654978 -0.36294062271628258 0 -0.1021192114292966 -0.38471114942328782 0 -0.1064309410654978 -0.36294062271628258 0 -0.087077666250644462 -0.3700305592517994 0 -0.09018703957780147 -0.35711451909852671 0 -0.1064309410654978 -0.36294062271628258 0 -0.1020922797894101 -0.35189193252701589 0 -0.09018703957780147 -0.35711451909852671 0 -0.1064309410654978 -0.36294062271628258 0 -0.1107963654899347 -0.34089898350456033 0 -0.1064309410654978 -0.36294062271628258 0 -0.1020922797894101 -0.35189193252701589 0 -0.1107963654899347 -0.34089898350456033 0 -0.1020922797894101 -0.35189193252701589 0 -0.1107963654899347 -0.34089898350456033 0 -0.091770137445444752 -0.34230613633396001 0 -0.1020922797894101 -0.35189193252701589 0 -0.091770137445444752 -0.34230613633396001 0 -0.09018703957780147 -0.35711451909852671 0 -0.1020922797894101 -0.35189193252701589 0 -0.1107963654899347 -0.34089898350456033 0 -0.1064309410654978 -0.36294062271628258 0 -0.12381757738367349 -0.3565711504051996 0 -0.1107963654899347 -0.34089898350456033 0 -0.1269195882955631 -0.34018116663540188 0 -0.12381757738367349 -0.3565711504051996 0 -0.1107963654899347 -0.34089898350456033 0 -0.1107963654899347 -0.34089898350456033 0 -0.1249159886074754 -0.32306640435864281 0 -0.1269195882955631 -0.34018116663540188 0 -0.1107963654899347 -0.34089898350456033 0 -0.1249159886074754 -0.32306640435864281 0 -0.1107963654899347 -0.34089898350456033 0 -0.1159300494892349 -0.31497829411956219 0 -0.1249159886074754 -0.32306640435864281 0 -0.1159300494892349 -0.31497829411956219 0 -0.12355457708442399 -0.30248809521300002 0 -0.1107963654899347 -0.34089898350456033 0 -0.1249159886074754 -0.32306640435864281 0 -0.1159300494892349 -0.31497829411956219 0 -0.1107963654899347 -0.34089898350456033 0 -0.1159300494892349 -0.31497829411956219 0 -0.10009112481690099 -0.32571502660392199 0 -0.1159300494892349 -0.31497829411956219 0 -0.10009112481690099 -0.32571502660392199 0 -0.1016521246149429 -0.31215649056946848 0 -0.10009112481690099 -0.32571502660392199 0 -0.089280526879479766 -0.31688783200512177 0 -0.1016521246149429 -0.31215649056946848 0 -0.1107963654899347 -0.34089898350456033 0 -0.10009112481690099 -0.32571502660392199 0 -0.091770137445444752 -0.34230613633396001 0 -0.10009112481690099 -0.32571502660392199 0 -0.091770137445444752 -0.34230613633396001 0 -0.083786494111586798 -0.32845526008587989 0 -0.091770137445444752 -0.34230613633396001 0 -0.083786494111586798 -0.32845526008587989 0 -0.076363527071745152 -0.33974206207224378 0 -0.083786494111586798 -0.32845526008587989 0 -0.089280526879479766 -0.31688783200512177 0 -0.073508571437254144 -0.31582901303757199 0 -0.10009112481690099 -0.32571502660392199 0 -0.083786494111586798 -0.32845526008587989 0 -0.089280526879479766 -0.31688783200512177 0 -0.073508571437254144 -0.31582901303757199 0 -0.059701835578854272 -0.30241307960345892 0 -0.059279103357959481 -0.32548925444399213 0 -0.083786494111586798 -0.32845526008587989 0 -0.073508571437254144 -0.31582901303757199 0 -0.070545340856925126 -0.32973788202308679 0 -0.073508571437254144 -0.31582901303757199 0 -0.070545340856925126 -0.32973788202308679 0 -0.059279103357959481 -0.32548925444399213 0 -0.076363527071745152 -0.33974206207224378 0 -0.070545340856925126 -0.32973788202308679 0 -0.065877810654129496 -0.3374414253183573 0 -0.083786494111586798 -0.32845526008587989 0 -0.076363527071745152 -0.33974206207224378 0 -0.070545340856925126 -0.32973788202308679 0 -0.070545340856925126 -0.32973788202308679 0 -0.065877810654129496 -0.3374414253183573 0 -0.059279103357959481 -0.32548925444399213 0 -0.076363527071745152 -0.33974206207224378 0 -0.065877810654129496 -0.3374414253183573 0 -0.068160994758053983 -0.34728071083817069 0 -0.065877810654129496 -0.3374414253183573 0 -0.068160994758053983 -0.34728071083817069 0 -0.056745716173714343 -0.34083167850601198 0 -0.068160994758053983 -0.34728071083817069 0 -0.071241312783554847 -0.35602304920052191 0 -0.078893199078206133 -0.35116818847986808 0 -0.076363527071745152 -0.33974206207224378 0 -0.068160994758053983 -0.34728071083817069 0 -0.078893199078206133 -0.35116818847986808 0 -0.071241312783554847 -0.35602304920052191 0 -0.074858013837605694 -0.36434967528223439 0 -0.078893199078206133 -0.35116818847986808 0 -0.068160994758053983 -0.34728071083817069 0 -0.071241312783554847 -0.35602304920052191 0 -0.062235053804753207 -0.35897608714666518 0 -0.071241312783554847 -0.35602304920052191 0 -0.074858013837605694 -0.36434967528223439 0 -0.062235053804753207 -0.35897608714666518 0 -0.062235053804753207 -0.35897608714666518 0 -0.067724391435791953 -0.37712049578731838 0 -0.074858013837605694 -0.36434967528223439 0 -0.087077666250644462 -0.3700305592517994 0 -0.067724391435791953 -0.37712049578731838 0 -0.064474016836259418 -0.37001966666074843 0 -0.062235053804753207 -0.35897608714666518 0 -0.067724391435791953 -0.37712049578731838 0 -0.074858013837605694 -0.36434967528223439 0 -0.062235053804753207 -0.35897608714666518 0 -0.067724391435791953 -0.37712049578731838 0 -0.087077666250644462 -0.3700305592517994 0 -0.067724391435791953 -0.37712049578731838 0 -0.064474016836259418 -0.37001966666074843 0 -0.061284852456821012 -0.37501727224919867 0 -0.067724391435791953 -0.37712049578731838 0 -0.074858013837605694 -0.36434967528223439 0 -0.087077666250644462 -0.3700305592517994 0 -0.09018703957780147 -0.35711451909852671 0 -0.091770137445444752 -0.34230613633396001 0 -0.09018703957780147 -0.35711451909852671 0 -0.078893199078206133 -0.35116818847986808 0 -0.091770137445444752 -0.34230613633396001 0 -0.076363527071745152 -0.33974206207224378 0 -0.078893199078206133 -0.35116818847986808 0 -0.074858013837605694 -0.36434967528223439 0 -0.09018703957780147 -0.35711451909852671 0 -0.078893199078206133 -0.35116818847986808 0 -0.094946037917177178 -0.2551538201494396 0 -0.1107787228459442 -0.25693159300128138 0 -0.1031787725466837 -0.24781936080057809 0 -0.094946037917177178 -0.2551538201494396 0 -0.1107787228459442 -0.25693159300128138 0 -0.1008240298057434 -0.27419607324864032 0 -0.13057637840386721 -0.26758261397687638 0 -0.1107787228459442 -0.25693159300128138 0 -0.12625787262167751 -0.24857588056421709 0 -0.13057637840386721 -0.26758261397687638 0 -0.1107787228459442 -0.25693159300128138 0 -0.11544344240990891 -0.27094641752765097 0 -0.11544344240990891 -0.27094641752765097 0 -0.1008240298057434 -0.27419607324864032 0 -0.1171551619854032 -0.28561764553386237 0 -0.13057637840386721 -0.26758261397687638 0 -0.11544344240990891 -0.27094641752765097 0 -0.1171551619854032 -0.28561764553386237 0 -0.1107787228459442 -0.25693159300128138 0 -0.11544344240990891 -0.27094641752765097 0 -0.1008240298057434 -0.27419607324864032 0 -0.1008240298057434 -0.27419607324864032 0 -0.097919439334742606 -0.28908941550064732 0 -0.1171551619854032 -0.28561764553386237 0 -0.097919439334742606 -0.28908941550064732 0 -0.1171551619854032 -0.28561764553386237 0 -0.1085035628724854 -0.29996252996603628 0 -0.1171551619854032 -0.28561764553386237 0 -0.12355457708442399 -0.30248809521300002 0 -0.1085035628724854 -0.29996252996603628 0 -0.1159300494892349 -0.31497829411956219 0 -0.12355457708442399 -0.30248809521300002 0 -0.1085035628724854 -0.29996252996603628 0 -0.1159300494892349 -0.31497829411956219 0 -0.1016521246149429 -0.31215649056946848 0 -0.1085035628724854 -0.29996252996603628 0 -0.1016521246149429 -0.31215649056946848 0 -0.1085035628724854 -0.29996252996603628 0 -0.08736431941671409 -0.30228336972876629 0 -0.097919439334742606 -0.28908941550064732 0 -0.1085035628724854 -0.29996252996603628 0 -0.08736431941671409 -0.30228336972876629 0 -0.089280526879479766 -0.31688783200512177 0 -0.073508571437254144 -0.31582901303757199 0 -0.08736431941671409 -0.30228336972876629 0 -0.089280526879479766 -0.31688783200512177 0 -0.1016521246149429 -0.31215649056946848 0 -0.08736431941671409 -0.30228336972876629 0 -0.073508571437254144 -0.31582901303757199 0 -0.08736431941671409 -0.30228336972876629 0 -0.059701835578854272 -0.30241307960345892 0 -0.08736431941671409 -0.30228336972876629 0 -0.079060539262970339 -0.27976610050158102 0 -0.059701835578854272 -0.30241307960345892 0 -0.079060539262970339 -0.27976610050158102 0 -0.059752785293264311 -0.27943341844019032 0 -0.059701835578854272 -0.30241307960345892 0 -0.079060539262970339 -0.27976610050158102 0 -0.059701835578854272 -0.30241307960345892 0 -0.097919439334742606 -0.28908941550064732 0 -0.08736431941671409 -0.30228336972876629 0 -0.079060539262970339 -0.27976610050158102 0 -0.1008240298057434 -0.27419607324864032 0 -0.084662956540546022 -0.26640723389498921 0 -0.079060539262970339 -0.27976610050158102 0 -0.1008240298057434 -0.27419607324864032 0 -0.097919439334742606 -0.28908941550064732 0 -0.079060539262970339 -0.27976610050158102 0 -0.079060539262970339 -0.27976610050158102 0 -0.069466966582301851 -0.26743954970420231 0 -0.059752785293264311 -0.27943341844019032 0 -0.084662956540546022 -0.26640723389498921 0 -0.079060539262970339 -0.27976610050158102 0 -0.069466966582301851 -0.26743954970420231 0 -0.084662956540546022 -0.26640723389498921 0 -0.069466966582301851 -0.26743954970420231 0 -0.079017209134537386 -0.25548062587108289 0 -0.069466966582301851 -0.26743954970420231 0 -0.079017209134537386 -0.25548062587108289 0 -0.060761307663788282 -0.25505752619510558 0 -0.094946037917177178 -0.2551538201494396 0 -0.1008240298057434 -0.27419607324864032 0 -0.084662956540546022 -0.26640723389498921 0 -0.094946037917177178 -0.2551538201494396 0 -0.084662956540546022 -0.26640723389498921 0 -0.079017209134537386 -0.25548062587108289 0 -0.049824153802393543 -0.26589564254271608 0 -0.031153458829876669 -0.25764919862275859 0 -0.046947111980232187 -0.24938106318803091 0 -0.060761307663788282 -0.25505752619510558 0 -0.049824153802393543 -0.26589564254271608 0 -0.046947111980232187 -0.24938106318803091 0 -0.069466966582301851 -0.26743954970420231 0 -0.060761307663788282 -0.25505752619510558 0 -0.049824153802393543 -0.26589564254271608 0 -0.069466966582301851 -0.26743954970420231 0 -0.059752785293264311 -0.27943341844019032 0 -0.049824153802393543 -0.26589564254271608 0 -0.059752785293264311 -0.27943341844019032 0 -0.049824153802393543 -0.26589564254271608 0 -0.040574853192187427 -0.28145207007363171 0 -0.049824153802393543 -0.26589564254271608 0 -0.040574853192187427 -0.28145207007363171 0 -0.031153458829876669 -0.25764919862275859 0 -0.059701835578854272 -0.30241307960345892 0 -0.027773156722801728 -0.30164023149598052 0 -0.040343131894737462 -0.32506005870533611 0 -0.040574853192187427 -0.28145207007363171 0 -0.059701835578854272 -0.30241307960345892 0 -0.027773156722801728 -0.30164023149598052 0 -0.059752785293264311 -0.27943341844019032 0 -0.040574853192187427 -0.28145207007363171 0 -0.059701835578854272 -0.30241307960345892 0 -0.027773156722801728 -0.30164023149598052 0 -0.003964000036299974 -0.29653637714181441 0 -0.01389461493909625 -0.32251351208480339 0 -0.003964000036299974 -0.29653637714181441 0 -0.01389461493909625 -0.32251351208480339 0 0.01088490089435183 -0.31290124031631888 0 -0.003964000036299974 -0.29653637714181441 0 -0.01520318155086842 -0.2782204042866237 0 0.0026608380666450649 -0.27535432271331278 0 -0.040574853192187427 -0.28145207007363171 0 -0.027773156722801728 -0.30164023149598052 0 -0.01520318155086842 -0.2782204042866237 0 -0.027773156722801728 -0.30164023149598052 0 -0.01520318155086842 -0.2782204042866237 0 -0.027773156722801728 -0.30164023149598052 0 -0.003964000036299974 -0.29653637714181441 0 -0.01520318155086842 -0.2782204042866237 0 -0.040574853192187427 -0.28145207007363171 0 -0.01520318155086842 -0.2782204042866237 0 -0.031153458829876669 -0.25764919862275859 0 -0.01520318155086842 -0.2782204042866237 0 -0.0028062646605471891 -0.25603865529295061 0 0.0026608380666450649 -0.27535432271331278 0 -0.01520318155086842 -0.2782204042866237 0 -0.0028062646605471891 -0.25603865529295061 0 -0.01520318155086842 -0.2782204042866237 0 -0.0028062646605471891 -0.25603865529295061 0 -0.01443910201943133 -0.25556851784434159 0 -0.0028062646605471891 -0.25603865529295061 0 -0.0066661180894588574 -0.25064606030407 0 -0.002530237488774692 -0.24437598203643451 0 -0.0066661180894588574 -0.25064606030407 0 -0.01443910201943133 -0.25556851784434159 0 -0.0096674166047989799 -0.2468004294220664 0 -0.0028062646605471891 -0.25603865529295061 0 -0.0066661180894588574 -0.25064606030407 0 -0.01443910201943133 -0.25556851784434159 0 -0.01443910201943133 -0.25556851784434159 0 -0.031153458829876669 -0.25764919862275859 0 -0.01984528716670898 -0.24567137369896799 0 -0.01520318155086842 -0.2782204042866237 0 -0.01443910201943133 -0.25556851784434159 0 -0.031153458829876669 -0.25764919862275859 0 -0.035819263674311659 -0.35552997108752271 0 -0.040161386403784263 -0.34340580602054249 0 -0.0277509875322824 -0.33979110861847489 0 -0.045390865304532457 -0.35522682915244302 0 -0.035819263674311659 -0.35552997108752271 0 -0.045017851892141011 -0.3648035254935092 0 -0.045390865304532457 -0.35522682915244302 0 -0.035819263674311659 -0.35552997108752271 0 -0.040161386403784263 -0.34340580602054249 0 -0.045390865304532457 -0.35522682915244302 0 -0.052408574365497229 -0.34753986268304288 0 -0.040161386403784263 -0.34340580602054249 0 -0.035819263674311659 -0.35552997108752271 0 -0.03587196057210864 -0.36795355606150137 0 -0.045017851892141011 -0.3648035254935092 0 -0.035819263674311659 -0.35552997108752271 0 -0.03587196057210864 -0.36795355606150137 0 -0.02214941372955085 -0.36013780604736101 0 -0.03587196057210864 -0.36795355606150137 0 -0.02481131726257188 -0.37553768459632458 0 -0.039495658315498477 -0.37786145484738332 0 -0.03587196057210864 -0.36795355606150137 0 -0.045017851892141011 -0.3648035254935092 0 -0.047938258558577987 -0.37385089429690782 0 -0.03587196057210864 -0.36795355606150137 0 -0.047938258558577987 -0.37385089429690782 0 -0.039495658315498477 -0.37786145484738332 0 -0.045017851892141011 -0.3648035254935092 0 -0.052785660607564927 -0.36261079962068588 0 -0.054582332830850802 -0.3702953157443174 0 -0.045390865304532457 -0.35522682915244302 0 -0.045017851892141011 -0.3648035254935092 0 -0.052785660607564927 -0.36261079962068588 0 -0.047938258558577987 -0.37385089429690782 0 -0.054582332830850802 -0.3702953157443174 0 -0.056219100083565683 -0.37636698488278569 0 -0.045017851892141011 -0.3648035254935092 0 -0.047938258558577987 -0.37385089429690782 0 -0.054582332830850802 -0.3702953157443174 0 -0.064474016836259418 -0.37001966666074843 0 -0.054582332830850802 -0.3702953157443174 0 -0.061284852456821012 -0.37501727224919867 0 -0.064474016836259418 -0.37001966666074843 0 -0.052785660607564927 -0.36261079962068588 0 -0.054582332830850802 -0.3702953157443174 0 -0.054582332830850802 -0.3702953157443174 0 -0.061284852456821012 -0.37501727224919867 0 -0.056219100083565683 -0.37636698488278569 0 -0.064474016836259418 -0.37001966666074843 0 -0.052785660607564927 -0.36261079962068588 0 -0.053764779278463508 -0.35884928952923012 0 -0.064474016836259418 -0.37001966666074843 0 -0.062235053804753207 -0.35897608714666518 0 -0.052408574365497229 -0.34753986268304288 0 -0.062235053804753207 -0.35897608714666518 0 -0.052408574365497229 -0.34753986268304288 0 -0.056745716173714343 -0.34083167850601198 0 -0.068160994758053983 -0.34728071083817069 0 -0.062235053804753207 -0.35897608714666518 0 -0.056745716173714343 -0.34083167850601198 0 -0.064474016836259418 -0.37001966666074843 0 -0.053764779278463508 -0.35884928952923012 0 -0.052408574365497229 -0.34753986268304288 0 -0.062235053804753207 -0.35897608714666518 0 -0.056745716173714343 -0.34083167850601198 0 -0.064474016836259418 -0.37001966666074843 0 -0.052408574365497229 -0.34753986268304288 0 -0.045390865304532457 -0.35522682915244302 0 -0.052785660607564927 -0.36261079962068588 0 -0.053764779278463508 -0.35884928952923012 0 -0.045390865304532457 -0.35522682915244302 0 -0.053764779278463508 -0.35884928952923012 0 -0.052408574365497229 -0.34753986268304288 0 -0.052408574365497229 -0.34753986268304288 0 -0.056745716173714343 -0.34083167850601198 0 -0.040343131894737462 -0.32506005870533611 0 -0.056745716173714343 -0.34083167850601198 0 -0.059279103357959481 -0.32548925444399213 0 -0.040343131894737462 -0.32506005870533611 0 -0.065877810654129496 -0.3374414253183573 0 -0.056745716173714343 -0.34083167850601198 0 -0.059279103357959481 -0.32548925444399213 0 -0.059701835578854272 -0.30241307960345892 0 -0.040343131894737462 -0.32506005870533611 0 -0.059701835578854272 -0.30241307960345892 0 -0.059279103357959481 -0.32548925444399213 0 -0.040343131894737462 -0.32506005870533611 0 -0.027773156722801728 -0.30164023149598052 0 -0.040343131894737462 -0.32506005870533611 0 -0.052408574365497229 -0.34753986268304288 0 -0.040343131894737462 -0.32506005870533611 0 -0.040161386403784263 -0.34340580602054249 0 -0.040343131894737462 -0.32506005870533611 0 -0.040161386403784263 -0.34340580602054249 0 -0.0277509875322824 -0.33979110861847489 0 -0.052408574365497229 -0.34753986268304288 0 -0.040343131894737462 -0.32506005870533611 0 -0.040343131894737462 -0.32506005870533611 0 -0.0277509875322824 -0.33979110861847489 0 -0.0277509875322824 -0.33979110861847489 0 -0.01389461493909625 -0.32251351208480339 0 -0.01359883076621655 -0.34423659449413813 0 -0.040343131894737462 -0.32506005870533611 0 -0.0277509875322824 -0.33979110861847489 0 -0.01389461493909625 -0.32251351208480339 0 -0.027773156722801728 -0.30164023149598052 0 -0.040343131894737462 -0.32506005870533611 0 -0.01389461493909625 -0.32251351208480339 0 -0.01389461493909625 -0.32251351208480339 0 0.002228587754734048 -0.33721392867879069 0 0.01088490089435183 -0.31290124031631888 0 -0.01389461493909625 -0.32251351208480339 0 -0.01359883076621655 -0.34423659449413813 0 0.002228587754734048 -0.33721392867879069 0 -0.01359883076621655 -0.34423659449413813 0 -0.02214941372955085 -0.36013780604736101 0 -0.0064277253848860818 -0.36152661704126182 0 -0.0064277253848860818 -0.36152661704126182 0 0.002228587754734048 -0.33721392867879069 0 -0.01359883076621655 -0.34423659449413813 0 -0.0064277253848860818 -0.36152661704126182 0 0.002228587754734048 -0.33721392867879069 0 -0.0277509875322824 -0.33979110861847489 0 -0.01359883076621655 -0.34423659449413813 0 -0.02214941372955085 -0.36013780604736101 0 -0.035819263674311659 -0.35552997108752271 0 -0.0277509875322824 -0.33979110861847489 0 -0.02214941372955085 -0.36013780604736101 0 -0.02214941372955085 -0.36013780604736101 0 -0.0064277253848860818 -0.36152661704126182 0 -0.02481131726257188 -0.37553768459632458 0 -0.03587196057210864 -0.36795355606150137 0 -0.02214941372955085 -0.36013780604736101 0 -0.02481131726257188 -0.37553768459632458 0 -0.0064277253848860818 -0.36152661704126182 0 -0.00128820618288191 -0.37569286940333679 0 -0.01327862446758408 -0.3807685011683648 0 -0.0064277253848860818 -0.36152661704126182 0 -0.01327862446758408 -0.3807685011683648 0 -0.02481131726257188 -0.37553768459632458 0 -0.0064277253848860818 -0.36152661704126182 0 -0.02481131726257188 -0.37553768459632458 0 -0.0064277253848860818 -0.36152661704126182 0 -0.01327862446758408 -0.3807685011683648 0 -0.00128820618288191 -0.37569286940333679 0 -0.0064706831726999764 -0.38736499770566829 0 -0.01327862446758408 -0.3807685011683648 0 -0.00128820618288191 -0.37569286940333679 0 -0.0064706831726999764 -0.38736499770566829 0 0.0044044243153291826 -0.38884571969487242 0 -0.0064706831726999764 -0.38736499770566829 0 -0.01327862446758408 -0.3807685011683648 0 -0.016881315196587001 -0.39295589435128903 0 -0.0053096943317760704 -0.39856200391047852 0 -0.0057694837270574799 -0.41279563166380512 0 0.0055741236593935903 -0.40430246929208719 0 -0.0064706831726999764 -0.38736499770566829 0 -0.0053096943317760704 -0.39856200391047852 0 0.0044044243153291826 -0.38884571969487242 0 -0.0064706831726999764 -0.38736499770566829 0 -0.0053096943317760704 -0.39856200391047852 0 -0.016881315196587001 -0.39295589435128903 0 -0.0053096943317760704 -0.39856200391047852 0 -0.016422776614239468 -0.40636573863090858 0 -0.0057694837270574799 -0.41279563166380512 0 -0.0053096943317760704 -0.39856200391047852 0 -0.016881315196587001 -0.39295589435128903 0 -0.016422776614239468 -0.40636573863090858 0 -0.016881315196587001 -0.39295589435128903 0 -0.026313460445945919 -0.40137808363684913 0 -0.016422776614239468 -0.40636573863090858 0 -0.016881315196587001 -0.39295589435128903 0 -0.026313460445945919 -0.40137808363684913 0 -0.026972999995698139 -0.39048258921463508 0 -0.026313460445945919 -0.40137808363684913 0 -0.026972999995698139 -0.39048258921463508 0 -0.032650644559925848 -0.3972666832976724 0 -0.026972999995698139 -0.39048258921463508 0 -0.033830634953029813 -0.38999777638643279 0 -0.032650644559925848 -0.3972666832976724 0 -0.01327862446758408 -0.3807685011683648 0 -0.020486064230610279 -0.38493616733265329 0 -0.02481131726257188 -0.37553768459632458 0 -0.016881315196587001 -0.39295589435128903 0 -0.020486064230610279 -0.38493616733265329 0 -0.026972999995698139 -0.39048258921463508 0 -0.01327862446758408 -0.3807685011683648 0 -0.016881315196587001 -0.39295589435128903 0 -0.020486064230610279 -0.38493616733265329 0 -0.026972999995698139 -0.39048258921463508 0 -0.02481131726257188 -0.37553768459632458 0 -0.033830634953029813 -0.38999777638643279 0 -0.020486064230610279 -0.38493616733265329 0 -0.026972999995698139 -0.39048258921463508 0 -0.02481131726257188 -0.37553768459632458 0 -0.02481131726257188 -0.37553768459632458 0 -0.043194909140256442 -0.38954875215138912 0 -0.02481131726257188 -0.37553768459632458 0 -0.043194909140256442 -0.38954875215138912 0 -0.033830634953029813 -0.38999777638643279 0 -0.02481131726257188 -0.37553768459632458 0 -0.039495658315498477 -0.37786145484738332 0 -0.043194909140256442 -0.38954875215138912 0 -0.047938258558577987 -0.37385089429690782 0 -0.039495658315498477 -0.37786145484738332 0 -0.046038095769424192 -0.38176033037227369 0 -0.039495658315498477 -0.37786145484738332 0 -0.046038095769424192 -0.38176033037227369 0 -0.043194909140256442 -0.38954875215138912 0 -0.046038095769424192 -0.38176033037227369 0 -0.043194909140256442 -0.38954875215138912 0 -0.049704699713957912 -0.3852136969660212 0 -0.040443055927467081 -0.39697795720238582 0 -0.043396062466854263 -0.41391914081570391 0 -0.035693071477488333 -0.40749701004805899 0 -0.033830634953029813 -0.38999777638643279 0 -0.032650644559925848 -0.3972666832976724 0 -0.040443055927467081 -0.39697795720238582 0 -0.026313460445945919 -0.40137808363684913 0 -0.032650644559925848 -0.3972666832976724 0 -0.035693071477488333 -0.40749701004805899 0 -0.032650644559925848 -0.3972666832976724 0 -0.040443055927467081 -0.39697795720238582 0 -0.035693071477488333 -0.40749701004805899 0 -0.043194909140256442 -0.38954875215138912 0 -0.033830634953029813 -0.38999777638643279 0 -0.040443055927467081 -0.39697795720238582 0 -0.043194909140256442 -0.38954875215138912 0 -0.061578501017941017 -0.4035598197064536 0 -0.053702646383692959 -0.39029564908337439 0 -0.043194909140256442 -0.38954875215138912 0 -0.061578501017941017 -0.4035598197064536 0 -0.043194909140256442 -0.38954875215138912 0 -0.040443055927467081 -0.39697795720238582 0 -0.061578501017941017 -0.4035598197064536 0 -0.061578501017941017 -0.4035598197064536 0 -0.059521461129320101 -0.3935984523066966 0 -0.053702646383692959 -0.39029564908337439 0 -0.061578501017941017 -0.4035598197064536 0 -0.059521461129320101 -0.3935984523066966 0 -0.063752808334031963 -0.3924573472663424 0 -0.059521461129320101 -0.3935984523066966 0 -0.059051888781614457 -0.38808099317061578 0 -0.053702646383692959 -0.39029564908337439 0 -0.059521461129320101 -0.3935984523066966 0 -0.059051888781614457 -0.38808099317061578 0 -0.063752808334031963 -0.3924573472663424 0 -0.059051888781614457 -0.38808099317061578 0 -0.064624143758568064 -0.38572504154919612 0 -0.063752808334031963 -0.3924573472663424 0 -0.059051888781614457 -0.38808099317061578 0 -0.053702646383692959 -0.39029564908337439 0 -0.054075735894216811 -0.38462696233742238 0 -0.059051888781614457 -0.38808099317061578 0 -0.059192496114775922 -0.38153992365796519 0 -0.054075735894216811 -0.38462696233742238 0 -0.059051888781614457 -0.38808099317061578 0 -0.059192496114775922 -0.38153992365796519 0 -0.064624143758568064 -0.38572504154919612 0 -0.059192496114775922 -0.38153992365796519 0 -0.060449549377633298 -0.37791141807443579 0 -0.064259724176824976 -0.37838975234558653 0 -0.061284852456821012 -0.37501727224919867 0 -0.060449549377633298 -0.37791141807443579 0 -0.056219100083565683 -0.37636698488278569 0 -0.059192496114775922 -0.38153992365796519 0 -0.060449549377633298 -0.37791141807443579 0 -0.056219100083565683 -0.37636698488278569 0 -0.061284852456821012 -0.37501727224919867 0 -0.060449549377633298 -0.37791141807443579 0 -0.064259724176824976 -0.37838975234558653 0 -0.059192496114775922 -0.38153992365796519 0 -0.051512111382199147 -0.37983679088564648 0 -0.054075735894216811 -0.38462696233742238 0 -0.059192496114775922 -0.38153992365796519 0 -0.056219100083565683 -0.37636698488278569 0 -0.051512111382199147 -0.37983679088564648 0 -0.047938258558577987 -0.37385089429690782 0 -0.056219100083565683 -0.37636698488278569 0 -0.051512111382199147 -0.37983679088564648 0 -0.047938258558577987 -0.37385089429690782 0 -0.046038095769424192 -0.38176033037227369 0 -0.051512111382199147 -0.37983679088564648 0 -0.046038095769424192 -0.38176033037227369 0 -0.051512111382199147 -0.37983679088564648 0 -0.049704699713957912 -0.3852136969660212 0 -0.043194909140256442 -0.38954875215138912 0 -0.049704699713957912 -0.3852136969660212 0 -0.053702646383692959 -0.39029564908337439 0 -0.051512111382199147 -0.37983679088564648 0 -0.049704699713957912 -0.3852136969660212 0 -0.054075735894216811 -0.38462696233742238 0 -0.049704699713957912 -0.3852136969660212 0 -0.053702646383692959 -0.39029564908337439 0 -0.054075735894216811 -0.38462696233742238 0 -0.046917252370278641 -0.4261896656572618 0 -0.037997333616190967 -0.43528254932121818 0 -0.056248493719704487 -0.43817010133898499 0 -0.046917252370278641 -0.4261896656572618 0 -0.05807137970258569 -0.41867884405367872 0 -0.056248493719704487 -0.43817010133898499 0 -0.040443055927467081 -0.39697795720238582 0 -0.05807137970258569 -0.41867884405367872 0 -0.040443055927467081 -0.39697795720238582 0 -0.061578501017941017 -0.4035598197064536 0 -0.05807137970258569 -0.41867884405367872 0 -0.040443055927467081 -0.39697795720238582 0 -0.05807137970258569 -0.41867884405367872 0 -0.043396062466854263 -0.41391914081570391 0 -0.046917252370278641 -0.4261896656572618 0 -0.05807137970258569 -0.41867884405367872 0 -0.043396062466854263 -0.41391914081570391 0 -0.046917252370278641 -0.4261896656572618 0 -0.043396062466854263 -0.41391914081570391 0 -0.035855552856451589 -0.42025222711713389 0 -0.043396062466854263 -0.41391914081570391 0 -0.035693071477488333 -0.40749701004805899 0 -0.035855552856451589 -0.42025222711713389 0 -0.035693071477488333 -0.40749701004805899 0 -0.035855552856451589 -0.42025222711713389 0 -0.02688702772267219 -0.41158227866105268 0 -0.035855552856451589 -0.42025222711713389 0 -0.037997333616190967 -0.43528254932121818 0 -0.02015027721923562 -0.42241833387231281 0 -0.046917252370278641 -0.4261896656572618 0 -0.035855552856451589 -0.42025222711713389 0 -0.037997333616190967 -0.43528254932121818 0 -0.037997333616190967 -0.43528254932121818 0 -0.02015027721923562 -0.42241833387231281 0 -0.021222440223294291 -0.44407788941545012 0 -0.035855552856451589 -0.42025222711713389 0 -0.02015027721923562 -0.42241833387231281 0 -0.02688702772267219 -0.41158227866105268 0 -0.02015027721923562 -0.42241833387231281 0 -0.02688702772267219 -0.41158227866105268 0 -0.016422776614239468 -0.40636573863090858 0 -0.026313460445945919 -0.40137808363684913 0 -0.035693071477488333 -0.40749701004805899 0 -0.02688702772267219 -0.41158227866105268 0 -0.026313460445945919 -0.40137808363684913 0 -0.02688702772267219 -0.41158227866105268 0 -0.016422776614239468 -0.40636573863090858 0 -0.02015027721923562 -0.42241833387231281 0 -0.0057694837270574799 -0.41279563166380512 0 -0.0054486107612093659 -0.42970394640840021 0 -0.02015027721923562 -0.42241833387231281 0 -0.016422776614239468 -0.40636573863090858 0 -0.0057694837270574799 -0.41279563166380512 0 -0.0057694837270574799 -0.41279563166380512 0 -0.0054486107612093659 -0.42970394640840021 0 0.0065174665876817448 -0.41576476478699748 0 -0.02015027721923562 -0.42241833387231281 0 -0.0054486107612093659 -0.42970394640840021 0 -0.021222440223294291 -0.44407788941545012 0 -0.0067196714858158294 -0.44896261521635361 0 -0.017291738812767458 -0.46367685119283691 0 -0.021222440223294291 -0.44407788941545012 0 -0.0054486107612093659 -0.42970394640840021 0 -0.0067196714858158294 -0.44896261521635361 0 -0.021222440223294291 -0.44407788941545012 0 -0.0054486107612093659 -0.42970394640840021 0 -0.0067196714858158294 -0.44896261521635361 0 0.0057178097885894237 -0.44201216835368512 0 -0.0067196714858158294 -0.44896261521635361 0 -0.017291738812767458 -0.46367685119283691 0 0.0077991416177623264 -0.45990937620800421 0 -0.017291738812767458 -0.46367685119283691 0 -0.0051681238414931427 -0.47956985834562171 0 0.0077991416177623264 -0.45990937620800421 0 -0.017291738812767458 -0.46367685119283691 0 -0.021222440223294291 -0.44407788941545012 0 -0.033901174720781121 -0.4646041807745997 0 -0.013853124446467359 -0.5 0 -0.01338983410543905 -0.4920353074638541 0 0.001140787539995986 -0.49203858842346421 0 -0.01338983410543905 -0.4920353074638541 0 -0.0051681238414931427 -0.47956985834562171 0 0.001140787539995986 -0.49203858842346421 0 -0.01338983410543905 -0.4920353074638541 0 -0.0051681238414931427 -0.47956985834562171 0 -0.01338983410543905 -0.4920353074638541 0 -0.0051681238414931427 -0.47956985834562171 0 -0.029349149715838529 -0.47962014315668999 0 -0.017291738812767458 -0.46367685119283691 0 -0.029349149715838529 -0.47962014315668999 0 -0.033901174720781121 -0.4646041807745997 0 -0.017291738812767458 -0.46367685119283691 0 -0.0051681238414931427 -0.47956985834562171 0 -0.029349149715838529 -0.47962014315668999 0 -0.0051681238414931427 -0.47956985834562171 0 -0.029349149715838529 -0.47962014315668999 0 -0.01338983410543905 -0.4920353074638541 0 -0.029349149715838529 -0.47962014315668999 0 -0.041422631596825688 -0.5 0 -0.013853124446467359 -0.5 0 -0.01338983410543905 -0.4920353074638541 0 -0.041422631596825688 -0.5 0 -0.029349149715838529 -0.47962014315668999 0 -0.041422631596825688 -0.5 0 -0.053530175590183943 -0.47967042796775777 0 -0.029349149715838529 -0.47962014315668999 0 -0.053530175590183943 -0.47967042796775777 0 -0.029349149715838529 -0.47962014315668999 0 -0.053530175590183943 -0.47967042796775777 0 -0.033901174720781121 -0.4646041807745997 0 -0.041422631596825688 -0.5 0 -0.053530175590183943 -0.47967042796775777 0 -0.068992138747184018 -0.5 0 -0.037997333616190967 -0.43528254932121818 0 -0.021222440223294291 -0.44407788941545012 0 -0.048112369261821358 -0.45597559214026362 0 -0.021222440223294291 -0.44407788941545012 0 -0.048112369261821358 -0.45597559214026362 0 -0.021222440223294291 -0.44407788941545012 0 -0.033901174720781121 -0.4646041807745997 0 -0.048112369261821358 -0.45597559214026362 0 -0.053530175590183943 -0.47967042796775777 0 -0.033901174720781121 -0.4646041807745997 0 -0.048112369261821358 -0.45597559214026362 0 -0.048112369261821358 -0.45597559214026362 0 -0.075002298300348422 -0.46787329486507723 0 -0.048112369261821358 -0.45597559214026362 0 -0.063765716189894642 -0.45059967981232429 0 -0.075002298300348422 -0.46787329486507723 0 -0.053530175590183943 -0.47967042796775777 0 -0.048112369261821358 -0.45597559214026362 0 -0.075002298300348422 -0.46787329486507723 0 -0.037997333616190967 -0.43528254932121818 0 -0.048112369261821358 -0.45597559214026362 0 -0.056248493719704487 -0.43817010133898499 0 -0.048112369261821358 -0.45597559214026362 0 -0.056248493719704487 -0.43817010133898499 0 -0.063765716189894642 -0.45059967981232429 0 -0.063765716189894642 -0.45059967981232429 0 -0.075699703477704286 -0.44037973090497151 0 -0.075002298300348422 -0.46787329486507723 0 -0.056248493719704487 -0.43817010133898499 0 -0.063765716189894642 -0.45059967981232429 0 -0.075699703477704286 -0.44037973090497151 0 -0.075699703477704286 -0.44037973090497151 0 -0.075002298300348422 -0.46787329486507723 0 -0.093328027252822771 -0.46208061775626419 0 -0.075699703477704286 -0.44037973090497151 0 -0.093328027252822771 -0.46208061775626419 0 -0.09394198746826142 -0.44620051316421572 0 -0.075699703477704286 -0.44037973090497151 0 -0.09394198746826142 -0.44620051316421572 0 -0.084710128336485974 -0.43326500212013153 0 -0.075699703477704286 -0.44037973090497151 0 -0.093328027252822771 -0.46208061775626419 0 -0.09394198746826142 -0.44620051316421572 0 -0.097227905619232224 -0.43631234050874868 0 -0.084710128336485974 -0.43326500212013153 0 -0.053530175590183943 -0.47967042796775777 0 -0.068992138747184018 -0.5 0 -0.077711201464529367 -0.4797207127788255 0 -0.053530175590183943 -0.47967042796775777 0 -0.075002298300348422 -0.46787329486507723 0 -0.077711201464529367 -0.4797207127788255 0 -0.053530175590183943 -0.47967042796775777 0 -0.077711201464529367 -0.4797207127788255 0 -0.075002298300348422 -0.46787329486507723 0 -0.077711201464529367 -0.4797207127788255 0 -0.10189222733887481 -0.479770997589892 0 -0.077711201464529367 -0.4797207127788255 0 -0.089785802381677035 -0.4873976482363227 0 -0.10189222733887481 -0.479770997589892 0 -0.075002298300348422 -0.46787329486507723 0 -0.093328027252822771 -0.46208061775626419 0 -0.10189222733887481 -0.479770997589892 0 -0.075002298300348422 -0.46787329486507723 0 -0.10189222733887481 -0.479770997589892 0 -0.077711201464529367 -0.4797207127788255 0 -0.10189222733887481 -0.479770997589892 0 -0.068992138747184018 -0.5 0 -0.089785802381677035 -0.4873976482363227 0 -0.096561645897542459 -0.5 0 -0.068992138747184018 -0.5 0 -0.077711201464529367 -0.4797207127788255 0 -0.089785802381677035 -0.4873976482363227 0 -0.096561645897542459 -0.5 0 -0.1037933664997102 -0.49040091199316083 0 -0.1241311530479008 -0.500000000000002 0 -0.096561645897542459 -0.5 0 -0.097736672274027714 -0.48828566306211552 0 -0.1037933664997102 -0.49040091199316083 0 -0.097736672274027714 -0.48828566306211552 0 -0.1037933664997102 -0.49040091199316083 0 -0.10189222733887481 -0.479770997589892 0 -0.089785802381677035 -0.4873976482363227 0 -0.097736672274027714 -0.48828566306211552 0 -0.10189222733887481 -0.479770997589892 0 -0.089785802381677035 -0.4873976482363227 0 -0.096561645897542459 -0.5 0 -0.097736672274027714 -0.48828566306211552 0 -0.1037933664997102 -0.49040091199316083 0 -0.10189222733887481 -0.479770997589892 0 -0.1109563510279427 -0.4837815046075557 0 -0.093328027252822771 -0.46208061775626419 0 -0.1057782361404724 -0.47977907860429742 0 -0.1109563510279427 -0.4837815046075557 0 -0.093328027252822771 -0.46208061775626419 0 -0.1109563510279427 -0.4837815046075557 0 -0.093328027252822771 -0.46208061775626419 0 -0.1057782361404724 -0.47977907860429742 0 -0.10189222733887481 -0.479770997589892 0 -0.093328027252822771 -0.46208061775626419 0 -0.1109563510279427 -0.4837815046075557 0 -0.1108904506775007 -0.46588267459017141 0 -0.10189222733887481 -0.479770997589892 0 -0.1109563510279427 -0.4837815046075557 0 -0.1057782361404724 -0.47977907860429742 0 -0.10189222733887481 -0.479770997589892 0 -0.1109563510279427 -0.4837815046075557 0 -0.1057782361404724 -0.47977907860429742 0 -0.10189222733887481 -0.479770997589892 0 -0.12699589142704709 -0.46487534516465151 0 -0.12552193684441959 -0.48084453072449251 0 -0.117765961656533 -0.47501503982197452 0 -0.117765961656533 -0.47501503982197452 0 -0.1109563510279427 -0.4837815046075557 0 -0.1108904506775007 -0.46588267459017141 0 -0.12552193684441959 -0.48084453072449251 0 -0.117765961656533 -0.47501503982197452 0 -0.1181328485593833 -0.48166653964213241 0 -0.12552193684441959 -0.48084453072449251 0 -0.1181328485593833 -0.48166653964213241 0 -0.11828714470863801 -0.48702508341450712 0 -0.117765961656533 -0.47501503982197452 0 -0.1181328485593833 -0.48166653964213241 0 -0.1109563510279427 -0.4837815046075557 0 -0.1181328485593833 -0.48166653964213241 0 -0.1109563510279427 -0.4837815046075557 0 -0.11828714470863801 -0.48702508341450712 0 -0.1037933664997102 -0.49040091199316083 0 -0.1109563510279427 -0.4837815046075557 0 -0.1241311530479008 -0.500000000000002 0 -0.1109563510279427 -0.4837815046075557 0 -0.11828714470863801 -0.48702508341450712 0 -0.1241311530479008 -0.500000000000002 0 -0.1109563510279427 -0.4837815046075557 0 -0.1241311530479008 -0.500000000000002 0 -0.1109563510279427 -0.4837815046075557 0 -0.11828714470863801 -0.48702508341450712 0 -0.1315987233736256 -0.48968047440794538 0 -0.11828714470863801 -0.48702508341450712 0 -0.1241311530479008 -0.500000000000002 0 -0.09394198746826142 -0.44620051316421572 0 -0.1099628159789741 -0.44759091723524158 0 -0.097227905619232224 -0.43631234050874868 0 -0.093328027252822771 -0.46208061775626419 0 -0.09394198746826142 -0.44620051316421572 0 -0.1099628159789741 -0.44759091723524158 0 -0.093328027252822771 -0.46208061775626419 0 -0.1108904506775007 -0.46588267459017141 0 -0.1099628159789741 -0.44759091723524158 0 -0.12699589142704709 -0.46487534516465151 0 -0.117765961656533 -0.47501503982197452 0 -0.1108904506775007 -0.46588267459017141 0 -0.12699589142704709 -0.46487534516465151 0 -0.1108904506775007 -0.46588267459017141 0 -0.1099628159789741 -0.44759091723524158 0 -0.13609440762946171 -0.44401334084325528 0 -0.1099628159789741 -0.44759091723524158 0 -0.1198921859735176 -0.43523673631311 0 -0.13609440762946171 -0.44401334084325528 0 -0.12699589142704709 -0.46487534516465151 0 -0.1099628159789741 -0.44759091723524158 0 -0.1198921859735176 -0.43523673631311 0 -0.1063701772316951 -0.42726297335359009 0 -0.12459350793294741 -0.4197624632777901 0 -0.1099628159789741 -0.44759091723524158 0 -0.1198921859735176 -0.43523673631311 0 -0.1063701772316951 -0.42726297335359009 0 -0.1099628159789741 -0.44759091723524158 0 -0.1063701772316951 -0.42726297335359009 0 -0.097227905619232224 -0.43631234050874868 0 -0.1063701772316951 -0.42726297335359009 0 -0.09653366302123878 -0.41816023219233772 0 -0.091154419080744606 -0.4272422966705649 0 -0.1063701772316951 -0.42726297335359009 0 -0.097227905619232224 -0.43631234050874868 0 -0.091154419080744606 -0.4272422966705649 0 -0.097807481793095258 -0.40648167613029301 0 -0.09653366302123878 -0.41816023219233772 0 -0.087940328393671691 -0.41365543360064899 0 -0.1063701772316951 -0.42726297335359009 0 -0.09653366302123878 -0.41816023219233772 0 -0.1112030510214818 -0.41311691418678398 0 -0.097807481793095258 -0.40648167613029301 0 -0.09653366302123878 -0.41816023219233772 0 -0.1112030510214818 -0.41311691418678398 0 -0.097807481793095258 -0.40648167613029301 0 -0.1112030510214818 -0.41311691418678398 0 -0.1228308430551724 -0.39924578042908038 0 -0.12459350793294741 -0.4197624632777901 0 -0.1112030510214818 -0.41311691418678398 0 -0.1228308430551724 -0.39924578042908038 0 -0.1063701772316951 -0.42726297335359009 0 -0.12459350793294741 -0.4197624632777901 0 -0.1112030510214818 -0.41311691418678398 0 -0.1228308430551724 -0.39924578042908038 0 -0.11664136411419609 -0.37627507301885033 0 -0.1021192114292966 -0.38471114942328782 0 -0.1334338734358021 -0.37654327888904449 0 -0.1228308430551724 -0.39924578042908038 0 -0.11664136411419609 -0.37627507301885033 0 -0.097807481793095258 -0.40648167613029301 0 -0.1021192114292966 -0.38471114942328782 0 -0.09050172006130365 -0.39384602491805559 0 -0.097807481793095258 -0.40648167613029301 0 -0.1021192114292966 -0.38471114942328782 0 -0.097807481793095258 -0.40648167613029301 0 -0.1228308430551724 -0.39924578042908038 0 -0.1021192114292966 -0.38471114942328782 0 -0.097807481793095258 -0.40648167613029301 0 -0.09050172006130365 -0.39384602491805559 0 -0.084599273210501993 -0.40512978874980471 0 -0.09050172006130365 -0.39384602491805559 0 -0.084599273210501993 -0.40512978874980471 0 -0.073843242165709796 -0.39734569152441762 0 -0.09050172006130365 -0.39384602491805559 0 -0.081244954099534528 -0.38406822255012041 0 -0.073843242165709796 -0.39734569152441762 0 -0.1021192114292966 -0.38471114942328782 0 -0.09050172006130365 -0.39384602491805559 0 -0.081244954099534528 -0.38406822255012041 0 -0.087077666250644462 -0.3700305592517994 0 -0.081244954099534528 -0.38406822255012041 0 -0.067724391435791953 -0.37712049578731838 0 -0.087077666250644462 -0.3700305592517994 0 -0.1021192114292966 -0.38471114942328782 0 -0.081244954099534528 -0.38406822255012041 0 -0.064624143758568064 -0.38572504154919612 0 -0.067724391435791953 -0.37712049578731838 0 -0.073843242165709796 -0.39734569152441762 0 -0.067724391435791953 -0.37712049578731838 0 -0.073843242165709796 -0.39734569152441762 0 -0.081244954099534528 -0.38406822255012041 0 -0.067724391435791953 -0.37712049578731838 0 -0.073843242165709796 -0.39734569152441762 0 -0.064624143758568064 -0.38572504154919612 0 -0.064259724176824976 -0.37838975234558653 0 -0.067724391435791953 -0.37712049578731838 0 -0.059192496114775922 -0.38153992365796519 0 -0.064624143758568064 -0.38572504154919612 0 -0.064259724176824976 -0.37838975234558653 0 -0.061284852456821012 -0.37501727224919867 0 -0.064259724176824976 -0.37838975234558653 0 -0.067724391435791953 -0.37712049578731838 0 -0.064259724176824976 -0.37838975234558653 0 -0.067724391435791953 -0.37712049578731838 0 -0.061578501017941017 -0.4035598197064536 0 -0.073843242165709796 -0.39734569152441762 0 -0.07996209289562628 -0.41757088726151731 0 -0.064624143758568064 -0.38572504154919612 0 -0.073843242165709796 -0.39734569152441762 0 -0.063752808334031963 -0.3924573472663424 0 -0.061578501017941017 -0.4035598197064536 0 -0.073843242165709796 -0.39734569152441762 0 -0.063752808334031963 -0.3924573472663424 0 -0.061578501017941017 -0.4035598197064536 0 -0.069014006439142156 -0.41807092981646782 0 -0.07996209289562628 -0.41757088726151731 0 -0.061578501017941017 -0.4035598197064536 0 -0.07996209289562628 -0.41757088726151731 0 -0.073843242165709796 -0.39734569152441762 0 -0.07996209289562628 -0.41757088726151731 0 -0.061578501017941017 -0.4035598197064536 0 -0.05807137970258569 -0.41867884405367872 0 -0.069014006439142156 -0.41807092981646782 0 -0.074660931769838845 -0.42160604279550451 0 -0.069014006439142156 -0.41807092981646782 0 -0.07996209289562628 -0.41757088726151731 0 -0.05807137970258569 -0.41867884405367872 0 -0.069014006439142156 -0.41807092981646782 0 -0.072692931922243992 -0.42689648370790489 0 -0.05807137970258569 -0.41867884405367872 0 -0.075699703477704286 -0.44037973090497151 0 -0.072692931922243992 -0.42689648370790489 0 -0.05807137970258569 -0.41867884405367872 0 -0.056248493719704487 -0.43817010133898499 0 -0.075699703477704286 -0.44037973090497151 0 -0.05807137970258569 -0.41867884405367872 0 -0.075699703477704286 -0.44037973090497151 0 -0.075699703477704286 -0.44037973090497151 0 -0.072692931922243992 -0.42689648370790489 0 -0.084710128336485974 -0.43326500212013153 0 -0.074660931769838845 -0.42160604279550451 0 -0.069014006439142156 -0.41807092981646782 0 -0.072692931922243992 -0.42689648370790489 0 -0.074660931769838845 -0.42160604279550451 0 -0.072692931922243992 -0.42689648370790489 0 -0.084710128336485974 -0.43326500212013153 0 -0.084710128336485974 -0.43326500212013153 0 -0.07996209289562628 -0.41757088726151731 0 -0.084710128336485974 -0.43326500212013153 0 -0.07996209289562628 -0.41757088726151731 0 -0.084726520606744099 -0.42120209921214541 0 -0.074660931769838845 -0.42160604279550451 0 -0.084710128336485974 -0.43326500212013153 0 -0.07996209289562628 -0.41757088726151731 0 -0.097227905619232224 -0.43631234050874868 0 -0.084710128336485974 -0.43326500212013153 0 -0.091154419080744606 -0.4272422966705649 0 -0.09653366302123878 -0.41816023219233772 0 -0.091154419080744606 -0.4272422966705649 0 -0.084726520606744099 -0.42120209921214541 0 -0.084710128336485974 -0.43326500212013153 0 -0.091154419080744606 -0.4272422966705649 0 -0.084726520606744099 -0.42120209921214541 0 -0.09653366302123878 -0.41816023219233772 0 -0.087940328393671691 -0.41365543360064899 0 -0.084726520606744099 -0.42120209921214541 0 -0.084599273210501993 -0.40512978874980471 0 -0.073843242165709796 -0.39734569152441762 0 -0.07996209289562628 -0.41757088726151731 0 -0.097807481793095258 -0.40648167613029301 0 -0.084599273210501993 -0.40512978874980471 0 -0.087940328393671691 -0.41365543360064899 0 -0.084599273210501993 -0.40512978874980471 0 -0.087940328393671691 -0.41365543360064899 0 -0.07996209289562628 -0.41757088726151731 0 -0.087940328393671691 -0.41365543360064899 0 -0.07996209289562628 -0.41757088726151731 0 -0.084726520606744099 -0.42120209921214541 0 -0.07996209289562628 -0.41757088726151731 0 -0.084726520606744099 -0.42120209921214541 0 -0.091091896710796039 -0.083928434094190776 0 -0.070774411973996171 -0.087938631371992274 0 -0.080406032077866105 -0.1007762210105704 0 -0.1078504800018875 -0.066350114516083511 0 -0.079098827251751908 -0.059016326806965523 0 -0.091091896710796039 -0.083928434094190776 0 -0.1078504800018875 -0.066350114516083511 0 -0.079098827251751908 -0.059016326806965523 0 -0.091091896710796039 -0.083928434094190776 0 -0.064635841360001653 -0.071118469907208381 0 -0.079098827251751908 -0.059016326806965523 0 -0.091091896710796039 -0.083928434094190776 0 -0.064635841360001653 -0.071118469907208381 0 -0.064635841360001653 -0.071118469907208381 0 -0.070774411973996171 -0.087938631371992274 0 -0.056615775409830933 -0.083359612276532186 0 -0.070774411973996171 -0.087938631371992274 0 -0.056615775409830933 -0.083359612276532186 0 -0.061121811882314331 -0.099948957678894501 0 -0.091091896710796039 -0.083928434094190776 0 -0.064635841360001653 -0.071118469907208381 0 -0.070774411973996171 -0.087938631371992274 0 -0.067485449906652825 -0.1146252528206762 0 -0.080406032077866105 -0.1007762210105704 0 -0.061121811882314331 -0.099948957678894501 0 -0.070774411973996171 -0.087938631371992274 0 -0.080406032077866105 -0.1007762210105704 0 -0.061121811882314331 -0.099948957678894501 0 -0.085343285872747046 -0.1193866188438472 0 -0.057390780646893999 -0.12877927802704481 0 -0.067485449906652825 -0.1146252528206762 0 -0.085343285872747046 -0.1193866188438472 0 -0.057390780646893999 -0.12877927802704481 0 -0.067485449906652825 -0.1146252528206762 0 -0.085343285872747046 -0.1193866188438472 0 -0.080406032077866105 -0.1007762210105704 0 -0.085343285872747046 -0.1193866188438472 0 -0.080406032077866105 -0.1007762210105704 0 -0.097674872864988438 -0.102110053570868 0 -0.091091896710796039 -0.083928434094190776 0 -0.080406032077866105 -0.1007762210105704 0 -0.097674872864988438 -0.102110053570868 0 -0.091091896710796039 -0.083928434094190776 0 -0.097674872864988438 -0.102110053570868 0 -0.1175479520615904 -0.096738398281173171 0 -0.085343285872747046 -0.1193866188438472 0 -0.1132957910986003 -0.1099939596606495 0 -0.10183781941636511 -0.12586310469889811 0 -0.085343285872747046 -0.1193866188438472 0 -0.097674872864988438 -0.102110053570868 0 -0.1132957910986003 -0.1099939596606495 0 -0.085343285872747046 -0.1193866188438472 0 -0.1132957910986003 -0.1099939596606495 0 -0.1132957910986003 -0.1099939596606495 0 -0.1175768928302815 -0.13410040144746341 0 -0.12878237451480781 -0.1189006596065879 0 -0.1132957910986003 -0.1099939596606495 0 -0.10183781941636511 -0.12586310469889811 0 -0.1175768928302815 -0.13410040144746341 0 -0.1132957910986003 -0.1099939596606495 0 -0.1259075312718459 -0.10879534500414161 0 -0.12878237451480781 -0.1189006596065879 0 -0.097674872864988438 -0.102110053570868 0 -0.1132957910986003 -0.1099939596606495 0 -0.1175479520615904 -0.096738398281173171 0 -0.1132957910986003 -0.1099939596606495 0 -0.1175479520615904 -0.096738398281173171 0 -0.1259075312718459 -0.10879534500414161 0 -0.1175479520615904 -0.096738398281173171 0 -0.1094946706089176 -0.082566887026342767 0 -0.1277940669072932 -0.089253822541719763 0 -0.1094946706089176 -0.082566887026342767 0 -0.12478758228658079 -0.07692650354461561 0 -0.1277940669072932 -0.089253822541719763 0 -0.091091896710796039 -0.083928434094190776 0 -0.1175479520615904 -0.096738398281173171 0 -0.091091896710796039 -0.083928434094190776 0 -0.1175479520615904 -0.096738398281173171 0 -0.1094946706089176 -0.082566887026342767 0 -0.091091896710796039 -0.083928434094190776 0 -0.1094946706089176 -0.082566887026342767 0 -0.1078504800018875 -0.066350114516083511 0 -0.1078504800018875 -0.066350114516083511 0 -0.1227923000279907 -0.056117019555931742 0 -0.1348755743965655 -0.068746191046908725 0 -0.1078504800018875 -0.066350114516083511 0 -0.1366021327520231 -0.073683902225201492 0 -0.1078504800018875 -0.066350114516083511 0 -0.12478758228658079 -0.07692650354461561 0 -0.1366021327520231 -0.073683902225201492 0 -0.1094946706089176 -0.082566887026342767 0 -0.1078504800018875 -0.066350114516083511 0 -0.12478758228658079 -0.07692650354461561 0 -0.1078504800018875 -0.066350114516083511 0 -0.1227923000279907 -0.056117019555931742 0 -0.11311618823545699 -0.041561115166538452 0 -0.11311618823545699 -0.041561115166538452 0 -0.1024103473859105 -0.023139759525271381 0 -0.12852748046173021 -0.03286181272941275 0 -0.11311618823545699 -0.041561115166538452 0 -0.096487653244477181 -0.050512007808596708 0 -0.086192294439252998 -0.029836378022051638 0 -0.11311618823545699 -0.041561115166538452 0 -0.086192294439252998 -0.029836378022051638 0 -0.11311618823545699 -0.041561115166538452 0 -0.1024103473859105 -0.023139759525271381 0 -0.086192294439252998 -0.029836378022051638 0 -0.1078504800018875 -0.066350114516083511 0 -0.096487653244477181 -0.050512007808596708 0 -0.079098827251751908 -0.059016326806965523 0 -0.1078504800018875 -0.066350114516083511 0 -0.11311618823545699 -0.041561115166538452 0 -0.096487653244477181 -0.050512007808596708 0 -0.1176067233124858 -0.018079520376502251 0 -0.1093518552721765 -0.004773364731077848 0 -0.13013721013012619 -0.011543144520247021 0 -0.1093518552721765 -0.004773364731077848 0 -0.13013721013012619 -0.011543144520247021 0 -0.13029174811000349 0.0070918604316854029 0 -0.1176067233124858 -0.018079520376502251 0 -0.1024103473859105 -0.023139759525271381 0 -0.1093518552721765 -0.004773364731077848 0 -0.1176067233124858 -0.018079520376502251 0 -0.1024103473859105 -0.023139759525271381 0 -0.12852748046173021 -0.03286181272941275 0 -0.1024103473859105 -0.023139759525271381 0 -0.12852748046173021 -0.03286181272941275 0 -0.1024103473859105 -0.023139759525271381 0 -0.1093518552721765 -0.004773364731077848 0 -0.092108345008767994 -0.0090572951029760269 0 -0.1093518552721765 -0.004773364731077848 0 -0.092108345008767994 -0.0090572951029760269 0 -0.090376957116416523 0.0065913810648580203 0 -0.1024103473859105 -0.023139759525271381 0 -0.092108345008767994 -0.0090572951029760269 0 -0.076293214310089091 -0.01341770632113423 0 -0.092108345008767994 -0.0090572951029760269 0 -0.076293214310089091 -0.01341770632113423 0 -0.092108345008767994 -0.0090572951029760269 0 -0.076293214310089091 -0.01341770632113423 0 -0.076137387701349396 0.0037200876556672969 0 -0.1024103473859105 -0.023139759525271381 0 -0.076293214310089091 -0.01341770632113423 0 -0.1024103473859105 -0.023139759525271381 0 -0.086192294439252998 -0.029836378022051638 0 -0.076293214310089091 -0.01341770632113423 0 -0.076293214310089091 -0.01341770632113423 0 -0.059268400643048953 -0.01811164087756514 0 -0.086192294439252998 -0.029836378022051638 0 -0.061801240646025379 -0.036739090627663069 0 -0.059268400643048953 -0.01811164087756514 0 -0.086192294439252998 -0.029836378022051638 0 -0.076293214310089091 -0.01341770632113423 0 -0.059268400643048953 -0.01811164087756514 0 -0.086192294439252998 -0.029836378022051638 0 -0.059268400643048953 -0.01811164087756514 0 -0.076293214310089091 -0.01341770632113423 0 -0.06927733635922316 -0.0034046240633964641 0 -0.076137387701349396 0.0037200876556672969 0 -0.076293214310089091 -0.01341770632113423 0 -0.061238950512835677 -0.0078137852030959465 0 -0.059268400643048953 -0.01811164087756514 0 -0.076293214310089091 -0.01341770632113423 0 -0.06927733635922316 -0.0034046240633964641 0 -0.061238950512835677 -0.0078137852030959465 0 -0.076293214310089091 -0.01341770632113423 0 -0.061238950512835677 -0.0078137852030959465 0 -0.06927733635922316 -0.0034046240633964641 0 -0.061238950512835677 -0.0078137852030959465 0 -0.061776760647051843 0.0025532956499628211 0 -0.096487653244477181 -0.050512007808596708 0 -0.086192294439252998 -0.029836378022051638 0 -0.079098827251751908 -0.059016326806965523 0 -0.086192294439252998 -0.029836378022051638 0 -0.079098827251751908 -0.059016326806965523 0 -0.061801240646025379 -0.036739090627663069 0 -0.064635841360001653 -0.071118469907208381 0 -0.079098827251751908 -0.059016326806965523 0 -0.050347174501616583 -0.051682539097847598 0 -0.079098827251751908 -0.059016326806965523 0 -0.050347174501616583 -0.051682539097847598 0 -0.061801240646025379 -0.036739090627663069 0 -0.079098827251751908 -0.059016326806965523 0 -0.050347174501616583 -0.051682539097847598 0 -0.061801240646025379 -0.036739090627663069 0 -0.046082002801592102 -0.039702280688415061 0 -0.050901116306901237 -0.024039399501013369 0 -0.050347174501616583 -0.051682539097847598 0 -0.061801240646025379 -0.036739090627663069 0 -0.046082002801592102 -0.039702280688415061 0 -0.046082002801592102 -0.039702280688415061 0 -0.050901116306901237 -0.024039399501013369 0 -0.030078491908122989 -0.037401864435590862 0 -0.046082002801592102 -0.039702280688415061 0 -0.037357496733338207 -0.049869525918482191 0 -0.030078491908122989 -0.037401864435590862 0 -0.050347174501616583 -0.051682539097847598 0 -0.037357496733338207 -0.049869525918482191 0 -0.043997275758610829 -0.067359991202262895 0 -0.037357496733338207 -0.049869525918482191 0 -0.029441517876609671 -0.059660055933720972 0 -0.043997275758610829 -0.067359991202262895 0 -0.050347174501616583 -0.051682539097847598 0 -0.046082002801592102 -0.039702280688415061 0 -0.037357496733338207 -0.049869525918482191 0 -0.054515483748811808 -0.0053109874646789651 0 -0.046184686715580167 -0.002209864085063335 0 -0.054515483748811808 -0.0053109874646789651 0 -0.046184686715580167 -0.002209864085063335 0 -0.045035077950967603 -0.0001443398781687212 0 -0.054515483748811808 -0.0053109874646789651 0 -0.045035077950967603 -0.0001443398781687212 0 -0.052817537323960037 0.0036461484825202118 0 -0.054515483748811808 -0.0053109874646789651 0 -0.045035077950967603 -0.0001443398781687212 0 -0.054515483748811808 -0.0053109874646789651 0 -0.052857052840430498 -0.015319646216741411 0 -0.046184686715580167 -0.002209864085063335 0 -0.054515483748811808 -0.0053109874646789651 0 -0.061238950512835677 -0.0078137852030959465 0 -0.061776760647051843 0.0025532956499628211 0 -0.054515483748811808 -0.0053109874646789651 0 -0.061238950512835677 -0.0078137852030959465 0 -0.061238950512835677 -0.0078137852030959465 0 -0.052857052840430498 -0.015319646216741411 0 -0.059268400643048953 -0.01811164087756514 0 -0.054515483748811808 -0.0053109874646789651 0 -0.061238950512835677 -0.0078137852030959465 0 -0.052857052840430498 -0.015319646216741411 0 -0.052857052840430498 -0.015319646216741411 0 -0.046184686715580167 -0.002209864085063335 0 -0.052857052840430498 -0.015319646216741411 0 -0.059268400643048953 -0.01811164087756514 0 -0.030265485242404761 -0.026108074171853211 0 -0.061801240646025379 -0.036739090627663069 0 -0.050901116306901237 -0.024039399501013369 0 -0.059268400643048953 -0.01811164087756514 0 -0.052857052840430498 -0.015319646216741411 0 -0.059268400643048953 -0.01811164087756514 0 -0.050901116306901237 -0.024039399501013369 0 -0.030078491908122989 -0.037401864435590862 0 -0.059268400643048953 -0.01811164087756514 0 -0.030265485242404761 -0.026108074171853211 0 -0.050901116306901237 -0.024039399501013369 0 -0.059268400643048953 -0.01811164087756514 0 -0.030265485242404761 -0.026108074171853211 0 -0.050901116306901237 -0.024039399501013369 0 -0.030265485242404761 -0.026108074171853211 0 -0.030078491908122989 -0.037401864435590862 0 -0.052857052840430498 -0.015319646216741411 0 -0.034611754017477708 -0.0073742377835858894 0 -0.030265485242404761 -0.026108074171853211 0 -0.052857052840430498 -0.015319646216741411 0 -0.034611754017477708 -0.0073742377835858894 0 -0.034611754017477708 -0.0073742377835858894 0 -0.046184686715580167 -0.002209864085063335 0 -0.02891487698710175 0.0042187897996601269 0 -0.052857052840430498 -0.015319646216741411 0 -0.034611754017477708 -0.0073742377835858894 0 -0.046184686715580167 -0.002209864085063335 0 -0.046184686715580167 -0.002209864085063335 0 -0.045035077950967603 -0.0001443398781687212 0 -0.034611754017477708 -0.0073742377835858894 0 -0.0099551073919055839 0.0033631653103914781 0 -0.034611754017477708 -0.0073742377835858894 0 -0.020849186638113869 -0.014052395934703159 0 -0.0099551073919055839 0.0033631653103914781 0 -0.030265485242404761 -0.026108074171853211 0 -0.001128837493879413 -0.034680937515615157 0 -0.034611754017477708 -0.0073742377835858894 0 -0.020849186638113869 -0.014052395934703159 0 -0.030265485242404761 -0.026108074171853211 0 -0.020849186638113869 -0.014052395934703159 0 -0.030265485242404761 -0.026108074171853211 0 -0.001128837493879413 -0.034680937515615157 0 -0.020849186638113869 -0.014052395934703159 0 -0.0056088386168329967 -0.01537067107787478 0 -0.001128837493879413 -0.034680937515615157 0 -0.0056088386168329967 -0.01537067107787478 0 -0.001128837493879413 -0.034680937515615157 0 -0.0056088386168329967 -0.01537067107787478 0 -0.001128837493879413 -0.034680937515615157 0 0.001676689434876717 -0.024690191921736999 0 -0.0056088386168329967 -0.01537067107787478 0 0.001893944040340123 -0.018834665851262051 0 0.001676689434876717 -0.024690191921736999 0 -0.0056088386168329967 -0.01537067107787478 0 -0.00066297982304809719 -0.014619421599601961 0 0.001893944040340123 -0.018834665851262051 0 -0.0056088386168329967 -0.01537067107787478 0 -0.0024677066761123741 -0.01085137102075517 0 -0.0099551073919055839 0.0033631653103914781 0 -0.020849186638113869 -0.014052395934703159 0 -0.0056088386168329967 -0.01537067107787478 0 -0.0099551073919055839 0.0033631653103914781 0 -0.0056088386168329967 -0.01537067107787478 0 -0.0099551073919055839 0.0033631653103914781 0 -0.0056088386168329967 -0.01537067107787478 0 -0.00066297982304809719 -0.014619421599601961 0 -0.0024677066761123741 -0.01085137102075517 0 -0.0001056971232139192 -0.012226877567302801 0 -0.00066297982304809719 -0.014619421599601961 0 -0.0024677066761123741 -0.01085137102075517 0 -0.0001056971232139192 -0.012226877567302801 0 -0.00054800408978100679 -0.0084191619305039114 0 -0.0024677066761123741 -0.01085137102075517 0 -0.01684721261452601 -0.060997563837858898 0 -0.024581016110779549 -0.051494464671459898 0 -0.0092558675093447514 -0.050764329370168337 0 -0.01684721261452601 -0.060997563837858898 0 -0.029441517876609671 -0.059660055933720972 0 -0.024581016110779549 -0.051494464671459898 0 -0.037357496733338207 -0.049869525918482191 0 -0.029441517876609671 -0.059660055933720972 0 -0.024581016110779549 -0.051494464671459898 0 -0.030265485242404761 -0.026108074171853211 0 -0.030078491908122989 -0.037401864435590862 0 -0.01218910456638877 -0.04344942315803571 0 -0.024581016110779549 -0.051494464671459898 0 -0.030078491908122989 -0.037401864435590862 0 -0.0092558675093447514 -0.050764329370168337 0 -0.030078491908122989 -0.037401864435590862 0 -0.0092558675093447514 -0.050764329370168337 0 -0.030078491908122989 -0.037401864435590862 0 -0.01218910456638877 -0.04344942315803571 0 -0.0092558675093447514 -0.050764329370168337 0 -0.037357496733338207 -0.049869525918482191 0 -0.024581016110779549 -0.051494464671459898 0 -0.030078491908122989 -0.037401864435590862 0 -0.030265485242404761 -0.026108074171853211 0 -0.01218910456638877 -0.04344942315803571 0 -0.001128837493879413 -0.034680937515615157 0 -0.01218910456638877 -0.04344942315803571 0 -0.0041389877203288428 -0.042790638788252941 0 -0.0092558675093447514 -0.050764329370168337 0 -0.00025254928865790262 -0.038458025568642591 0 -0.001128837493879413 -0.034680937515615157 0 -0.0041389877203288428 -0.042790638788252941 0 -0.00025254928865790262 -0.038458025568642591 0 -0.001128837493879413 -0.034680937515615157 0 0.00062593558706157881 -0.036194677136116411 0 -0.00025254928865790262 -0.038458025568642591 0 -0.001128837493879413 -0.034680937515615157 0 -0.0041389877203288428 -0.042790638788252941 0 -0.001150650971923293 -0.046643051696177038 0 -0.0092558675093447514 -0.050764329370168337 0 -0.01218910456638877 -0.04344942315803571 0 -0.001128837493879413 -0.034680937515615157 0 -0.0041389877203288428 -0.042790638788252941 0 -0.01218910456638877 -0.04344942315803571 0 -0.001128837493879413 -0.034680937515615157 0 -0.00025254928865790262 -0.038458025568642591 0 -0.0041389877203288428 -0.042790638788252941 0 -0.00030323227905542711 -0.042401915278994201 0 -0.0041389877203288428 -0.042790638788252941 0 -0.00030323227905542711 -0.042401915278994201 0 -0.001150650971923293 -0.046643051696177038 0 -0.001150650971923293 -0.046643051696177038 0 -0.0092558675093447514 -0.050764329370168337 0 0.0055277343438959363 -0.050975300030189873 0 -0.0092558675093447514 -0.050764329370168337 0 -0.0057948515736877034 -0.06160350681425051 0 0.011566756889433439 -0.064126794304745785 0 -0.01684721261452601 -0.060997563837858898 0 -0.0092558675093447514 -0.050764329370168337 0 -0.0057948515736877034 -0.06160350681425051 0 -0.0057948515736877034 -0.06160350681425051 0 -0.0086430830603134862 -0.070525339744229004 0 0.011566756889433439 -0.064126794304745785 0 -0.01684721261452601 -0.060997563837858898 0 -0.0057948515736877034 -0.06160350681425051 0 -0.0086430830603134862 -0.070525339744229004 0 -0.0086430830603134862 -0.070525339744229004 0 -0.01541264525278244 -0.084789890311197297 0 0.001362956578321187 -0.080402770807104701 0 -0.01541264525278244 -0.084789890311197297 0 -0.0030207421050504179 -0.094690391065331614 0 0.001362956578321187 -0.080402770807104701 0 -0.01541264525278244 -0.084789890311197297 0 -0.028480202773474111 -0.092268275896152052 0 -0.019056015262319311 -0.1032779104675971 0 -0.01541264525278244 -0.084789890311197297 0 -0.028480202773474111 -0.092268275896152052 0 -0.02668401863943921 -0.074593915658179036 0 -0.0086430830603134862 -0.070525339744229004 0 -0.01541264525278244 -0.084789890311197297 0 -0.02668401863943921 -0.074593915658179036 0 -0.01684721261452601 -0.060997563837858898 0 -0.0086430830603134862 -0.070525339744229004 0 -0.02668401863943921 -0.074593915658179036 0 -0.01684721261452601 -0.060997563837858898 0 -0.029441517876609671 -0.059660055933720972 0 -0.02668401863943921 -0.074593915658179036 0 -0.02668401863943921 -0.074593915658179036 0 -0.043997275758610829 -0.067359991202262895 0 -0.042546164414207117 -0.087736994137990243 0 -0.029441517876609671 -0.059660055933720972 0 -0.02668401863943921 -0.074593915658179036 0 -0.043997275758610829 -0.067359991202262895 0 -0.028480202773474111 -0.092268275896152052 0 -0.02668401863943921 -0.074593915658179036 0 -0.042546164414207117 -0.087736994137990243 0 -0.043997275758610829 -0.067359991202262895 0 -0.042546164414207117 -0.087736994137990243 0 -0.056615775409830933 -0.083359612276532186 0 -0.042546164414207117 -0.087736994137990243 0 -0.056615775409830933 -0.083359612276532186 0 -0.061121811882314331 -0.099948957678894501 0 -0.064635841360001653 -0.071118469907208381 0 -0.050347174501616583 -0.051682539097847598 0 -0.043997275758610829 -0.067359991202262895 0 -0.064635841360001653 -0.071118469907208381 0 -0.043997275758610829 -0.067359991202262895 0 -0.056615775409830933 -0.083359612276532186 0 -0.067485449906652825 -0.1146252528206762 0 -0.038702170298622447 -0.1109426689057966 0 -0.057390780646893999 -0.12877927802704481 0 -0.042546164414207117 -0.087736994137990243 0 -0.061121811882314331 -0.099948957678894501 0 -0.038702170298622447 -0.1109426689057966 0 -0.067485449906652825 -0.1146252528206762 0 -0.061121811882314331 -0.099948957678894501 0 -0.038702170298622447 -0.1109426689057966 0 -0.061121811882314331 -0.099948957678894501 0 -0.038702170298622447 -0.1109426689057966 0 -0.028480202773474111 -0.092268275896152052 0 -0.042546164414207117 -0.087736994137990243 0 -0.038702170298622447 -0.1109426689057966 0 -0.038702170298622447 -0.1109426689057966 0 -0.016282528714930598 -0.1219363801326986 0 -0.029438275421040921 -0.13817193721024251 0 -0.038702170298622447 -0.1109426689057966 0 -0.016282528714930598 -0.1219363801326986 0 -0.019056015262319311 -0.1032779104675971 0 -0.038702170298622447 -0.1109426689057966 0 -0.016282528714930598 -0.1219363801326986 0 -0.028480202773474111 -0.092268275896152052 0 -0.038702170298622447 -0.1109426689057966 0 -0.019056015262319311 -0.1032779104675971 0 -0.01541264525278244 -0.084789890311197297 0 -0.019056015262319311 -0.1032779104675971 0 -0.0030207421050504179 -0.094690391065331614 0 -0.019056015262319311 -0.1032779104675971 0 -0.0030207421050504179 -0.094690391065331614 0 -0.0010234108840705769 -0.1111422733610427 0 -0.016282528714930598 -0.1219363801326986 0 -0.0010234108840705769 -0.1111422733610427 0 0.0061371128687612887 -0.13293009135960071 0 -0.016282528714930598 -0.1219363801326986 0 -0.019056015262319311 -0.1032779104675971 0 -0.0010234108840705769 -0.1111422733610427 0 -0.016282528714930598 -0.1219363801326986 0 0.0061371128687612887 -0.13293009135960071 0 -0.016282528714930598 -0.1219363801326986 0 -0.01284856105792289 -0.1376557399336705 0 0.0061371128687612887 -0.13293009135960071 0 -0.016282528714930598 -0.1219363801326986 0 -0.01284856105792289 -0.1376557399336705 0 -0.029438275421040921 -0.13817193721024251 0 -0.029438275421040921 -0.13817193721024251 0 -0.01181055296448133 -0.15758455103214011 0 -0.038252137930931379 -0.15171351363597091 0 -0.01181055296448133 -0.15758455103214011 0 -0.038252137930931379 -0.15171351363597091 0 -0.01284856105792289 -0.1376557399336705 0 -0.029438275421040921 -0.13817193721024251 0 -0.01181055296448133 -0.15758455103214011 0 -0.01284856105792289 -0.1376557399336705 0 -0.01181055296448133 -0.15758455103214011 0 0.0061371128687612887 -0.13293009135960071 0 -0.01181055296448133 -0.15758455103214011 0 -0.0028894263151013492 -0.17132874208039969 0 0.01463103200196861 -0.16345558842830921 0 -0.01181055296448133 -0.15758455103214011 0 -0.0028894263151013492 -0.17132874208039969 0 -0.018605796868499652 -0.16984051356620369 0 -0.0028894263151013492 -0.17132874208039969 0 -0.013495122361386461 -0.18607344048973279 0 -0.018605796868499652 -0.16984051356620369 0 -0.0028894263151013492 -0.17132874208039969 0 -0.013495122361386461 -0.18607344048973279 0 0.01378874730351626 -0.17770003315710831 0 -0.013495122361386461 -0.18607344048973279 0 -0.018605796868499652 -0.16984051356620369 0 -0.031595639074801743 -0.17295231869595279 0 -0.013495122361386461 -0.18607344048973279 0 -0.031595639074801743 -0.17295231869595279 0 -0.040490688019897358 -0.1823689579957801 0 -0.01181055296448133 -0.15758455103214011 0 -0.018605796868499652 -0.16984051356620369 0 -0.038252137930931379 -0.15171351363597091 0 -0.018605796868499652 -0.16984051356620369 0 -0.031595639074801743 -0.17295231869595279 0 -0.038252137930931379 -0.15171351363597091 0 -0.046582891826358018 -0.17116276967437941 0 -0.031595639074801743 -0.17295231869595279 0 -0.038252137930931379 -0.15171351363597091 0 -0.046582891826358018 -0.17116276967437941 0 -0.031595639074801743 -0.17295231869595279 0 -0.040490688019897358 -0.1823689579957801 0 -0.046582891826358018 -0.17116276967437941 0 -0.040490688019897358 -0.1823689579957801 0 -0.052571020624582909 -0.18287609866899521 0 -0.040490688019897358 -0.1823689579957801 0 -0.052571020624582909 -0.18287609866899521 0 -0.048063578812372498 -0.189910776982504 0 -0.046582891826358018 -0.17116276967437941 0 -0.052571020624582909 -0.18287609866899521 0 -0.059913105236142052 -0.17352059495414171 0 -0.052571020624582909 -0.18287609866899521 0 -0.05616468603361105 -0.19040877905383341 0 -0.06295620278911454 -0.18398196824507351 0 -0.052571020624582909 -0.18287609866899521 0 -0.059913105236142052 -0.17352059495414171 0 -0.06295620278911454 -0.18398196824507351 0 -0.046582891826358018 -0.17116276967437941 0 -0.056631563852655012 -0.16155871396595059 0 -0.038252137930931379 -0.15171351363597091 0 -0.046582891826358018 -0.17116276967437941 0 -0.059913105236142052 -0.17352059495414171 0 -0.056631563852655012 -0.16155871396595059 0 -0.059913105236142052 -0.17352059495414171 0 -0.056631563852655012 -0.16155871396595059 0 -0.070328499938522401 -0.16465688545220331 0 -0.056631563852655012 -0.16155871396595059 0 -0.038252137930931379 -0.15171351363597091 0 -0.0646937228973814 -0.1458424762398017 0 -0.038252137930931379 -0.15171351363597091 0 -0.0646937228973814 -0.1458424762398017 0 -0.057390780646893999 -0.12877927802704481 0 -0.038252137930931379 -0.15171351363597091 0 -0.0646937228973814 -0.1458424762398017 0 -0.038702170298622447 -0.1109426689057966 0 -0.029438275421040921 -0.13817193721024251 0 -0.057390780646893999 -0.12877927802704481 0 -0.029438275421040921 -0.13817193721024251 0 -0.057390780646893999 -0.12877927802704481 0 -0.029438275421040921 -0.13817193721024251 0 -0.057390780646893999 -0.12877927802704481 0 -0.038252137930931379 -0.15171351363597091 0 -0.031153458829876669 -0.25764919862275859 0 -0.01984528716670898 -0.24567137369896799 0 -0.031846242997390771 -0.23150208039296569 0 -0.01984528716670898 -0.24567137369896799 0 -0.01049019969221926 -0.23761266161025449 0 -0.031846242997390771 -0.23150208039296569 0 -0.01443910201943133 -0.25556851784434159 0 -0.01984528716670898 -0.24567137369896799 0 -0.0096674166047989799 -0.2468004294220664 0 -0.01984528716670898 -0.24567137369896799 0 -0.0096674166047989799 -0.2468004294220664 0 -0.01049019969221926 -0.23761266161025449 0 -0.0066661180894588574 -0.25064606030407 0 -0.0096674166047989799 -0.2468004294220664 0 -0.002530237488774692 -0.24437598203643451 0 -0.0096674166047989799 -0.2468004294220664 0 -0.002530237488774692 -0.24437598203643451 0 -0.0057772504220451196 -0.24099561370391129 0 -0.0015922057514601571 -0.23873122412804151 0 -0.01049019969221926 -0.23761266161025449 0 -0.00216090551606126 -0.23338461732650551 0 -0.0015922057514601571 -0.23873122412804151 0 -0.0057772504220451196 -0.24099561370391129 0 -0.01049019969221926 -0.23761266161025449 0 -0.002530237488774692 -0.24437598203643451 0 -0.0015922057514601571 -0.23873122412804151 0 -0.0057772504220451196 -0.24099561370391129 0 -0.0096674166047989799 -0.2468004294220664 0 -0.0057772504220451196 -0.24099561370391129 0 -0.01049019969221926 -0.23761266161025449 0 -0.01049019969221926 -0.23761266161025449 0 -0.0025420893870695752 -0.22620329259932309 0 -0.031846242997390771 -0.23150208039296569 0 -0.0025420893870695752 -0.22620329259932309 0 -0.021031683497647259 -0.21977235640848289 0 -0.0059401469526329659 -0.2153440925253762 0 -0.01049019969221926 -0.23761266161025449 0 -0.00216090551606126 -0.23338461732650551 0 -0.0025420893870695752 -0.22620329259932309 0 -0.0025420893870695752 -0.22620329259932309 0 -0.0059401469526329659 -0.2153440925253762 0 0.004835303937409669 -0.21520312503532901 0 -0.0025420893870695752 -0.22620329259932309 0 -0.021031683497647259 -0.21977235640848289 0 -0.031846242997390771 -0.23150208039296569 0 -0.0025420893870695752 -0.22620329259932309 0 -0.031846242997390771 -0.23150208039296569 0 -0.021031683497647259 -0.21977235640848289 0 -0.03503568446039753 -0.2193507344073215 0 -0.031846242997390771 -0.23150208039296569 0 -0.021031683497647259 -0.21977235640848289 0 -0.02812632715505746 -0.2073986469484648 0 -0.0059401469526329659 -0.2153440925253762 0 -0.02812632715505746 -0.2073986469484648 0 -0.0059401469526329659 -0.2153440925253762 0 -0.014546554613521299 -0.20493276063000701 0 -0.02812632715505746 -0.2073986469484648 0 -0.0059401469526329659 -0.2153440925253762 0 -0.021031683497647259 -0.21977235640848289 0 -0.02812632715505746 -0.2073986469484648 0 -0.03503568446039753 -0.2193507344073215 0 -0.0059401469526329659 -0.2153440925253762 0 -0.0020784706516440129 -0.20733256337608791 0 0.004835303937409669 -0.21520312503532901 0 -0.0020784706516440129 -0.20733256337608791 0 -0.0053548066405819184 -0.199869257964846 0 0.006958858200533817 -0.20299696070589909 0 -0.0059401469526329659 -0.2153440925253762 0 -0.0020784706516440129 -0.20733256337608791 0 -0.014546554613521299 -0.20493276063000701 0 -0.0020784706516440129 -0.20733256337608791 0 -0.014546554613521299 -0.20493276063000701 0 -0.0053548066405819184 -0.199869257964846 0 -0.014546554613521299 -0.20493276063000701 0 -0.0053548066405819184 -0.199869257964846 0 -0.02184943185936751 -0.19448249939743389 0 -0.0053548066405819184 -0.199869257964846 0 -0.02184943185936751 -0.19448249939743389 0 0.0066136436387469327 -0.18951179742331359 0 -0.013495122361386461 -0.18607344048973279 0 -0.02184943185936751 -0.19448249939743389 0 0.0066136436387469327 -0.18951179742331359 0 -0.02184943185936751 -0.19448249939743389 0 0.0066136436387469327 -0.18951179742331359 0 -0.013495122361386461 -0.18607344048973279 0 -0.02184943185936751 -0.19448249939743389 0 -0.040778992026289103 -0.1944468478223573 0 -0.013495122361386461 -0.18607344048973279 0 -0.040778992026289103 -0.1944468478223573 0 -0.02812632715505746 -0.2073986469484648 0 -0.014546554613521299 -0.20493276063000701 0 -0.02184943185936751 -0.19448249939743389 0 -0.013495122361386461 -0.18607344048973279 0 -0.040490688019897358 -0.1823689579957801 0 -0.040778992026289103 -0.1944468478223573 0 -0.02184943185936751 -0.19448249939743389 0 -0.050312507357482057 -0.19945320137155381 0 -0.02184943185936751 -0.19448249939743389 0 -0.040778992026289103 -0.1944468478223573 0 -0.050312507357482057 -0.19945320137155381 0 -0.02812632715505746 -0.2073986469484648 0 -0.02184943185936751 -0.19448249939743389 0 -0.050312507357482057 -0.19945320137155381 0 -0.040490688019897358 -0.1823689579957801 0 -0.040778992026289103 -0.1944468478223573 0 -0.048063578812372498 -0.189910776982504 0 -0.040778992026289103 -0.1944468478223573 0 -0.048063578812372498 -0.189910776982504 0 -0.050312507357482057 -0.19945320137155381 0 -0.048063578812372498 -0.189910776982504 0 -0.05616468603361105 -0.19040877905383341 0 -0.050312507357482057 -0.19945320137155381 0 -0.05616468603361105 -0.19040877905383341 0 -0.050312507357482057 -0.19945320137155381 0 -0.066371047624185664 -0.19370222231298639 0 -0.050312507357482057 -0.19945320137155381 0 -0.066371047624185664 -0.19370222231298639 0 -0.051987589348342071 -0.19974573242145199 0 -0.050312507357482057 -0.19945320137155381 0 -0.066371047624185664 -0.19370222231298639 0 -0.052571020624582909 -0.18287609866899521 0 -0.048063578812372498 -0.189910776982504 0 -0.05616468603361105 -0.19040877905383341 0 -0.05616468603361105 -0.19040877905383341 0 -0.066371047624185664 -0.19370222231298639 0 -0.06295620278911454 -0.18398196824507351 0 -0.056548162159579668 -0.20249287556379331 0 -0.061642531189734652 -0.20498531113083179 0 -0.066371047624185664 -0.19370222231298639 0 -0.056548162159579668 -0.20249287556379331 0 -0.051987589348342071 -0.19974573242145199 0 -0.066371047624185664 -0.19370222231298639 0 -0.056548162159579668 -0.20249287556379331 0 -0.051987589348342071 -0.19974573242145199 0 -0.047972325837254332 -0.20517635585988109 0 -0.051987589348342071 -0.19974573242145199 0 -0.050312507357482057 -0.19945320137155381 0 -0.051987589348342071 -0.19974573242145199 0 -0.050312507357482057 -0.19945320137155381 0 -0.047972325837254332 -0.20517635585988109 0 -0.047972325837254332 -0.20517635585988109 0 -0.054767316798381642 -0.20885475609381529 0 -0.04625886830805951 -0.21350469159771079 0 -0.056548162159579668 -0.20249287556379331 0 -0.047972325837254332 -0.20517635585988109 0 -0.054767316798381642 -0.20885475609381529 0 -0.054767316798381642 -0.20885475609381529 0 -0.061642531189734652 -0.20498531113083179 0 -0.059327556938245901 -0.21879355975292289 0 -0.056548162159579668 -0.20249287556379331 0 -0.054767316798381642 -0.20885475609381529 0 -0.061642531189734652 -0.20498531113083179 0 -0.054767316798381642 -0.20885475609381529 0 -0.04625886830805951 -0.21350469159771079 0 -0.059327556938245901 -0.21879355975292289 0 -0.02812632715505746 -0.2073986469484648 0 -0.050312507357482057 -0.19945320137155381 0 -0.047972325837254332 -0.20517635585988109 0 -0.02812632715505746 -0.2073986469484648 0 -0.047972325837254332 -0.20517635585988109 0 -0.04625886830805951 -0.21350469159771079 0 -0.02812632715505746 -0.2073986469484648 0 -0.04625886830805951 -0.21350469159771079 0 -0.03503568446039753 -0.2193507344073215 0 -0.02812632715505746 -0.2073986469484648 0 -0.050312507357482057 -0.19945320137155381 0 -0.03503568446039753 -0.2193507344073215 0 -0.031846242997390771 -0.23150208039296569 0 -0.047915300343832658 -0.22457589668898331 0 -0.031846242997390771 -0.23150208039296569 0 -0.061150396607711703 -0.2368008681866082 0 -0.04625886830805951 -0.21350469159771079 0 -0.03503568446039753 -0.2193507344073215 0 -0.047915300343832658 -0.22457589668898331 0 -0.04625886830805951 -0.21350469159771079 0 -0.047915300343832658 -0.22457589668898331 0 -0.059327556938245901 -0.21879355975292289 0 -0.031846242997390771 -0.23150208039296569 0 -0.047915300343832658 -0.22457589668898331 0 -0.061150396607711703 -0.2368008681866082 0 -0.047915300343832658 -0.22457589668898331 0 -0.059327556938245901 -0.21879355975292289 0 -0.061150396607711703 -0.2368008681866082 0 -0.060761307663788282 -0.25505752619510558 0 -0.046947111980232187 -0.24938106318803091 0 -0.061150396607711703 -0.2368008681866082 0 -0.031153458829876669 -0.25764919862275859 0 -0.031846242997390771 -0.23150208039296569 0 -0.046947111980232187 -0.24938106318803091 0 -0.031846242997390771 -0.23150208039296569 0 -0.046947111980232187 -0.24938106318803091 0 -0.061150396607711703 -0.2368008681866082 0 -0.094946037917177178 -0.2551538201494396 0 -0.079017209134537386 -0.25548062587108289 0 -0.095554786283954862 -0.2392332732432462 0 -0.079017209134537386 -0.25548062587108289 0 -0.090454550218032725 -0.24209965598025071 0 -0.095554786283954862 -0.2392332732432462 0 -0.079017209134537386 -0.25548062587108289 0 -0.095554786283954862 -0.2392332732432462 0 -0.061150396607711703 -0.2368008681866082 0 -0.090454550218032725 -0.24209965598025071 0 -0.085129746879090265 -0.23313307516108189 0 -0.090454550218032725 -0.24209965598025071 0 -0.090954772719918725 -0.23675238836150081 0 -0.085129746879090265 -0.23313307516108189 0 -0.090454550218032725 -0.24209965598025071 0 -0.090954772719918725 -0.23675238836150081 0 -0.095554786283954862 -0.2392332732432462 0 -0.090954772719918725 -0.23675238836150081 0 -0.092680007498597033 -0.2325435490614243 0 -0.095554786283954862 -0.2392332732432462 0 -0.061150396607711703 -0.2368008681866082 0 -0.090454550218032725 -0.24209965598025071 0 -0.079017209134537386 -0.25548062587108289 0 -0.060761307663788282 -0.25505752619510558 0 -0.061150396607711703 -0.2368008681866082 0 -0.079017209134537386 -0.25548062587108289 0 -0.061150396607711703 -0.2368008681866082 0 -0.090454550218032725 -0.24209965598025071 0 -0.061150396607711703 -0.2368008681866082 0 -0.081138159353171938 -0.22450326506831139 0 -0.085129746879090265 -0.23313307516108189 0 -0.061150396607711703 -0.2368008681866082 0 -0.070767035530081152 -0.22083575586170501 0 -0.081138159353171938 -0.22450326506831139 0 -0.059327556938245901 -0.21879355975292289 0 -0.061150396607711703 -0.2368008681866082 0 -0.070767035530081152 -0.22083575586170501 0 -0.070767035530081152 -0.22083575586170501 0 -0.081138159353171938 -0.22450326506831139 0 -0.080515132573024575 -0.2119336198978172 0 -0.081138159353171938 -0.22450326506831139 0 -0.085129746879090265 -0.23313307516108189 0 -0.091076763450471554 -0.22637753022216081 0 -0.090954772719918725 -0.23675238836150081 0 -0.085129746879090265 -0.23313307516108189 0 -0.092680007498597033 -0.2325435490614243 0 -0.085129746879090265 -0.23313307516108189 0 -0.092680007498597033 -0.2325435490614243 0 -0.091076763450471554 -0.22637753022216081 0 -0.081138159353171938 -0.22450326506831139 0 -0.091076763450471554 -0.22637753022216081 0 -0.091602820567702331 -0.21825499915775221 0 -0.091602820567702331 -0.21825499915775221 0 -0.091669335313799755 -0.2073055486057061 0 -0.080515132573024575 -0.2119336198978172 0 -0.083053978983149784 -0.20316389297793269 0 -0.080515132573024575 -0.2119336198978172 0 -0.070878572414567798 -0.20337240150367139 0 -0.091669335313799755 -0.2073055486057061 0 -0.083053978983149784 -0.20316389297793269 0 -0.080515132573024575 -0.2119336198978172 0 -0.081138159353171938 -0.22450326506831139 0 -0.091602820567702331 -0.21825499915775221 0 -0.080515132573024575 -0.2119336198978172 0 -0.070767035530081152 -0.22083575586170501 0 -0.080515132573024575 -0.2119336198978172 0 -0.070372074363979853 -0.21373383425402909 0 -0.059327556938245901 -0.21879355975292289 0 -0.070767035530081152 -0.22083575586170501 0 -0.070372074363979853 -0.21373383425402909 0 -0.059327556938245901 -0.21879355975292289 0 -0.070372074363979853 -0.21373383425402909 0 -0.070878572414567798 -0.20337240150367139 0 -0.059327556938245901 -0.21879355975292289 0 -0.070878572414567798 -0.20337240150367139 0 -0.061642531189734652 -0.20498531113083179 0 -0.059327556938245901 -0.21879355975292289 0 -0.070878572414567798 -0.20337240150367139 0 -0.080515132573024575 -0.2119336198978172 0 -0.070372074363979853 -0.21373383425402909 0 -0.070878572414567798 -0.20337240150367139 0 -0.066371047624185664 -0.19370222231298639 0 -0.082429587890889527 -0.18795124325441981 0 -0.072265708611408574 -0.1845105606327514 0 -0.066371047624185664 -0.19370222231298639 0 -0.082429587890889527 -0.18795124325441981 0 -0.070878572414567798 -0.20337240150367139 0 -0.066371047624185664 -0.19370222231298639 0 -0.082429587890889527 -0.18795124325441981 0 -0.070878572414567798 -0.20337240150367139 0 -0.082429587890889527 -0.18795124325441981 0 -0.061642531189734652 -0.20498531113083179 0 -0.070878572414567798 -0.20337240150367139 0 -0.066371047624185664 -0.19370222231298639 0 -0.082429587890889527 -0.18795124325441981 0 -0.082704083009477625 -0.19683965129679359 0 -0.088127872497423432 -0.19191562928340811 0 -0.083053978983149784 -0.20316389297793269 0 -0.070878572414567798 -0.20337240150367139 0 -0.082704083009477625 -0.19683965129679359 0 -0.070878572414567798 -0.20337240150367139 0 -0.082429587890889527 -0.18795124325441981 0 -0.082704083009477625 -0.19683965129679359 0 -0.083053978983149784 -0.20316389297793269 0 -0.082704083009477625 -0.19683965129679359 0 -0.090222253927152468 -0.19807929110070299 0 -0.091669335313799755 -0.2073055486057061 0 -0.083053978983149784 -0.20316389297793269 0 -0.090222253927152468 -0.19807929110070299 0 -0.091669335313799755 -0.2073055486057061 0 -0.090222253927152468 -0.19807929110070299 0 -0.098971742912397145 -0.20071042420173571 0 -0.082704083009477625 -0.19683965129679359 0 -0.090222253927152468 -0.19807929110070299 0 -0.088127872497423432 -0.19191562928340811 0 -0.088127872497423432 -0.19191562928340811 0 -0.097201817185295442 -0.19078085672172221 0 -0.088081620474302055 -0.18592710404340171 0 -0.090222253927152468 -0.19807929110070299 0 -0.088127872497423432 -0.19191562928340811 0 -0.097201817185295442 -0.19078085672172221 0 -0.082429587890889527 -0.18795124325441981 0 -0.088127872497423432 -0.19191562928340811 0 -0.088081620474302055 -0.18592710404340171 0 -0.097201817185295442 -0.19078085672172221 0 -0.098971742912397145 -0.20071042420173571 0 -0.11316845037488631 -0.19517885137220001 0 -0.098971742912397145 -0.20071042420173571 0 -0.11316845037488631 -0.19517885137220001 0 -0.1025968577608517 -0.21220757320834729 0 -0.097201817185295442 -0.19078085672172221 0 -0.11316845037488631 -0.19517885137220001 0 -0.10403921714040031 -0.18040317626473781 0 -0.090222253927152468 -0.19807929110070299 0 -0.097201817185295442 -0.19078085672172221 0 -0.098971742912397145 -0.20071042420173571 0 -0.11316845037488631 -0.19517885137220001 0 -0.1244259238834475 -0.21086880672510949 0 -0.1367594843335227 -0.19875169283480959 0 -0.11316845037488631 -0.19517885137220001 0 -0.1120923634333726 -0.22298592061540959 0 -0.11316845037488631 -0.19517885137220001 0 -0.1244259238834475 -0.21086880672510949 0 -0.1120923634333726 -0.22298592061540959 0 -0.1244259238834475 -0.21086880672510949 0 -0.1120923634333726 -0.22298592061540959 0 -0.11316845037488631 -0.19517885137220001 0 -0.1025968577608517 -0.21220757320834729 0 -0.1120923634333726 -0.22298592061540959 0 -0.091669335313799755 -0.2073055486057061 0 -0.098971742912397145 -0.20071042420173571 0 -0.1025968577608517 -0.21220757320834729 0 -0.091602820567702331 -0.21825499915775221 0 -0.091669335313799755 -0.2073055486057061 0 -0.1025968577608517 -0.21220757320834729 0 -0.1120923634333726 -0.22298592061540959 0 -0.095554786283954862 -0.2392332732432462 0 -0.1000918617740108 -0.2273112246990602 0 -0.1120923634333726 -0.22298592061540959 0 -0.095554786283954862 -0.2392332732432462 0 -0.1120923634333726 -0.22298592061540959 0 -0.1114355431396587 -0.2399587568083455 0 -0.095554786283954862 -0.2392332732432462 0 -0.091602820567702331 -0.21825499915775221 0 -0.1025968577608517 -0.21220757320834729 0 -0.1000918617740108 -0.2273112246990602 0 -0.091076763450471554 -0.22637753022216081 0 -0.091602820567702331 -0.21825499915775221 0 -0.1000918617740108 -0.2273112246990602 0 -0.092680007498597033 -0.2325435490614243 0 -0.1000918617740108 -0.2273112246990602 0 -0.095554786283954862 -0.2392332732432462 0 -0.092680007498597033 -0.2325435490614243 0 -0.091076763450471554 -0.22637753022216081 0 -0.1000918617740108 -0.2273112246990602 0 -0.1025968577608517 -0.21220757320834729 0 -0.1000918617740108 -0.2273112246990602 0 -0.1120923634333726 -0.22298592061540959 0 -0.1244259238834475 -0.21086880672510949 0 -0.1120923634333726 -0.22298592061540959 0 -0.12431308119394099 -0.23195796891441481 0 -0.1120923634333726 -0.22298592061540959 0 -0.12431308119394099 -0.23195796891441481 0 -0.1114355431396587 -0.2399587568083455 0 -0.1120923634333726 -0.22298592061540959 0 -0.1114355431396587 -0.2399587568083455 0 -0.1107787228459442 -0.25693159300128138 0 -0.1114355431396587 -0.2399587568083455 0 -0.12625787262167751 -0.24857588056421709 0 -0.1107787228459442 -0.25693159300128138 0 -0.1114355431396587 -0.2399587568083455 0 -0.12431308119394099 -0.23195796891441481 0 -0.1114355431396587 -0.2399587568083455 0 -0.12625787262167751 -0.24857588056421709 0 -0.094946037917177178 -0.2551538201494396 0 -0.1031787725466837 -0.24781936080057809 0 -0.095554786283954862 -0.2392332732432462 0 -0.1107787228459442 -0.25693159300128138 0 -0.1114355431396587 -0.2399587568083455 0 -0.1031787725466837 -0.24781936080057809 0 -0.1114355431396587 -0.2399587568083455 0 -0.1031787725466837 -0.24781936080057809 0 -0.095554786283954862 -0.2392332732432462 0 -0.08572500779085325 -0.15588981801818591 0 -0.09113530786383145 -0.1399714388436325 0 -0.097872610166917548 -0.15132928628935849 0 -0.08572500779085325 -0.15588981801818591 0 -0.09113530786383145 -0.1399714388436325 0 -0.0646937228973814 -0.1458424762398017 0 -0.085343285872747046 -0.1193866188438472 0 -0.09113530786383145 -0.1399714388436325 0 -0.10183781941636511 -0.12586310469889811 0 -0.085343285872747046 -0.1193866188438472 0 -0.09113530786383145 -0.1399714388436325 0 -0.074640774320213474 -0.13349495298858161 0 -0.09113530786383145 -0.1399714388436325 0 -0.074640774320213474 -0.13349495298858161 0 -0.0646937228973814 -0.1458424762398017 0 -0.085343285872747046 -0.1193866188438472 0 -0.057390780646893999 -0.12877927802704481 0 -0.074640774320213474 -0.13349495298858161 0 -0.057390780646893999 -0.12877927802704481 0 -0.074640774320213474 -0.13349495298858161 0 -0.0646937228973814 -0.1458424762398017 0 -0.08572500779085325 -0.15588981801818591 0 -0.0646937228973814 -0.1458424762398017 0 -0.070328499938522401 -0.16465688545220331 0 -0.09113530786383145 -0.1399714388436325 0 -0.0646937228973814 -0.1458424762398017 0 -0.056631563852655012 -0.16155871396595059 0 -0.0646937228973814 -0.1458424762398017 0 -0.070328499938522401 -0.16465688545220331 0 -0.059913105236142052 -0.17352059495414171 0 -0.070328499938522401 -0.16465688545220331 0 -0.07040845238561938 -0.17688713371824791 0 -0.070328499938522401 -0.16465688545220331 0 -0.07040845238561938 -0.17688713371824791 0 -0.084555951249345659 -0.1722561556874069 0 -0.066371047624185664 -0.19370222231298639 0 -0.06295620278911454 -0.18398196824507351 0 -0.072265708611408574 -0.1845105606327514 0 -0.06295620278911454 -0.18398196824507351 0 -0.07040845238561938 -0.17688713371824791 0 -0.072265708611408574 -0.1845105606327514 0 -0.059913105236142052 -0.17352059495414171 0 -0.06295620278911454 -0.18398196824507351 0 -0.07040845238561938 -0.17688713371824791 0 -0.07040845238561938 -0.17688713371824791 0 -0.07817339013726099 -0.17995496984248979 0 -0.084555951249345659 -0.1722561556874069 0 -0.082429587890889527 -0.18795124325441981 0 -0.072265708611408574 -0.1845105606327514 0 -0.07817339013726099 -0.17995496984248979 0 -0.07040845238561938 -0.17688713371824791 0 -0.072265708611408574 -0.1845105606327514 0 -0.07817339013726099 -0.17995496984248979 0 -0.082429587890889527 -0.18795124325441981 0 -0.088081620474302055 -0.18592710404340171 0 -0.099019904301291747 -0.1658023771833452 0 -0.082429587890889527 -0.18795124325441981 0 -0.099019904301291747 -0.1658023771833452 0 -0.082429587890889527 -0.18795124325441981 0 -0.084555951249345659 -0.1722561556874069 0 -0.099019904301291747 -0.1658023771833452 0 -0.082429587890889527 -0.18795124325441981 0 -0.07817339013726099 -0.17995496984248979 0 -0.084555951249345659 -0.1722561556874069 0 -0.082429587890889527 -0.18795124325441981 0 -0.088081620474302055 -0.18592710404340171 0 -0.08572500779085325 -0.15588981801818591 0 -0.070328499938522401 -0.16465688545220331 0 -0.084555951249345659 -0.1722561556874069 0 -0.08572500779085325 -0.15588981801818591 0 -0.084555951249345659 -0.1722561556874069 0 -0.099019904301291747 -0.1658023771833452 0 -0.08572500779085325 -0.15588981801818591 0 -0.099019904301291747 -0.1658023771833452 0 -0.097872610166917548 -0.15132928628935849 0 -0.099019904301291747 -0.1658023771833452 0 -0.10403921714040031 -0.18040317626473781 0 -0.11424453731639959 -0.16737178212899029 0 -0.099019904301291747 -0.1658023771833452 0 -0.11353299338442389 -0.15823377704014671 0 -0.11424453731639959 -0.16737178212899029 0 -0.088081620474302055 -0.18592710404340171 0 -0.099019904301291747 -0.1658023771833452 0 -0.097085639775322363 -0.18072837855330171 0 -0.097201817185295442 -0.19078085672172221 0 -0.097085639775322363 -0.18072837855330171 0 -0.10403921714040031 -0.18040317626473781 0 -0.097201817185295442 -0.19078085672172221 0 -0.088081620474302055 -0.18592710404340171 0 -0.097085639775322363 -0.18072837855330171 0 -0.099019904301291747 -0.1658023771833452 0 -0.097085639775322363 -0.18072837855330171 0 -0.10403921714040031 -0.18040317626473781 0 -0.11316845037488631 -0.19517885137220001 0 -0.11424453731639959 -0.16737178212899029 0 -0.11316845037488631 -0.19517885137220001 0 -0.11424453731639959 -0.16737178212899029 0 -0.12702500950072121 -0.1819161768600504 0 -0.11316845037488631 -0.19517885137220001 0 -0.10403921714040031 -0.18040317626473781 0 -0.11424453731639959 -0.16737178212899029 0 -0.11424453731639959 -0.16737178212899029 0 -0.13317702563928199 -0.16797161350498541 0 -0.12702500950072121 -0.1819161768600504 0 -0.11424453731639959 -0.16737178212899029 0 -0.12525731120831071 -0.15610743773598099 0 -0.13317702563928199 -0.16797161350498541 0 -0.11353299338442389 -0.15823377704014671 0 -0.11424453731639959 -0.16737178212899029 0 -0.12525731120831071 -0.15610743773598099 0 -0.099019904301291747 -0.1658023771833452 0 -0.11353299338442389 -0.15823377704014671 0 -0.1156102207116938 -0.14365351111227051 0 -0.11353299338442389 -0.15823377704014671 0 -0.1156102207116938 -0.14365351111227051 0 -0.12525731120831071 -0.15610743773598099 0 -0.1156102207116938 -0.14365351111227051 0 -0.1315757767180131 -0.14368699430740289 0 -0.12525731120831071 -0.15610743773598099 0 -0.099019904301291747 -0.1658023771833452 0 -0.1156102207116938 -0.14365351111227051 0 -0.097872610166917548 -0.15132928628935849 0 -0.09113530786383145 -0.1399714388436325 0 -0.1156102207116938 -0.14365351111227051 0 -0.097872610166917548 -0.15132928628935849 0 -0.099019904301291747 -0.1658023771833452 0 -0.1156102207116938 -0.14365351111227051 0 -0.09113530786383145 -0.1399714388436325 0 -0.1156102207116938 -0.14365351111227051 0 -0.1175768928302815 -0.13410040144746341 0 -0.09113530786383145 -0.1399714388436325 0 -0.10183781941636511 -0.12586310469889811 0 -0.1175768928302815 -0.13410040144746341 0 -0.09113530786383145 -0.1399714388436325 0 -0.1175768928302815 -0.13410040144746341 0 -0.1156102207116938 -0.14365351111227051 0 -0.1175768928302815 -0.13410040144746341 0 -0.1315757767180131 -0.14368699430740289 0 -0.1175768928302815 -0.13410040144746341 0 -0.1440184777967316 -0.1282293640512942 0 -0.1315757767180131 -0.14368699430740289 0 -0.1175768928302815 -0.13410040144746341 0 -0.1440184777967316 -0.1282293640512942 0 -0.12878237451480781 -0.1189006596065879 0 -0.1175768928302815 -0.13410040144746341 0 -0.1440184777967316 -0.1282293640512942 0 -0.1440184777967316 -0.1282293640512942 0 -0.15027780297719359 -0.1431732091114904 0 -0.16465618218613731 -0.1318263816528096 0 -0.1440184777967316 -0.1282293640512942 0 -0.15027780297719359 -0.1431732091114904 0 -0.1315757767180131 -0.14368699430740289 0 -0.15027780297719359 -0.1431732091114904 0 -0.1406491672677142 -0.1558391419393344 0 -0.1315757767180131 -0.14368699430740289 0 -0.15573721837429211 -0.15413984971211039 0 -0.15027780297719359 -0.1431732091114904 0 -0.1406491672677142 -0.1558391419393344 0 -0.1406491672677142 -0.1558391419393344 0 -0.1315757767180131 -0.14368699430740289 0 -0.12525731120831071 -0.15610743773598099 0 -0.1406491672677142 -0.1558391419393344 0 -0.12525731120831071 -0.15610743773598099 0 -0.13317702563928199 -0.16797161350498541 0 -0.12702500950072121 -0.1819161768600504 0 -0.14259074888598269 -0.17988692742570311 0 -0.1367594843335227 -0.19875169283480959 0 -0.13317702563928199 -0.16797161350498541 0 -0.12702500950072121 -0.1819161768600504 0 -0.14259074888598269 -0.17988692742570311 0 -0.14259074888598269 -0.17988692742570311 0 -0.15873008039409481 -0.17754967265006491 0 -0.15069373275761139 -0.1896465763951094 0 -0.14259074888598269 -0.17988692742570311 0 -0.1495543459810513 -0.1665798739808956 0 -0.15873008039409481 -0.17754967265006491 0 -0.1406491672677142 -0.1558391419393344 0 -0.13317702563928199 -0.16797161350498541 0 -0.1495543459810513 -0.1665798739808956 0 -0.13317702563928199 -0.16797161350498541 0 -0.14259074888598269 -0.17988692742570311 0 -0.1495543459810513 -0.1665798739808956 0 -0.15573721837429211 -0.15413984971211039 0 -0.1406491672677142 -0.1558391419393344 0 -0.1495543459810513 -0.1665798739808956 0 -0.15573721837429211 -0.15413984971211039 0 -0.1495543459810513 -0.1665798739808956 0 -0.16915165894437831 -0.16274907885864409 0 -0.1495543459810513 -0.1665798739808956 0 -0.16915165894437831 -0.16274907885864409 0 -0.15873008039409481 -0.17754967265006491 0 -0.16915165894437831 -0.16274907885864409 0 -0.15873008039409481 -0.17754967265006491 0 -0.17594878830931929 -0.18443170932675179 0 -0.15873008039409481 -0.17754967265006491 0 -0.17594878830931929 -0.18443170932675179 0 -0.16307146555522589 -0.19023026205870419 0 -0.15873008039409481 -0.17754967265006491 0 -0.15069373275761139 -0.1896465763951094 0 -0.16307146555522589 -0.19023026205870419 0 -0.16915165894437831 -0.16274907885864409 0 -0.17594878830931929 -0.18443170932675179 0 -0.18591270537131699 -0.17444860466934481 0 -0.17594878830931929 -0.18443170932675179 0 -0.18591270537131699 -0.17444860466934481 0 -0.1900483177406434 -0.18481288072433491 0 -0.17594878830931929 -0.18443170932675179 0 -0.18429901659396539 -0.19154102873660639 0 -0.1900483177406434 -0.18481288072433491 0 -0.16915165894437831 -0.16274907885864409 0 -0.18591270537131699 -0.17444860466934481 0 -0.16915165894437831 -0.16274907885864409 0 -0.18591270537131699 -0.17444860466934481 0 -0.18476304247982439 -0.15509441125840401 0 -0.16915165894437831 -0.16274907885864409 0 -0.18476304247982439 -0.15509441125840401 0 -0.17697858679717199 -0.1463466458839128 0 -0.18476304247982439 -0.15509441125840401 0 -0.17697858679717199 -0.1463466458839128 0 -0.18681406788185381 -0.13782876540424621 0 -0.18681406788185381 -0.13782876540424621 0 -0.17326815315964669 -0.13660552518996261 0 -0.1704600627631829 -0.12235832665513099 0 -0.18681406788185381 -0.13782876540424621 0 -0.18508040305737961 -0.12943746347606169 0 -0.1704600627631829 -0.12235832665513099 0 -0.18681406788185381 -0.13782876540424621 0 -0.1704600627631829 -0.12235832665513099 0 -0.18508040305737961 -0.12943746347606169 0 -0.1704600627631829 -0.12235832665513099 0 -0.17697858679717199 -0.1463466458839128 0 -0.18681406788185381 -0.13782876540424621 0 -0.17326815315964669 -0.13660552518996261 0 -0.1440184777967316 -0.1282293640512942 0 -0.1704600627631829 -0.12235832665513099 0 -0.17326815315964669 -0.13660552518996261 0 -0.16465618218613731 -0.1318263816528096 0 -0.16502999552027309 -0.14531752300599099 0 -0.1440184777967316 -0.1282293640512942 0 -0.16465618218613731 -0.1318263816528096 0 -0.1704600627631829 -0.12235832665513099 0 -0.17326815315964669 -0.13660552518996261 0 -0.16465618218613731 -0.1318263816528096 0 -0.1704600627631829 -0.12235832665513099 0 -0.15027780297719359 -0.1431732091114904 0 -0.16465618218613731 -0.1318263816528096 0 -0.16502999552027309 -0.14531752300599099 0 -0.15573721837429211 -0.15413984971211039 0 -0.16915165894437831 -0.16274907885864409 0 -0.16502999552027309 -0.14531752300599099 0 -0.15573721837429211 -0.15413984971211039 0 -0.15027780297719359 -0.1431732091114904 0 -0.16502999552027309 -0.14531752300599099 0 -0.16915165894437831 -0.16274907885864409 0 -0.17697858679717199 -0.1463466458839128 0 -0.16502999552027309 -0.14531752300599099 0 -0.17697858679717199 -0.1463466458839128 0 -0.17326815315964669 -0.13660552518996261 0 -0.16502999552027309 -0.14531752300599099 0 -0.14279930361840851 -0.25207096314737348 0 -0.15548714140749309 -0.2356370662117491 0 -0.1367072185911854 -0.23962018548344971 0 -0.15689984089413189 -0.25316596460772289 0 -0.14279930361840851 -0.25207096314737348 0 -0.15548714140749309 -0.2356370662117491 0 -0.12431308119394099 -0.23195796891441481 0 -0.12625787262167751 -0.24857588056421709 0 -0.1367072185911854 -0.23962018548344971 0 -0.14279930361840851 -0.25207096314737348 0 -0.12625787262167751 -0.24857588056421709 0 -0.1367072185911854 -0.23962018548344971 0 -0.1244259238834475 -0.21086880672510949 0 -0.12431308119394099 -0.23195796891441481 0 -0.13920942658456331 -0.22680555719992901 0 -0.12431308119394099 -0.23195796891441481 0 -0.1367072185911854 -0.23962018548344971 0 -0.13920942658456331 -0.22680555719992901 0 -0.15548714140749309 -0.2356370662117491 0 -0.13920942658456331 -0.22680555719992901 0 -0.1559495340946262 -0.21734866592034821 0 -0.15548714140749309 -0.2356370662117491 0 -0.1367072185911854 -0.23962018548344971 0 -0.13920942658456331 -0.22680555719992901 0 -0.13920942658456331 -0.22680555719992901 0 -0.1559495340946262 -0.21734866592034821 0 -0.1417322507030781 -0.21111780993729229 0 -0.1559495340946262 -0.21734866592034821 0 -0.1417322507030781 -0.21111780993729229 0 -0.15231688461923101 -0.20181432700626509 0 -0.1417322507030781 -0.21111780993729229 0 -0.1367594843335227 -0.19875169283480959 0 -0.15231688461923101 -0.20181432700626509 0 -0.1244259238834475 -0.21086880672510949 0 -0.1417322507030781 -0.21111780993729229 0 -0.1367594843335227 -0.19875169283480959 0 -0.1244259238834475 -0.21086880672510949 0 -0.13920942658456331 -0.22680555719992901 0 -0.1417322507030781 -0.21111780993729229 0 -0.1244259238834475 -0.21086880672510949 0 -0.1367594843335227 -0.19875169283480959 0 -0.11316845037488631 -0.19517885137220001 0 -0.12702500950072121 -0.1819161768600504 0 -0.1367594843335227 -0.19875169283480959 0 -0.14259074888598269 -0.17988692742570311 0 -0.1367594843335227 -0.19875169283480959 0 -0.15069373275761139 -0.1896465763951094 0 -0.1367594843335227 -0.19875169283480959 0 -0.15231688461923101 -0.20181432700626509 0 -0.15069373275761139 -0.1896465763951094 0 -0.15231688461923101 -0.20181432700626509 0 -0.15069373275761139 -0.1896465763951094 0 -0.16307146555522589 -0.19023026205870419 0 -0.15231688461923101 -0.20181432700626509 0 -0.16307146555522589 -0.19023026205870419 0 -0.164709957345368 -0.2051551606548718 0 -0.16307146555522589 -0.19023026205870419 0 -0.1785531744809972 -0.1999321965908574 0 -0.164709957345368 -0.2051551606548718 0 -0.17594878830931929 -0.18443170932675179 0 -0.16307146555522589 -0.19023026205870419 0 -0.1785531744809972 -0.1999321965908574 0 -0.17594878830931929 -0.18443170932675179 0 -0.18429901659396539 -0.19154102873660639 0 -0.1785531744809972 -0.1999321965908574 0 -0.18429901659396539 -0.19154102873660639 0 -0.1785531744809972 -0.1999321965908574 0 -0.19264578584490169 -0.1969873283044816 0 -0.1785531744809972 -0.1999321965908574 0 -0.17365872797675971 -0.21645035169818411 0 -0.19247875181729879 -0.2124400919125016 0 -0.1785531744809972 -0.1999321965908574 0 -0.17365872797675971 -0.21645035169818411 0 -0.164709957345368 -0.2051551606548718 0 -0.1559495340946262 -0.21734866592034821 0 -0.17365872797675971 -0.21645035169818411 0 -0.164709957345368 -0.2051551606548718 0 -0.1559495340946262 -0.21734866592034821 0 -0.15231688461923101 -0.20181432700626509 0 -0.164709957345368 -0.2051551606548718 0 -0.1559495340946262 -0.21734866592034821 0 -0.17365872797675971 -0.21645035169818411 0 -0.1646475657145505 -0.22555911615131491 0 -0.15548714140749309 -0.2356370662117491 0 -0.1646475657145505 -0.22555911615131491 0 -0.17426786154328289 -0.23331579601752001 0 -0.17365872797675971 -0.21645035169818411 0 -0.1646475657145505 -0.22555911615131491 0 -0.17426786154328289 -0.23331579601752001 0 -0.15548714140749309 -0.2356370662117491 0 -0.1559495340946262 -0.21734866592034821 0 -0.1646475657145505 -0.22555911615131491 0 -0.17365872797675971 -0.21645035169818411 0 -0.1880939050055439 -0.2277477889474919 0 -0.19247875181729879 -0.2124400919125016 0 -0.17365872797675971 -0.21645035169818411 0 -0.17426786154328289 -0.23331579601752001 0 -0.1880939050055439 -0.2277477889474919 0 -0.17426786154328289 -0.23331579601752001 0 -0.1841977928877005 -0.24367028403844149 0 -0.16864149433942541 -0.24656352656142641 0 -0.17426786154328289 -0.23331579601752001 0 -0.1841977928877005 -0.24367028403844149 0 -0.1880939050055439 -0.2277477889474919 0 -0.1805807412056244 -0.25767355112630708 0 -0.1841977928877005 -0.24367028403844149 0 -0.16864149433942541 -0.24656352656142641 0 -0.15689984089413189 -0.25316596460772289 0 -0.15548714140749309 -0.2356370662117491 0 -0.16864149433942541 -0.24656352656142641 0 -0.15548714140749309 -0.2356370662117491 0 -0.17426786154328289 -0.23331579601752001 0 -0.16864149433942541 -0.24656352656142641 0 -0.20710824014373291 -0.25151573203439931 0 -0.214541255234415 -0.23616616511689439 0 -0.1984959984936206 -0.24042508888435141 0 -0.20710824014373291 -0.25151573203439931 0 -0.214541255234415 -0.23616616511689439 0 -0.2233215099851274 -0.2472906006415074 0 -0.1939028928760779 -0.25325992034109568 0 -0.20710824014373291 -0.25151573203439931 0 -0.1984959984936206 -0.24042508888435141 0 -0.1841977928877005 -0.24367028403844149 0 -0.1984959984936206 -0.24042508888435141 0 -0.1880939050055439 -0.2277477889474919 0 -0.1939028928760779 -0.25325992034109568 0 -0.1841977928877005 -0.24367028403844149 0 -0.1984959984936206 -0.24042508888435141 0 -0.1984959984936206 -0.24042508888435141 0 -0.1880939050055439 -0.2277477889474919 0 -0.20365025967729519 -0.2240892915485441 0 -0.1880939050055439 -0.2277477889474919 0 -0.20365025967729519 -0.2240892915485441 0 -0.19247875181729879 -0.2124400919125016 0 -0.214541255234415 -0.23616616511689439 0 -0.20365025967729519 -0.2240892915485441 0 -0.22181072999757689 -0.22082238399104939 0 -0.214541255234415 -0.23616616511689439 0 -0.1984959984936206 -0.24042508888435141 0 -0.20365025967729519 -0.2240892915485441 0 -0.20648091751531619 -0.2069342304389763 0 -0.225249879152052 -0.2019066922042638 0 -0.22181072999757689 -0.22082238399104939 0 -0.20365025967729519 -0.2240892915485441 0 -0.20648091751531619 -0.2069342304389763 0 -0.22181072999757689 -0.22082238399104939 0 -0.20365025967729519 -0.2240892915485441 0 -0.20648091751531619 -0.2069342304389763 0 -0.19247875181729879 -0.2124400919125016 0 -0.20648091751531619 -0.2069342304389763 0 -0.19247875181729879 -0.2124400919125016 0 -0.19264578584490169 -0.1969873283044816 0 -0.20648091751531619 -0.2069342304389763 0 -0.19264578584490169 -0.1969873283044816 0 -0.20267375179825531 -0.1861481304800463 0 -0.1785531744809972 -0.1999321965908574 0 -0.19247875181729879 -0.2124400919125016 0 -0.19264578584490169 -0.1969873283044816 0 -0.18429901659396539 -0.19154102873660639 0 -0.19264578584490169 -0.1969873283044816 0 -0.1900483177406434 -0.18481288072433491 0 -0.19264578584490169 -0.1969873283044816 0 -0.1900483177406434 -0.18481288072433491 0 -0.20267375179825531 -0.1861481304800463 0 -0.225249879152052 -0.2019066922042638 0 -0.20267375179825531 -0.1861481304800463 0 -0.20648091751531619 -0.2069342304389763 0 -0.225249879152052 -0.2019066922042638 0 -0.20267375179825531 -0.1861481304800463 0 -0.22026318957354449 -0.18800836691907949 0 -0.225249879152052 -0.2019066922042638 0 -0.20267375179825531 -0.1861481304800463 0 -0.22026318957354449 -0.18800836691907949 0 -0.225249879152052 -0.2019066922042638 0 -0.2370738827617879 -0.19693534064957771 0 -0.22026318957354449 -0.18800836691907949 0 -0.23785262734883381 -0.18986860335811179 0 -0.2370738827617879 -0.19693534064957771 0 -0.22026318957354449 -0.18800836691907949 0 -0.23785262734883381 -0.18986860335811179 0 -0.23785262734883381 -0.18986860335811179 0 -0.2370738827617879 -0.19693534064957771 0 -0.23785262734883381 -0.18986860335811179 0 -0.2370738827617879 -0.19693534064957771 0 -0.25078325667204759 -0.20234247251262591 0 -0.2370738827617879 -0.19693534064957771 0 -0.2478260065058481 -0.2176652539284821 0 -0.25078325667204759 -0.20234247251262591 0 -0.225249879152052 -0.2019066922042638 0 -0.2370738827617879 -0.19693534064957771 0 -0.2478260065058481 -0.2176652539284821 0 -0.225249879152052 -0.2019066922042638 0 -0.2478260065058481 -0.2176652539284821 0 -0.225249879152052 -0.2019066922042638 0 -0.2478260065058481 -0.2176652539284821 0 -0.22181072999757689 -0.22082238399104939 0 -0.214541255234415 -0.23616616511689439 0 -0.22181072999757689 -0.22082238399104939 0 -0.23248309337983961 -0.2355958249619359 0 -0.2478260065058481 -0.2176652539284821 0 -0.22181072999757689 -0.22082238399104939 0 -0.23248309337983961 -0.2355958249619359 0 -0.2478260065058481 -0.2176652539284821 0 -0.23248309337983961 -0.2355958249619359 0 -0.25148277171782979 -0.24159801242172771 0 -0.23947274780980549 -0.2502998433609695 0 -0.23248309337983961 -0.2355958249619359 0 -0.25148277171782979 -0.24159801242172771 0 -0.23947274780980549 -0.2502998433609695 0 -0.23248309337983961 -0.2355958249619359 0 -0.2233215099851274 -0.2472906006415074 0 -0.214541255234415 -0.23616616511689439 0 -0.23248309337983961 -0.2355958249619359 0 -0.2233215099851274 -0.2472906006415074 0 -0.20800388132538869 -0.14107109737199339 0 -0.21544066686785079 -0.14955294211049899 0 -0.2019882890175517 -0.15272795532695629 0 -0.20800388132538869 -0.14107109737199339 0 -0.21544066686785079 -0.14955294211049899 0 -0.22032183714016459 -0.13761701365911211 0 -0.20800388132538869 -0.14107109737199339 0 -0.21173759268894529 -0.12557603742265749 0 -0.22032183714016459 -0.13761701365911211 0 -0.20800388132538869 -0.14107109737199339 0 -0.21173759268894529 -0.12557603742265749 0 -0.20084762668301531 -0.13122050893255649 0 -0.20800388132538869 -0.14107109737199339 0 -0.1980764969840671 -0.13888128532866159 0 -0.20084762668301531 -0.13122050893255649 0 -0.1980764969840671 -0.13888128532866159 0 -0.20084762668301531 -0.13122050893255649 0 -0.19272862001252611 -0.13155809960755541 0 -0.20084762668301531 -0.13122050893255649 0 -0.19272862001252611 -0.13155809960755541 0 -0.19378499422689979 -0.1171793048581968 0 -0.18508040305737961 -0.12943746347606169 0 -0.19272862001252611 -0.13155809960755541 0 -0.19378499422689979 -0.1171793048581968 0 -0.18681406788185381 -0.13782876540424621 0 -0.1980764969840671 -0.13888128532866159 0 -0.19272862001252611 -0.13155809960755541 0 -0.18681406788185381 -0.13782876540424621 0 -0.18508040305737961 -0.12943746347606169 0 -0.19272862001252611 -0.13155809960755541 0 -0.18476304247982439 -0.15509441125840401 0 -0.18681406788185381 -0.13782876540424621 0 -0.2019882890175517 -0.15272795532695629 0 -0.18681406788185381 -0.13782876540424621 0 -0.2019882890175517 -0.15272795532695629 0 -0.20800388132538869 -0.14107109737199339 0 -0.1980764969840671 -0.13888128532866159 0 -0.2019882890175517 -0.15272795532695629 0 -0.18681406788185381 -0.13782876540424621 0 -0.1980764969840671 -0.13888128532866159 0 -0.2019882890175517 -0.15272795532695629 0 -0.18476304247982439 -0.15509441125840401 0 -0.2019882890175517 -0.15272795532695629 0 -0.19350393440493741 -0.16311429678520881 0 -0.18591270537131699 -0.17444860466934481 0 -0.18476304247982439 -0.15509441125840401 0 -0.19350393440493741 -0.16311429678520881 0 -0.2019882890175517 -0.15272795532695629 0 -0.19350393440493741 -0.16311429678520881 0 -0.2013517007510566 -0.1701862158861302 0 -0.18591270537131699 -0.17444860466934481 0 -0.19350393440493741 -0.16311429678520881 0 -0.2013517007510566 -0.1701862158861302 0 -0.18591270537131699 -0.17444860466934481 0 -0.2013517007510566 -0.1701862158861302 0 -0.20267375179825531 -0.1861481304800463 0 -0.18591270537131699 -0.17444860466934481 0 -0.20267375179825531 -0.1861481304800463 0 -0.18591270537131699 -0.17444860466934481 0 -0.1900483177406434 -0.18481288072433491 0 -0.20267375179825531 -0.1861481304800463 0 -0.1900483177406434 -0.18481288072433491 0 -0.20267375179825531 -0.1861481304800463 0 -0.22026318957354449 -0.18800836691907949 0 -0.20267375179825531 -0.1861481304800463 0 -0.2013517007510566 -0.1701862158861302 0 -0.20267375179825531 -0.1861481304800463 0 -0.21716251015324969 -0.16762714524966649 0 -0.22026318957354449 -0.18800836691907949 0 -0.20267375179825531 -0.1861481304800463 0 -0.21716251015324969 -0.16762714524966649 0 -0.21544066686785079 -0.14955294211049899 0 -0.2019882890175517 -0.15272795532695629 0 -0.21716251015324969 -0.16762714524966649 0 -0.2019882890175517 -0.15272795532695629 0 -0.2013517007510566 -0.1701862158861302 0 -0.21716251015324969 -0.16762714524966649 0 -0.2019882890175517 -0.15272795532695629 0 -0.21716251015324969 -0.16762714524966649 0 -0.21716251015324969 -0.16762714524966649 0 -0.22905911165937781 -0.17679796297256861 0 -0.24095811956188309 -0.16168773636341641 0 -0.21716251015324969 -0.16762714524966649 0 -0.24095811956188309 -0.16168773636341641 0 -0.22972681670289971 -0.14872149894476669 0 -0.22026318957354449 -0.18800836691907949 0 -0.23785262734883381 -0.18986860335811179 0 -0.22905911165937781 -0.17679796297256861 0 -0.22026318957354449 -0.18800836691907949 0 -0.21716251015324969 -0.16762714524966649 0 -0.22905911165937781 -0.17679796297256861 0 -0.23785262734883381 -0.18986860335811179 0 -0.22905911165937781 -0.17679796297256861 0 -0.24095811956188309 -0.16168773636341641 0 -0.23785262734883381 -0.18986860335811179 0 -0.24095811956188309 -0.16168773636341641 0 -0.23785262734883381 -0.18986860335811179 0 -0.24095811956188309 -0.16168773636341641 0 -0.25324679944106349 -0.17886530689816149 0 -0.24095811956188309 -0.16168773636341641 0 -0.24406361177493441 -0.13350686936872111 0 -0.24095811956188309 -0.16168773636341641 0 -0.24406361177493441 -0.13350686936872111 0 -0.25538467641525531 -0.14835044585258519 0 -0.24095811956188309 -0.16168773636341641 0 -0.22972681670289971 -0.14872149894476669 0 -0.24406361177493441 -0.13350686936872111 0 -0.21544066686785079 -0.14955294211049899 0 -0.21716251015324969 -0.16762714524966649 0 -0.22972681670289971 -0.14872149894476669 0 -0.21544066686785079 -0.14955294211049899 0 -0.22972681670289971 -0.14872149894476669 0 -0.22032183714016459 -0.13761701365911211 0 -0.22446331167235289 -0.12667464330498729 0 -0.23185805695171191 -0.13261979082047881 0 -0.2417768485968308 -0.1254518030139764 0 -0.22972681670289971 -0.14872149894476669 0 -0.22032183714016459 -0.13761701365911211 0 -0.23185805695171191 -0.13261979082047881 0 -0.22446331167235289 -0.12667464330498729 0 -0.22032183714016459 -0.13761701365911211 0 -0.23185805695171191 -0.13261979082047881 0 -0.21173759268894529 -0.12557603742265749 0 -0.22446331167235289 -0.12667464330498729 0 -0.22032183714016459 -0.13761701365911211 0 -0.23185805695171191 -0.13261979082047881 0 -0.2417768485968308 -0.1254518030139764 0 -0.24406361177493441 -0.13350686936872111 0 -0.22972681670289971 -0.14872149894476669 0 -0.23185805695171191 -0.13261979082047881 0 -0.24406361177493441 -0.13350686936872111 0 -0.2417768485968308 -0.1254518030139764 0 -0.24406361177493441 -0.13350686936872111 0 -0.24716910398796901 -0.1053260023740239 0 -0.2417768485968308 -0.1254518030139764 0 -0.24716910398796901 -0.1053260023740239 0 -0.23189566348603971 -0.10871728699136519 0 -0.24406361177493441 -0.13350686936872111 0 -0.24716910398796901 -0.1053260023740239 0 -0.24814461416625649 -0.096473710788699998 0 -0.24773565721647781 -0.10018480088897221 0 -0.2284307319801234 -0.086814870887665915 0 -0.24716910398796901 -0.1053260023740239 0 -0.24773565721647781 -0.10018480088897221 0 -0.23189566348603971 -0.10871728699136519 0 -0.24716910398796901 -0.1053260023740239 0 -0.24773565721647781 -0.10018480088897221 0 -0.24814461416625649 -0.096473710788699998 0 -0.24773565721647781 -0.10018480088897221 0 -0.24716910398796901 -0.1053260023740239 0 -0.23189566348603971 -0.10871728699136519 0 -0.24773565721647781 -0.10018480088897221 0 -0.22081176342027339 -0.088460063744485909 0 -0.24773565721647781 -0.10018480088897221 0 -0.23189566348603971 -0.10871728699136519 0 -0.22228206050069149 -0.1015095772580247 0 -0.24773565721647781 -0.10018480088897221 0 -0.22228206050069149 -0.1015095772580247 0 -0.22081176342027339 -0.088460063744485909 0 -0.23189566348603971 -0.10871728699136519 0 -0.22228206050069149 -0.1015095772580247 0 -0.21662222298411171 -0.1121085716087122 0 -0.23189566348603971 -0.10871728699136519 0 -0.21662222298411171 -0.1121085716087122 0 -0.22446331167235289 -0.12667464330498729 0 -0.2417768485968308 -0.1254518030139764 0 -0.21662222298411171 -0.1121085716087122 0 -0.2417768485968308 -0.1254518030139764 0 -0.21662222298411171 -0.1121085716087122 0 -0.2417768485968308 -0.1254518030139764 0 -0.23189566348603971 -0.10871728699136519 0 -0.21662222298411171 -0.1121085716087122 0 -0.24922277370902809 -0.064348014089273514 0 -0.2486900793229882 -0.07641804467541749 0 -0.23568811627976449 -0.056980397832102833 0 -0.2486900793229882 -0.07641804467541749 0 -0.23568811627976449 -0.056980397832102833 0 -0.2349680517355783 -0.068519494025110178 0 -0.2486900793229882 -0.07641804467541749 0 -0.23568811627976449 -0.056980397832102833 0 -0.2349680517355783 -0.068519494025110178 0 -0.2486900793229882 -0.07641804467541749 0 -0.23646972150247689 -0.075870618130643275 0 -0.24814461416625649 -0.096473710788699998 0 -0.22706156073563721 -0.08265429429444543 0 -0.24814461416625649 -0.096473710788699998 0 -0.2284307319801234 -0.086814870887665915 0 -0.22706156073563721 -0.08265429429444543 0 -0.24814461416625649 -0.096473710788699998 0 -0.24192476218312689 -0.083244852136539843 0 -0.22706156073563721 -0.08265429429444543 0 -0.23646972150247689 -0.075870618130643275 0 -0.24192476218312689 -0.083244852136539843 0 -0.22706156073563721 -0.08265429429444543 0 -0.2486900793229882 -0.07641804467541749 0 -0.24192476218312689 -0.083244852136539843 0 -0.24917492311657641 -0.087124146371722555 0 -0.2486900793229882 -0.07641804467541749 0 -0.23646972150247689 -0.075870618130643275 0 -0.24192476218312689 -0.083244852136539843 0 -0.24814461416625649 -0.096473710788699998 0 -0.24192476218312689 -0.083244852136539843 0 -0.24917492311657641 -0.087124146371722555 0 -0.24814461416625649 -0.096473710788699998 0 -0.24917492311657641 -0.087124146371722555 0 -0.25211630261344131 -0.094619280979757275 0 -0.24814461416625649 -0.096473710788699998 0 -0.24917492311657641 -0.087124146371722555 0 -0.24773565721647781 -0.10018480088897221 0 -0.2284307319801234 -0.086814870887665915 0 -0.22081176342027339 -0.088460063744485909 0 -0.2284307319801234 -0.086814870887665915 0 -0.22081176342027339 -0.088460063744485909 0 -0.22706156073563721 -0.08265429429444543 0 -0.2284307319801234 -0.086814870887665915 0 -0.22706156073563721 -0.08265429429444543 0 -0.2349680517355783 -0.068519494025110178 0 -0.22930388755468689 -0.075686161902546636 0 -0.2260095463514358 -0.069149326687320059 0 -0.23646972150247689 -0.075870618130643275 0 -0.22706156073563721 -0.08265429429444543 0 -0.22930388755468689 -0.075686161902546636 0 -0.2349680517355783 -0.068519494025110178 0 -0.23646972150247689 -0.075870618130643275 0 -0.22930388755468689 -0.075686161902546636 0 -0.22706156073563721 -0.08265429429444543 0 -0.22930388755468689 -0.075686161902546636 0 -0.22214375797243099 -0.06771029430242767 0 -0.22930388755468689 -0.075686161902546636 0 -0.2260095463514358 -0.069149326687320059 0 -0.22214375797243099 -0.06771029430242767 0 -0.22706156073563721 -0.08265429429444543 0 -0.22214375797243099 -0.06771029430242767 0 -0.2260095463514358 -0.069149326687320059 0 -0.22214375797243099 -0.06771029430242767 0 -0.21935502538754681 -0.059236017936962551 0 -0.22214375797243099 -0.06771029430242767 0 -0.21935502538754681 -0.059236017936962551 0 -0.2260095463514358 -0.069149326687320059 0 -0.22214375797243099 -0.06771029430242767 0 -0.2349680517355783 -0.068519494025110178 0 -0.2260095463514358 -0.069149326687320059 0 -0.23568811627976449 -0.056980397832102833 0 -0.22214375797243099 -0.06771029430242767 0 -0.20478426894529711 -0.061248257469038378 0 -0.21935502538754681 -0.059236017936962551 0 -0.22706156073563721 -0.08265429429444543 0 -0.20391165367450309 -0.067480106716070756 0 -0.22706156073563721 -0.08265429429444543 0 -0.22214375797243099 -0.06771029430242767 0 -0.20391165367450309 -0.067480106716070756 0 -0.22214375797243099 -0.06771029430242767 0 -0.20478426894529711 -0.061248257469038378 0 -0.22214375797243099 -0.06771029430242767 0 -0.20391165367450309 -0.067480106716070756 0 -0.20478426894529711 -0.061248257469038378 0 -0.22081176342027339 -0.088460063744485909 0 -0.20391165367450309 -0.067480106716070756 0 -0.19388786962406929 -0.076735326599999043 0 -0.22081176342027339 -0.088460063744485909 0 -0.19388786962406929 -0.076735326599999043 0 -0.21056676648024181 -0.098840433579913387 0 -0.22081176342027339 -0.088460063744485909 0 -0.22706156073563721 -0.08265429429444543 0 -0.20391165367450309 -0.067480106716070756 0 -0.22081176342027339 -0.088460063744485909 0 -0.19388786962406929 -0.076735326599999043 0 -0.19388786962406929 -0.076735326599999043 0 -0.19618556083722499 -0.10126797646826149 0 -0.17574889869033861 -0.090427381327810599 0 -0.19388786962406929 -0.076735326599999043 0 -0.21056676648024181 -0.098840433579913387 0 -0.19618556083722499 -0.10126797646826149 0 -0.20391165367450309 -0.067480106716070756 0 -0.19388786962406929 -0.076735326599999043 0 -0.18076174661336941 -0.052305919137695722 0 -0.20391165367450309 -0.067480106716070756 0 -0.2005446248330488 -0.061833757578000373 0 -0.20478426894529711 -0.061248257469038378 0 -0.21662222298411171 -0.1121085716087122 0 -0.19378499422689979 -0.1171793048581968 0 -0.21173759268894529 -0.12557603742265749 0 -0.21662222298411171 -0.1121085716087122 0 -0.19378499422689979 -0.1171793048581968 0 -0.21173759268894529 -0.12557603742265749 0 -0.22446331167235289 -0.12667464330498729 0 -0.21662222298411171 -0.1121085716087122 0 -0.22228206050069149 -0.1015095772580247 0 -0.21662222298411171 -0.1121085716087122 0 -0.21056676648024181 -0.098840433579913387 0 -0.21662222298411171 -0.1121085716087122 0 -0.21056676648024181 -0.098840433579913387 0 -0.19618556083722499 -0.10126797646826149 0 -0.21662222298411171 -0.1121085716087122 0 -0.19618556083722499 -0.10126797646826149 0 -0.22228206050069149 -0.1015095772580247 0 -0.22081176342027339 -0.088460063744485909 0 -0.21056676648024181 -0.098840433579913387 0 -0.19618556083722499 -0.10126797646826149 0 -0.19378499422689979 -0.1171793048581968 0 -0.18317201175135661 -0.10755751884110321 0 -0.21173759268894529 -0.12557603742265749 0 -0.20084762668301531 -0.13122050893255649 0 -0.19378499422689979 -0.1171793048581968 0 -0.21662222298411171 -0.1121085716087122 0 -0.19618556083722499 -0.10126797646826149 0 -0.19378499422689979 -0.1171793048581968 0 -0.1704600627631829 -0.12235832665513099 0 -0.17170392759695119 -0.10609061588175921 0 -0.18317201175135661 -0.10755751884110321 0 -0.19378499422689979 -0.1171793048581968 0 -0.1704600627631829 -0.12235832665513099 0 -0.18317201175135661 -0.10755751884110321 0 -0.19378499422689979 -0.1171793048581968 0 -0.1704600627631829 -0.12235832665513099 0 -0.18508040305737961 -0.12943746347606169 0 -0.19378499422689979 -0.1171793048581968 0 -0.1704600627631829 -0.12235832665513099 0 -0.1704600627631829 -0.12235832665513099 0 -0.17170392759695119 -0.10609061588175921 0 -0.15556103774197449 -0.1071421932533502 0 -0.1704600627631829 -0.12235832665513099 0 -0.144004007412385 -0.1095483624681557 0 -0.1704600627631829 -0.12235832665513099 0 -0.144004007412385 -0.1095483624681557 0 -0.15556103774197449 -0.1071421932533502 0 -0.1704600627631829 -0.12235832665513099 0 -0.15556103774197449 -0.1071421932533502 0 -0.17170392759695119 -0.10609061588175921 0 -0.16468313056988579 -0.098838987677576012 0 -0.15556103774197449 -0.1071421932533502 0 -0.17170392759695119 -0.10609061588175921 0 -0.16468313056988579 -0.098838987677576012 0 -0.17574889869033861 -0.090427381327810599 0 -0.16468313056988579 -0.098838987677576012 0 -0.15571865825027881 -0.0916957602473841 0 -0.15556103774197449 -0.1071421932533502 0 -0.19618556083722499 -0.10126797646826149 0 -0.17574889869033861 -0.090427381327810599 0 -0.19618556083722499 -0.10126797646826149 0 -0.18317201175135661 -0.10755751884110321 0 -0.17574889869033861 -0.090427381327810599 0 -0.17170392759695119 -0.10609061588175921 0 -0.18317201175135661 -0.10755751884110321 0 -0.17574889869033861 -0.090427381327810599 0 -0.19388786962406929 -0.076735326599999043 0 -0.16696397582786521 -0.065010589455512149 0 -0.19388786962406929 -0.076735326599999043 0 -0.17574889869033861 -0.090427381327810599 0 -0.16696397582786521 -0.065010589455512149 0 -0.19388786962406929 -0.076735326599999043 0 -0.16696397582786521 -0.065010589455512149 0 -0.18076174661336941 -0.052305919137695722 0 -0.17574889869033861 -0.090427381327810599 0 -0.15571865825027881 -0.0916957602473841 0 -0.15531223654345211 -0.07958678618735969 0 -0.17574889869033861 -0.090427381327810599 0 -0.15531223654345211 -0.07958678618735969 0 -0.16468313056988579 -0.098838987677576012 0 -0.17574889869033861 -0.090427381327810599 0 -0.15571865825027881 -0.0916957602473841 0 -0.17574889869033861 -0.090427381327810599 0 -0.16696397582786521 -0.065010589455512149 0 -0.15531223654345211 -0.07958678618735969 0 -0.15531223654345211 -0.07958678618735969 0 -0.14436041511388059 -0.081696552236284692 0 -0.1366021327520231 -0.073683902225201492 0 -0.15571865825027881 -0.0916957602473841 0 -0.15531223654345211 -0.07958678618735969 0 -0.14436041511388059 -0.081696552236284692 0 -0.15571865825027881 -0.0916957602473841 0 -0.14436041511388059 -0.081696552236284692 0 -0.14017431001427769 -0.092034348398982918 0 -0.15531223654345211 -0.07958678618735969 0 -0.1348755743965655 -0.068746191046908725 0 -0.14004008203166099 -0.053285852311025249 0 -0.15531223654345211 -0.07958678618735969 0 -0.1348755743965655 -0.068746191046908725 0 -0.1366021327520231 -0.073683902225201492 0 -0.16696397582786521 -0.065010589455512149 0 -0.15531223654345211 -0.07958678618735969 0 -0.14004008203166099 -0.053285852311025249 0 -0.15531223654345211 -0.07958678618735969 0 -0.1348755743965655 -0.068746191046908725 0 -0.1078504800018875 -0.066350114516083511 0 -0.1348755743965655 -0.068746191046908725 0 -0.1366021327520231 -0.073683902225201492 0 -0.14436041511388059 -0.081696552236284692 0 -0.1366021327520231 -0.073683902225201492 0 -0.14017431001427769 -0.092034348398982918 0 -0.12478758228658079 -0.07692650354461561 0 -0.1366021327520231 -0.073683902225201492 0 -0.14017431001427769 -0.092034348398982918 0 -0.12478758228658079 -0.07692650354461561 0 -0.14017431001427769 -0.092034348398982918 0 -0.12478758228658079 -0.07692650354461561 0 -0.14017431001427769 -0.092034348398982918 0 -0.1277940669072932 -0.089253822541719763 0 -0.1175479520615904 -0.096738398281173171 0 -0.1259075312718459 -0.10879534500414161 0 -0.144004007412385 -0.1095483624681557 0 -0.1175479520615904 -0.096738398281173171 0 -0.144004007412385 -0.1095483624681557 0 -0.1175479520615904 -0.096738398281173171 0 -0.1277940669072932 -0.089253822541719763 0 -0.144004007412385 -0.1095483624681557 0 -0.14017431001427769 -0.092034348398982918 0 -0.1277940669072932 -0.089253822541719763 0 -0.144004007412385 -0.1095483624681557 0 -0.1440184777967316 -0.1282293640512942 0 -0.12878237451480781 -0.1189006596065879 0 -0.144004007412385 -0.1095483624681557 0 -0.1259075312718459 -0.10879534500414161 0 -0.12878237451480781 -0.1189006596065879 0 -0.144004007412385 -0.1095483624681557 0 -0.1440184777967316 -0.1282293640512942 0 -0.1704600627631829 -0.12235832665513099 0 -0.144004007412385 -0.1095483624681557 0 -0.14017431001427769 -0.092034348398982918 0 -0.144004007412385 -0.1095483624681557 0 -0.15556103774197449 -0.1071421932533502 0 -0.15571865825027881 -0.0916957602473841 0 -0.14017431001427769 -0.092034348398982918 0 -0.15556103774197449 -0.1071421932533502 0 -0.14017431001427769 -0.092034348398982918 0 -0.15556103774197449 -0.1071421932533502 0 -0.14541703233094311 -0.017104477328801049 0 -0.15301546361985141 -0.02480222778358308 0 -0.12852748046173021 -0.03286181272941275 0 -0.15301546361985141 -0.02480222778358308 0 -0.12852748046173021 -0.03286181272941275 0 -0.1557709242422497 -0.035925057417785573 0 -0.14541703233094311 -0.017104477328801049 0 -0.15301546361985141 -0.02480222778358308 0 -0.1565152055332231 -0.01426756529635302 0 -0.14541703233094311 -0.017104477328801049 0 -0.15753431684281241 -0.001750762085388194 0 -0.1565152055332231 -0.01426756529635302 0 -0.14541703233094311 -0.017104477328801049 0 -0.13013721013012619 -0.011543144520247021 0 -0.15753431684281241 -0.001750762085388194 0 -0.13013721013012619 -0.011543144520247021 0 -0.15753431684281241 -0.001750762085388194 0 -0.13029174811000349 0.0070918604316854029 0 -0.14541703233094311 -0.017104477328801049 0 -0.13013721013012619 -0.011543144520247021 0 -0.12852748046173021 -0.03286181272941275 0 -0.1176067233124858 -0.018079520376502251 0 -0.13013721013012619 -0.011543144520247021 0 -0.12852748046173021 -0.03286181272941275 0 -0.11311618823545699 -0.041561115166538452 0 -0.12852748046173021 -0.03286181272941275 0 -0.14004008203166099 -0.053285852311025249 0 -0.11311618823545699 -0.041561115166538452 0 -0.14004008203166099 -0.053285852311025249 0 -0.1227923000279907 -0.056117019555931742 0 -0.11311618823545699 -0.041561115166538452 0 -0.14004008203166099 -0.053285852311025249 0 -0.1227923000279907 -0.056117019555931742 0 -0.1348755743965655 -0.068746191046908725 0 -0.14004008203166099 -0.053285852311025249 0 -0.16696397582786521 -0.065010589455512149 0 -0.14004008203166099 -0.053285852311025249 0 -0.16696397582786521 -0.065010589455512149 0 -0.14004008203166099 -0.053285852311025249 0 -0.15464461353754991 -0.042583865933554087 0 -0.12852748046173021 -0.03286181272941275 0 -0.15464461353754991 -0.042583865933554087 0 -0.1557709242422497 -0.035925057417785573 0 -0.12852748046173021 -0.03286181272941275 0 -0.14004008203166099 -0.053285852311025249 0 -0.15464461353754991 -0.042583865933554087 0 -0.12852748046173021 -0.03286181272941275 0 -0.15464461353754991 -0.042583865933554087 0 -0.15464461353754991 -0.042583865933554087 0 -0.1557709242422497 -0.035925057417785573 0 -0.18076174661336941 -0.052305919137695722 0 -0.1557709242422497 -0.035925057417785573 0 -0.17145492553269781 -0.034438629647596898 0 -0.18076174661336941 -0.052305919137695722 0 -0.1557709242422497 -0.035925057417785573 0 -0.17145492553269781 -0.034438629647596898 0 -0.1635477431562857 -0.028226633622363939 0 -0.1557709242422497 -0.035925057417785573 0 -0.18076174661336941 -0.052305919137695722 0 -0.16696397582786521 -0.065010589455512149 0 -0.15464461353754991 -0.042583865933554087 0 -0.18076174661336941 -0.052305919137695722 0 -0.15464461353754991 -0.042583865933554087 0 -0.18076174661336941 -0.052305919137695722 0 -0.18076174661336941 -0.052305919137695722 0 -0.18336762397173109 -0.031946462083268179 0 -0.1975168109591664 -0.043151117049037929 0 -0.17145492553269781 -0.034438629647596898 0 -0.18076174661336941 -0.052305919137695722 0 -0.18336762397173109 -0.031946462083268179 0 -0.17902553485857989 -0.021694910991425408 0 -0.16640586704529481 -0.01803144058512976 0 -0.18477688557562119 -0.01059338460246179 0 -0.18336762397173109 -0.031946462083268179 0 -0.17902553485857989 -0.021694910991425408 0 -0.18988079370349631 -0.02146710178899381 0 -0.17902553485857989 -0.021694910991425408 0 -0.18477688557562119 -0.01059338460246179 0 -0.18988079370349631 -0.02146710178899381 0 -0.17902553485857989 -0.021694910991425408 0 -0.17276033891291789 -0.02686761538595683 0 -0.16640586704529481 -0.01803144058512976 0 -0.17145492553269781 -0.034438629647596898 0 -0.18336762397173109 -0.031946462083268179 0 -0.17276033891291789 -0.02686761538595683 0 -0.18336762397173109 -0.031946462083268179 0 -0.17902553485857989 -0.021694910991425408 0 -0.17276033891291789 -0.02686761538595683 0 -0.17276033891291789 -0.02686761538595683 0 -0.16640586704529481 -0.01803144058512976 0 -0.1635477431562857 -0.028226633622363939 0 -0.17145492553269781 -0.034438629647596898 0 -0.17276033891291789 -0.02686761538595683 0 -0.1635477431562857 -0.028226633622363939 0 -0.15301546361985141 -0.02480222778358308 0 -0.16640586704529481 -0.01803144058512976 0 -0.1565152055332231 -0.01426756529635302 0 -0.15301546361985141 -0.02480222778358308 0 -0.16640586704529481 -0.01803144058512976 0 -0.1635477431562857 -0.028226633622363939 0 -0.15301546361985141 -0.02480222778358308 0 -0.1557709242422497 -0.035925057417785573 0 -0.1635477431562857 -0.028226633622363939 0 -0.15753431684281241 -0.001750762085388194 0 -0.18477688557562119 -0.01059338460246179 0 -0.16640586704529481 -0.01803144058512976 0 -0.15753431684281241 -0.001750762085388194 0 -0.18477688557562119 -0.01059338460246179 0 -0.15753431684281241 -0.001750762085388194 0 -0.18477688557562119 -0.01059338460246179 0 -0.1730270761647775 0.0018094399188447899 0 -0.16640586704529481 -0.01803144058512976 0 -0.15753431684281241 -0.001750762085388194 0 -0.1565152055332231 -0.01426756529635302 0 -0.1977826279748863 -0.01530621448648019 0 -0.1730270761647775 0.0018094399188447899 0 -0.18234239824558529 0.0047365099851166964 0 -0.18477688557562119 -0.01059338460246179 0 -0.1977826279748863 -0.01530621448648019 0 -0.1730270761647775 0.0018094399188447899 0 -0.1977826279748863 -0.01530621448648019 0 -0.1730270761647775 0.0018094399188447899 0 -0.1977826279748863 -0.01530621448648019 0 -0.18234239824558529 0.0047365099851166964 0 -0.1932338010600016 -0.001768997084909288 0 -0.1977826279748863 -0.01530621448648019 0 -0.18234239824558529 0.0047365099851166964 0 -0.2020771290869561 -0.0067327162368746828 0 -0.1977826279748863 -0.01530621448648019 0 -0.20699440394934651 -0.0216751120674138 0 -0.1932338010600016 -0.001768997084909288 0 -0.2020771290869561 -0.0067327162368746828 0 -0.1977826279748863 -0.01530621448648019 0 -0.1977826279748863 -0.01530621448648019 0 -0.18988079370349631 -0.02146710178899381 0 -0.19814425136626301 -0.022179759114544589 0 -0.18477688557562119 -0.01059338460246179 0 -0.1977826279748863 -0.01530621448648019 0 -0.18988079370349631 -0.02146710178899381 0 -0.18336762397173109 -0.031946462083268179 0 -0.18988079370349631 -0.02146710178899381 0 -0.19727178500050599 -0.0294775728341139 0 -0.18988079370349631 -0.02146710178899381 0 -0.19727178500050599 -0.0294775728341139 0 -0.19814425136626301 -0.022179759114544589 0 -0.19727178500050599 -0.0294775728341139 0 -0.20580617730147699 -0.029160495820939068 0 -0.2046980723796665 -0.024283046388184921 0 -0.19727178500050599 -0.0294775728341139 0 -0.19814425136626301 -0.022179759114544589 0 -0.2046980723796665 -0.024283046388184921 0 -0.1977826279748863 -0.01530621448648019 0 -0.19814425136626301 -0.022179759114544589 0 -0.2046980723796665 -0.024283046388184921 0 -0.1977826279748863 -0.01530621448648019 0 -0.2046980723796665 -0.024283046388184921 0 -0.1977826279748863 -0.01530621448648019 0 -0.20699440394934651 -0.0216751120674138 0 -0.21108101640881 -0.02019332840731014 0 -0.21398169243695739 -0.01526221164188362 0 -0.20721847025869111 -0.01175856232731304 0 -0.2020771290869561 -0.0067327162368746828 0 -0.20699440394934651 -0.0216751120674138 0 -0.21108101640881 -0.02019332840731014 0 -0.1977826279748863 -0.01530621448648019 0 -0.20699440394934651 -0.0216751120674138 0 -0.2046980723796665 -0.024283046388184921 0 -0.20699440394934651 -0.0216751120674138 0 -0.20927987195864761 -0.02325525380296525 0 -0.21108101640881 -0.02019332840731014 0 -0.20699440394934651 -0.0216751120674138 0 -0.20927987195864761 -0.02325525380296525 0 -0.20699440394934651 -0.0216751120674138 0 -0.2081477499536139 -0.025179848533763871 0 -0.20699440394934651 -0.0216751120674138 0 -0.20927987195864761 -0.02325525380296525 0 -0.2081477499536139 -0.025179848533763871 0 -0.20927987195864761 -0.02325525380296525 0 -0.21108101640881 -0.02019332840731014 0 -0.20580617730147699 -0.029160495820939068 0 -0.2046980723796665 -0.024283046388184921 0 -0.2081477499536139 -0.025179848533763871 0 -0.20580617730147699 -0.029160495820939068 0 -0.2081477499536139 -0.025179848533763871 0 -0.20699440394934651 -0.0216751120674138 0 -0.2046980723796665 -0.024283046388184921 0 -0.2081477499536139 -0.025179848533763871 0 -0.20927987195864761 -0.02325525380296525 0 -0.2081477499536139 -0.025179848533763871 0 -0.20927987195864761 -0.02325525380296525 0 -0.2164409699988262 -0.028206340337349541 0 -0.21108101640881 -0.02019332840731014 0 -0.2164409699988262 -0.028206340337349541 0 -0.21108101640881 -0.02019332840731014 0 -0.20927987195864761 -0.02325525380296525 0 -0.2081477499536139 -0.025179848533763871 0 -0.2164409699988262 -0.028206340337349541 0 -0.20927987195864761 -0.02325525380296525 0 -0.2164409699988262 -0.028206340337349541 0 -0.2164409699988262 -0.028206340337349541 0 -0.21108101640881 -0.02019332840731014 0 -0.21398169243695739 -0.01526221164188362 0 -0.21108101640881 -0.02019332840731014 0 -0.21398169243695739 -0.01526221164188362 0 -0.21398169243695739 -0.01526221164188362 0 -0.21107775657003461 -0.0024807636934089899 0 -0.22790469448703671 0.0084067359303357583 0 -0.2020771290869561 -0.0067327162368746828 0 -0.21107775657003461 -0.0024807636934089899 0 -0.20721847025869111 -0.01175856232731304 0 -0.2020771290869561 -0.0067327162368746828 0 -0.21107775657003461 -0.0024807636934089899 0 -0.20470036820778989 0.005056858126057653 0 -0.2020771290869561 -0.0067327162368746828 0 -0.21108101640881 -0.02019332840731014 0 -0.20721847025869111 -0.01175856232731304 0 -0.2020771290869561 -0.0067327162368746828 0 -0.21108101640881 -0.02019332840731014 0 -0.2020771290869561 -0.0067327162368746828 0 -0.20699440394934651 -0.0216751120674138 0 -0.21398169243695739 -0.01526221164188362 0 -0.21107775657003461 -0.0024807636934089899 0 -0.20721847025869111 -0.01175856232731304 0 -0.21398169243695739 -0.01526221164188362 0 -0.20721847025869111 -0.01175856232731304 0 -0.20391165367450309 -0.067480106716070756 0 -0.18076174661336941 -0.052305919137695722 0 -0.20391165367450309 -0.067480106716070756 0 -0.18076174661336941 -0.052305919137695722 0 -0.2005446248330488 -0.061833757578000373 0 -0.18076174661336941 -0.052305919137695722 0 -0.2005446248330488 -0.061833757578000373 0 -0.20478426894529711 -0.061248257469038378 0 -0.18076174661336941 -0.052305919137695722 0 -0.20478426894529711 -0.061248257469038378 0 -0.18076174661336941 -0.052305919137695722 0 -0.1975168109591664 -0.043151117049037929 0 -0.20478426894529711 -0.061248257469038378 0 -0.2005446248330488 -0.061833757578000373 0 -0.20478426894529711 -0.061248257469038378 0 -0.18336762397173109 -0.031946462083268179 0 -0.19727178500050599 -0.0294775728341139 0 -0.1975168109591664 -0.043151117049037929 0 -0.19727178500050599 -0.0294775728341139 0 -0.20580617730147699 -0.029160495820939068 0 -0.2047284399519296 -0.037500248760070597 0 -0.19727178500050599 -0.0294775728341139 0 -0.1975168109591664 -0.043151117049037929 0 -0.2047284399519296 -0.037500248760070597 0 -0.2081477499536139 -0.025179848533763871 0 -0.2137513876705803 -0.042207933235363197 0 -0.20580617730147699 -0.029160495820939068 0 -0.2081477499536139 -0.025179848533763871 0 -0.2137513876705803 -0.042207933235363197 0 -0.2081477499536139 -0.025179848533763871 0 -0.2164409699988262 -0.028206340337349541 0 -0.2137513876705803 -0.042207933235363197 0 -0.1975168109591664 -0.043151117049037929 0 -0.2047284399519296 -0.037500248760070597 0 -0.2137513876705803 -0.042207933235363197 0 -0.20580617730147699 -0.029160495820939068 0 -0.2047284399519296 -0.037500248760070597 0 -0.2137513876705803 -0.042207933235363197 0 -0.1975168109591664 -0.043151117049037929 0 -0.2137513876705803 -0.042207933235363197 0 -0.20478426894529711 -0.061248257469038378 0 -0.2137513876705803 -0.042207933235363197 0 -0.20478426894529711 -0.061248257469038378 0 -0.21935502538754681 -0.059236017936962551 0 -0.2137513876705803 -0.042207933235363197 0 -0.21935502538754681 -0.059236017936962551 0 -0.20478426894529711 -0.061248257469038378 0 -0.21935502538754681 -0.059236017936962551 0 -0.2260095463514358 -0.069149326687320059 0 -0.21935502538754681 -0.059236017936962551 0 -0.23568811627976449 -0.056980397832102833 0 -0.2137513876705803 -0.042207933235363197 0 -0.21935502538754681 -0.059236017936962551 0 -0.22606454313929469 -0.042593369084726648 0 -0.21935502538754681 -0.059236017936962551 0 -0.22606454313929469 -0.042593369084726648 0 -0.23568811627976449 -0.056980397832102833 0 -0.21935502538754681 -0.059236017936962551 0 -0.23568811627976449 -0.056980397832102833 0 -0.22606454313929469 -0.042593369084726648 0 -0.23568811627976449 -0.056980397832102833 0 -0.22606454313929469 -0.042593369084726648 0 -0.2283438481118657 -0.031868537209300288 0 -0.24409685737162509 -0.043713559234042437 0 -0.2164409699988262 -0.028206340337349541 0 -0.22606454313929469 -0.042593369084726648 0 -0.2164409699988262 -0.028206340337349541 0 -0.22606454313929469 -0.042593369084726648 0 -0.2283438481118657 -0.031868537209300288 0 -0.2164409699988262 -0.028206340337349541 0 -0.2137513876705803 -0.042207933235363197 0 -0.22606454313929469 -0.042593369084726648 0 -0.24409685737162509 -0.043713559234042437 0 -0.23976053522562291 -0.028616796555146269 0 -0.26553937801428812 -0.041971381468409188 0 -0.2283438481118657 -0.031868537209300288 0 -0.24409685737162509 -0.043713559234042437 0 -0.23976053522562291 -0.028616796555146269 0 -0.24409685737162509 -0.043713559234042437 0 -0.23568811627976449 -0.056980397832102833 0 -0.25578661458083107 -0.054204770295051448 0 -0.22606454313929469 -0.042593369084726648 0 -0.24409685737162509 -0.043713559234042437 0 -0.23568811627976449 -0.056980397832102833 0 -0.23568811627976449 -0.056980397832102833 0 -0.25578661458083107 -0.054204770295051448 0 -0.24922277370902809 -0.064348014089273514 0 -0.23568811627976449 -0.056980397832102833 0 -0.25578661458083107 -0.054204770295051448 0 -0.21398169243695739 -0.01526221164188362 0 -0.22790469448703671 0.0084067359303357583 0 -0.21398169243695739 -0.01526221164188362 0 -0.23778738746560901 -0.009771170948148656 0 -0.22790469448703671 0.0084067359303357583 0 -0.21398169243695739 -0.01526221164188362 0 -0.23976053522562291 -0.028616796555146269 0 -0.23778738746560901 -0.009771170948148656 0 -0.21398169243695739 -0.01526221164188362 0 -0.23976053522562291 -0.028616796555146269 0 -0.21398169243695739 -0.01526221164188362 0 -0.2283438481118657 -0.031868537209300288 0 -0.23976053522562291 -0.028616796555146269 0 -0.2164409699988262 -0.028206340337349541 0 -0.21398169243695739 -0.01526221164188362 0 -0.2283438481118657 -0.031868537209300288 0 -0.23976053522562291 -0.028616796555146269 0 -0.23778738746560901 -0.009771170948148656 0 -0.25371014128683161 -0.022448546870521561 0 -0.23778738746560901 -0.009771170948148656 0 -0.25636233129831731 -0.01040077810350672 0 -0.25371014128683161 -0.022448546870521561 0 -0.23778738746560901 -0.009771170948148656 0 -0.25636233129831731 -0.01040077810350672 0 -0.2482450729197497 0.001618596764240732 0 -0.25636233129831731 -0.01040077810350672 0 -0.26592444327961001 0.0028934705574912389 0 -0.2482450729197497 0.001618596764240732 0 -0.25636233129831731 -0.01040077810350672 0 -0.269101074430321 -0.02148260727739696 0 -0.26803790652912463 -0.009160022701244443 0 -0.25636233129831731 -0.01040077810350672 0 -0.26592444327961001 0.0028934705574912389 0 -0.25636233129831731 -0.01040077810350672 0 -0.26803790652912463 -0.009160022701244443 0 -0.26592444327961001 0.0028934705574912389 0 -0.25371014128683161 -0.022448546870521561 0 -0.269101074430321 -0.02148260727739696 0 -0.26553937801428812 -0.041971381468409188 0 -0.23976053522562291 -0.028616796555146269 0 -0.25371014128683161 -0.022448546870521561 0 -0.26553937801428812 -0.041971381468409188 0 -0.25636233129831731 -0.01040077810350672 0 -0.25371014128683161 -0.022448546870521561 0 -0.269101074430321 -0.02148260727739696 0 -0.269101074430321 -0.02148260727739696 0 -0.28076377710825029 -0.0076501759815653381 0 -0.28604099895559981 -0.031488071181619962 0 -0.26803790652912463 -0.009160022701244443 0 -0.28076377710825029 -0.0076501759815653381 0 -0.26592444327961001 0.0028934705574912389 0 -0.269101074430321 -0.02148260727739696 0 -0.26803790652912463 -0.009160022701244443 0 -0.28076377710825029 -0.0076501759815653381 0 -0.28076377710825029 -0.0076501759815653381 0 -0.29702354389743563 -0.01114764881232271 0 -0.28745831748251138 0.0064549291091905332 0 -0.28076377710825029 -0.0076501759815653381 0 -0.28604099895559981 -0.031488071181619962 0 -0.28076377710825029 -0.0076501759815653381 0 -0.29702354389743563 -0.01114764881232271 0 -0.28604099895559981 -0.031488071181619962 0 -0.31004730030710481 -0.02668110237600867 0 -0.29702354389743563 -0.01114764881232271 0 -0.28604099895559981 -0.031488071181619962 0 -0.31004730030710481 -0.02668110237600867 0 -0.29702354389743563 -0.01114764881232271 0 -0.31366586271511049 -0.0073783658866530804 0 -0.29702354389743563 -0.01114764881232271 0 -0.31366586271511049 -0.0073783658866530804 0 -0.30390735917583678 0.013617854962672919 0 -0.30428217422127007 -0.057547922300463163 0 -0.30048125439273787 -0.040794376359217233 0 -0.29131822080295228 -0.055325966381673843 0 -0.30428217422127007 -0.057547922300463163 0 -0.29131822080295228 -0.055325966381673843 0 -0.31465522788211708 -0.067415572001873286 0 -0.30428217422127007 -0.057547922300463163 0 -0.30048125439273787 -0.040794376359217233 0 -0.31737991023648349 -0.046476273064251047 0 -0.29131822080295228 -0.055325966381673843 0 -0.31465522788211708 -0.067415572001873286 0 -0.31004730030710481 -0.02668110237600867 0 -0.30048125439273787 -0.040794376359217233 0 -0.31737991023648349 -0.046476273064251047 0 -0.31004730030710481 -0.02668110237600867 0 -0.30048125439273787 -0.040794376359217233 0 -0.28604099895559981 -0.031488071181619962 0 -0.28604099895559981 -0.031488071181619962 0 -0.29131822080295228 -0.055325966381673843 0 -0.30048125439273787 -0.040794376359217233 0 -0.28604099895559981 -0.031488071181619962 0 -0.29131822080295228 -0.055325966381673843 0 -0.29131822080295228 -0.055325966381673843 0 -0.2857833156621219 -0.061054559739500823 0 -0.29310297458624118 -0.06788298009589068 0 -0.29131822080295228 -0.055325966381673843 0 -0.2857833156621219 -0.061054559739500823 0 -0.27588511288189832 -0.051429142758004469 0 -0.27588511288189832 -0.051429142758004469 0 -0.27750764239659242 -0.065935535648248056 0 -0.26731705925024341 -0.062626644873275059 0 -0.27588511288189832 -0.051429142758004469 0 -0.26553937801428812 -0.041971381468409188 0 -0.25578661458083107 -0.054204770295051448 0 -0.27588511288189832 -0.051429142758004469 0 -0.25578661458083107 -0.054204770295051448 0 -0.26731705925024341 -0.062626644873275059 0 -0.2857833156621219 -0.061054559739500823 0 -0.27588511288189832 -0.051429142758004469 0 -0.27750764239659242 -0.065935535648248056 0 -0.27588511288189832 -0.051429142758004469 0 -0.25578661458083107 -0.054204770295051448 0 -0.29131822080295228 -0.055325966381673843 0 -0.27588511288189832 -0.051429142758004469 0 -0.26553937801428812 -0.041971381468409188 0 -0.29131822080295228 -0.055325966381673843 0 -0.26553937801428812 -0.041971381468409188 0 -0.28604099895559981 -0.031488071181619962 0 -0.29131822080295228 -0.055325966381673843 0 -0.26553937801428812 -0.041971381468409188 0 -0.269101074430321 -0.02148260727739696 0 -0.28604099895559981 -0.031488071181619962 0 -0.26553937801428812 -0.041971381468409188 0 -0.24409685737162509 -0.043713559234042437 0 -0.26553937801428812 -0.041971381468409188 0 -0.25578661458083107 -0.054204770295051448 0 -0.23976053522562291 -0.028616796555146269 0 -0.26553937801428812 -0.041971381468409188 0 -0.24922277370902809 -0.064348014089273514 0 -0.25578661458083107 -0.054204770295051448 0 -0.25874941581439231 -0.071778524963747578 0 -0.25578661458083107 -0.054204770295051448 0 -0.25874941581439231 -0.071778524963747578 0 -0.26731705925024341 -0.062626644873275059 0 -0.25874941581439231 -0.071778524963747578 0 -0.26731705925024341 -0.062626644873275059 0 -0.26941161523287988 -0.074784002856309581 0 -0.25874941581439231 -0.071778524963747578 0 -0.26473515911160961 -0.080050848486028975 0 -0.26941161523287988 -0.074784002856309581 0 -0.24922277370902809 -0.064348014089273514 0 -0.2486900793229882 -0.07641804467541749 0 -0.25874941581439231 -0.071778524963747578 0 -0.2486900793229882 -0.07641804467541749 0 -0.25874941581439231 -0.071778524963747578 0 -0.2596431765503131 -0.082839670074059402 0 -0.2486900793229882 -0.07641804467541749 0 -0.24917492311657641 -0.087124146371722555 0 -0.25387055092294308 -0.089900932700915606 0 -0.2486900793229882 -0.07641804467541749 0 -0.2596431765503131 -0.082839670074059402 0 -0.26169204236621352 -0.095855691518731093 0 -0.2486900793229882 -0.07641804467541749 0 -0.25387055092294308 -0.089900932700915606 0 -0.26169204236621352 -0.095855691518731093 0 -0.2486900793229882 -0.07641804467541749 0 -0.26169204236621352 -0.095855691518731093 0 -0.25387055092294308 -0.089900932700915606 0 -0.25615472002573891 -0.094758809210035475 0 -0.26169204236621352 -0.095855691518731093 0 -0.24917492311657641 -0.087124146371722555 0 -0.25387055092294308 -0.089900932700915606 0 -0.25211630261344131 -0.094619280979757275 0 -0.25387055092294308 -0.089900932700915606 0 -0.25211630261344131 -0.094619280979757275 0 -0.25615472002573891 -0.094758809210035475 0 -0.2639040372086644 -0.088040177678924803 0 -0.26169204236621352 -0.095855691518731093 0 -0.26377222566062969 -0.094790237594108623 0 -0.2639040372086644 -0.088040177678924803 0 -0.2596431765503131 -0.082839670074059402 0 -0.26169204236621352 -0.095855691518731093 0 -0.2639040372086644 -0.088040177678924803 0 -0.2596431765503131 -0.082839670074059402 0 -0.26473515911160961 -0.080050848486028975 0 -0.25874941581439231 -0.071778524963747578 0 -0.2596431765503131 -0.082839670074059402 0 -0.26473515911160961 -0.080050848486028975 0 -0.27196755075179813 -0.082811866857103497 0 -0.27867583252010408 -0.074751239498851416 0 -0.28921372677137352 -0.081102904797991121 0 -0.26377222566062969 -0.094790237594108623 0 -0.28921372677137352 -0.081102904797991121 0 -0.26473515911160961 -0.080050848486028975 0 -0.27196755075179813 -0.082811866857103497 0 -0.26941161523287988 -0.074784002856309581 0 -0.2639040372086644 -0.088040177678924803 0 -0.26473515911160961 -0.080050848486028975 0 -0.27196755075179813 -0.082811866857103497 0 -0.27196755075179813 -0.082811866857103497 0 -0.26377222566062969 -0.094790237594108623 0 -0.28921372677137352 -0.081102904797991121 0 -0.26377222566062969 -0.094790237594108623 0 -0.28220524635017108 -0.097546646397930231 0 -0.28921372677137352 -0.081102904797991121 0 -0.2639040372086644 -0.088040177678924803 0 -0.27196755075179813 -0.082811866857103497 0 -0.26377222566062969 -0.094790237594108623 0 -0.27867583252010408 -0.074751239498851416 0 -0.27750764239659242 -0.065935535648248056 0 -0.26941161523287988 -0.074784002856309581 0 -0.27867583252010408 -0.074751239498851416 0 -0.27750764239659242 -0.065935535648248056 0 -0.28485669838728661 -0.070145443956096412 0 -0.27750764239659242 -0.065935535648248056 0 -0.26731705925024341 -0.062626644873275059 0 -0.26941161523287988 -0.074784002856309581 0 -0.27196755075179813 -0.082811866857103497 0 -0.27867583252010408 -0.074751239498851416 0 -0.26941161523287988 -0.074784002856309581 0 -0.26122566438443112 -0.1241732740324283 0 -0.25536347517174979 -0.1035065403516382 0 -0.27636816504890699 -0.1126536001890958 0 -0.24716910398796901 -0.1053260023740239 0 -0.26122566438443112 -0.1241732740324283 0 -0.25536347517174979 -0.1035065403516382 0 -0.24406361177493441 -0.13350686936872111 0 -0.24716910398796901 -0.1053260023740239 0 -0.26122566438443112 -0.1241732740324283 0 -0.24716910398796901 -0.1053260023740239 0 -0.25536347517174979 -0.1035065403516382 0 -0.24716910398796901 -0.1053260023740239 0 -0.24773565721647781 -0.10018480088897221 0 -0.25536347517174979 -0.1035065403516382 0 -0.24773565721647781 -0.10018480088897221 0 -0.25536347517174979 -0.1035065403516382 0 -0.25536347517174979 -0.1035065403516382 0 -0.25453739412801429 -0.097879027183749384 0 -0.26169204236621352 -0.095855691518731093 0 -0.24814461416625649 -0.096473710788699998 0 -0.24773565721647781 -0.10018480088897221 0 -0.25453739412801429 -0.097879027183749384 0 -0.24773565721647781 -0.10018480088897221 0 -0.25536347517174979 -0.1035065403516382 0 -0.25453739412801429 -0.097879027183749384 0 -0.24814461416625649 -0.096473710788699998 0 -0.25453739412801429 -0.097879027183749384 0 -0.25211630261344131 -0.094619280979757275 0 -0.25453739412801429 -0.097879027183749384 0 -0.25615472002573891 -0.094758809210035475 0 -0.26169204236621352 -0.095855691518731093 0 -0.25453739412801429 -0.097879027183749384 0 -0.25211630261344131 -0.094619280979757275 0 -0.25615472002573891 -0.094758809210035475 0 -0.25536347517174979 -0.1035065403516382 0 -0.26169204236621352 -0.095855691518731093 0 -0.26377222566062969 -0.094790237594108623 0 -0.25536347517174979 -0.1035065403516382 0 -0.27636816504890699 -0.1126536001890958 0 -0.28220524635017108 -0.097546646397930231 0 -0.25536347517174979 -0.1035065403516382 0 -0.28220524635017108 -0.097546646397930231 0 -0.25536347517174979 -0.1035065403516382 0 -0.27636816504890699 -0.1126536001890958 0 -0.25536347517174979 -0.1035065403516382 0 -0.26377222566062969 -0.094790237594108623 0 -0.28220524635017108 -0.097546646397930231 0 -0.26122566438443112 -0.1241732740324283 0 -0.27636816504890699 -0.1126536001890958 0 -0.28039655798423302 -0.12515411111006919 0 -0.27636816504890699 -0.1126536001890958 0 -0.29029865805482652 -0.109354962625917 0 -0.29737285492606558 -0.12180066002655029 0 -0.29029865805482652 -0.109354962625917 0 -0.30260206137899348 -0.1056269148843897 0 -0.29737285492606558 -0.12180066002655029 0 -0.27636816504890699 -0.1126536001890958 0 -0.29737285492606558 -0.12180066002655029 0 -0.28039655798423302 -0.12515411111006919 0 -0.27636816504890699 -0.1126536001890958 0 -0.29737285492606558 -0.12180066002655029 0 -0.28220524635017108 -0.097546646397930231 0 -0.30904701752859298 -0.091586752444224928 0 -0.29029865805482652 -0.109354962625917 0 -0.28220524635017108 -0.097546646397930231 0 -0.30260206137899348 -0.1056269148843897 0 -0.27636816504890699 -0.1126536001890958 0 -0.29029865805482652 -0.109354962625917 0 -0.28220524635017108 -0.097546646397930231 0 -0.30260206137899348 -0.1056269148843897 0 -0.30904701752859298 -0.091586752444224928 0 -0.3186204132071323 -0.10034641389851461 0 -0.28220524635017108 -0.097546646397930231 0 -0.30260206137899348 -0.1056269148843897 0 -0.30904701752859298 -0.091586752444224928 0 -0.30260206137899348 -0.1056269148843897 0 -0.3150718598736395 -0.1149210464202931 0 -0.3186204132071323 -0.10034641389851461 0 -0.29737285492606558 -0.12180066002655029 0 -0.3150718598736395 -0.1149210464202931 0 -0.31837754480322411 -0.13094771986400469 0 -0.30260206137899348 -0.1056269148843897 0 -0.29737285492606558 -0.12180066002655029 0 -0.3150718598736395 -0.1149210464202931 0 -0.2857833156621219 -0.061054559739500823 0 -0.27750764239659242 -0.065935535648248056 0 -0.28485669838728661 -0.070145443956096412 0 -0.2857833156621219 -0.061054559739500823 0 -0.29310297458624118 -0.06788298009589068 0 -0.28485669838728661 -0.070145443956096412 0 -0.29310297458624118 -0.06788298009589068 0 -0.28485669838728661 -0.070145443956096412 0 -0.28921372677137352 -0.081102904797991121 0 -0.27867583252010408 -0.074751239498851416 0 -0.28485669838728661 -0.070145443956096412 0 -0.28921372677137352 -0.081102904797991121 0 -0.28220524635017108 -0.097546646397930231 0 -0.28921372677137352 -0.081102904797991121 0 -0.30904701752859298 -0.091586752444224928 0 -0.28921372677137352 -0.081102904797991121 0 -0.30904701752859298 -0.091586752444224928 0 -0.31465522788211708 -0.067415572001873286 0 -0.29310297458624118 -0.06788298009589068 0 -0.28921372677137352 -0.081102904797991121 0 -0.31465522788211708 -0.067415572001873286 0 -0.29131822080295228 -0.055325966381673843 0 -0.29310297458624118 -0.06788298009589068 0 -0.31465522788211708 -0.067415572001873286 0 -0.28921372677137352 -0.081102904797991121 0 -0.31465522788211708 -0.067415572001873286 0 -0.31465522788211708 -0.067415572001873286 0 -0.32567748484983539 -0.061485682148880783 0 -0.31465522788211708 -0.067415572001873286 0 -0.33522544611170052 -0.078071858177453157 0 -0.31465522788211708 -0.067415572001873286 0 -0.33522544611170052 -0.078071858177453157 0 -0.32567748484983539 -0.061485682148880783 0 -0.31465522788211708 -0.067415572001873286 0 -0.32125745011698048 -0.081273772825333906 0 -0.33522544611170052 -0.078071858177453157 0 -0.30904701752859298 -0.091586752444224928 0 -0.33588878870701577 -0.085626858490523483 0 -0.30904701752859298 -0.091586752444224928 0 -0.32125745011698048 -0.081273772825333906 0 -0.33588878870701577 -0.085626858490523483 0 -0.30904701752859298 -0.091586752444224928 0 -0.31465522788211708 -0.067415572001873286 0 -0.32125745011698048 -0.081273772825333906 0 -0.30904701752859298 -0.091586752444224928 0 -0.33588878870701577 -0.085626858490523483 0 -0.3186204132071323 -0.10034641389851461 0 -0.32125745011698048 -0.081273772825333906 0 -0.33588878870701577 -0.085626858490523483 0 -0.33522544611170052 -0.078071858177453157 0 -0.33588878870701577 -0.085626858490523483 0 -0.33522544611170052 -0.078071858177453157 0 -0.33588878870701577 -0.085626858490523483 0 -0.33618207587606153 -0.088871808146385664 0 -0.33110109453826309 -0.097761326775014229 0 -0.33972647468046252 -0.092074855544428541 0 -0.33618207587606153 -0.088871808146385664 0 -0.33717007093200718 -0.096701541290000026 0 -0.33588878870701577 -0.085626858490523483 0 -0.33972647468046252 -0.092074855544428541 0 -0.34977534398677612 -0.095157761108767794 0 -0.33588878870701577 -0.085626858490523483 0 -0.33972647468046252 -0.092074855544428541 0 -0.33618207587606153 -0.088871808146385664 0 -0.33588878870701577 -0.085626858490523483 0 -0.33618207587606153 -0.088871808146385664 0 -0.33588878870701577 -0.085626858490523483 0 -0.33522544611170052 -0.078071858177453157 0 -0.34705803332402058 -0.074946435401102685 0 -0.33384267072066559 -0.06298846664381913 0 -0.33522544611170052 -0.078071858177453157 0 -0.34705803332402058 -0.074946435401102685 0 -0.33384267072066559 -0.06298846664381913 0 -0.33522544611170052 -0.078071858177453157 0 -0.32567748484983539 -0.061485682148880783 0 -0.33384267072066559 -0.06298846664381913 0 -0.33522544611170052 -0.078071858177453157 0 -0.32660648164046457 -0.1204498931694214 0 -0.3150718598736395 -0.1149210464202931 0 -0.31837754480322411 -0.13094771986400469 0 -0.32660648164046457 -0.1204498931694214 0 -0.3150718598736395 -0.1149210464202931 0 -0.32633049043480761 -0.10996474124981639 0 -0.32633049043480761 -0.10996474124981639 0 -0.3186204132071323 -0.10034641389851461 0 -0.33110109453826309 -0.097761326775014229 0 -0.3150718598736395 -0.1149210464202931 0 -0.32633049043480761 -0.10996474124981639 0 -0.3186204132071323 -0.10034641389851461 0 -0.33588878870701577 -0.085626858490523483 0 -0.3186204132071323 -0.10034641389851461 0 -0.33110109453826309 -0.097761326775014229 0 -0.33110109453826309 -0.097761326775014229 0 -0.33717007093200718 -0.096701541290000026 0 -0.33370104100651571 -0.10562987239312201 0 -0.33618207587606153 -0.088871808146385664 0 -0.33110109453826309 -0.097761326775014229 0 -0.33717007093200718 -0.096701541290000026 0 -0.33972647468046252 -0.092074855544428541 0 -0.33717007093200718 -0.096701541290000026 0 -0.34221019799199331 -0.096676974417054029 0 -0.33717007093200718 -0.096701541290000026 0 -0.34221019799199331 -0.096676974417054029 0 -0.34252640051182959 -0.1036147351392081 0 -0.33717007093200718 -0.096701541290000026 0 -0.34252640051182959 -0.1036147351392081 0 -0.33370104100651571 -0.10562987239312201 0 -0.34252640051182959 -0.1036147351392081 0 -0.33370104100651571 -0.10562987239312201 0 -0.33660099983848718 -0.1140855405110143 0 -0.32633049043480761 -0.10996474124981639 0 -0.33110109453826309 -0.097761326775014229 0 -0.33370104100651571 -0.10562987239312201 0 -0.33660099983848718 -0.1140855405110143 0 -0.35399173385484362 -0.11339371169030731 0 -0.33698352933038761 -0.12974254322541839 0 -0.32660648164046457 -0.1204498931694214 0 -0.33660099983848718 -0.1140855405110143 0 -0.33698352933038761 -0.12974254322541839 0 -0.32660648164046457 -0.1204498931694214 0 -0.32633049043480761 -0.10996474124981639 0 -0.33660099983848718 -0.1140855405110143 0 -0.32633049043480761 -0.10996474124981639 0 -0.33370104100651571 -0.10562987239312201 0 -0.33660099983848718 -0.1140855405110143 0 -0.35399173385484362 -0.11339371169030731 0 -0.33698352933038761 -0.12974254322541839 0 -0.36162662312411348 -0.1301996882443564 0 -0.35399173385484362 -0.11339371169030731 0 -0.33698352933038761 -0.12974254322541839 0 -0.34252640051182959 -0.1036147351392081 0 -0.33660099983848718 -0.1140855405110143 0 -0.35399173385484362 -0.11339371169030731 0 -0.34252640051182959 -0.1036147351392081 0 -0.35399173385484362 -0.11339371169030731 0 -0.34977534398677612 -0.095157761108767794 0 -0.35399173385484362 -0.11339371169030731 0 -0.34977534398677612 -0.095157761108767794 0 -0.37099993837929968 -0.097044880155196273 0 -0.33972647468046252 -0.092074855544428541 0 -0.34221019799199331 -0.096676974417054029 0 -0.34977534398677612 -0.095157761108767794 0 -0.34221019799199331 -0.096676974417054029 0 -0.34252640051182959 -0.1036147351392081 0 -0.34977534398677612 -0.095157761108767794 0 -0.35399173385484362 -0.11339371169030731 0 -0.37099993837929968 -0.097044880155196273 0 -0.35399173385484362 -0.11339371169030731 0 -0.37099993837929968 -0.097044880155196273 0 -0.36949029013190909 -0.1127408120441207 0 -0.35399173385484362 -0.11339371169030731 0 -0.36949029013190909 -0.1127408120441207 0 -0.36162662312411348 -0.1301996882443564 0 -0.36949029013190909 -0.1127408120441207 0 -0.36162662312411348 -0.1301996882443564 0 -0.38192772204362102 -0.11931691475161579 0 -0.34705803332402058 -0.074946435401102685 0 -0.36329901430343231 -0.079540746038554683 0 -0.36227595531025769 -0.068221550115205143 0 -0.33384267072066559 -0.06298846664381913 0 -0.34705803332402058 -0.074946435401102685 0 -0.36227595531025769 -0.068221550115205143 0 -0.33384267072066559 -0.06298846664381913 0 -0.36227595531025769 -0.068221550115205143 0 -0.33588878870701577 -0.085626858490523483 0 -0.34977534398677612 -0.095157761108767794 0 -0.36329901430343231 -0.079540746038554683 0 -0.33588878870701577 -0.085626858490523483 0 -0.34705803332402058 -0.074946435401102685 0 -0.36329901430343231 -0.079540746038554683 0 -0.33588878870701577 -0.085626858490523483 0 -0.36329901430343231 -0.079540746038554683 0 -0.34977534398677612 -0.095157761108767794 0 -0.37099993837929968 -0.097044880155196273 0 -0.36329901430343231 -0.079540746038554683 0 -0.37099993837929968 -0.097044880155196273 0 -0.36329901430343231 -0.079540746038554683 0 -0.3807718176563048 -0.084600785660169431 0 -0.36329901430343231 -0.079540746038554683 0 -0.36227595531025769 -0.068221550115205143 0 -0.39070923989984979 -0.073454633586590351 0 -0.36227595531025769 -0.068221550115205143 0 -0.37344647116406748 -0.055223511826559032 0 -0.35285582066315252 -0.046863945581442377 0 -0.33384267072066559 -0.06298846664381913 0 -0.36227595531025769 -0.068221550115205143 0 -0.35285582066315252 -0.046863945581442377 0 -0.35285582066315252 -0.046863945581442377 0 -0.3590489345349242 -0.026637315297555409 0 -0.34458433620988371 -0.02970681179985326 0 -0.35285582066315252 -0.046863945581442377 0 -0.37237712096666659 -0.036361635489593619 0 -0.35285582066315252 -0.046863945581442377 0 -0.37237712096666659 -0.036361635489593619 0 -0.3590489345349242 -0.026637315297555409 0 -0.37344647116406748 -0.055223511826559032 0 -0.35285582066315252 -0.046863945581442377 0 -0.37237712096666659 -0.036361635489593619 0 -0.37237712096666659 -0.036361635489593619 0 -0.37418396500676532 -0.01506053024102369 0 -0.3590489345349242 -0.026637315297555409 0 -0.37418396500676532 -0.01506053024102369 0 -0.3608364663262531 -0.01345859403709228 0 -0.3590489345349242 -0.026637315297555409 0 -0.37418396500676532 -0.01506053024102369 0 -0.3608364663262531 -0.01345859403709228 0 -0.36230379782765848 -0.00091360309627340139 0 -0.3608364663262531 -0.01345859403709228 0 -0.36230379782765848 -0.00091360309627340139 0 -0.35566174062934791 -0.0058574026718233524 0 -0.35566174062934791 -0.0058574026718233524 0 -0.34869116785726928 -0.017014386883654729 0 -0.34000869878748491 -0.0083963434002859109 0 -0.3608364663262531 -0.01345859403709228 0 -0.35566174062934791 -0.0058574026718233524 0 -0.34869116785726928 -0.017014386883654729 0 -0.3608364663262531 -0.01345859403709228 0 -0.3590489345349242 -0.026637315297555409 0 -0.34869116785726928 -0.017014386883654729 0 -0.3590489345349242 -0.026637315297555409 0 -0.34869116785726928 -0.017014386883654729 0 -0.34458433620988371 -0.02970681179985326 0 -0.34869116785726928 -0.017014386883654729 0 -0.34458433620988371 -0.02970681179985326 0 -0.32959749923408788 -0.016019593778559039 0 -0.32959749923408788 -0.016019593778559039 0 -0.33146600979686269 -0.036692924725924947 0 -0.34458433620988371 -0.02970681179985326 0 -0.32959749923408788 -0.016019593778559039 0 -0.33146600979686269 -0.036692924725924947 0 -0.35566174062934791 -0.0058574026718233524 0 -0.32772898867131378 0.0046537371688069526 0 -0.35566174062934791 -0.0058574026718233524 0 -0.34000869878748491 -0.0083963434002859109 0 -0.32772898867131378 0.0046537371688069526 0 -0.34869116785726928 -0.017014386883654729 0 -0.32959749923408788 -0.016019593778559039 0 -0.34000869878748491 -0.0083963434002859109 0 -0.32959749923408788 -0.016019593778559039 0 -0.32772898867131378 0.0046537371688069526 0 -0.32959749923408788 -0.016019593778559039 0 -0.34000869878748491 -0.0083963434002859109 0 -0.32772898867131378 0.0046537371688069526 0 -0.32959749923408788 -0.016019593778559039 0 -0.31366586271511049 -0.0073783658866530804 0 -0.32772898867131378 0.0046537371688069526 0 -0.31004730030710481 -0.02668110237600867 0 -0.32959749923408788 -0.016019593778559039 0 -0.31366586271511049 -0.0073783658866530804 0 -0.31004730030710481 -0.02668110237600867 0 -0.32959749923408788 -0.016019593778559039 0 -0.33146600979686269 -0.036692924725924947 0 -0.31004730030710481 -0.02668110237600867 0 -0.31737991023648349 -0.046476273064251047 0 -0.33146600979686269 -0.036692924725924947 0 -0.31737991023648349 -0.046476273064251047 0 -0.32541946441730329 -0.051830064918443171 0 -0.33146600979686269 -0.036692924725924947 0 -0.30428217422127007 -0.057547922300463163 0 -0.31465522788211708 -0.067415572001873286 0 -0.32567748484983539 -0.061485682148880783 0 -0.30428217422127007 -0.057547922300463163 0 -0.32567748484983539 -0.061485682148880783 0 -0.30428217422127007 -0.057547922300463163 0 -0.31737991023648349 -0.046476273064251047 0 -0.32567748484983539 -0.061485682148880783 0 -0.31737991023648349 -0.046476273064251047 0 -0.32567748484983539 -0.061485682148880783 0 -0.32541946441730329 -0.051830064918443171 0 -0.3333345203596384 -0.057366255673290782 0 -0.33146600979686269 -0.036692924725924947 0 -0.35285582066315252 -0.046863945581442377 0 -0.3333345203596384 -0.057366255673290782 0 -0.33384267072066559 -0.06298846664381913 0 -0.35285582066315252 -0.046863945581442377 0 -0.3333345203596384 -0.057366255673290782 0 -0.32541946441730329 -0.051830064918443171 0 -0.3333345203596384 -0.057366255673290782 0 -0.33146600979686269 -0.036692924725924947 0 -0.35285582066315252 -0.046863945581442377 0 -0.3333345203596384 -0.057366255673290782 0 -0.33146600979686269 -0.036692924725924947 0 -0.33384267072066559 -0.06298846664381913 0 -0.32567748484983539 -0.061485682148880783 0 -0.32567748484983539 -0.061485682148880783 0 -0.32541946441730329 -0.051830064918443171 0 -0.3333345203596384 -0.057366255673290782 0 -0.33384267072066559 -0.06298846664381913 0 -0.32567748484983539 -0.061485682148880783 0 -0.3333345203596384 -0.057366255673290782 0 -0.32567748484983539 -0.061485682148880783 0 -0.3333345203596384 -0.057366255673290782 0 -0.33384267072066559 -0.06298846664381913 0 -0.3333345203596384 -0.057366255673290782 0 -0.35285582066315252 -0.046863945581442377 0 -0.34458433620988371 -0.02970681179985326 0 -0.33146600979686269 -0.036692924725924947 0 -0.30555550476956661 -0.23687072435659459 0 -0.29297826121344139 -0.24918237737691701 0 -0.30487609232877261 -0.24739626858440619 0 -0.30555550476956661 -0.23687072435659459 0 -0.29297826121344139 -0.24918237737691701 0 -0.30487609232877261 -0.24739626858440619 0 -0.30555550476956661 -0.23687072435659459 0 -0.31824801151201237 -0.2435078566655744 0 -0.30638284853977549 -0.25853903157448832 0 -0.30487609232877261 -0.24739626858440619 0 -0.31824801151201237 -0.2435078566655744 0 -0.30068979036544902 -0.22946331096190159 0 -0.29741735193130292 -0.21264265724750711 0 -0.30655561448517832 -0.21952917143831721 0 -0.30068979036544902 -0.22946331096190159 0 -0.29741735193130292 -0.21264265724750711 0 -0.30655561448517832 -0.21952917143831721 0 -0.30068979036544902 -0.22946331096190159 0 -0.31813274832569188 -0.2245590713362724 0 -0.30555550476956661 -0.23687072435659459 0 -0.30068979036544902 -0.22946331096190159 0 -0.31813274832569188 -0.2245590713362724 0 -0.30555550476956661 -0.23687072435659459 0 -0.31813274832569188 -0.2245590713362724 0 -0.30555550476956661 -0.23687072435659459 0 -0.30068979036544902 -0.22946331096190159 0 -0.29083635246999068 -0.23456273677314621 0 -0.30068979036544902 -0.22946331096190159 0 -0.28455607214185341 -0.223873455517616 0 -0.29741735193130292 -0.21264265724750711 0 -0.30068979036544902 -0.22946331096190159 0 -0.28455607214185341 -0.223873455517616 0 -0.29083635246999068 -0.23456273677314621 0 -0.28455607214185341 -0.223873455517616 0 -0.29083635246999068 -0.23456273677314621 0 -0.27040213385964412 -0.2334238156527004 0 -0.29083635246999068 -0.23456273677314621 0 -0.29297826121344139 -0.24918237737691701 0 -0.27040213385964412 -0.2334238156527004 0 -0.29297826121344139 -0.24918237737691701 0 -0.27040213385964412 -0.2334238156527004 0 -0.30555550476956661 -0.23687072435659459 0 -0.29083635246999068 -0.23456273677314621 0 -0.29297826121344139 -0.24918237737691701 0 -0.26933649939555188 -0.2507655596951005 0 -0.29297826121344139 -0.24918237737691701 0 -0.27040213385964412 -0.2334238156527004 0 -0.26933649939555188 -0.2507655596951005 0 -0.25148277171782979 -0.24159801242172771 0 -0.27040213385964412 -0.2334238156527004 0 -0.2478260065058481 -0.2176652539284821 0 -0.25148277171782979 -0.24159801242172771 0 -0.27040213385964412 -0.2334238156527004 0 -0.2478260065058481 -0.2176652539284821 0 -0.27040213385964412 -0.2334238156527004 0 -0.2478260065058481 -0.2176652539284821 0 -0.27040213385964412 -0.2334238156527004 0 -0.26635936328988807 -0.21340731239015551 0 -0.28455607214185341 -0.223873455517616 0 -0.27040213385964412 -0.2334238156527004 0 -0.26635936328988807 -0.21340731239015551 0 -0.26635936328988807 -0.21340731239015551 0 -0.26599877042299552 -0.1928453034456116 0 -0.28145642086281641 -0.2079162561850387 0 -0.28455607214185341 -0.223873455517616 0 -0.26635936328988807 -0.21340731239015551 0 -0.28145642086281641 -0.2079162561850387 0 -0.2478260065058481 -0.2176652539284821 0 -0.26635936328988807 -0.21340731239015551 0 -0.25078325667204759 -0.20234247251262591 0 -0.23785262734883381 -0.18986860335811179 0 -0.26599877042299552 -0.1928453034456116 0 -0.26635936328988807 -0.21340731239015551 0 -0.25078325667204759 -0.20234247251262591 0 -0.26599877042299552 -0.1928453034456116 0 -0.23785262734883381 -0.18986860335811179 0 -0.25078325667204759 -0.20234247251262591 0 -0.26599877042299552 -0.1928453034456116 0 -0.26599877042299552 -0.1928453034456116 0 -0.29414491349715699 -0.19582200353311249 0 -0.28145642086281641 -0.2079162561850387 0 -0.26599877042299552 -0.1928453034456116 0 -0.29414491349715699 -0.19582200353311249 0 -0.2744019168460276 -0.17868723516423321 0 -0.26599877042299552 -0.1928453034456116 0 -0.29414491349715699 -0.19582200353311249 0 -0.29414491349715699 -0.19582200353311249 0 -0.29741735193130292 -0.21264265724750711 0 -0.29414491349715699 -0.19582200353311249 0 -0.28145642086281641 -0.2079162561850387 0 -0.29741735193130292 -0.21264265724750711 0 -0.28455607214185341 -0.223873455517616 0 -0.28145642086281641 -0.2079162561850387 0 -0.29741735193130292 -0.21264265724750711 0 -0.29414491349715699 -0.19582200353311249 0 -0.29741735193130292 -0.21264265724750711 0 -0.31109972593512258 -0.21098739637299821 0 -0.30655561448517832 -0.21952917143831721 0 -0.31109972593512258 -0.21098739637299821 0 -0.31813274832569188 -0.2245590713362724 0 -0.30655561448517832 -0.21952917143831721 0 -0.29741735193130292 -0.21264265724750711 0 -0.31109972593512258 -0.21098739637299821 0 -0.29414491349715699 -0.19582200353311249 0 -0.31109972593512258 -0.21098739637299821 0 -0.32276475939681692 -0.1988488018254839 0 -0.29414491349715699 -0.19582200353311249 0 -0.32276475939681692 -0.1988488018254839 0 -0.31703810975896729 -0.18756884576020169 0 -0.29414491349715699 -0.19582200353311249 0 -0.32276475939681692 -0.1988488018254839 0 -0.29414491349715699 -0.19582200353311249 0 -0.30351562896510909 -0.17998322673641101 0 -0.31703810975896729 -0.18756884576020169 0 -0.30351562896510909 -0.17998322673641101 0 -0.30296712028147538 -0.1624402062956404 0 -0.31809722908209059 -0.176266125374067 0 -0.30351562896510909 -0.17998322673641101 0 -0.30296712028147538 -0.1624402062956404 0 -0.28956212832618211 -0.17226603939209811 0 -0.30296712028147538 -0.1624402062956404 0 -0.28956212832618211 -0.17226603939209811 0 -0.28497934315520751 -0.14871007525108371 0 -0.28956212832618211 -0.17226603939209811 0 -0.28497934315520751 -0.14871007525108371 0 -0.29414491349715699 -0.19582200353311249 0 -0.28956212832618211 -0.17226603939209811 0 -0.2744019168460276 -0.17868723516423321 0 -0.29414491349715699 -0.19582200353311249 0 -0.28956212832618211 -0.17226603939209811 0 -0.29414491349715699 -0.19582200353311249 0 -0.30351562896510909 -0.17998322673641101 0 -0.28956212832618211 -0.17226603939209811 0 -0.26599877042299552 -0.1928453034456116 0 -0.2744019168460276 -0.17868723516423321 0 -0.25324679944106349 -0.17886530689816149 0 -0.23785262734883381 -0.18986860335811179 0 -0.26599877042299552 -0.1928453034456116 0 -0.25324679944106349 -0.17886530689816149 0 -0.2744019168460276 -0.17868723516423321 0 -0.25324679944106349 -0.17886530689816149 0 -0.26634731706841253 -0.16296517882695391 0 -0.24095811956188309 -0.16168773636341641 0 -0.25324679944106349 -0.17886530689816149 0 -0.26634731706841253 -0.16296517882695391 0 -0.24095811956188309 -0.16168773636341641 0 -0.26634731706841253 -0.16296517882695391 0 -0.25538467641525531 -0.14835044585258519 0 -0.28956212832618211 -0.17226603939209811 0 -0.2744019168460276 -0.17868723516423321 0 -0.26634731706841253 -0.16296517882695391 0 -0.28956212832618211 -0.17226603939209811 0 -0.26634731706841253 -0.16296517882695391 0 -0.28497934315520751 -0.14871007525108371 0 -0.26634731706841253 -0.16296517882695391 0 -0.27006828032759689 -0.14008011485186569 0 -0.28497934315520751 -0.14871007525108371 0 -0.26634731706841253 -0.16296517882695391 0 -0.25538467641525531 -0.14835044585258519 0 -0.27006828032759689 -0.14008011485186569 0 -0.24406361177493441 -0.13350686936872111 0 -0.26122566438443112 -0.1241732740324283 0 -0.25538467641525531 -0.14835044585258519 0 -0.26122566438443112 -0.1241732740324283 0 -0.25538467641525531 -0.14835044585258519 0 -0.27006828032759689 -0.14008011485186569 0 -0.28039655798423302 -0.12515411111006919 0 -0.27006828032759689 -0.14008011485186569 0 -0.28497934315520751 -0.14871007525108371 0 -0.26122566438443112 -0.1241732740324283 0 -0.28039655798423302 -0.12515411111006919 0 -0.27006828032759689 -0.14008011485186569 0 -0.28039655798423302 -0.12515411111006919 0 -0.2912047008787404 -0.13401373735724961 0 -0.28497934315520751 -0.14871007525108371 0 -0.28039655798423302 -0.12515411111006919 0 -0.28497934315520751 -0.14871007525108371 0 -0.29737285492606558 -0.12180066002655029 0 -0.28039655798423302 -0.12515411111006919 0 -0.2912047008787404 -0.13401373735724961 0 -0.30296712028147538 -0.1624402062956404 0 -0.28497934315520751 -0.14871007525108371 0 -0.30207004744945581 -0.14039010304129509 0 -0.2912047008787404 -0.13401373735724961 0 -0.28497934315520751 -0.14871007525108371 0 -0.30207004744945581 -0.14039010304129509 0 -0.30296712028147538 -0.1624402062956404 0 -0.30207004744945581 -0.14039010304129509 0 -0.31997532480593138 -0.14609137476052941 0 -0.30296712028147538 -0.1624402062956404 0 -0.31997532480593138 -0.14609137476052941 0 -0.29737285492606558 -0.12180066002655029 0 -0.30207004744945581 -0.14039010304129509 0 -0.31837754480322411 -0.13094771986400469 0 -0.29737285492606558 -0.12180066002655029 0 -0.2912047008787404 -0.13401373735724961 0 -0.30207004744945581 -0.14039010304129509 0 -0.29737285492606558 -0.12180066002655029 0 -0.31837754480322411 -0.13094771986400469 0 -0.32660648164046457 -0.1204498931694214 0 -0.31837754480322411 -0.13094771986400469 0 -0.33698352933038761 -0.12974254322541839 0 -0.31837754480322411 -0.13094771986400469 0 -0.31997532480593138 -0.14609137476052941 0 -0.33698352933038761 -0.12974254322541839 0 -0.30207004744945581 -0.14039010304129509 0 -0.31837754480322411 -0.13094771986400469 0 -0.31997532480593138 -0.14609137476052941 0 -0.31997532480593138 -0.14609137476052941 0 -0.33777596319091141 -0.14866862331693001 0 -0.32386328134957149 -0.1621677446311022 0 -0.31997532480593138 -0.14609137476052941 0 -0.33777596319091141 -0.14866862331693001 0 -0.33698352933038761 -0.12974254322541839 0 -0.33777596319091141 -0.14866862331693001 0 -0.33698352933038761 -0.12974254322541839 0 -0.34823499294103538 -0.13923892245786651 0 -0.31997532480593138 -0.14609137476052941 0 -0.33698352933038761 -0.12974254322541839 0 -0.34823499294103538 -0.13923892245786651 0 -0.36162662312411348 -0.1301996882443564 0 -0.35655385611872931 -0.1483448350447614 0 -0.33698352933038761 -0.12974254322541839 0 -0.34823499294103538 -0.13923892245786651 0 -0.36162662312411348 -0.1301996882443564 0 -0.36162662312411348 -0.1301996882443564 0 -0.37426737574231239 -0.1436512218124954 0 -0.383605609597027 -0.1334334702027391 0 -0.367967399937561 -0.1541713042586913 0 -0.37426737574231239 -0.1436512218124954 0 -0.35655385611872931 -0.1483448350447614 0 -0.36162662312411348 -0.1301996882443564 0 -0.37426737574231239 -0.1436512218124954 0 -0.35655385611872931 -0.1483448350447614 0 -0.367967399937561 -0.1541713042586913 0 -0.3771258843987576 -0.1624019379948384 0 -0.3781483601120571 -0.1509009801286175 0 -0.367967399937561 -0.1541713042586913 0 -0.37426737574231239 -0.1436512218124954 0 -0.3781483601120571 -0.1509009801286175 0 -0.367967399937561 -0.1541713042586913 0 -0.35655385611872931 -0.1483448350447614 0 -0.3601586381082254 -0.1623503113450149 0 -0.33777596319091141 -0.14866862331693001 0 -0.34823499294103538 -0.13923892245786651 0 -0.35655385611872931 -0.1483448350447614 0 -0.33777596319091141 -0.14866862331693001 0 -0.35655385611872931 -0.1483448350447614 0 -0.34850323609728989 -0.15902153057060719 0 -0.35079279357316878 -0.16992061871764841 0 -0.3601586381082254 -0.1623503113450149 0 -0.3610189884279178 -0.18142441954123201 0 -0.34850323609728989 -0.15902153057060719 0 -0.35079279357316878 -0.16992061871764841 0 -0.33807935620566859 -0.16761377168422559 0 -0.35655385611872931 -0.1483448350447614 0 -0.34850323609728989 -0.15902153057060719 0 -0.3601586381082254 -0.1623503113450149 0 -0.34850323609728989 -0.15902153057060719 0 -0.35079279357316878 -0.16992061871764841 0 -0.3601586381082254 -0.1623503113450149 0 -0.367967399937561 -0.1541713042586913 0 -0.3601586381082254 -0.1623503113450149 0 -0.3771258843987576 -0.1624019379948384 0 -0.3601586381082254 -0.1623503113450149 0 -0.3610189884279178 -0.18142441954123201 0 -0.3771258843987576 -0.1624019379948384 0 -0.3610189884279178 -0.18142441954123201 0 -0.3771258843987576 -0.1624019379948384 0 -0.38398022256253389 -0.1664108624077606 0 -0.3610189884279178 -0.18142441954123201 0 -0.37583508204093391 -0.189790641054457 0 -0.38315735896233588 -0.18038055009632409 0 -0.3610189884279178 -0.18142441954123201 0 -0.38398022256253389 -0.1664108624077606 0 -0.3610189884279178 -0.18142441954123201 0 -0.3771258843987576 -0.1624019379948384 0 -0.3610189884279178 -0.18142441954123201 0 -0.34620374902674239 -0.1791930604471621 0 -0.34230675495802287 -0.19365970204599869 0 -0.35079279357316878 -0.16992061871764841 0 -0.3610189884279178 -0.18142441954123201 0 -0.34620374902674239 -0.1791930604471621 0 -0.35079279357316878 -0.16992061871764841 0 -0.34620374902674239 -0.1791930604471621 0 -0.33807935620566859 -0.16761377168422559 0 -0.34620374902674239 -0.1791930604471621 0 -0.33805415789934889 -0.1868364198963241 0 -0.34230675495802287 -0.19365970204599869 0 -0.34620374902674239 -0.1791930604471621 0 -0.33805415789934889 -0.1868364198963241 0 -0.33138676027647168 -0.18134175002435299 0 -0.33805415789934889 -0.1868364198963241 0 -0.33138676027647168 -0.18134175002435299 0 -0.33231936733615858 -0.19315116706778271 0 -0.33138676027647168 -0.18134175002435299 0 -0.33807935620566859 -0.16761377168422559 0 -0.3278566567284506 -0.17184734792843689 0 -0.34620374902674239 -0.1791930604471621 0 -0.33138676027647168 -0.18134175002435299 0 -0.33807935620566859 -0.16761377168422559 0 -0.33777596319091141 -0.14866862331693001 0 -0.34850323609728989 -0.15902153057060719 0 -0.33807935620566859 -0.16761377168422559 0 -0.33777596319091141 -0.14866862331693001 0 -0.33807935620566859 -0.16761377168422559 0 -0.32386328134957149 -0.1621677446311022 0 -0.33807935620566859 -0.16761377168422559 0 -0.3278566567284506 -0.17184734792843689 0 -0.32386328134957149 -0.1621677446311022 0 -0.30296712028147538 -0.1624402062956404 0 -0.32386328134957149 -0.1621677446311022 0 -0.31809722908209059 -0.176266125374067 0 -0.3278566567284506 -0.17184734792843689 0 -0.32386328134957149 -0.1621677446311022 0 -0.31809722908209059 -0.176266125374067 0 -0.30296712028147538 -0.1624402062956404 0 -0.31997532480593138 -0.14609137476052941 0 -0.32386328134957149 -0.1621677446311022 0 -0.30351562896510909 -0.17998322673641101 0 -0.31809722908209059 -0.176266125374067 0 -0.31703810975896729 -0.18756884576020169 0 -0.33138676027647168 -0.18134175002435299 0 -0.31809722908209059 -0.176266125374067 0 -0.31703810975896729 -0.18756884576020169 0 -0.33138676027647168 -0.18134175002435299 0 -0.31703810975896729 -0.18756884576020169 0 -0.33231936733615858 -0.19315116706778271 0 -0.33138676027647168 -0.18134175002435299 0 -0.3278566567284506 -0.17184734792843689 0 -0.31809722908209059 -0.176266125374067 0 -0.32276475939681692 -0.1988488018254839 0 -0.31703810975896729 -0.18756884576020169 0 -0.33231936733615858 -0.19315116706778271 0 -0.31109972593512258 -0.21098739637299821 0 -0.32276475939681692 -0.1988488018254839 0 -0.32787389469772782 -0.21440177446287151 0 -0.31109972593512258 -0.21098739637299821 0 -0.32787389469772782 -0.21440177446287151 0 -0.31813274832569188 -0.2245590713362724 0 -0.32276475939681692 -0.1988488018254839 0 -0.32787389469772782 -0.21440177446287151 0 -0.33904869309679581 -0.20954280508448209 0 -0.32276475939681692 -0.1988488018254839 0 -0.33904869309679581 -0.20954280508448209 0 -0.35138460529647658 -0.20187560011785641 0 -0.32787389469772782 -0.21440177446287151 0 -0.33904869309679581 -0.20954280508448209 0 -0.34236114089248548 -0.21934535860669671 0 -0.32276475939681692 -0.1988488018254839 0 -0.35138460529647658 -0.20187560011785641 0 -0.32276475939681692 -0.1988488018254839 0 -0.33231936733615858 -0.19315116706778271 0 -0.35138460529647658 -0.20187560011785641 0 -0.33231936733615858 -0.19315116706778271 0 -0.34230675495802287 -0.19365970204599869 0 -0.35138460529647658 -0.20187560011785641 0 -0.33805415789934889 -0.1868364198963241 0 -0.33231936733615858 -0.19315116706778271 0 -0.34230675495802287 -0.19365970204599869 0 -0.3610189884279178 -0.18142441954123201 0 -0.34230675495802287 -0.19365970204599869 0 -0.3610189884279178 -0.18142441954123201 0 -0.34230675495802287 -0.19365970204599869 0 -0.350217874436766 -0.19418069436595009 0 -0.34230675495802287 -0.19365970204599869 0 -0.350217874436766 -0.19418069436595009 0 -0.35138460529647658 -0.20187560011785641 0 -0.350217874436766 -0.19418069436595009 0 -0.35138460529647658 -0.20187560011785641 0 -0.36369220027964611 -0.19443475069794491 0 -0.3610189884279178 -0.18142441954123201 0 -0.350217874436766 -0.19418069436595009 0 -0.36369220027964611 -0.19443475069794491 0 -0.3610189884279178 -0.18142441954123201 0 -0.350217874436766 -0.19418069436595009 0 -0.36369220027964611 -0.19443475069794491 0 -0.38000445119613641 -0.20490239841022889 0 -0.37583508204093391 -0.189790641054457 0 -0.3610189884279178 -0.18142441954123201 0 -0.36369220027964611 -0.19443475069794491 0 -0.37583508204093391 -0.189790641054457 0 -0.35138460529647658 -0.20187560011785641 0 -0.36369220027964611 -0.19443475069794491 0 -0.38000445119613641 -0.20490239841022889 0 -0.362365786757185 -0.21626022437207809 0 -0.37404761654821672 -0.22160111187839959 0 -0.38000445119613641 -0.20490239841022889 0 -0.35138460529647658 -0.20187560011785641 0 -0.38000445119613641 -0.20490239841022889 0 -0.35138460529647658 -0.20187560011785641 0 -0.362365786757185 -0.21626022437207809 0 -0.38000445119613641 -0.20490239841022889 0 -0.362365786757185 -0.21626022437207809 0 -0.35028064640912732 -0.21403179348547119 0 -0.3527341027813865 -0.224296227961854 0 -0.35138460529647658 -0.20187560011785641 0 -0.362365786757185 -0.21626022437207809 0 -0.35028064640912732 -0.21403179348547119 0 -0.33904869309679581 -0.20954280508448209 0 -0.35138460529647658 -0.20187560011785641 0 -0.35028064640912732 -0.21403179348547119 0 -0.33904869309679581 -0.20954280508448209 0 -0.35028064640912732 -0.21403179348547119 0 -0.34236114089248548 -0.21934535860669671 0 -0.35028064640912732 -0.21403179348547119 0 -0.3527341027813865 -0.224296227961854 0 -0.34236114089248548 -0.21934535860669671 0 -0.3527341027813865 -0.224296227961854 0 -0.34363236470351849 -0.22876047585265669 0 -0.34236114089248548 -0.21934535860669671 0 -0.3527341027813865 -0.224296227961854 0 -0.35214823037347359 -0.2365919303562663 0 -0.34363236470351849 -0.22876047585265669 0 -0.3527341027813865 -0.224296227961854 0 -0.36361832473664929 -0.23142224524425109 0 -0.35214823037347359 -0.2365919303562663 0 -0.362365786757185 -0.21626022437207809 0 -0.36361832473664929 -0.23142224524425109 0 -0.37404761654821672 -0.22160111187839959 0 -0.362365786757185 -0.21626022437207809 0 -0.3527341027813865 -0.224296227961854 0 -0.36361832473664929 -0.23142224524425109 0 -0.36361832473664929 -0.23142224524425109 0 -0.37404761654821672 -0.22160111187839959 0 -0.37648226497360748 -0.23347895181523101 0 -0.36526141905731963 -0.25189763697309769 0 -0.36847431555665738 -0.2410715570991131 0 -0.37828169065392753 -0.24627482920161439 0 -0.36361832473664929 -0.23142224524425109 0 -0.36847431555665738 -0.2410715570991131 0 -0.37648226497360748 -0.23347895181523101 0 -0.36847431555665738 -0.2410715570991131 0 -0.37828169065392753 -0.24627482920161439 0 -0.37648226497360748 -0.23347895181523101 0 -0.36361832473664929 -0.23142224524425109 0 -0.36847431555665738 -0.2410715570991131 0 -0.35882014511412758 -0.24391213953550259 0 -0.36526141905731963 -0.25189763697309769 0 -0.36847431555665738 -0.2410715570991131 0 -0.35882014511412758 -0.24391213953550259 0 -0.35166444909584671 -0.25098800909374941 0 -0.36526141905731963 -0.25189763697309769 0 -0.35882014511412758 -0.24391213953550259 0 -0.35166444909584671 -0.25098800909374941 0 -0.35882014511412758 -0.24391213953550259 0 -0.35214823037347359 -0.2365919303562663 0 -0.36361832473664929 -0.23142224524425109 0 -0.35882014511412758 -0.24391213953550259 0 -0.35214823037347359 -0.2365919303562663 0 -0.35214823037347359 -0.2365919303562663 0 -0.34332075568281673 -0.2415239264544517 0 -0.34363236470351849 -0.22876047585265669 0 -0.35166444909584671 -0.25098800909374941 0 -0.35214823037347359 -0.2365919303562663 0 -0.34332075568281673 -0.2415239264544517 0 -0.35166444909584671 -0.25098800909374941 0 -0.33717433073883762 -0.24958037198218949 0 -0.34332075568281673 -0.2415239264544517 0 -0.33717433073883762 -0.24958037198218949 0 -0.32998506854031823 -0.24227342365894669 0 -0.34332075568281673 -0.2415239264544517 0 -0.3276756922400243 -0.25574566571154062 0 -0.33717433073883762 -0.24958037198218949 0 -0.32998506854031823 -0.24227342365894669 0 -0.32998506854031823 -0.24227342365894669 0 -0.33550511757025042 -0.23368057693945349 0 -0.32684987557109951 -0.23365327985561071 0 -0.32998506854031823 -0.24227342365894669 0 -0.34332075568281673 -0.2415239264544517 0 -0.33550511757025042 -0.23368057693945349 0 -0.34332075568281673 -0.2415239264544517 0 -0.34363236470351849 -0.22876047585265669 0 -0.33550511757025042 -0.23368057693945349 0 -0.34363236470351849 -0.22876047585265669 0 -0.33237843190722449 -0.22424547067780651 0 -0.33550511757025042 -0.23368057693945349 0 -0.34363236470351849 -0.22876047585265669 0 -0.34236114089248548 -0.21934535860669671 0 -0.33237843190722449 -0.22424547067780651 0 -0.32787389469772782 -0.21440177446287151 0 -0.34236114089248548 -0.21934535860669671 0 -0.33237843190722449 -0.22424547067780651 0 -0.33237843190722449 -0.22424547067780651 0 -0.33550511757025042 -0.23368057693945349 0 -0.32684987557109951 -0.23365327985561071 0 -0.33237843190722449 -0.22424547067780651 0 -0.32684987557109951 -0.23365327985561071 0 -0.31813274832569188 -0.2245590713362724 0 -0.32684987557109951 -0.23365327985561071 0 -0.31813274832569188 -0.2245590713362724 0 -0.31824801151201237 -0.2435078566655744 0 -0.32787389469772782 -0.21440177446287151 0 -0.33237843190722449 -0.22424547067780651 0 -0.31813274832569188 -0.2245590713362724 0 -0.30555550476956661 -0.23687072435659459 0 -0.31813274832569188 -0.2245590713362724 0 -0.31824801151201237 -0.2435078566655744 0 -0.3276756922400243 -0.25574566571154062 0 -0.32998506854031823 -0.24227342365894669 0 -0.31824801151201237 -0.2435078566655744 0 -0.32998506854031823 -0.24227342365894669 0 -0.32684987557109951 -0.23365327985561071 0 -0.31824801151201237 -0.2435078566655744 0 -0.42408203617611689 -0.22955520546788649 0 -0.44046562529185068 -0.23077772567674781 0 -0.43941780136049358 -0.24513398287473709 0 -0.43722006643490269 -0.25325551897868792 0 -0.42408203617611689 -0.22955520546788649 0 -0.43941780136049358 -0.24513398287473709 0 -0.43722006643490269 -0.25325551897868792 0 -0.42408203617611689 -0.22955520546788649 0 -0.43722006643490269 -0.25325551897868792 0 -0.4238399105813585 -0.24518104953181019 0 -0.42408203617611689 -0.22955520546788649 0 -0.42408203617611689 -0.22955520546788649 0 -0.43447081869806692 -0.21497834283094039 0 -0.44046562529185068 -0.23077772567674781 0 -0.42408203617611689 -0.22955520546788649 0 -0.4235997337415362 -0.21176186901281319 0 -0.43447081869806692 -0.21497834283094039 0 -0.42408203617611689 -0.22955520546788649 0 -0.41007989759246349 -0.2325480930949661 0 -0.41734535743179851 -0.2381989573342625 0 -0.42408203617611689 -0.22955520546788649 0 -0.41176550065197087 -0.22202135187713451 0 -0.41094400591733121 -0.20585489195708501 0 -0.42408203617611689 -0.22955520546788649 0 -0.41176550065197087 -0.22202135187713451 0 -0.41007989759246349 -0.2325480930949661 0 -0.41176550065197087 -0.22202135187713451 0 -0.40432483487126059 -0.22365402844348389 0 -0.40720543828330807 -0.2156416382435612 0 -0.41176550065197087 -0.22202135187713451 0 -0.41007989759246349 -0.2325480930949661 0 -0.40432483487126059 -0.22365402844348389 0 -0.41007989759246349 -0.2325480930949661 0 -0.41734535743179851 -0.2381989573342625 0 -0.41137958537725489 -0.24551148124238739 0 -0.4238399105813585 -0.24518104953181019 0 -0.42408203617611689 -0.22955520546788649 0 -0.41734535743179851 -0.2381989573342625 0 -0.41007989759246349 -0.2325480930949661 0 -0.41137958537725489 -0.24551148124238739 0 -0.39864410587321653 -0.2406983910953498 0 -0.41686650467662839 -0.25697029824265533 0 -0.4238399105813585 -0.24518104953181019 0 -0.41137958537725489 -0.24551148124238739 0 -0.4238399105813585 -0.24518104953181019 0 -0.41734535743179851 -0.2381989573342625 0 -0.41137958537725489 -0.24551148124238739 0 -0.40132990686818981 -0.25854641286685948 0 -0.41137958537725489 -0.24551148124238739 0 -0.39864410587321653 -0.2406983910953498 0 -0.39864410587321653 -0.2406983910953498 0 -0.38777934780910989 -0.23753171395358999 0 -0.39808283322246651 -0.22936520399200119 0 -0.3885075298045742 -0.25107858840937952 0 -0.39864410587321653 -0.2406983910953498 0 -0.38777934780910989 -0.23753171395358999 0 -0.3885075298045742 -0.25107858840937952 0 -0.38777934780910989 -0.23753171395358999 0 -0.37828169065392753 -0.24627482920161439 0 -0.38777934780910989 -0.23753171395358999 0 -0.37828169065392753 -0.24627482920161439 0 -0.37648226497360748 -0.23347895181523101 0 -0.37404761654821672 -0.22160111187839959 0 -0.37648226497360748 -0.23347895181523101 0 -0.38627039783009032 -0.2240451940813144 0 -0.38777934780910989 -0.23753171395358999 0 -0.37648226497360748 -0.23347895181523101 0 -0.38627039783009032 -0.2240451940813144 0 -0.38627039783009032 -0.2240451940813144 0 -0.39808283322246651 -0.22936520399200119 0 -0.39752189873875299 -0.21765043145605981 0 -0.38777934780910989 -0.23753171395358999 0 -0.38627039783009032 -0.2240451940813144 0 -0.39808283322246651 -0.22936520399200119 0 -0.41007989759246349 -0.2325480930949661 0 -0.39808283322246651 -0.22936520399200119 0 -0.40432483487126059 -0.22365402844348389 0 -0.41007989759246349 -0.2325480930949661 0 -0.39864410587321653 -0.2406983910953498 0 -0.39808283322246651 -0.22936520399200119 0 -0.39808283322246651 -0.22936520399200119 0 -0.40432483487126059 -0.22365402844348389 0 -0.39752189873875299 -0.21765043145605981 0 -0.40432483487126059 -0.22365402844348389 0 -0.39752189873875299 -0.21765043145605981 0 -0.40720543828330807 -0.2156416382435612 0 -0.38000445119613641 -0.20490239841022889 0 -0.40862429709579601 -0.20792919670260149 0 -0.39752189873875299 -0.21765043145605981 0 -0.38000445119613641 -0.20490239841022889 0 -0.40862429709579601 -0.20792919670260149 0 -0.39752189873875299 -0.21765043145605981 0 -0.40862429709579601 -0.20792919670260149 0 -0.40720543828330807 -0.2156416382435612 0 -0.38627039783009032 -0.2240451940813144 0 -0.39752189873875299 -0.21765043145605981 0 -0.38000445119613641 -0.20490239841022889 0 -0.37404761654821672 -0.22160111187839959 0 -0.38627039783009032 -0.2240451940813144 0 -0.38000445119613641 -0.20490239841022889 0 -0.38000445119613641 -0.20490239841022889 0 -0.38748831460543892 -0.18980025311138779 0 -0.40028673410182469 -0.1962710191486611 0 -0.38000445119613641 -0.20490239841022889 0 -0.37583508204093391 -0.189790641054457 0 -0.38748831460543892 -0.18980025311138779 0 -0.41094400591733121 -0.20585489195708501 0 -0.39780597565854542 -0.18215457844628349 0 -0.38748831460543892 -0.18980025311138779 0 -0.40028673410182469 -0.1962710191486611 0 -0.39780597565854542 -0.18215457844628349 0 -0.38000445119613641 -0.20490239841022889 0 -0.40028673410182469 -0.1962710191486611 0 -0.40862429709579601 -0.20792919670260149 0 -0.40028673410182469 -0.1962710191486611 0 -0.41094400591733121 -0.20585489195708501 0 -0.39780597565854542 -0.18215457844628349 0 -0.41006130851029537 -0.1908525822032292 0 -0.41094400591733121 -0.20585489195708501 0 -0.39780597565854542 -0.18215457844628349 0 -0.41550698465393598 -0.19969676805684461 0 -0.41094400591733121 -0.20585489195708501 0 -0.42063697940266181 -0.20378239726676961 0 -0.41006130851029537 -0.1908525822032292 0 -0.41550698465393598 -0.19969676805684461 0 -0.42282749448622847 -0.1976285752830077 0 -0.41550698465393598 -0.19969676805684461 0 -0.42063697940266181 -0.20378239726676961 0 -0.42282749448622847 -0.1976285752830077 0 -0.41006130851029537 -0.1908525822032292 0 -0.41550698465393598 -0.19969676805684461 0 -0.41094400591733121 -0.20585489195708501 0 -0.41176550065197087 -0.22202135187713451 0 -0.41094400591733121 -0.20585489195708501 0 -0.40720543828330807 -0.2156416382435612 0 -0.40028673410182469 -0.1962710191486611 0 -0.41094400591733121 -0.20585489195708501 0 -0.40862429709579601 -0.20792919670260149 0 -0.42408203617611689 -0.22955520546788649 0 -0.41094400591733121 -0.20585489195708501 0 -0.41094400591733121 -0.20585489195708501 0 -0.40862429709579601 -0.20792919670260149 0 -0.40720543828330807 -0.2156416382435612 0 -0.42408203617611689 -0.22955520546788649 0 -0.41094400591733121 -0.20585489195708501 0 -0.4235997337415362 -0.21176186901281319 0 -0.41094400591733121 -0.20585489195708501 0 -0.42063697940266181 -0.20378239726676961 0 -0.4235997337415362 -0.21176186901281319 0 -0.4235997337415362 -0.21176186901281319 0 -0.43447081869806692 -0.21497834283094039 0 -0.42979239490816762 -0.20381168068936481 0 -0.42063697940266181 -0.20378239726676961 0 -0.4235997337415362 -0.21176186901281319 0 -0.42979239490816762 -0.20381168068936481 0 -0.43447081869806692 -0.21497834283094039 0 -0.42979239490816762 -0.20381168068936481 0 -0.43979201623643499 -0.2047497773297178 0 -0.42979239490816762 -0.20381168068936481 0 -0.43446505504088762 -0.18905788272487961 0 -0.43979201623643499 -0.2047497773297178 0 -0.41006130851029537 -0.1908525822032292 0 -0.43446505504088762 -0.18905788272487961 0 -0.42282749448622847 -0.1976285752830077 0 -0.42063697940266181 -0.20378239726676961 0 -0.42979239490816762 -0.20381168068936481 0 -0.42282749448622847 -0.1976285752830077 0 -0.42979239490816762 -0.20381168068936481 0 -0.43446505504088762 -0.18905788272487961 0 -0.42282749448622847 -0.1976285752830077 0 -0.43446505504088762 -0.18905788272487961 0 -0.42219161760812679 -0.172658489081844 0 -0.4330692469941313 -0.1706560556692478 0 -0.43446505504088762 -0.18905788272487961 0 -0.42219161760812679 -0.172658489081844 0 -0.40916946768760393 -0.1758508132205385 0 -0.4330692469941313 -0.1706560556692478 0 -0.43317982053750648 -0.16126572120660629 0 -0.44373855277841928 -0.16327921925527661 0 -0.4330692469941313 -0.1706560556692478 0 -0.43317982053750648 -0.16126572120660629 0 -0.4235338087065012 -0.1625994400745383 0 -0.43317982053750648 -0.16126572120660629 0 -0.42701108194300019 -0.15547990447866791 0 -0.43854641226548052 -0.1543139865553009 0 -0.43317982053750648 -0.16126572120660629 0 -0.4235338087065012 -0.1625994400745383 0 -0.42701108194300019 -0.15547990447866791 0 -0.4235338087065012 -0.1625994400745383 0 -0.41661567599367522 -0.15650078231813341 0 -0.42701108194300019 -0.15547990447866791 0 -0.42219161760812679 -0.172658489081844 0 -0.4330692469941313 -0.1706560556692478 0 -0.4235338087065012 -0.1625994400745383 0 -0.42219161760812679 -0.172658489081844 0 -0.4235338087065012 -0.1625994400745383 0 -0.41072050961151002 -0.16512825372001591 0 -0.4235338087065012 -0.1625994400745383 0 -0.41661567599367522 -0.15650078231813341 0 -0.41072050961151002 -0.16512825372001591 0 -0.41661567599367522 -0.15650078231813341 0 -0.41072050961151002 -0.16512825372001591 0 -0.40694145669714998 -0.1513973052742893 0 -0.42219161760812679 -0.172658489081844 0 -0.41072050961151002 -0.16512825372001591 0 -0.40916946768760393 -0.1758508132205385 0 -0.41072050961151002 -0.16512825372001591 0 -0.40916946768760393 -0.1758508132205385 0 -0.4019376114620698 -0.17225723710294791 0 -0.41006130851029537 -0.1908525822032292 0 -0.43446505504088762 -0.18905788272487961 0 -0.40916946768760393 -0.1758508132205385 0 -0.43446505504088762 -0.18905788272487961 0 -0.40916946768760393 -0.1758508132205385 0 -0.41006130851029537 -0.1908525822032292 0 -0.40916946768760393 -0.1758508132205385 0 -0.39780597565854542 -0.18215457844628349 0 -0.40916946768760393 -0.1758508132205385 0 -0.4019376114620698 -0.17225723710294791 0 -0.39780597565854542 -0.18215457844628349 0 -0.39281557047864601 -0.17270254601682389 0 -0.39780597565854542 -0.18215457844628349 0 -0.38315735896233588 -0.18038055009632409 0 -0.4019376114620698 -0.17225723710294791 0 -0.39281557047864601 -0.17270254601682389 0 -0.39780597565854542 -0.18215457844628349 0 -0.3610189884279178 -0.18142441954123201 0 -0.38315735896233588 -0.18038055009632409 0 -0.38398022256253389 -0.1664108624077606 0 -0.38748831460543892 -0.18980025311138779 0 -0.39780597565854542 -0.18215457844628349 0 -0.38315735896233588 -0.18038055009632409 0 -0.39281557047864601 -0.17270254601682389 0 -0.38315735896233588 -0.18038055009632409 0 -0.38398022256253389 -0.1664108624077606 0 -0.37583508204093391 -0.189790641054457 0 -0.38748831460543892 -0.18980025311138779 0 -0.38315735896233588 -0.18038055009632409 0 -0.3771258843987576 -0.1624019379948384 0 -0.38398022256253389 -0.1664108624077606 0 -0.39323278036959752 -0.1433794564484448 0 -0.38398022256253389 -0.1664108624077606 0 -0.39917653387404373 -0.1654499941110778 0 -0.40694145669714998 -0.1513973052742893 0 -0.38398022256253389 -0.1664108624077606 0 -0.40694145669714998 -0.1513973052742893 0 -0.39281557047864601 -0.17270254601682389 0 -0.38398022256253389 -0.1664108624077606 0 -0.39917653387404373 -0.1654499941110778 0 -0.4019376114620698 -0.17225723710294791 0 -0.39281557047864601 -0.17270254601682389 0 -0.39917653387404373 -0.1654499941110778 0 -0.41072050961151002 -0.16512825372001591 0 -0.4019376114620698 -0.17225723710294791 0 -0.39917653387404373 -0.1654499941110778 0 -0.41072050961151002 -0.16512825372001591 0 -0.39917653387404373 -0.1654499941110778 0 -0.40694145669714998 -0.1513973052742893 0 -0.38398022256253389 -0.1664108624077606 0 -0.39323278036959752 -0.1433794564484448 0 -0.40694145669714998 -0.1513973052742893 0 -0.39323278036959752 -0.1433794564484448 0 -0.41475265433749098 -0.1384635692727125 0 -0.40694145669714998 -0.1513973052742893 0 -0.37426737574231239 -0.1436512218124954 0 -0.39323278036959752 -0.1433794564484448 0 -0.3781483601120571 -0.1509009801286175 0 -0.3771258843987576 -0.1624019379948384 0 -0.39323278036959752 -0.1433794564484448 0 -0.3771258843987576 -0.1624019379948384 0 -0.39323278036959752 -0.1433794564484448 0 -0.3781483601120571 -0.1509009801286175 0 -0.37426737574231239 -0.1436512218124954 0 -0.39323278036959752 -0.1433794564484448 0 -0.383605609597027 -0.1334334702027391 0 -0.36162662312411348 -0.1301996882443564 0 -0.383605609597027 -0.1334334702027391 0 -0.38192772204362102 -0.11931691475161579 0 -0.39323278036959752 -0.1433794564484448 0 -0.383605609597027 -0.1334334702027391 0 -0.39320646912850671 -0.12588660288468409 0 -0.383605609597027 -0.1334334702027391 0 -0.39320646912850671 -0.12588660288468409 0 -0.38192772204362102 -0.11931691475161579 0 -0.39323278036959752 -0.1433794564484448 0 -0.39320646912850671 -0.12588660288468409 0 -0.40933967634043739 -0.12435697490205121 0 -0.39323278036959752 -0.1433794564484448 0 -0.40933967634043739 -0.12435697490205121 0 -0.39323278036959752 -0.1433794564484448 0 -0.41475265433749098 -0.1384635692727125 0 -0.40933967634043739 -0.12435697490205121 0 -0.4197611864962208 -0.1299110722301523 0 -0.41475265433749098 -0.1384635692727125 0 -0.40933967634043739 -0.12435697490205121 0 -0.4197611864962208 -0.1299110722301523 0 -0.41475265433749098 -0.1384635692727125 0 -0.42990269083176658 -0.13638374814081869 0 -0.40694145669714998 -0.1513973052742893 0 -0.42990269083176658 -0.13638374814081869 0 -0.41475265433749098 -0.1384635692727125 0 -0.40694145669714998 -0.1513973052742893 0 -0.42990269083176658 -0.13638374814081869 0 -0.40694145669714998 -0.1513973052742893 0 -0.42065732571191322 -0.1484916089582162 0 -0.42990269083176658 -0.13638374814081869 0 -0.41661567599367522 -0.15650078231813341 0 -0.42065732571191322 -0.1484916089582162 0 -0.42701108194300019 -0.15547990447866791 0 -0.41661567599367522 -0.15650078231813341 0 -0.40694145669714998 -0.1513973052742893 0 -0.42065732571191322 -0.1484916089582162 0 -0.42065732571191322 -0.1484916089582162 0 -0.43005138444439189 -0.1436556803274307 0 -0.42990269083176658 -0.13638374814081869 0 -0.42065732571191322 -0.1484916089582162 0 -0.43013044192150651 -0.1495176468870987 0 -0.43005138444439189 -0.1436556803274307 0 -0.42065732571191322 -0.1484916089582162 0 -0.42701108194300019 -0.15547990447866791 0 -0.43013044192150651 -0.1495176468870987 0 -0.43013044192150651 -0.1495176468870987 0 -0.43438600524274629 -0.14564705411587761 0 -0.43854641226548052 -0.1543139865553009 0 -0.42701108194300019 -0.15547990447866791 0 -0.43013044192150651 -0.1495176468870987 0 -0.43854641226548052 -0.1543139865553009 0 -0.43005138444439189 -0.1436556803274307 0 -0.43438600524274629 -0.14564705411587761 0 -0.43573739154606578 -0.13934908652716271 0 -0.43013044192150651 -0.1495176468870987 0 -0.43005138444439189 -0.1436556803274307 0 -0.43438600524274629 -0.14564705411587761 0 -0.43438600524274629 -0.14564705411587761 0 -0.43573739154606578 -0.13934908652716271 0 -0.43573739154606578 -0.13934908652716271 0 -0.43742974907553561 -0.1314620649975142 0 -0.4197611864962208 -0.1299110722301523 0 -0.42990269083176658 -0.13638374814081869 0 -0.42524849813868731 -0.12054101826893331 0 -0.42990269083176658 -0.13638374814081869 0 -0.43742974907553561 -0.1314620649975142 0 -0.42524849813868731 -0.12054101826893331 0 -0.43573739154606578 -0.13934908652716271 0 -0.42990269083176658 -0.13638374814081869 0 -0.43742974907553561 -0.1314620649975142 0 -0.43005138444439189 -0.1436556803274307 0 -0.43573739154606578 -0.13934908652716271 0 -0.42990269083176658 -0.13638374814081869 0 -0.43573739154606578 -0.13934908652716271 0 -0.42990269083176658 -0.13638374814081869 0 -0.42990269083176658 -0.13638374814081869 0 -0.43742974907553561 -0.1314620649975142 0 -0.44824650820547818 -0.13631949161085691 0 -0.44654428362504778 -0.12550238598366981 0 -0.46436285575003189 -0.13504822137796729 0 -0.43742974907553561 -0.1314620649975142 0 -0.44654428362504778 -0.12550238598366981 0 -0.43742974907553561 -0.1314620649975142 0 -0.44824650820547818 -0.13631949161085691 0 -0.44654428362504778 -0.12550238598366981 0 -0.43742974907553561 -0.1314620649975142 0 -0.44654428362504778 -0.12550238598366981 0 -0.44274024822924529 -0.1234644732111045 0 -0.43573739154606578 -0.13934908652716271 0 -0.43742974907553561 -0.1314620649975142 0 -0.44824650820547818 -0.13631949161085691 0 -0.43438600524274629 -0.14564705411587761 0 -0.43854641226548052 -0.1543139865553009 0 -0.45715826103071072 -0.15023569916797019 0 -0.43854641226548052 -0.1543139865553009 0 -0.45715826103071072 -0.15023569916797019 0 -0.44373855277841928 -0.16327921925527661 0 -0.43573739154606578 -0.13934908652716271 0 -0.45715826103071072 -0.15023569916797019 0 -0.43573739154606578 -0.13934908652716271 0 -0.44824650820547818 -0.13631949161085691 0 -0.45715826103071072 -0.15023569916797019 0 -0.43438600524274629 -0.14564705411587761 0 -0.43573739154606578 -0.13934908652716271 0 -0.45715826103071072 -0.15023569916797019 0 -0.45715826103071072 -0.15023569916797019 0 -0.47857913051535522 -0.16112231180877809 0 -0.45715826103071072 -0.15023569916797019 0 -0.46436285575003189 -0.13504822137796729 0 -0.47057041879277861 -0.1477500722817448 0 -0.44824650820547818 -0.13631949161085691 0 -0.45715826103071072 -0.15023569916797019 0 -0.46436285575003189 -0.13504822137796729 0 -0.44654428362504778 -0.12550238598366981 0 -0.46436285575003189 -0.13504822137796729 0 -0.46436285575003189 -0.13504822137796729 0 -0.48218142787501661 -0.1445940567722637 0 -0.48218142787501689 -0.1233972731289746 0 -0.46436285575003189 -0.13504822137796729 0 -0.48218142787501661 -0.1445940567722637 0 -0.5 -0.1329431085232714 0 -0.48218142787501661 -0.1445940567722637 0 -0.48218142787501689 -0.1233972731289746 0 -0.5 -0.1329431085232714 0 -0.50000000000000111 -0.15413989216656071 0 -0.48218142787501661 -0.1445940567722637 0 -0.50000000000000111 -0.15413989216656071 0 -0.48218142787501661 -0.1445940567722637 0 -0.47857913051535522 -0.16112231180877809 0 -0.50000000000000111 -0.15413989216656071 0 -0.48218142787501661 -0.1445940567722637 0 -0.46436285575003189 -0.13504822137796729 0 -0.48218142787501661 -0.1445940567722637 0 -0.47057041879277861 -0.1477500722817448 0 -0.48218142787501661 -0.1445940567722637 0 -0.47057041879277861 -0.1477500722817448 0 -0.47857913051535522 -0.16112231180877809 0 -0.45715826103071072 -0.15023569916797019 0 -0.47057041879277861 -0.1477500722817448 0 -0.47857913051535522 -0.16112231180877809 0 -0.50000000000000111 -0.15413989216656071 0 -0.47857913051535522 -0.16112231180877809 0 -0.49999999999999978 -0.1720089244495859 0 -0.47857913051535522 -0.16112231180877809 0 -0.49999999999999978 -0.1720089244495859 0 -0.47857913051535522 -0.16112231180877809 0 -0.49999999999999978 -0.1720089244495859 0 -0.47964159139159063 -0.18553623869154609 0 -0.49999999999999978 -0.1720089244495859 0 -0.47964159139159063 -0.18553623869154609 0 -0.5 -0.19976209429187339 0 -0.47964159139159063 -0.18553623869154609 0 -0.46373039325089233 -0.186903122346984 0 -0.46809358648956029 -0.1755712507277791 0 -0.47857913051535522 -0.16112231180877809 0 -0.47964159139159063 -0.18553623869154609 0 -0.46809358648956029 -0.1755712507277791 0 -0.46373039325089233 -0.186903122346984 0 -0.45719805809882053 -0.17863212413243981 0 -0.46809358648956029 -0.1755712507277791 0 -0.46373039325089233 -0.186903122346984 0 -0.45719805809882053 -0.17863212413243981 0 -0.44957971845198108 -0.1892477961172879 0 -0.45719805809882053 -0.17863212413243981 0 -0.45767450584918817 -0.16623935964290801 0 -0.44565063477236949 -0.1756925586276688 0 -0.45719805809882053 -0.17863212413243981 0 -0.46809358648956029 -0.1755712507277791 0 -0.45767450584918817 -0.16623935964290801 0 -0.45715826103071072 -0.15023569916797019 0 -0.47857913051535522 -0.16112231180877809 0 -0.45767450584918817 -0.16623935964290801 0 -0.47857913051535522 -0.16112231180877809 0 -0.46809358648956029 -0.1755712507277791 0 -0.45767450584918817 -0.16623935964290801 0 -0.45767450584918817 -0.16623935964290801 0 -0.44373855277841928 -0.16327921925527661 0 -0.44565063477236949 -0.1756925586276688 0 -0.45715826103071072 -0.15023569916797019 0 -0.45767450584918817 -0.16623935964290801 0 -0.44373855277841928 -0.16327921925527661 0 -0.43317982053750648 -0.16126572120660629 0 -0.43854641226548052 -0.1543139865553009 0 -0.44373855277841928 -0.16327921925527661 0 -0.4330692469941313 -0.1706560556692478 0 -0.44373855277841928 -0.16327921925527661 0 -0.44565063477236949 -0.1756925586276688 0 -0.43446505504088762 -0.18905788272487961 0 -0.4330692469941313 -0.1706560556692478 0 -0.44565063477236949 -0.1756925586276688 0 -0.43446505504088762 -0.18905788272487961 0 -0.44565063477236949 -0.1756925586276688 0 -0.44957971845198108 -0.1892477961172879 0 -0.45719805809882053 -0.17863212413243981 0 -0.44565063477236949 -0.1756925586276688 0 -0.44957971845198108 -0.1892477961172879 0 -0.43446505504088762 -0.18905788272487961 0 -0.45976064239417141 -0.2022649522292207 0 -0.43446505504088762 -0.18905788272487961 0 -0.43979201623643499 -0.2047497773297178 0 -0.45388341344426569 -0.20361521045293041 0 -0.43446505504088762 -0.18905788272487961 0 -0.45388341344426569 -0.20361521045293041 0 -0.45976064239417141 -0.2022649522292207 0 -0.43446505504088762 -0.18905788272487961 0 -0.44957971845198108 -0.1892477961172879 0 -0.45976064239417141 -0.2022649522292207 0 -0.43447081869806692 -0.21497834283094039 0 -0.44583411578467758 -0.212127568615741 0 -0.45735853245392688 -0.22905066992269871 0 -0.44583411578467758 -0.212127568615741 0 -0.45388341344426569 -0.20361521045293041 0 -0.45735853245392688 -0.22905066992269871 0 -0.43447081869806692 -0.21497834283094039 0 -0.43979201623643499 -0.2047497773297178 0 -0.44583411578467758 -0.212127568615741 0 -0.43979201623643499 -0.2047497773297178 0 -0.44583411578467758 -0.212127568615741 0 -0.45388341344426569 -0.20361521045293041 0 -0.45388341344426569 -0.20361521045293041 0 -0.45735853245392688 -0.22905066992269871 0 -0.45388341344426569 -0.20361521045293041 0 -0.46694761685335662 -0.2185124812575969 0 -0.45735853245392688 -0.22905066992269871 0 -0.45388341344426569 -0.20361521045293041 0 -0.46694761685335662 -0.2185124812575969 0 -0.45976064239417141 -0.2022649522292207 0 -0.46758945835320009 -0.19578769508597541 0 -0.45976064239417141 -0.2022649522292207 0 -0.47631384625658152 -0.20212679036957029 0 -0.46758945835320009 -0.19578769508597541 0 -0.45976064239417141 -0.2022649522292207 0 -0.46016505311256117 -0.19355089144486701 0 -0.46373039325089233 -0.186903122346984 0 -0.44957971845198108 -0.1892477961172879 0 -0.46016505311256117 -0.19355089144486701 0 -0.44957971845198108 -0.1892477961172879 0 -0.45976064239417141 -0.2022649522292207 0 -0.46016505311256117 -0.19355089144486701 0 -0.46373039325089233 -0.186903122346984 0 -0.46758945835320009 -0.19578769508597541 0 -0.46016505311256117 -0.19355089144486701 0 -0.47964159139159063 -0.18553623869154609 0 -0.46373039325089233 -0.186903122346984 0 -0.46758945835320009 -0.19578769508597541 0 -0.47964159139159063 -0.18553623869154609 0 -0.46758945835320009 -0.19578769508597541 0 -0.47631384625658152 -0.20212679036957029 0 -0.47964159139159063 -0.18553623869154609 0 -0.47631384625658152 -0.20212679036957029 0 -0.5 -0.19976209429187339 0 -0.5 -0.19976209429187339 0 -0.48505622974745499 -0.2154720217335617 0 -0.5 -0.22751526413416079 0 -0.47631384625658152 -0.20212679036957029 0 -0.5 -0.19976209429187339 0 -0.48505622974745499 -0.2154720217335617 0 -0.45976064239417141 -0.2022649522292207 0 -0.47631384625658152 -0.20212679036957029 0 -0.48505622974745499 -0.2154720217335617 0 -0.46694761685335662 -0.2185124812575969 0 -0.45976064239417141 -0.2022649522292207 0 -0.48505622974745499 -0.2154720217335617 0 -0.45976064239417141 -0.2022649522292207 0 -0.48505622974745499 -0.2154720217335617 0 -0.46694761685335662 -0.2185124812575969 0 -0.48505622974745499 -0.2154720217335617 0 -0.47867926622696388 -0.2421595519495732 0 -0.48505622974745499 -0.2154720217335617 0 -0.5 -0.22751526413416079 0 -0.47867926622696388 -0.2421595519495732 0 -0.50000000000000044 -0.25526843397644838 0 -0.5 -0.22751526413416079 0 -0.47867926622696388 -0.2421595519495732 0 -0.50000000000000044 -0.25526843397644838 0 -0.47867926622696388 -0.2421595519495732 0 -0.46107271074859563 -0.25623587745514548 0 -0.45735853245392688 -0.22905066992269871 0 -0.44933870758903571 -0.2394949634074561 0 -0.47867926622696388 -0.2421595519495732 0 -0.45735853245392688 -0.22905066992269871 0 -0.46107271074859563 -0.25623587745514548 0 -0.47867926622696388 -0.2421595519495732 0 -0.45735853245392688 -0.22905066992269871 0 -0.46107271074859563 -0.25623587745514548 0 -0.45735853245392688 -0.22905066992269871 0 -0.46694761685335662 -0.2185124812575969 0 -0.47867926622696388 -0.2421595519495732 0 -0.45735853245392688 -0.22905066992269871 0 -0.43447081869806692 -0.21497834283094039 0 -0.45735853245392688 -0.22905066992269871 0 -0.44046562529185068 -0.23077772567674781 0 -0.43447081869806692 -0.21497834283094039 0 -0.45735853245392688 -0.22905066992269871 0 -0.45735853245392688 -0.22905066992269871 0 -0.44046562529185068 -0.23077772567674781 0 -0.44933870758903571 -0.2394949634074561 0 -0.44046562529185068 -0.23077772567674781 0 -0.43941780136049358 -0.24513398287473709 0 -0.44933870758903571 -0.2394949634074561 0 -0.46107271074859563 -0.25623587745514548 0 -0.43941780136049358 -0.24513398287473709 0 -0.44933870758903571 -0.2394949634074561 0 -0.40778791468134579 -0.043587422905723719 0 -0.42089993909185031 -0.033876665478208043 0 -0.42343078690001268 -0.050207377641877132 0 -0.40778791468134579 -0.043587422905723719 0 -0.42089993909185031 -0.033876665478208043 0 -0.40579504526229387 -0.026802469475902969 0 -0.40778791468134579 -0.043587422905723719 0 -0.42343078690001268 -0.050207377641877132 0 -0.41803192992488258 -0.06738795736031801 0 -0.42343078690001268 -0.050207377641877132 0 -0.43804418546552809 -0.048433923313823998 0 -0.44535461994991549 -0.061321281134046252 0 -0.42343078690001268 -0.050207377641877132 0 -0.41803192992488258 -0.06738795736031801 0 -0.44535461994991549 -0.061321281134046252 0 -0.42089993909185031 -0.033876665478208043 0 -0.42343078690001268 -0.050207377641877132 0 -0.43181703958537648 -0.039656146059607968 0 -0.42343078690001268 -0.050207377641877132 0 -0.43181703958537648 -0.039656146059607968 0 -0.43804418546552809 -0.048433923313823998 0 -0.43181703958537648 -0.039656146059607968 0 -0.43860125369730679 -0.04110207541821953 0 -0.43804418546552809 -0.048433923313823998 0 -0.42089993909185031 -0.033876665478208043 0 -0.43181703958537648 -0.039656146059607968 0 -0.43126041631426998 -0.031643178472817522 0 -0.43181703958537648 -0.039656146059607968 0 -0.43126041631426998 -0.031643178472817522 0 -0.43820078776852939 -0.034359674484196912 0 -0.43181703958537648 -0.039656146059607968 0 -0.43820078776852939 -0.034359674484196912 0 -0.43860125369730679 -0.04110207541821953 0 -0.43671531659206991 -0.025627690514785331 0 -0.42705812732053727 -0.025959216047989422 0 -0.41743652421388938 -0.01922467968972668 0 -0.43671531659206991 -0.025627690514785331 0 -0.41743652421388938 -0.01922467968972668 0 -0.43671531659206991 -0.025627690514785331 0 -0.42751599202536678 -0.01212201214466806 0 -0.41743652421388938 -0.01922467968972668 0 -0.43126041631426998 -0.031643178472817522 0 -0.43671531659206991 -0.025627690514785331 0 -0.42705812732053727 -0.025959216047989422 0 -0.43126041631426998 -0.031643178472817522 0 -0.43671531659206991 -0.025627690514785331 0 -0.43820078776852939 -0.034359674484196912 0 -0.43671531659206991 -0.025627690514785331 0 -0.42751599202536678 -0.01212201214466806 0 -0.42705812732053727 -0.025959216047989422 0 -0.41743652421388938 -0.01922467968972668 0 -0.42089993909185031 -0.033876665478208043 0 -0.43126041631426998 -0.031643178472817522 0 -0.42705812732053727 -0.025959216047989422 0 -0.42751599202536678 -0.01212201214466806 0 -0.4183166674586607 0.0013836662254471969 0 -0.40825190591303712 -0.007550291982806337 0 -0.41743652421388938 -0.01922467968972668 0 -0.39852789268352617 -0.005989788880498427 0 -0.41743652421388938 -0.01922467968972668 0 -0.39852789268352617 -0.005989788880498427 0 -0.41743652421388938 -0.01922467968972668 0 -0.39852789268352617 -0.005989788880498427 0 -0.40304785788577169 -0.01444581260874663 0 -0.42751599202536678 -0.01212201214466806 0 -0.41608396652708352 -0.0079277690055311444 0 -0.4183166674586607 0.0013836662254471969 0 -0.41608396652708352 -0.0079277690055311444 0 -0.40889874302446361 -0.0021255274359018831 0 -0.4183166674586607 0.0013836662254471969 0 -0.42751599202536678 -0.01212201214466806 0 -0.41608396652708352 -0.0079277690055311444 0 -0.41743652421388938 -0.01922467968972668 0 -0.41608396652708352 -0.0079277690055311444 0 -0.40825190591303712 -0.007550291982806337 0 -0.41743652421388938 -0.01922467968972668 0 -0.40889874302446361 -0.0021255274359018831 0 -0.4183166674586607 0.0013836662254471969 0 -0.41608396652708352 -0.0079277690055311444 0 -0.40825190591303712 -0.007550291982806337 0 -0.40889874302446361 -0.0021255274359018831 0 -0.40825190591303712 -0.007550291982806337 0 -0.40889874302446361 -0.0021255274359018831 0 -0.42089993909185031 -0.033876665478208043 0 -0.42705812732053727 -0.025959216047989422 0 -0.41743652421388938 -0.01922467968972668 0 -0.42089993909185031 -0.033876665478208043 0 -0.41743652421388938 -0.01922467968972668 0 -0.40579504526229387 -0.026802469475902969 0 -0.41743652421388938 -0.01922467968972668 0 -0.40304785788577169 -0.01444581260874663 0 -0.41743652421388938 -0.01922467968972668 0 -0.40579504526229387 -0.026802469475902969 0 -0.40304785788577169 -0.01444581260874663 0 -0.40579504526229387 -0.026802469475902969 0 -0.39467860443093339 -0.020944618181831961 0 -0.40304785788577169 -0.01444581260874663 0 -0.40579504526229387 -0.026802469475902969 0 -0.39467860443093339 -0.020944618181831961 0 -0.39172726480254921 -0.031653993810469912 0 -0.40889874302446361 -0.0021255274359018831 0 -0.39852789268352617 -0.005989788880498427 0 -0.40825190591303712 -0.007550291982806337 0 -0.40889874302446361 -0.0021255274359018831 0 -0.39852789268352617 -0.005989788880498427 0 -0.40889874302446361 -0.0021255274359018831 0 -0.39852789268352617 -0.005989788880498427 0 -0.40219642131230582 0.0032291370248678911 0 -0.39852789268352617 -0.005989788880498427 0 -0.38865919155765483 -0.009666945527764207 0 -0.40304785788577169 -0.01444581260874663 0 -0.38865919155765483 -0.009666945527764207 0 -0.39852789268352617 -0.005989788880498427 0 -0.40304785788577169 -0.01444581260874663 0 -0.38865919155765483 -0.009666945527764207 0 -0.39467860443093339 -0.020944618181831961 0 -0.40304785788577169 -0.01444581260874663 0 -0.38865919155765483 -0.009666945527764207 0 -0.36230379782765848 -0.00091360309627340139 0 -0.38865919155765483 -0.009666945527764207 0 -0.36230379782765848 -0.00091360309627340139 0 -0.38865919155765483 -0.009666945527764207 0 -0.37883363504364681 0.0077949923721277233 0 -0.39852789268352617 -0.005989788880498427 0 -0.38865919155765483 -0.009666945527764207 0 -0.37883363504364681 0.0077949923721277233 0 -0.37418396500676532 -0.01506053024102369 0 -0.36230379782765848 -0.00091360309627340139 0 -0.38865919155765483 -0.009666945527764207 0 -0.37418396500676532 -0.01506053024102369 0 -0.38865919155765483 -0.009666945527764207 0 -0.37237712096666659 -0.036361635489593619 0 -0.38416366264639851 -0.022153869486278521 0 -0.39172726480254921 -0.031653993810469912 0 -0.37237712096666659 -0.036361635489593619 0 -0.37418396500676532 -0.01506053024102369 0 -0.38416366264639851 -0.022153869486278521 0 -0.39467860443093339 -0.020944618181831961 0 -0.38416366264639851 -0.022153869486278521 0 -0.39172726480254921 -0.031653993810469912 0 -0.39467860443093339 -0.020944618181831961 0 -0.38865919155765483 -0.009666945527764207 0 -0.38416366264639851 -0.022153869486278521 0 -0.37418396500676532 -0.01506053024102369 0 -0.38865919155765483 -0.009666945527764207 0 -0.38416366264639851 -0.022153869486278521 0 -0.37237712096666659 -0.036361635489593619 0 -0.39172726480254921 -0.031653993810469912 0 -0.389014218980411 -0.051215794359963103 0 -0.40778791468134579 -0.043587422905723719 0 -0.40579504526229387 -0.026802469475902969 0 -0.39172726480254921 -0.031653993810469912 0 -0.40778791468134579 -0.043587422905723719 0 -0.39172726480254921 -0.031653993810469912 0 -0.389014218980411 -0.051215794359963103 0 -0.40778791468134579 -0.043587422905723719 0 -0.389014218980411 -0.051215794359963103 0 -0.41803192992488258 -0.06738795736031801 0 -0.37344647116406748 -0.055223511826559032 0 -0.37237712096666659 -0.036361635489593619 0 -0.389014218980411 -0.051215794359963103 0 -0.37344647116406748 -0.055223511826559032 0 -0.389014218980411 -0.051215794359963103 0 -0.39070923989984979 -0.073454633586590351 0 -0.36227595531025769 -0.068221550115205143 0 -0.37344647116406748 -0.055223511826559032 0 -0.39070923989984979 -0.073454633586590351 0 -0.36329901430343231 -0.079540746038554683 0 -0.39070923989984979 -0.073454633586590351 0 -0.36227595531025769 -0.068221550115205143 0 -0.39070923989984979 -0.073454633586590351 0 -0.37099993837929968 -0.097044880155196273 0 -0.3807718176563048 -0.084600785660169431 0 -0.3881561865733516 -0.091725640599444033 0 -0.36329901430343231 -0.079540746038554683 0 -0.3807718176563048 -0.084600785660169431 0 -0.39070923989984979 -0.073454633586590351 0 -0.3807718176563048 -0.084600785660169431 0 -0.39205141806137889 -0.081066654154865123 0 -0.39070923989984979 -0.073454633586590351 0 -0.3807718176563048 -0.084600785660169431 0 -0.3881561865733516 -0.091725640599444033 0 -0.39205141806137889 -0.081066654154865123 0 -0.39205141806137889 -0.081066654154865123 0 -0.39842301444850248 -0.085436057885738645 0 -0.40266615436671338 -0.078051777386983573 0 -0.3881561865733516 -0.091725640599444033 0 -0.39205141806137889 -0.081066654154865123 0 -0.39842301444850248 -0.085436057885738645 0 -0.3881561865733516 -0.091725640599444033 0 -0.39842301444850248 -0.085436057885738645 0 -0.39726096025147217 -0.097198963525212595 0 -0.39842301444850248 -0.085436057885738645 0 -0.39726096025147217 -0.097198963525212595 0 -0.41219773349305389 -0.097323474560128548 0 -0.39842301444850248 -0.085436057885738645 0 -0.40266615436671338 -0.078051777386983573 0 -0.41137211495433817 -0.082408730793584462 0 -0.39070923989984979 -0.073454633586590351 0 -0.41803192992488258 -0.06738795736031801 0 -0.389014218980411 -0.051215794359963103 0 -0.39070923989984979 -0.073454633586590351 0 -0.41803192992488258 -0.06738795736031801 0 -0.39345229444446528 -0.073959486740411612 0 -0.39070923989984979 -0.073454633586590351 0 -0.41803192992488258 -0.06738795736031801 0 -0.40266615436671338 -0.078051777386983573 0 -0.39345229444446528 -0.073959486740411612 0 -0.41803192992488258 -0.06738795736031801 0 -0.39205141806137889 -0.081066654154865123 0 -0.40266615436671338 -0.078051777386983573 0 -0.39345229444446528 -0.073959486740411612 0 -0.39345229444446528 -0.073959486740411612 0 -0.39070923989984979 -0.073454633586590351 0 -0.39205141806137889 -0.081066654154865123 0 -0.39345229444446528 -0.073959486740411612 0 -0.39070923989984979 -0.073454633586590351 0 -0.38192772204362102 -0.11931691475161579 0 -0.38470189375335462 -0.1043469434500385 0 -0.39792655729185022 -0.1089461981185698 0 -0.36949029013190909 -0.1127408120441207 0 -0.38192772204362102 -0.11931691475161579 0 -0.38470189375335462 -0.1043469434500385 0 -0.37099993837929968 -0.097044880155196273 0 -0.36949029013190909 -0.1127408120441207 0 -0.38470189375335462 -0.1043469434500385 0 -0.37099993837929968 -0.097044880155196273 0 -0.3881561865733516 -0.091725640599444033 0 -0.38470189375335462 -0.1043469434500385 0 -0.3881561865733516 -0.091725640599444033 0 -0.38470189375335462 -0.1043469434500385 0 -0.39726096025147217 -0.097198963525212595 0 -0.39726096025147217 -0.097198963525212595 0 -0.39792655729185022 -0.1089461981185698 0 -0.41219773349305389 -0.097323474560128548 0 -0.38470189375335462 -0.1043469434500385 0 -0.39726096025147217 -0.097198963525212595 0 -0.39792655729185022 -0.1089461981185698 0 -0.39320646912850671 -0.12588660288468409 0 -0.38192772204362102 -0.11931691475161579 0 -0.39792655729185022 -0.1089461981185698 0 -0.39320646912850671 -0.12588660288468409 0 -0.39792655729185022 -0.1089461981185698 0 -0.40933967634043739 -0.12435697490205121 0 -0.4197611864962208 -0.1299110722301523 0 -0.40933967634043739 -0.12435697490205121 0 -0.42524849813868731 -0.12054101826893331 0 -0.39792655729185022 -0.1089461981185698 0 -0.40933967634043739 -0.12435697490205121 0 -0.41219773349305389 -0.097323474560128548 0 -0.40933967634043739 -0.12435697490205121 0 -0.41219773349305389 -0.097323474560128548 0 -0.42524849813868731 -0.12054101826893331 0 -0.41219773349305389 -0.097323474560128548 0 -0.4303335175614928 -0.1003682685431094 0 -0.42571256993779089 -0.084663527377856332 0 -0.41219773349305389 -0.097323474560128548 0 -0.4303335175614928 -0.1003682685431094 0 -0.42524849813868731 -0.12054101826893331 0 -0.4303335175614928 -0.1003682685431094 0 -0.42524849813868731 -0.12054101826893331 0 -0.44197951177115591 -0.1102584625020477 0 -0.43742974907553561 -0.1314620649975142 0 -0.42524849813868731 -0.12054101826893331 0 -0.44197951177115591 -0.1102584625020477 0 -0.40266615436671338 -0.078051777386983573 0 -0.41803192992488258 -0.06738795736031801 0 -0.41137211495433817 -0.082408730793584462 0 -0.41803192992488258 -0.06738795736031801 0 -0.41137211495433817 -0.082408730793584462 0 -0.42571256993779089 -0.084663527377856332 0 -0.39842301444850248 -0.085436057885738645 0 -0.41219773349305389 -0.097323474560128548 0 -0.41137211495433817 -0.082408730793584462 0 -0.41219773349305389 -0.097323474560128548 0 -0.41137211495433817 -0.082408730793584462 0 -0.42571256993779089 -0.084663527377856332 0 -0.42571256993779089 -0.084663527377856332 0 -0.43845158163615622 -0.06982813485280133 0 -0.44652927446677571 -0.089054860006581055 0 -0.4303335175614928 -0.1003682685431094 0 -0.42571256993779089 -0.084663527377856332 0 -0.44652927446677571 -0.089054860006581055 0 -0.41803192992488258 -0.06738795736031801 0 -0.43845158163615622 -0.06982813485280133 0 -0.44535461994991549 -0.061321281134046252 0 -0.41803192992488258 -0.06738795736031801 0 -0.42571256993779089 -0.084663527377856332 0 -0.43845158163615622 -0.06982813485280133 0 -0.41803192992488258 -0.06738795736031801 0 -0.44535461994991549 -0.061321281134046252 0 -0.43845158163615622 -0.06982813485280133 0 -0.45107903716239772 -0.067851257511114829 0 -0.43845158163615622 -0.06982813485280133 0 -0.45107903716239772 -0.067851257511114829 0 -0.44535461994991549 -0.061321281134046252 0 -0.43845158163615622 -0.06982813485280133 0 -0.45107903716239772 -0.067851257511114829 0 -0.44652927446677571 -0.089054860006581055 0 -0.45107903716239772 -0.067851257511114829 0 -0.452059206876327 -0.063283298612443181 0 -0.45107903716239772 -0.067851257511114829 0 -0.452059206876327 -0.063283298612443181 0 -0.44535461994991549 -0.061321281134046252 0 -0.45107903716239772 -0.067851257511114829 0 -0.44652927446677571 -0.089054860006581055 0 -0.45107903716239772 -0.067851257511114829 0 -0.44652927446677571 -0.089054860006581055 0 -0.46439814771919968 -0.078640422034908022 0 -0.44652927446677571 -0.089054860006581055 0 -0.46439814771919968 -0.078640422034908022 0 -0.46571602583203259 -0.093925496864868147 0 -0.45107903716239772 -0.067851257511114829 0 -0.46439814771919968 -0.078640422034908022 0 -0.47553951858119742 -0.064021873880893407 0 -0.45107903716239772 -0.067851257511114829 0 -0.452059206876327 -0.063283298612443181 0 -0.47553951858119742 -0.064021873880893407 0 -0.45107903716239772 -0.067851257511114829 0 -0.47553951858119742 -0.064021873880893407 0 -0.43742974907553561 -0.1314620649975142 0 -0.44274024822924529 -0.1234644732111045 0 -0.44197951177115591 -0.1102584625020477 0 -0.43742974907553561 -0.1314620649975142 0 -0.44197951177115591 -0.1102584625020477 0 -0.44654428362504778 -0.12550238598366981 0 -0.44197951177115591 -0.1102584625020477 0 -0.46436285575003328 -0.1138514377346769 0 -0.44654428362504778 -0.12550238598366981 0 -0.44274024822924529 -0.1234644732111045 0 -0.44654428362504778 -0.12550238598366981 0 -0.44274024822924529 -0.1234644732111045 0 -0.44197951177115591 -0.1102584625020477 0 -0.44652927446677571 -0.089054860006581055 0 -0.44197951177115591 -0.1102584625020477 0 -0.45464691695499942 -0.1017725642770435 0 -0.44652927446677571 -0.089054860006581055 0 -0.44197951177115591 -0.1102584625020477 0 -0.4303335175614928 -0.1003682685431094 0 -0.44652927446677571 -0.089054860006581055 0 -0.44197951177115591 -0.1102584625020477 0 -0.44652927446677571 -0.089054860006581055 0 -0.45464691695499942 -0.1017725642770435 0 -0.46571602583203259 -0.093925496864868147 0 -0.45464691695499942 -0.1017725642770435 0 -0.46571602583203259 -0.093925496864868147 0 -0.46436285575003328 -0.1138514377346769 0 -0.44197951177115591 -0.1102584625020477 0 -0.45464691695499942 -0.1017725642770435 0 -0.46436285575003328 -0.1138514377346769 0 -0.44654428362504778 -0.12550238598366981 0 -0.46436285575003328 -0.1138514377346769 0 -0.44654428362504778 -0.12550238598366981 0 -0.46436285575003189 -0.13504822137796729 0 -0.46436285575003328 -0.1138514377346769 0 -0.46436285575003328 -0.1138514377346769 0 -0.48218142787501689 -0.1233972731289746 0 -0.48218142787502027 -0.10220048948568621 0 -0.46436285575003189 -0.13504822137796729 0 -0.46436285575003328 -0.1138514377346769 0 -0.48218142787501689 -0.1233972731289746 0 -0.46436285575003328 -0.1138514377346769 0 -0.48218142787502027 -0.10220048948568621 0 -0.46571602583203259 -0.093925496864868147 0 -0.46436285575003328 -0.1138514377346769 0 -0.48218142787502027 -0.10220048948568621 0 -0.48218142787502027 -0.10220048948568621 0 -0.5 -0.111746324879982 0 -0.50000000000000555 -0.090549541236692802 0 -0.48218142787502027 -0.10220048948568621 0 -0.50000000000000555 -0.090549541236692802 0 -0.48218142787501689 -0.1233972731289746 0 -0.48218142787502027 -0.10220048948568621 0 -0.5 -0.111746324879982 0 -0.5 -0.1329431085232714 0 -0.48218142787501689 -0.1233972731289746 0 -0.5 -0.111746324879982 0 -0.46439814771919968 -0.078640422034908022 0 -0.47553951858119742 -0.064021873880893407 0 -0.48207003472204379 -0.083095158868216834 0 -0.46439814771919968 -0.078640422034908022 0 -0.46571602583203259 -0.093925496864868147 0 -0.48207003472204379 -0.083095158868216834 0 -0.46571602583203259 -0.093925496864868147 0 -0.48218142787502027 -0.10220048948568621 0 -0.48207003472204379 -0.083095158868216834 0 -0.48218142787502027 -0.10220048948568621 0 -0.48207003472204379 -0.083095158868216834 0 -0.50000000000000555 -0.090549541236692802 0 -0.48207003472204379 -0.083095158868216834 0 -0.50000000000000555 -0.090549541236692802 0 -0.5 -0.075371015743682213 0 -0.47553951858119742 -0.064021873880893407 0 -0.48207003472204379 -0.083095158868216834 0 -0.5 -0.075371015743682213 0 -0.47553951858119742 -0.064021873880893407 0 -0.5 -0.075371015743682213 0 -0.49999999999999678 -0.060192490250671658 0 -0.47553951858119742 -0.064021873880893407 0 -0.49999999999999678 -0.060192490250671658 0 -0.4999999999999819 -0.049187928681506662 0 -0.47267730997494828 -0.055254604907774528 0 -0.4999999999999819 -0.049187928681506662 0 -0.49999999999999678 -0.060192490250671658 0 -0.47267730997494828 -0.055254604907774528 0 -0.500000000000001 -0.046646253554042047 0 -0.47648928784356948 -0.038837707173673568 0 -0.5 -0.024111624775916111 0 -0.4999999999999819 -0.049187928681506662 0 -0.500000000000001 -0.046646253554042047 0 -0.47648928784356948 -0.038837707173673568 0 -0.500000000000001 -0.046646253554042047 0 -0.47648928784356948 -0.038837707173673568 0 -0.47648928784356948 -0.038837707173673568 0 -0.47267730997494828 -0.055254604907774528 0 -0.46201020098326162 -0.043134300993816321 0 -0.47553951858119742 -0.064021873880893407 0 -0.49999999999999678 -0.060192490250671658 0 -0.47267730997494828 -0.055254604907774528 0 -0.4999999999999819 -0.049187928681506662 0 -0.47648928784356948 -0.038837707173673568 0 -0.47267730997494828 -0.055254604907774528 0 -0.452059206876327 -0.063283298612443181 0 -0.47553951858119742 -0.064021873880893407 0 -0.47267730997494828 -0.055254604907774528 0 -0.47267730997494828 -0.055254604907774528 0 -0.44535461994991549 -0.061321281134046252 0 -0.45263879575530758 -0.050521871197102552 0 -0.47267730997494828 -0.055254604907774528 0 -0.44535461994991549 -0.061321281134046252 0 -0.47267730997494828 -0.055254604907774528 0 -0.46201020098326162 -0.043134300993816321 0 -0.45263879575530758 -0.050521871197102552 0 -0.452059206876327 -0.063283298612443181 0 -0.47267730997494828 -0.055254604907774528 0 -0.44535461994991549 -0.061321281134046252 0 -0.47648928784356948 -0.038837707173673568 0 -0.45297857568713801 -0.03102916079330479 0 -0.47648928784356948 -0.038837707173673568 0 -0.46201020098326162 -0.043134300993816321 0 -0.45297857568713801 -0.03102916079330479 0 -0.46201020098326162 -0.043134300993816321 0 -0.45203169514344532 -0.039800675928185883 0 -0.45297857568713801 -0.03102916079330479 0 -0.46201020098326162 -0.043134300993816321 0 -0.45228803823312957 -0.04502816605720579 0 -0.45263879575530758 -0.050521871197102552 0 -0.46201020098326162 -0.043134300993816321 0 -0.45228803823312957 -0.04502816605720579 0 -0.45203169514344532 -0.039800675928185883 0 -0.45228803823312957 -0.04502816605720579 0 -0.44375973864695978 -0.043349972310825068 0 -0.45263879575530758 -0.050521871197102552 0 -0.43671531659206991 -0.025627690514785331 0 -0.44580027878848649 -0.038965471624670067 0 -0.45297857568713801 -0.03102916079330479 0 -0.45228803823312957 -0.04502816605720579 0 -0.44708138202521169 -0.040846280171932169 0 -0.44375973864695978 -0.043349972310825068 0 -0.45228803823312957 -0.04502816605720579 0 -0.45203169514344532 -0.039800675928185883 0 -0.44708138202521169 -0.040846280171932169 0 -0.44708138202521169 -0.040846280171932169 0 -0.44580027878848649 -0.038965471624670067 0 -0.44375973864695978 -0.043349972310825068 0 -0.45203169514344532 -0.039800675928185883 0 -0.44708138202521169 -0.040846280171932169 0 -0.44580027878848649 -0.038965471624670067 0 -0.44708138202521169 -0.040846280171932169 0 -0.44580027878848649 -0.038965471624670067 0 -0.44580027878848649 -0.038965471624670067 0 -0.45297857568713801 -0.03102916079330479 0 -0.45203169514344532 -0.039800675928185883 0 -0.44580027878848649 -0.038965471624670067 0 -0.45297857568713801 -0.03102916079330479 0 -0.43671531659206991 -0.025627690514785331 0 -0.44580027878848649 -0.038965471624670067 0 -0.43820078776852939 -0.034359674484196912 0 -0.43671531659206991 -0.025627690514785331 0 -0.44580027878848649 -0.038965471624670067 0 -0.44580027878848649 -0.038965471624670067 0 -0.4420652885764112 -0.038910471342139888 0 -0.43820078776852939 -0.034359674484196912 0 -0.4420652885764112 -0.038910471342139888 0 -0.43820078776852939 -0.034359674484196912 0 -0.43860125369730679 -0.04110207541821953 0 -0.44580027878848649 -0.038965471624670067 0 -0.4420652885764112 -0.038910471342139888 0 -0.44375973864695978 -0.043349972310825068 0 -0.4420652885764112 -0.038910471342139888 0 -0.44375973864695978 -0.043349972310825068 0 -0.43860125369730679 -0.04110207541821953 0 -0.44375973864695978 -0.043349972310825068 0 -0.43860125369730679 -0.04110207541821953 0 -0.43804418546552809 -0.048433923313823998 0 -0.44375973864695978 -0.043349972310825068 0 -0.43804418546552809 -0.048433923313823998 0 -0.45263879575530758 -0.050521871197102552 0 -0.43804418546552809 -0.048433923313823998 0 -0.44535461994991549 -0.061321281134046252 0 -0.45263879575530758 -0.050521871197102552 0 -0.42751599202536678 -0.01212201214466806 0 -0.44954998840110322 -0.011066981131308801 0 -0.44554444497244 0.01152895300614987 0 -0.43671531659206991 -0.025627690514785331 0 -0.42751599202536678 -0.01212201214466806 0 -0.44954998840110322 -0.011066981131308801 0 -0.43671531659206991 -0.025627690514785331 0 -0.44954998840110322 -0.011066981131308801 0 -0.45297857568713801 -0.03102916079330479 0 -0.43671531659206991 -0.025627690514785331 0 -0.45297857568713801 -0.03102916079330479 0 -0.45297857568713801 -0.03102916079330479 0 -0.46865238379142532 -0.01370022960209079 0 -0.44954998840110322 -0.011066981131308801 0 -0.45297857568713801 -0.03102916079330479 0 -0.46865238379142532 -0.01370022960209079 0 -0.47648928784356948 -0.038837707173673568 0 -0.45297857568713801 -0.03102916079330479 0 -0.46865238379142532 -0.01370022960209079 0 -0.44954998840110322 -0.011066981131308801 0 -0.46865238379142532 -0.01370022960209079 0 -0.46466166660332298 0.0030230271672030142 0 -0.46865238379142532 -0.01370022960209079 0 -0.48432619189571369 0.0036287015891222352 0 -0.46466166660332298 0.0030230271672030142 0 -0.46865238379142532 -0.01370022960209079 0 -0.48589357270614181 -0.01491957119206965 0 -0.48432619189571369 0.0036287015891222352 0 -0.46865238379142532 -0.01370022960209079 0 -0.48432619189571369 0.0036287015891222352 0 -0.47648928784356948 -0.038837707173673568 0 -0.46865238379142532 -0.01370022960209079 0 -0.48589357270614181 -0.01491957119206965 0 -0.47648928784356948 -0.038837707173673568 0 -0.5 -0.024111624775916111 0 -0.48589357270614181 -0.01491957119206965 0 -0.5 -0.001576995997790043 0 -0.48589357270614181 -0.01491957119206965 0 -0.48432619189571369 0.0036287015891222352 0 -0.5 -0.024111624775916111 0 -0.5 -0.001576995997790043 0 -0.48589357270614181 -0.01491957119206965 0 -0.5 -0.001576995997790043 0 -0.50000000000000133 0.0209576327803359 0 -0.48432619189571369 0.0036287015891222352 0 -0.50000000000000133 0.0209576327803359 0 -0.48842142754770729 0.018973354942363609 0 -0.48432619189571369 0.0036287015891222352 0 -0.50000000000000133 0.0209576327803359 0 -0.48432619189571369 0.0036287015891222352 0 -0.47277222248621908 0.021674239786853119 0 -0.49999999999999822 0.031819526567555718 0 -0.48842142754770729 0.018973354942363609 0 -0.47277222248621908 0.021674239786853119 0 -0.49999999999999822 0.031819526567555718 0 -0.50000000000000133 0.0209576327803359 0 -0.48842142754770729 0.018973354942363609 0 -0.49999999999999822 0.031819526567555718 0 -0.48842142754770729 0.018973354942363609 0 -0.47277222248621908 0.021674239786853119 0 -0.48432619189571369 0.0036287015891222352 0 -0.47277222248621908 0.021674239786853119 0 -0.48432619189571369 0.0036287015891222352 0 -0.46466166660332298 0.0030230271672030142 0 -0.5 0.057950120205680862 0 -0.47774517347267531 0.047096551890306579 0 -0.47762643656068332 0.0739458698906197 0 -0.5 0.057950120205680862 0 -0.49999999999999822 0.031819526567555718 0 -0.47774517347267531 0.047096551890306579 0 -0.47277222248621908 0.021674239786853119 0 -0.47774517347267531 0.047096551890306579 0 -0.45872707856960798 0.036728349203854767 0 -0.47277222248621908 0.021674239786853119 0 -0.49999999999999822 0.031819526567555718 0 -0.47774517347267531 0.047096551890306579 0 -0.47774517347267531 0.047096551890306579 0 -0.45502175282668739 0.063391658553151653 0 -0.47762643656068332 0.0739458698906197 0 -0.47774517347267531 0.047096551890306579 0 -0.45872707856960798 0.036728349203854767 0 -0.45502175282668739 0.063391658553151653 0 -0.44003464892679278 0.042655562323269128 0 -0.43282624401825098 0.063797196335945397 0 -0.45502175282668739 0.063391658553151653 0 -0.45872707856960798 0.036728349203854767 0 -0.44003464892679278 0.042655562323269128 0 -0.45502175282668739 0.063391658553151653 0 -0.44954998840110322 -0.011066981131308801 0 -0.46466166660332298 0.0030230271672030142 0 -0.44554444497244 0.01152895300614987 0 -0.47277222248621908 0.021674239786853119 0 -0.46466166660332298 0.0030230271672030142 0 -0.44554444497244 0.01152895300614987 0 -0.47277222248621908 0.021674239786853119 0 -0.45872707856960798 0.036728349203854767 0 -0.44554444497244 0.01152895300614987 0 -0.47277222248621908 0.021674239786853119 0 -0.44554444497244 0.01152895300614987 0 -0.45872707856960798 0.036728349203854767 0 -0.44003464892679278 0.042655562323269128 0 -0.44554444497244 0.01152895300614987 0 -0.44003464892679278 0.042655562323269128 0 -0.44554444497244 0.01152895300614987 0 -0.42841287028306307 0.02197579581190523 0 -0.42751599202536678 -0.01212201214466806 0 -0.44554444497244 0.01152895300614987 0 -0.4183166674586607 0.0013836662254471969 0 -0.44554444497244 0.01152895300614987 0 -0.4183166674586607 0.0013836662254471969 0 -0.44554444497244 0.01152895300614987 0 -0.4183166674586607 0.0013836662254471969 0 -0.42841287028306307 0.02197579581190523 0 -0.4183166674586607 0.0013836662254471969 0 -0.41065788051393942 0.01262765619783152 0 -0.42841287028306307 0.02197579581190523 0 -0.4183166674586607 0.0013836662254471969 0 -0.41065788051393942 0.01262765619783152 0 -0.40889874302446361 -0.0021255274359018831 0 -0.4183166674586607 0.0013836662254471969 0 -0.41065788051393942 0.01262765619783152 0 -0.40889874302446361 -0.0021255274359018831 0 -0.41065788051393942 0.01262765619783152 0 -0.40889874302446361 -0.0021255274359018831 0 -0.41065788051393942 0.01262765619783152 0 -0.40219642131230582 0.0032291370248678911 0 -0.41065788051393942 0.01262765619783152 0 -0.41335372430439249 0.035236621515418072 0 -0.39920087093718148 0.029447878737543839 0 -0.41065788051393942 0.01262765619783152 0 -0.41335372430439249 0.035236621515418072 0 -0.41065788051393942 0.01262765619783152 0 -0.42841287028306307 0.02197579581190523 0 -0.41335372430439249 0.035236621515418072 0 -0.44003464892679278 0.042655562323269128 0 -0.42841287028306307 0.02197579581190523 0 -0.42441597191578012 0.045382789130047917 0 -0.42841287028306307 0.02197579581190523 0 -0.42441597191578012 0.045382789130047917 0 -0.41335372430439249 0.035236621515418072 0 -0.44003464892679278 0.042655562323269128 0 -0.42441597191578012 0.045382789130047917 0 -0.43282624401825098 0.063797196335945397 0 -0.42441597191578012 0.045382789130047917 0 -0.41604956809484422 0.057845586833004767 0 -0.43282624401825098 0.063797196335945397 0 -0.41604956809484422 0.057845586833004767 0 -0.40344602792871792 0.045488196015727872 0 -0.40181137528892319 0.060607443484254758 0 -0.41604956809484422 0.057845586833004767 0 -0.41335372430439249 0.035236621515418072 0 -0.40344602792871792 0.045488196015727872 0 -0.41604956809484422 0.057845586833004767 0 -0.41335372430439249 0.035236621515418072 0 -0.42441597191578012 0.045382789130047917 0 -0.41604956809484422 0.057845586833004767 0 -0.41335372430439249 0.035236621515418072 0 -0.40344602792871792 0.045488196015727872 0 -0.38774386136042538 0.046268101277257348 0 -0.39920087093718148 0.029447878737543839 0 -0.41335372430439249 0.035236621515418072 0 -0.40344602792871792 0.045488196015727872 0 -0.39920087093718148 0.029447878737543839 0 -0.38774386136042538 0.046268101277257348 0 -0.39920087093718148 0.029447878737543839 0 -0.40181137528892319 0.060607443484254758 0 -0.38774386136042538 0.046268101277257348 0 -0.39213400652358499 0.07105882045414344 0 -0.40344602792871792 0.045488196015727872 0 -0.40181137528892319 0.060607443484254758 0 -0.38774386136042538 0.046268101277257348 0 -0.37616218416801261 0.059395047373765678 0 -0.38774386136042538 0.046268101277257348 0 -0.39213400652358499 0.07105882045414344 0 -0.37616218416801261 0.059395047373765678 0 -0.38774386136042538 0.046268101277257348 0 -0.37347921891255381 0.046948791725949637 0 -0.38774386136042538 0.046268101277257348 0 -0.37942960985860058 0.037362526927287427 0 -0.39920087093718148 0.029447878737543839 0 -0.38774386136042538 0.046268101277257348 0 -0.37942960985860058 0.037362526927287427 0 -0.37347921891255381 0.046948791725949637 0 -0.37942960985860058 0.037362526927287427 0 -0.38179846545640428 0.025411604130482331 0 -0.37077634213078581 0.026766859930800121 0 -0.37942960985860058 0.037362526927287427 0 -0.38179846545640428 0.025411604130482331 0 -0.39920087093718148 0.029447878737543839 0 -0.38179846545640428 0.025411604130482331 0 -0.37883363504364681 0.0077949923721277233 0 -0.39206998938626952 0.020659298702858458 0 -0.38179846545640428 0.025411604130482331 0 -0.37883363504364681 0.0077949923721277233 0 -0.37077634213078581 0.026766859930800121 0 -0.37883363504364681 0.0077949923721277233 0 -0.39482607935329223 0.0096823875338236925 0 -0.39206998938626952 0.020659298702858458 0 -0.39852789268352617 -0.005989788880498427 0 -0.37883363504364681 0.0077949923721277233 0 -0.39852789268352617 -0.005989788880498427 0 -0.39482607935329223 0.0096823875338236925 0 -0.40219642131230582 0.0032291370248678911 0 -0.39852789268352617 -0.005989788880498427 0 -0.37883363504364681 0.0077949923721277233 0 -0.39482607935329223 0.0096823875338236925 0 -0.41065788051393942 0.01262765619783152 0 -0.39482607935329223 0.0096823875338236925 0 -0.39206998938626952 0.020659298702858458 0 -0.41065788051393942 0.01262765619783152 0 -0.39482607935329223 0.0096823875338236925 0 -0.40219642131230582 0.0032291370248678911 0 -0.41065788051393942 0.01262765619783152 0 -0.39206998938626952 0.020659298702858458 0 -0.39920087093718148 0.029447878737543839 0 -0.38179846545640428 0.025411604130482331 0 -0.39206998938626952 0.020659298702858458 0 -0.39920087093718148 0.029447878737543839 0 -0.41065788051393942 0.01262765619783152 0 -0.39920087093718148 0.029447878737543839 0 -0.38780406665299311 0.095860125915306293 0 -0.4077509945263974 0.11399158697038669 0 -0.38981076770896589 0.1281539894765171 0 -0.38780406665299311 0.095860125915306293 0 -0.38981076770896589 0.1281539894765171 0 -0.36959870579113158 0.10903897892679321 0 -0.38780406665299311 0.095860125915306293 0 -0.41516866281672737 0.097570877261383415 0 -0.4077509945263974 0.11399158697038669 0 -0.38780406665299311 0.095860125915306293 0 -0.4077509945263974 0.11399158697038669 0 -0.4077509945263974 0.11399158697038669 0 -0.41233770370002171 0.12956443796581671 0 -0.38981076770896589 0.1281539894765171 0 -0.38780406665299311 0.095860125915306293 0 -0.3678571387795887 0.077728664860225921 0 -0.38780406665299311 0.095860125915306293 0 -0.37945273185901418 0.072417913338689646 0 -0.39213400652358499 0.07105882045414344 0 -0.38780406665299311 0.095860125915306293 0 -0.37945273185901418 0.072417913338689646 0 -0.3678571387795887 0.077728664860225921 0 -0.37616218416801261 0.059395047373765678 0 -0.37945273185901418 0.072417913338689646 0 -0.39213400652358499 0.07105882045414344 0 -0.40181137528892319 0.060607443484254758 0 -0.39213400652358499 0.07105882045414344 0 -0.40247315616121748 0.083087520283939287 0 -0.38780406665299311 0.095860125915306293 0 -0.39213400652358499 0.07105882045414344 0 -0.40247315616121748 0.083087520283939287 0 -0.38780406665299311 0.095860125915306293 0 -0.40247315616121748 0.083087520283939287 0 -0.41516866281672737 0.097570877261383415 0 -0.40247315616121748 0.083087520283939287 0 -0.41874541188529579 0.08045455215059151 0 -0.41516866281672737 0.097570877261383415 0 -0.41604956809484422 0.057845586833004767 0 -0.40181137528892319 0.060607443484254758 0 -0.41874541188529579 0.08045455215059151 0 -0.41604956809484422 0.057845586833004767 0 -0.41874541188529579 0.08045455215059151 0 -0.40181137528892319 0.060607443484254758 0 -0.40247315616121748 0.083087520283939287 0 -0.41874541188529579 0.08045455215059151 0 -0.41874541188529579 0.08045455215059151 0 -0.43282624401825098 0.063797196335945397 0 -0.43591913976490548 0.084300037654647053 0 -0.41604956809484422 0.057845586833004767 0 -0.41874541188529579 0.08045455215059151 0 -0.43282624401825098 0.063797196335945397 0 -0.41874541188529579 0.08045455215059151 0 -0.43591913976490548 0.084300037654647053 0 -0.41516866281672737 0.097570877261383415 0 -0.43591913976490548 0.084300037654647053 0 -0.43644217900663063 0.1037217353495299 0 -0.41516866281672737 0.097570877261383415 0 -0.43644217900663063 0.1037217353495299 0 -0.41516866281672737 0.097570877261383415 0 -0.42290093559005232 0.115264658306373 0 -0.41516866281672737 0.097570877261383415 0 -0.4077509945263974 0.11399158697038669 0 -0.42290093559005232 0.115264658306373 0 -0.4077509945263974 0.11399158697038669 0 -0.42290093559005232 0.115264658306373 0 -0.42769792239980159 0.13212304802546729 0 -0.4077509945263974 0.11399158697038669 0 -0.42769792239980159 0.13212304802546729 0 -0.42290093559005232 0.115264658306373 0 -0.43558349806308511 0.11637410631254611 0 -0.42957051265969082 0.1289269482524574 0 -0.43644217900663063 0.1037217353495299 0 -0.42290093559005232 0.115264658306373 0 -0.43558349806308511 0.11637410631254611 0 -0.43558349806308511 0.11637410631254611 0 -0.4534203649959665 0.1175830833418242 0 -0.42957051265969082 0.1289269482524574 0 -0.43644217900663063 0.1037217353495299 0 -0.43558349806308511 0.11637410631254611 0 -0.4534203649959665 0.1175830833418242 0 -0.43644217900663063 0.1037217353495299 0 -0.4534203649959665 0.1175830833418242 0 -0.45628151056677069 0.090324276257964145 0 -0.4534203649959665 0.1175830833418242 0 -0.47671018249796659 0.1008318985928091 0 -0.4534203649959665 0.1175830833418242 0 -0.45628151056677069 0.090324276257964145 0 -0.47671018249796659 0.1008318985928091 0 -0.4534203649959665 0.1175830833418242 0 -0.47159256342796518 0.1181987653003219 0 -0.46590956442922388 0.12873543171009769 0 -0.4534203649959665 0.1175830833418242 0 -0.47159256342796518 0.1181987653003219 0 -0.47671018249796659 0.1008318985928091 0 -0.43282624401825098 0.063797196335945397 0 -0.43591913976490548 0.084300037654647053 0 -0.45502175282668739 0.063391658553151653 0 -0.43591913976490548 0.084300037654647053 0 -0.45628151056677069 0.090324276257964145 0 -0.45502175282668739 0.063391658553151653 0 -0.43591913976490548 0.084300037654647053 0 -0.43644217900663063 0.1037217353495299 0 -0.45628151056677069 0.090324276257964145 0 -0.45628151056677069 0.090324276257964145 0 -0.45502175282668739 0.063391658553151653 0 -0.47762643656068332 0.0739458698906197 0 -0.45628151056677069 0.090324276257964145 0 -0.47762643656068332 0.0739458698906197 0 -0.47671018249796659 0.1008318985928091 0 -0.49999999999997508 0.084080713843805888 0 -0.47671018249796659 0.1008318985928091 0 -0.47762643656068332 0.0739458698906197 0 -0.49999999999997508 0.084080713843805888 0 -0.47671018249796659 0.1008318985928091 0 -0.5 0.057950120205680862 0 -0.47762643656068332 0.0739458698906197 0 -0.49999999999997508 0.084080713843805888 0 -0.47159256342796518 0.1181987653003219 0 -0.48384814191050229 0.12805721621825381 0 -0.46590956442922388 0.12873543171009769 0 -0.47159256342796518 0.1181987653003219 0 -0.47671018249796659 0.1008318985928091 0 -0.48607664437915199 0.1124074147670916 0 -0.47159256342796518 0.1181987653003219 0 -0.48607664437915199 0.1124074147670916 0 -0.48384814191050229 0.12805721621825381 0 -0.47671018249796659 0.1008318985928091 0 -0.5 0.099289130617916832 0 -0.48607664437915199 0.1124074147670916 0 -0.49999999999997508 0.084080713843805888 0 -0.47671018249796659 0.1008318985928091 0 -0.5 0.099289130617916832 0 -0.5 0.099289130617916832 0 -0.500000000000002 0.1144975473920279 0 -0.48607664437915199 0.1124074147670916 0 -0.48607664437915199 0.1124074147670916 0 -0.49046709120764093 0.12250053289739631 0 -0.48384814191050229 0.12805721621825381 0 -0.500000000000002 0.1144975473920279 0 -0.48607664437915199 0.1124074147670916 0 -0.49046709120764093 0.12250053289739631 0 -0.500000000000002 0.1144975473920279 0 -0.49046709120764093 0.12250053289739631 0 -0.500000000000002 0.1144975473920279 0 -0.49046709120764093 0.12250053289739631 0 -0.5 0.1426317000845817 0 -0.49046709120764093 0.12250053289739631 0 -0.48182815389448008 0.13607865282066689 0 -0.48488193332001223 0.1516406803600982 0 -0.49046709120764093 0.12250053289739631 0 -0.48488193332001223 0.1516406803600982 0 -0.49046709120764093 0.12250053289739631 0 -0.48488193332001223 0.1516406803600982 0 -0.5 0.1426317000845817 0 -0.49046709120764093 0.12250053289739631 0 -0.48384814191050229 0.12805721621825381 0 -0.48182815389448008 0.13607865282066689 0 -0.49046709120764093 0.12250053289739631 0 -0.48384814191050229 0.12805721621825381 0 -0.48384814191050229 0.12805721621825381 0 -0.46590956442922388 0.12873543171009769 0 -0.46769628382100181 0.1416168850444787 0 -0.48384814191050229 0.12805721621825381 0 -0.48182815389448008 0.13607865282066689 0 -0.46769628382100181 0.1416168850444787 0 -0.48384814191050229 0.12805721621825381 0 -0.46769628382100181 0.1416168850444787 0 -0.48488193332001223 0.1516406803600982 0 -0.46758726318128319 0.15997316398158071 0 -0.46769628382100181 0.1416168850444787 0 -0.48182815389448008 0.13607865282066689 0 -0.48488193332001223 0.1516406803600982 0 -0.46769628382100181 0.1416168850444787 0 -0.48488193332001223 0.1516406803600982 0 -0.5 0.1426317000845817 0 -0.5 0.17076585277713549 0 -0.48488193332001223 0.1516406803600982 0 -0.5 0.17076585277713549 0 -0.47887761011362051 0.18028153106035949 0 -0.5 0.17076585277713549 0 -0.47887761011362051 0.18028153106035949 0 -0.5 0.19890000546968931 0 -0.48488193332001223 0.1516406803600982 0 -0.47887761011362051 0.18028153106035949 0 -0.48488193332001223 0.1516406803600982 0 -0.47887761011362051 0.18028153106035949 0 -0.46758726318128319 0.15997316398158071 0 -0.47887761011362051 0.18028153106035949 0 -0.46758726318128319 0.15997316398158071 0 -0.4532859247485006 0.17060760507794931 0 -0.46758726318128319 0.15997316398158071 0 -0.4532859247485006 0.17060760507794931 0 -0.45154442573150122 0.15517655387070359 0 -0.47887761011362051 0.18028153106035949 0 -0.4532859247485006 0.17060760507794931 0 -0.45697498901957428 0.1888604383645652 0 -0.4532859247485006 0.17060760507794931 0 -0.45697498901957428 0.1888604383645652 0 -0.43293667734390862 0.18227609871989661 0 -0.4532859247485006 0.17060760507794931 0 -0.43179458310111551 0.1570778444705902 0 -0.43293667734390862 0.18227609871989661 0 -0.4532859247485006 0.17060760507794931 0 -0.45154442573150122 0.15517655387070359 0 -0.43179458310111551 0.1570778444705902 0 -0.45154442573150122 0.15517655387070359 0 -0.44178665154950458 0.1469323292756517 0 -0.4529904679906836 0.13822120864560991 0 -0.45154442573150122 0.15517655387070359 0 -0.44178665154950458 0.1469323292756517 0 -0.43179458310111551 0.1570778444705902 0 -0.4534203649959665 0.1175830833418242 0 -0.4301305474939674 0.13433426809084081 0 -0.44178665154950458 0.1469323292756517 0 -0.4423445436091818 0.13487444217216851 0 -0.43339468601578812 0.13730132150691751 0 -0.4534203649959665 0.1175830833418242 0 -0.42957051265969082 0.1289269482524574 0 -0.4301305474939674 0.13433426809084081 0 -0.4534203649959665 0.1175830833418242 0 -0.4423445436091818 0.13487444217216851 0 -0.4301305474939674 0.13433426809084081 0 -0.4534203649959665 0.1175830833418242 0 -0.4423445436091818 0.13487444217216851 0 -0.4529904679906836 0.13822120864560991 0 -0.44178665154950458 0.1469323292756517 0 -0.4423445436091818 0.13487444217216851 0 -0.4529904679906836 0.13822120864560991 0 -0.4534203649959665 0.1175830833418242 0 -0.4529904679906836 0.13822120864560991 0 -0.46590956442922388 0.12873543171009769 0 -0.4529904679906836 0.13822120864560991 0 -0.46590956442922388 0.12873543171009769 0 -0.46769628382100181 0.1416168850444787 0 -0.46758726318128319 0.15997316398158071 0 -0.45154442573150122 0.15517655387070359 0 -0.46769628382100181 0.1416168850444787 0 -0.45154442573150122 0.15517655387070359 0 -0.46769628382100181 0.1416168850444787 0 -0.45154442573150122 0.15517655387070359 0 -0.4529904679906836 0.13822120864560991 0 -0.46769628382100181 0.1416168850444787 0 -0.4802247404435443 0.23859106350738371 0 -0.46763119430916372 0.24972438345985301 0 -0.48709242022834559 0.25336559558088712 0 -0.4802247404435443 0.23859106350738371 0 -0.46686896370083708 0.2375632324608826 0 -0.46763119430916372 0.24972438345985301 0 -0.4802247404435443 0.23859106350738371 0 -0.5 0.22703415816224309 0 -0.48709242022834559 0.25336559558088712 0 -0.5 0.22703415816224309 0 -0.48709242022834559 0.25336559558088712 0 -0.5 0.25516831085479702 0 -0.4802247404435443 0.23859106350738371 0 -0.5 0.22703415816224309 0 -0.48399339821032211 0.22220216827216399 0 -0.48399339821032211 0.22220216827216399 0 -0.4728732869072288 0.20892238176062111 0 -0.46686896370083708 0.2375632324608826 0 -0.4728732869072288 0.20892238176062111 0 -0.46686896370083708 0.2375632324608826 0 -0.4802247404435443 0.23859106350738371 0 -0.48399339821032211 0.22220216827216399 0 -0.46686896370083708 0.2375632324608826 0 -0.5 0.22703415816224309 0 -0.48399339821032211 0.22220216827216399 0 -0.5 0.19890000546968931 0 -0.48399339821032211 0.22220216827216399 0 -0.4728732869072288 0.20892238176062111 0 -0.5 0.19890000546968931 0 -0.47887761011362051 0.18028153106035949 0 -0.4728732869072288 0.20892238176062111 0 -0.47887761011362051 0.18028153106035949 0 -0.4728732869072288 0.20892238176062111 0 -0.45697498901957428 0.1888604383645652 0 -0.47887761011362051 0.18028153106035949 0 -0.4728732869072288 0.20892238176062111 0 -0.5 0.19890000546968931 0 -0.4728732869072288 0.20892238176062111 0 -0.45697498901957428 0.1888604383645652 0 -0.44685263060344949 0.20452714936080069 0 -0.45697498901957428 0.1888604383645652 0 -0.44685263060344949 0.20452714936080069 0 -0.43293667734390862 0.18227609871989661 0 -0.44685263060344949 0.20452714936080069 0 -0.45874401148075739 0.22171366688059849 0 -0.43763252563008259 0.21911817875098799 0 -0.4728732869072288 0.20892238176062111 0 -0.44685263060344949 0.20452714936080069 0 -0.45874401148075739 0.22171366688059849 0 -0.4728732869072288 0.20892238176062111 0 -0.45874401148075739 0.22171366688059849 0 -0.46686896370083708 0.2375632324608826 0 -0.4556106916895547 0.23437206360995411 0 -0.45874401148075739 0.22171366688059849 0 -0.46686896370083708 0.2375632324608826 0 -0.4556106916895547 0.23437206360995411 0 -0.45874401148075739 0.22171366688059849 0 -0.44598906116795539 0.22978261522377191 0 -0.45874401148075739 0.22171366688059849 0 -0.43763252563008259 0.21911817875098799 0 -0.44598906116795539 0.22978261522377191 0 -0.43763252563008259 0.21911817875098799 0 -0.44598906116795539 0.22978261522377191 0 -0.43368023371648229 0.23250235600740071 0 -0.4556106916895547 0.23437206360995411 0 -0.44598906116795539 0.22978261522377191 0 -0.44264316725088487 0.24247965961696791 0 -0.4556106916895547 0.23437206360995411 0 -0.44264316725088487 0.24247965961696791 0 -0.45859915964930192 0.24488965703356061 0 -0.44264316725088487 0.24247965961696791 0 -0.45859915964930192 0.24488965703356061 0 -0.45069184888611141 0.25046307531823891 0 -0.44598906116795539 0.22978261522377191 0 -0.44264316725088487 0.24247965961696791 0 -0.43368023371648229 0.23250235600740071 0 -0.4556106916895547 0.23437206360995411 0 -0.45859915964930192 0.24488965703356061 0 -0.46686896370083708 0.2375632324608826 0 -0.45859915964930192 0.24488965703356061 0 -0.46686896370083708 0.2375632324608826 0 -0.46763119430916372 0.24972438345985301 0 -0.41406942929054857 0.24327253029380941 0 -0.40591872295701231 0.24397519931229761 0 -0.40860375304798152 0.25332431899974922 0 -0.41009154350363969 0.23613806992033301 0 -0.41406942929054857 0.24327253029380941 0 -0.40591872295701231 0.24397519931229761 0 -0.41009154350363969 0.23613806992033301 0 -0.41997939095567249 0.23476726901036951 0 -0.41406942929054857 0.24327253029380941 0 -0.41997939095567249 0.23476726901036951 0 -0.41406942929054857 0.24327253029380941 0 -0.42357238427207788 0.24738313748557261 0 -0.41406942929054857 0.24327253029380941 0 -0.42357238427207788 0.24738313748557261 0 -0.40860375304798152 0.25332431899974922 0 -0.44264316725088487 0.24247965961696791 0 -0.42357238427207788 0.24738313748557261 0 -0.43368023371648229 0.23250235600740071 0 -0.44264316725088487 0.24247965961696791 0 -0.42357238427207788 0.24738313748557261 0 -0.43740087192273569 0.25912582864728517 0 -0.41997939095567249 0.23476726901036951 0 -0.42357238427207788 0.24738313748557261 0 -0.43368023371648229 0.23250235600740071 0 -0.41997939095567249 0.23476726901036951 0 -0.43368023371648229 0.23250235600740071 0 -0.42537688853594408 0.22414263466883971 0 -0.43763252563008259 0.21911817875098799 0 -0.43368023371648229 0.23250235600740071 0 -0.42537688853594408 0.22414263466883971 0 -0.42537688853594408 0.22414263466883971 0 -0.41308586641534251 0.22516488568626211 0 -0.42358775495568318 0.2096205217337338 0 -0.41009154350363969 0.23613806992033301 0 -0.41997939095567249 0.23476726901036951 0 -0.41308586641534251 0.22516488568626211 0 -0.41997939095567249 0.23476726901036951 0 -0.42537688853594408 0.22414263466883971 0 -0.41308586641534251 0.22516488568626211 0 -0.41009154350363969 0.23613806992033301 0 -0.41308586641534251 0.22516488568626211 0 -0.40221331350784179 0.2282437533895432 0 -0.42358775495568318 0.2096205217337338 0 -0.4070649115797278 0.19688628676333 0 -0.40216478458132782 0.21522841818601979 0 -0.41308586641534251 0.22516488568626211 0 -0.42358775495568318 0.2096205217337338 0 -0.40216478458132782 0.21522841818601979 0 -0.43763252563008259 0.21911817875098799 0 -0.42537688853594408 0.22414263466883971 0 -0.42358775495568318 0.2096205217337338 0 -0.44685263060344949 0.20452714936080069 0 -0.43763252563008259 0.21911817875098799 0 -0.42358775495568318 0.2096205217337338 0 -0.44685263060344949 0.20452714936080069 0 -0.42358775495568318 0.2096205217337338 0 -0.43293667734390862 0.18227609871989661 0 -0.4070649115797278 0.19688628676333 0 -0.43293667734390862 0.18227609871989661 0 -0.42358775495568318 0.2096205217337338 0 -0.4070649115797278 0.19688628676333 0 -0.43293667734390862 0.18227609871989661 0 -0.4070649115797278 0.19688628676333 0 -0.4036432412548841 0.18768040030664579 0 -0.41486329040186148 0.1804836848069731 0 -0.4070649115797278 0.19688628676333 0 -0.39786396649753308 0.19518360713991509 0 -0.38119314581554731 0.2114964748067639 0 -0.40151977026377023 0.19139588769341959 0 -0.39786396649753308 0.19518360713991509 0 -0.39680279049894163 0.18485424404332859 0 -0.4070649115797278 0.19688628676333 0 -0.40151977026377023 0.19139588769341959 0 -0.4036432412548841 0.18768040030664579 0 -0.4070649115797278 0.19688628676333 0 -0.40151977026377023 0.19139588769341959 0 -0.39786396649753308 0.19518360713991509 0 -0.40151977026377023 0.19139588769341959 0 -0.4036432412548841 0.18768040030664579 0 -0.39680279049894163 0.18485424404332859 0 -0.39786396649753308 0.19518360713991509 0 -0.38899796815724591 0.19817535942504699 0 -0.39680279049894163 0.18485424404332859 0 -0.38899796815724591 0.19817535942504699 0 -0.39680279049894163 0.18485424404332859 0 -0.38899796815724591 0.19817535942504699 0 -0.38119314581554731 0.2114964748067639 0 -0.37245453811431423 0.19542176570973219 0 -0.38899796815724591 0.19817535942504699 0 -0.38170064825379119 0.18495289540690751 0 -0.37245453811431423 0.19542176570973219 0 -0.38899796815724591 0.19817535942504699 0 -0.39680279049894163 0.18485424404332859 0 -0.38170064825379119 0.18495289540690751 0 -0.39786396649753308 0.19518360713991509 0 -0.38899796815724591 0.19817535942504699 0 -0.38119314581554731 0.2114964748067639 0 -0.38899796815724591 0.19817535942504699 0 -0.38119314581554731 0.2114964748067639 0 -0.4070649115797278 0.19688628676333 0 -0.38119314581554731 0.2114964748067639 0 -0.40216478458132782 0.21522841818601979 0 -0.38119314581554731 0.2114964748067639 0 -0.40216478458132782 0.21522841818601979 0 -0.38914984634734651 0.22274867198060189 0 -0.4070649115797278 0.19688628676333 0 -0.38119314581554731 0.2114964748067639 0 -0.41308586641534251 0.22516488568626211 0 -0.40216478458132782 0.21522841818601979 0 -0.40221331350784179 0.2282437533895432 0 -0.41009154350363969 0.23613806992033301 0 -0.40221331350784179 0.2282437533895432 0 -0.39984260833463869 0.23844859072619781 0 -0.40221331350784179 0.2282437533895432 0 -0.39330428284977659 0.23325919854971761 0 -0.39984260833463869 0.23844859072619781 0 -0.40221331350784179 0.2282437533895432 0 -0.39330428284977659 0.23325919854971761 0 -0.38914984634734651 0.22274867198060189 0 -0.40216478458132782 0.21522841818601979 0 -0.40221331350784179 0.2282437533895432 0 -0.38914984634734651 0.22274867198060189 0 -0.38119314581554731 0.2114964748067639 0 -0.38082327196448751 0.22894908196776059 0 -0.37468365765975009 0.23180589261145351 0 -0.38119314581554731 0.2114964748067639 0 -0.38914984634734651 0.22274867198060189 0 -0.38082327196448751 0.22894908196776059 0 -0.38082327196448751 0.22894908196776059 0 -0.37822911530886411 0.23812041835430409 0 -0.37468365765975009 0.23180589261145351 0 -0.38082327196448751 0.22894908196776059 0 -0.38552332006643442 0.23535491014917961 0 -0.37822911530886411 0.23812041835430409 0 -0.38914984634734651 0.22274867198060189 0 -0.38082327196448751 0.22894908196776059 0 -0.38552332006643442 0.23535491014917961 0 -0.39330428284977659 0.23325919854971761 0 -0.38914984634734651 0.22274867198060189 0 -0.38552332006643442 0.23535491014917961 0 -0.38552332006643442 0.23535491014917961 0 -0.38307950927438988 0.24425889671281931 0 -0.39069270708714682 0.2415427984295605 0 -0.39330428284977659 0.23325919854971761 0 -0.38552332006643442 0.23535491014917961 0 -0.39069270708714682 0.2415427984295605 0 -0.38552332006643442 0.23535491014917961 0 -0.37822911530886411 0.23812041835430409 0 -0.38307950927438988 0.24425889671281931 0 -0.37651490307859342 0.2470886687101386 0 -0.38307950927438988 0.24425889671281931 0 -0.38160459254513962 0.25292609891533901 0 -0.37822911530886411 0.23812041835430409 0 -0.37651490307859342 0.2470886687101386 0 -0.38307950927438988 0.24425889671281931 0 -0.38307950927438988 0.24425889671281931 0 -0.38853539280783761 0.24861290607178729 0 -0.38160459254513962 0.25292609891533901 0 -0.38307950927438988 0.24425889671281931 0 -0.38853539280783761 0.24861290607178729 0 -0.39069270708714682 0.2415427984295605 0 -0.39683508010241553 0.24753252475573509 0 -0.39069270708714682 0.2415427984295605 0 -0.39984260833463869 0.23844859072619781 0 -0.38853539280783761 0.24861290607178729 0 -0.39683508010241553 0.24753252475573509 0 -0.39069270708714682 0.2415427984295605 0 -0.39330428284977659 0.23325919854971761 0 -0.39069270708714682 0.2415427984295605 0 -0.39984260833463869 0.23844859072619781 0 -0.41009154350363969 0.23613806992033301 0 -0.39984260833463869 0.23844859072619781 0 -0.40591872295701231 0.24397519931229761 0 -0.39683508010241553 0.24753252475573509 0 -0.40591872295701231 0.24397519931229761 0 -0.40860375304798152 0.25332431899974922 0 -0.39683508010241553 0.24753252475573509 0 -0.39984260833463869 0.23844859072619781 0 -0.40591872295701231 0.24397519931229761 0 -0.42368702577911133 0.1389687665222063 0 -0.40395234317529011 0.15316292301275741 0 -0.42368702577911133 0.1389687665222063 0 -0.41024490813902792 0.16191150528276829 0 -0.40395234317529011 0.15316292301275741 0 -0.42368702577911133 0.1389687665222063 0 -0.41024490813902792 0.16191150528276829 0 -0.41233770370002171 0.12956443796581671 0 -0.42368702577911133 0.1389687665222063 0 -0.40395234317529011 0.15316292301275741 0 -0.4077509945263974 0.11399158697038669 0 -0.41233770370002171 0.12956443796581671 0 -0.42769792239980159 0.13212304802546729 0 -0.41233770370002171 0.12956443796581671 0 -0.42368702577911133 0.1389687665222063 0 -0.42769792239980159 0.13212304802546729 0 -0.42290093559005232 0.115264658306373 0 -0.42769792239980159 0.13212304802546729 0 -0.42957051265969082 0.1289269482524574 0 -0.42368702577911133 0.1389687665222063 0 -0.43339468601578812 0.13730132150691751 0 -0.4301305474939674 0.13433426809084081 0 -0.42368702577911133 0.1389687665222063 0 -0.42769792239980159 0.13212304802546729 0 -0.42368702577911133 0.1389687665222063 0 -0.4301305474939674 0.13433426809084081 0 -0.42368702577911133 0.1389687665222063 0 -0.42769792239980159 0.13212304802546729 0 -0.4301305474939674 0.13433426809084081 0 -0.42769792239980159 0.13212304802546729 0 -0.4301305474939674 0.13433426809084081 0 -0.42769792239980159 0.13212304802546729 0 -0.42957051265969082 0.1289269482524574 0 -0.4301305474939674 0.13433426809084081 0 -0.42769792239980159 0.13212304802546729 0 -0.42957051265969082 0.1289269482524574 0 -0.4423445436091818 0.13487444217216851 0 -0.43339468601578812 0.13730132150691751 0 -0.4301305474939674 0.13433426809084081 0 -0.43339468601578812 0.13730132150691751 0 -0.4301305474939674 0.13433426809084081 0 -0.42368702577911133 0.1389687665222063 0 -0.43339468601578812 0.13730132150691751 0 -0.43179458310111551 0.1570778444705902 0 -0.44178665154950458 0.1469323292756517 0 -0.43339468601578812 0.13730132150691751 0 -0.43179458310111551 0.1570778444705902 0 -0.42368702577911133 0.1389687665222063 0 -0.43179458310111551 0.1570778444705902 0 -0.41024490813902792 0.16191150528276829 0 -0.43179458310111551 0.1570778444705902 0 -0.43293667734390862 0.18227609871989661 0 -0.41486329040186148 0.1804836848069731 0 -0.41486329040186148 0.1804836848069731 0 -0.41024490813902792 0.16191150528276829 0 -0.39680279049894163 0.18485424404332859 0 -0.4070649115797278 0.19688628676333 0 -0.43293667734390862 0.18227609871989661 0 -0.41486329040186148 0.1804836848069731 0 -0.43179458310111551 0.1570778444705902 0 -0.41486329040186148 0.1804836848069731 0 -0.41024490813902792 0.16191150528276829 0 -0.41024490813902792 0.16191150528276829 0 -0.39680279049894163 0.18485424404332859 0 -0.38421766057146978 0.16735707950331011 0 -0.38421766057146978 0.16735707950331011 0 -0.40395234317529011 0.15316292301275741 0 -0.41024490813902792 0.16191150528276829 0 -0.38421766057146978 0.16735707950331011 0 -0.40395234317529011 0.15316292301275741 0 -0.41024490813902792 0.16191150528276829 0 -0.39680279049894163 0.18485424404332859 0 -0.4036432412548841 0.18768040030664579 0 -0.41486329040186148 0.1804836848069731 0 -0.39680279049894163 0.18485424404332859 0 -0.39680279049894163 0.18485424404332859 0 -0.38170064825379119 0.18495289540690751 0 -0.38421766057146978 0.16735707950331011 0 -0.39680279049894163 0.18485424404332859 0 -0.38421766057146978 0.16735707950331011 0 -0.38421766057146978 0.16735707950331011 0 -0.3677304388903192 0.1792155020244468 0 -0.38170064825379119 0.18495289540690751 0 -0.38421766057146978 0.16735707950331011 0 -0.3677304388903192 0.1792155020244468 0 -0.38421766057146978 0.16735707950331011 0 -0.38601953982311987 0.1480914986557143 0 -0.36685242912775279 0.14321411764298 0 -0.38981076770896589 0.1281539894765171 0 -0.36685242912775279 0.14321411764298 0 -0.36959870579113158 0.10903897892679321 0 -0.38421766057146978 0.16735707950331011 0 -0.36685242912775279 0.14321411764298 0 -0.38601953982311987 0.1480914986557143 0 -0.40395234317529011 0.15316292301275741 0 -0.38981076770896589 0.1281539894765171 0 -0.38421766057146978 0.16735707950331011 0 -0.38601953982311987 0.1480914986557143 0 -0.40395234317529011 0.15316292301275741 0 -0.41233770370002171 0.12956443796581671 0 -0.40395234317529011 0.15316292301275741 0 -0.38981076770896589 0.1281539894765171 0 -0.38601953982311987 0.1480914986557143 0 -0.38981076770896589 0.1281539894765171 0 -0.36685242912775279 0.14321411764298 0 -0.36685242912775279 0.14321411764298 0 -0.3494871976840358 0.1190711557826499 0 -0.34442344534964559 0.13972975640367091 0 -0.36685242912775279 0.14321411764298 0 -0.3494871976840358 0.1190711557826499 0 -0.34442344534964559 0.13972975640367091 0 -0.36685242912775279 0.14321411764298 0 -0.35036623482263168 0.1622624226333039 0 -0.36685242912775279 0.14321411764298 0 -0.36729169085304342 0.16301228045101021 0 -0.35036623482263168 0.1622624226333039 0 -0.36729169085304342 0.16301228045101021 0 -0.3677304388903192 0.1792155020244468 0 -0.35036623482263168 0.1622624226333039 0 -0.38421766057146978 0.16735707950331011 0 -0.36685242912775279 0.14321411764298 0 -0.36729169085304342 0.16301228045101021 0 -0.38421766057146978 0.16735707950331011 0 -0.36729169085304342 0.16301228045101021 0 -0.3677304388903192 0.1792155020244468 0 -0.38170064825379119 0.18495289540690751 0 -0.3677304388903192 0.1792155020244468 0 -0.37245453811431423 0.19542176570973219 0 -0.3677304388903192 0.1792155020244468 0 -0.3512432172091694 0.19107392454558461 0 -0.3677304388903192 0.1792155020244468 0 -0.35036623482263168 0.1622624226333039 0 -0.3512432172091694 0.19107392454558461 0 -0.35036623482263168 0.1622624226333039 0 -0.32946007967030838 0.17425706803013569 0 -0.32416416381261359 0.14558178899355129 0 -0.35036623482263168 0.1622624226333039 0 -0.32946007967030838 0.17425706803013569 0 -0.3512432172091694 0.19107392454558461 0 -0.32946007967030838 0.17425706803013569 0 -0.31928030765564042 0.19226072019490309 0 -0.31098139507614297 0.17806184929801469 0 -0.32946007967030838 0.17425706803013569 0 -0.31348483539249522 0.1639531030673208 0 -0.31098139507614297 0.17806184929801469 0 -0.32946007967030838 0.17425706803013569 0 -0.32416416381261359 0.14558178899355129 0 -0.32946007967030838 0.17425706803013569 0 -0.31348483539249522 0.1639531030673208 0 -0.32416416381261359 0.14558178899355129 0 -0.31348483539249522 0.1639531030673208 0 -0.32416416381261359 0.14558178899355129 0 -0.30534444763651081 0.15336058747872339 0 -0.32416416381261359 0.14558178899355129 0 -0.31886824795491869 0.1169065099569669 0 -0.32416416381261359 0.14558178899355129 0 -0.30413064511043092 0.12973067501681759 0 -0.31886824795491869 0.1169065099569669 0 -0.34442344534964559 0.13972975640367091 0 -0.3494871976840358 0.1190711557826499 0 -0.31886824795491869 0.1169065099569669 0 -0.34442344534964559 0.13972975640367091 0 -0.32416416381261359 0.14558178899355129 0 -0.31886824795491869 0.1169065099569669 0 -0.34442344534964559 0.13972975640367091 0 -0.35036623482263168 0.1622624226333039 0 -0.32416416381261359 0.14558178899355129 0 -0.35043894926063018 0.24962174678034141 0 -0.36627485387062048 0.23695871848075431 0 -0.35135656192569298 0.26242096215474459 0 -0.35043894926063018 0.24962174678034141 0 -0.35290784247668272 0.23920597911566099 0 -0.36627485387062048 0.23695871848075431 0 -0.36627485387062048 0.23695871848075431 0 -0.35135656192569298 0.26242096215474459 0 -0.35043894926063018 0.24962174678034141 0 -0.35290784247668272 0.23920597911566099 0 -0.34189705674778098 0.24159835472183219 0 -0.35290784247668272 0.23920597911566099 0 -0.35302051002769941 0.22864509647971601 0 -0.34189705674778098 0.24159835472183219 0 -0.35290784247668272 0.23920597911566099 0 -0.36627485387062048 0.23695871848075431 0 -0.35302051002769941 0.22864509647971601 0 -0.36912135141255092 0.2407007553042802 0 -0.36627485387062048 0.23695871848075431 0 -0.35910446597007889 0.26010061978881122 0 -0.37651490307859342 0.2470886687101386 0 -0.36912135141255092 0.2407007553042802 0 -0.37393275902425938 0.25584788116673007 0 -0.37822911530886411 0.23812041835430409 0 -0.36912135141255092 0.2407007553042802 0 -0.37468365765975009 0.23180589261145351 0 -0.36912135141255092 0.2407007553042802 0 -0.36627485387062048 0.23695871848075431 0 -0.37468365765975009 0.23180589261145351 0 -0.37822911530886411 0.23812041835430409 0 -0.37651490307859342 0.2470886687101386 0 -0.36912135141255092 0.2407007553042802 0 -0.38119314581554731 0.2114964748067639 0 -0.36627485387062048 0.23695871848075431 0 -0.37468365765975009 0.23180589261145351 0 -0.36627485387062048 0.23695871848075431 0 -0.36482285996236902 0.22074102953950689 0 -0.35302051002769941 0.22864509647971601 0 -0.38119314581554731 0.2114964748067639 0 -0.36627485387062048 0.23695871848075431 0 -0.38119314581554731 0.2114964748067639 0 -0.36627485387062048 0.23695871848075431 0 -0.36482285996236902 0.22074102953950689 0 -0.36482285996236902 0.22074102953950689 0 -0.35302051002769941 0.22864509647971601 0 -0.3509097668762251 0.2099451904438723 0 -0.35302051002769941 0.22864509647971601 0 -0.33832652613789221 0.22226535089427621 0 -0.34189705674778098 0.24159835472183219 0 -0.35302051002769941 0.22864509647971601 0 -0.3509097668762251 0.2099451904438723 0 -0.33832652613789221 0.22226535089427621 0 -0.38119314581554731 0.2114964748067639 0 -0.36482285996236902 0.22074102953950689 0 -0.36395761766145701 0.20693102950716849 0 -0.36482285996236902 0.22074102953950689 0 -0.3509097668762251 0.2099451904438723 0 -0.36395761766145701 0.20693102950716849 0 -0.38119314581554731 0.2114964748067639 0 -0.36395761766145701 0.20693102950716849 0 -0.37245453811431423 0.19542176570973219 0 -0.38119314581554731 0.2114964748067639 0 -0.36482285996236902 0.22074102953950689 0 -0.36395761766145701 0.20693102950716849 0 -0.37245453811431423 0.19542176570973219 0 -0.3512432172091694 0.19107392454558461 0 -0.3677304388903192 0.1792155020244468 0 -0.37245453811431423 0.19542176570973219 0 -0.3512432172091694 0.19107392454558461 0 -0.3509097668762251 0.2099451904438723 0 -0.36395761766145701 0.20693102950716849 0 -0.3512432172091694 0.19107392454558461 0 -0.3509097668762251 0.2099451904438723 0 -0.3512432172091694 0.19107392454558461 0 -0.33475599552801633 0.20293234706671781 0 -0.32946007967030838 0.17425706803013569 0 -0.3512432172091694 0.19107392454558461 0 -0.33475599552801633 0.20293234706671781 0 -0.3512432172091694 0.19107392454558461 0 -0.33475599552801633 0.20293234706671781 0 -0.32946007967030838 0.17425706803013569 0 -0.33475599552801633 0.20293234706671781 0 -0.32946007967030838 0.17425706803013569 0 -0.33475599552801633 0.20293234706671781 0 -0.31928030765564042 0.19226072019490309 0 -0.31928030765564042 0.19226072019490309 0 -0.31402823501523358 0.2029367882186249 0 -0.32187707281659911 0.2030188805238903 0 -0.33475599552801633 0.20293234706671781 0 -0.31928030765564042 0.19226072019490309 0 -0.32187707281659911 0.2030188805238903 0 -0.33475599552801633 0.20293234706671781 0 -0.32187707281659911 0.2030188805238903 0 -0.3194437530675025 0.21394566661531081 0 -0.33475599552801633 0.20293234706671781 0 -0.3194437530675025 0.21394566661531081 0 -0.31402823501523358 0.2029367882186249 0 -0.32187707281659911 0.2030188805238903 0 -0.3194437530675025 0.21394566661531081 0 -0.31402823501523358 0.2029367882186249 0 -0.3194437530675025 0.21394566661531081 0 -0.3085332145157399 0.21551250525909799 0 -0.33475599552801633 0.20293234706671781 0 -0.33832652613789221 0.22226535089427621 0 -0.33475599552801633 0.20293234706671781 0 -0.3194437530675025 0.21394566661531081 0 -0.33832652613789221 0.22226535089427621 0 -0.3509097668762251 0.2099451904438723 0 -0.33475599552801633 0.20293234706671781 0 -0.33832652613789221 0.22226535089427621 0 -0.33832652613789221 0.22226535089427621 0 -0.34189705674778098 0.24159835472183219 0 -0.33832652613789221 0.22226535089427621 0 -0.32042523749176949 0.23034239349455121 0 -0.34189705674778098 0.24159835472183219 0 -0.3194437530675025 0.21394566661531081 0 -0.32042523749176949 0.23034239349455121 0 -0.30413151060698601 0.22495898616390009 0 -0.3194437530675025 0.21394566661531081 0 -0.33832652613789221 0.22226535089427621 0 -0.32042523749176949 0.23034239349455121 0 -0.32042523749176949 0.23034239349455121 0 -0.32431945501868897 0.24769513105101101 0 -0.30834972046380649 0.2414778257957628 0 -0.32431945501868897 0.24769513105101101 0 -0.30834972046380649 0.2414778257957628 0 -0.31256793032062669 0.25799666542762573 0 -0.32431945501868897 0.24769513105101101 0 -0.34189705674778098 0.24159835472183219 0 -0.33816867368026698 0.25122163454172652 0 -0.32042523749176949 0.23034239349455121 0 -0.32431945501868897 0.24769513105101101 0 -0.34189705674778098 0.24159835472183219 0 -0.35043894926063018 0.24962174678034141 0 -0.34189705674778098 0.24159835472183219 0 -0.33816867368026698 0.25122163454172652 0 -0.28208835379116393 0.24081351109703589 0 -0.30834972046380649 0.2414778257957628 0 -0.30410286391238761 0.25963957243767349 0 -0.30834972046380649 0.2414778257957628 0 -0.31256793032062669 0.25799666542762573 0 -0.28208835379116393 0.24081351109703589 0 -0.30834972046380649 0.2414778257957628 0 -0.30413151060698601 0.22495898616390009 0 -0.30834972046380649 0.2414778257957628 0 -0.30413151060698601 0.22495898616390009 0 -0.32042523749176949 0.23034239349455121 0 -0.30834972046380649 0.2414778257957628 0 -0.30413151060698601 0.22495898616390009 0 -0.3194437530675025 0.21394566661531081 0 -0.30413151060698601 0.22495898616390009 0 -0.28208835379116393 0.24081351109703589 0 -0.30413151060698601 0.22495898616390009 0 -0.29027877365422389 0.22344485694496699 0 -0.28208835379116393 0.24081351109703589 0 -0.30413151060698601 0.22495898616390009 0 -0.28208835379116393 0.24081351109703589 0 -0.29027877365422389 0.22344485694496699 0 -0.28020442663202472 0.22608918224206781 0 -0.30413151060698601 0.22495898616390009 0 -0.29027877365422389 0.22344485694496699 0 -0.29318693549080449 0.21353455694378981 0 -0.29027877365422389 0.22344485694496699 0 -0.28360066672498119 0.2152371559816165 0 -0.28020442663202472 0.22608918224206781 0 -0.29027877365422389 0.22344485694496699 0 -0.28360066672498119 0.2152371559816165 0 -0.29318693549080449 0.21353455694378981 0 -0.28360066672498119 0.2152371559816165 0 -0.28562156194255178 0.20396184259752309 0 -0.29318693549080449 0.21353455694378981 0 -0.28562156194255178 0.20396184259752309 0 -0.29318693549080449 0.21353455694378981 0 -0.29821117701269723 0.20177449688272539 0 -0.3085332145157399 0.21551250525909799 0 -0.30300365264132001 0.1920083633976383 0 -0.30413151060698601 0.22495898616390009 0 -0.29318693549080449 0.21353455694378981 0 -0.29821117701269723 0.20177449688272539 0 -0.30413151060698601 0.22495898616390009 0 -0.29821117701269723 0.20177449688272539 0 -0.31402823501523358 0.2029367882186249 0 -0.3085332145157399 0.21551250525909799 0 -0.30300365264132001 0.1920083633976383 0 -0.30413151060698601 0.22495898616390009 0 -0.3085332145157399 0.21551250525909799 0 -0.29821117701269723 0.20177449688272539 0 -0.3194437530675025 0.21394566661531081 0 -0.30413151060698601 0.22495898616390009 0 -0.3085332145157399 0.21551250525909799 0 -0.3085332145157399 0.21551250525909799 0 -0.29821117701269723 0.20177449688272539 0 -0.30300365264132001 0.1920083633976383 0 -0.29821117701269723 0.20177449688272539 0 -0.30300365264132001 0.1920083633976383 0 -0.292290843418408 0.17859000760155061 0 -0.31928030765564042 0.19226072019490309 0 -0.31402823501523358 0.2029367882186249 0 -0.30300365264132001 0.1920083633976383 0 -0.29821117701269723 0.20177449688272539 0 -0.28756090603737838 0.192425461605778 0 -0.292290843418408 0.17859000760155061 0 -0.29821117701269723 0.20177449688272539 0 -0.292290843418408 0.17859000760155061 0 -0.28562156194255178 0.20396184259752309 0 -0.29821117701269723 0.20177449688272539 0 -0.28756090603737838 0.192425461605778 0 -0.28562156194255178 0.20396184259752309 0 -0.28756090603737838 0.192425461605778 0 -0.27637199761363912 0.19310614734374559 0 -0.28756090603737838 0.192425461605778 0 -0.27637199761363912 0.19310614734374559 0 -0.28479817191250623 0.18372554443441561 0 -0.28562156194255178 0.20396184259752309 0 -0.27637199761363912 0.19310614734374559 0 -0.27434194394139572 0.20672032924125899 0 -0.27637199761363912 0.19310614734374559 0 -0.26540385996582322 0.20116636465239029 0 -0.27434194394139572 0.20672032924125899 0 -0.27637199761363912 0.19310614734374559 0 -0.26209861615342922 0.19079267542659409 0 -0.26540385996582322 0.20116636465239029 0 -0.27637199761363912 0.19310614734374559 0 -0.26209861615342922 0.19079267542659409 0 -0.26809790022893792 0.18246002600780559 0 -0.26209861615342922 0.19079267542659409 0 -0.25712737447672512 0.18183536977521739 0 -0.2473808015411986 0.19126964712816619 0 -0.26209861615342922 0.19079267542659409 0 -0.25269266269831953 0.2029174757593134 0 -0.2473808015411986 0.19126964712816619 0 -0.26209861615342922 0.19079267542659409 0 -0.25269266269831953 0.2029174757593134 0 -0.26540385996582322 0.20116636465239029 0 -0.25269266269831953 0.2029174757593134 0 -0.26540385996582322 0.20116636465239029 0 -0.26442485599089932 0.21253850909283351 0 -0.25269266269831953 0.2029174757593134 0 -0.26442485599089932 0.21253850909283351 0 -0.2420909958891401 0.21281575136507039 0 -0.26442485599089932 0.21253850909283351 0 -0.2420909958891401 0.21281575136507039 0 -0.26442485599089932 0.21253850909283351 0 -0.25500457036020791 0.22478830146187501 0 -0.2420909958891401 0.21281575136507039 0 -0.26442485599089932 0.21253850909283351 0 -0.27434194394139572 0.20672032924125899 0 -0.27377270726553249 0.21893894893622301 0 -0.26540385996582322 0.20116636465239029 0 -0.26442485599089932 0.21253850909283351 0 -0.27434194394139572 0.20672032924125899 0 -0.28360066672498119 0.2152371559816165 0 -0.28562156194255178 0.20396184259752309 0 -0.27434194394139572 0.20672032924125899 0 -0.28360066672498119 0.2152371559816165 0 -0.27434194394139572 0.20672032924125899 0 -0.27377270726553249 0.21893894893622301 0 -0.26442485599089932 0.21253850909283351 0 -0.27377270726553249 0.21893894893622301 0 -0.26767191673792778 0.22848506377838779 0 -0.28020442663202472 0.22608918224206781 0 -0.27377270726553249 0.21893894893622301 0 -0.26767191673792778 0.22848506377838779 0 -0.28360066672498119 0.2152371559816165 0 -0.28020442663202472 0.22608918224206781 0 -0.27377270726553249 0.21893894893622301 0 -0.28208835379116393 0.24081351109703589 0 -0.28020442663202472 0.22608918224206781 0 -0.26767191673792778 0.22848506377838779 0 -0.26442485599089932 0.21253850909283351 0 -0.26767191673792778 0.22848506377838779 0 -0.25500457036020791 0.22478830146187501 0 -0.25500457036020791 0.22478830146187501 0 -0.25872289257184927 0.2377480085381638 0 -0.24131719811821711 0.23026677869535059 0 -0.26767191673792778 0.22848506377838779 0 -0.25500457036020791 0.22478830146187501 0 -0.25872289257184927 0.2377480085381638 0 -0.25872289257184927 0.2377480085381638 0 -0.26789636206368961 0.25102109109898729 0 -0.23835895435988499 0.25111330509733959 0 -0.28208835379116393 0.24081351109703589 0 -0.25872289257184927 0.2377480085381638 0 -0.26789636206368961 0.25102109109898729 0 -0.28208835379116393 0.24081351109703589 0 -0.28852495205151618 0.25095668989007108 0 -0.26789636206368961 0.25102109109898729 0 -0.28208835379116393 0.24081351109703589 0 -0.26767191673792778 0.22848506377838779 0 -0.25872289257184927 0.2377480085381638 0 -0.28208835379116393 0.24081351109703589 0 -0.26767191673792778 0.22848506377838779 0 -0.28208835379116393 0.24081351109703589 0 -0.26789636206368961 0.25102109109898729 0 -0.29194452889248018 0.14500007967471931 0 -0.28684165681114981 0.1550735248158174 0 -0.29747409076690012 0.16850422153617881 0 -0.28684165681114981 0.1550735248158174 0 -0.28652413917309011 0.14582121272306181 0 -0.28067664656815561 0.1474877977403416 0 -0.28684165681114981 0.1550735248158174 0 -0.28067664656815561 0.1474877977403416 0 -0.27792801383979587 0.1549695496640604 0 -0.29194452889248018 0.14500007967471931 0 -0.28684165681114981 0.1550735248158174 0 -0.28652413917309011 0.14582121272306181 0 -0.28652413917309011 0.14582121272306181 0 -0.28770081266821568 0.13833274428076969 0 -0.28067664656815561 0.1474877977403416 0 -0.29194452889248018 0.14500007967471931 0 -0.28652413917309011 0.14582121272306181 0 -0.28770081266821568 0.13833274428076969 0 -0.29194452889248018 0.14500007967471931 0 -0.30413064511043092 0.12973067501681759 0 -0.28641496701806041 0.1214959378132599 0 -0.29194452889248018 0.14500007967471931 0 -0.28641496701806041 0.1214959378132599 0 -0.29194452889248018 0.14500007967471931 0 -0.28770081266821568 0.13833274428076969 0 -0.28641496701806041 0.1214959378132599 0 -0.28770081266821568 0.13833274428076969 0 -0.27919076515228453 0.12992591117285171 0 -0.28641496701806041 0.1214959378132599 0 -0.29194452889248018 0.14500007967471931 0 -0.30413064511043092 0.12973067501681759 0 -0.30567663861848082 0.14302070322949259 0 -0.32416416381261359 0.14558178899355129 0 -0.30413064511043092 0.12973067501681759 0 -0.30567663861848082 0.14302070322949259 0 -0.32416416381261359 0.14558178899355129 0 -0.30567663861848082 0.14302070322949259 0 -0.30534444763651081 0.15336058747872339 0 -0.29194452889248018 0.14500007967471931 0 -0.30534444763651081 0.15336058747872339 0 -0.29747409076690012 0.16850422153617881 0 -0.29194452889248018 0.14500007967471931 0 -0.30567663861848082 0.14302070322949259 0 -0.30534444763651081 0.15336058747872339 0 -0.31348483539249522 0.1639531030673208 0 -0.29747409076690012 0.16850422153617881 0 -0.31098139507614297 0.17806184929801469 0 -0.31348483539249522 0.1639531030673208 0 -0.30534444763651081 0.15336058747872339 0 -0.29747409076690012 0.16850422153617881 0 -0.30300365264132001 0.1920083633976383 0 -0.29747409076690012 0.16850422153617881 0 -0.292290843418408 0.17859000760155061 0 -0.30300365264132001 0.1920083633976383 0 -0.29747409076690012 0.16850422153617881 0 -0.30300365264132001 0.1920083633976383 0 -0.29747409076690012 0.16850422153617881 0 -0.31098139507614297 0.17806184929801469 0 -0.31928030765564042 0.19226072019490309 0 -0.30300365264132001 0.1920083633976383 0 -0.31098139507614297 0.17806184929801469 0 -0.28479817191250623 0.18372554443441561 0 -0.28337643784454353 0.17027710385890649 0 -0.27745723038769082 0.1798617660295056 0 -0.292290843418408 0.17859000760155061 0 -0.28479817191250623 0.18372554443441561 0 -0.28337643784454353 0.17027710385890649 0 -0.28756090603737838 0.192425461605778 0 -0.292290843418408 0.17859000760155061 0 -0.28479817191250623 0.18372554443441561 0 -0.29194452889248018 0.14500007967471931 0 -0.29747409076690012 0.16850422153617881 0 -0.28684165681114981 0.1550735248158174 0 -0.29747409076690012 0.16850422153617881 0 -0.28913117265146032 0.16617324876595599 0 -0.29747409076690012 0.16850422153617881 0 -0.292290843418408 0.17859000760155061 0 -0.28913117265146032 0.16617324876595599 0 -0.28913117265146032 0.16617324876595599 0 -0.28337643784454353 0.17027710385890649 0 -0.28408703746558361 0.15995736071973271 0 -0.292290843418408 0.17859000760155061 0 -0.28913117265146032 0.16617324876595599 0 -0.28337643784454353 0.17027710385890649 0 -0.28684165681114981 0.1550735248158174 0 -0.28408703746558361 0.15995736071973271 0 -0.27792801383979587 0.1549695496640604 0 -0.28337643784454353 0.17027710385890649 0 -0.28408703746558361 0.15995736071973271 0 -0.27829787625196711 0.16165077653146359 0 -0.28684165681114981 0.1550735248158174 0 -0.28913117265146032 0.16617324876595599 0 -0.28408703746558361 0.15995736071973271 0 -0.28408703746558361 0.15995736071973271 0 -0.27829787625196711 0.16165077653146359 0 -0.27792801383979587 0.1549695496640604 0 -0.27829787625196711 0.16165077653146359 0 -0.27315050454846912 0.1578738105890671 0 -0.27792801383979587 0.1549695496640604 0 -0.27829787625196711 0.16165077653146359 0 -0.27311914796279468 0.16561976877073131 0 -0.27315050454846912 0.1578738105890671 0 -0.28337643784454353 0.17027710385890649 0 -0.27311914796279468 0.16561976877073131 0 -0.2715420180256618 0.17388184325692199 0 -0.28337643784454353 0.17027710385890649 0 -0.27829787625196711 0.16165077653146359 0 -0.27311914796279468 0.16561976877073131 0 -0.27311914796279468 0.16561976877073131 0 -0.26591570944026771 0.16743415328370079 0 -0.2715420180256618 0.17388184325692199 0 -0.27311914796279468 0.16561976877073131 0 -0.26591570944026771 0.16743415328370079 0 -0.26852474876525079 0.1608504915844402 0 -0.26852474876525079 0.1608504915844402 0 -0.27315050454846912 0.1578738105890671 0 -0.270323107704937 0.15258271150375979 0 -0.26852474876525079 0.1608504915844402 0 -0.26053974445843259 0.16149929649429309 0 -0.270323107704937 0.15258271150375979 0 -0.27311914796279468 0.16561976877073131 0 -0.26852474876525079 0.1608504915844402 0 -0.27315050454846912 0.1578738105890671 0 -0.27637199761363912 0.19310614734374559 0 -0.28479817191250623 0.18372554443441561 0 -0.27745723038769082 0.1798617660295056 0 -0.27637199761363912 0.19310614734374559 0 -0.27745723038769082 0.1798617660295056 0 -0.26809790022893792 0.18246002600780559 0 -0.28337643784454353 0.17027710385890649 0 -0.27745723038769082 0.1798617660295056 0 -0.2715420180256618 0.17388184325692199 0 -0.2715420180256618 0.17388184325692199 0 -0.26809790022893792 0.18246002600780559 0 -0.26275544939307288 0.1747175616815744 0 -0.27745723038769082 0.1798617660295056 0 -0.2715420180256618 0.17388184325692199 0 -0.26809790022893792 0.18246002600780559 0 -0.26591570944026771 0.16743415328370079 0 -0.2715420180256618 0.17388184325692199 0 -0.26275544939307288 0.1747175616815744 0 -0.26209861615342922 0.19079267542659409 0 -0.26809790022893792 0.18246002600780559 0 -0.25712737447672512 0.18183536977521739 0 -0.26809790022893792 0.18246002600780559 0 -0.26275544939307288 0.1747175616815744 0 -0.25712737447672512 0.18183536977521739 0 -0.26275544939307288 0.1747175616815744 0 -0.25608963442430438 0.17432941306014441 0 -0.25712737447672512 0.18183536977521739 0 -0.26275544939307288 0.1747175616815744 0 -0.25608963442430438 0.17432941306014441 0 -0.25945718747000779 0.16945819293840961 0 -0.25608963442430438 0.17432941306014441 0 -0.25283600639573611 0.16907486109111261 0 -0.24827215438598041 0.17656107981440819 0 -0.25608963442430438 0.17432941306014441 0 -0.25712737447672512 0.18183536977521739 0 -0.24827215438598041 0.17656107981440819 0 -0.25712737447672512 0.18183536977521739 0 -0.24827215438598041 0.17656107981440819 0 -0.2473808015411986 0.19126964712816619 0 -0.270323107704937 0.15258271150375979 0 -0.24307100167447609 0.16318405166244451 0 -0.26053974445843259 0.16149929649429309 0 -0.270323107704937 0.15258271150375979 0 -0.24307100167447609 0.16318405166244451 0 -0.26053974445843259 0.16149929649429309 0 -0.25060242597239979 0.1657845782070915 0 -0.24307100167447609 0.16318405166244451 0 -0.26591570944026771 0.16743415328370079 0 -0.26852474876525079 0.1608504915844402 0 -0.26053974445843259 0.16149929649429309 0 -0.26591570944026771 0.16743415328370079 0 -0.26053974445843259 0.16149929649429309 0 -0.25945718747000779 0.16945819293840961 0 -0.26591570944026771 0.16743415328370079 0 -0.26275544939307288 0.1747175616815744 0 -0.25945718747000779 0.16945819293840961 0 -0.26053974445843259 0.16149929649429309 0 -0.25945718747000779 0.16945819293840961 0 -0.25283600639573611 0.16907486109111261 0 -0.26053974445843259 0.16149929649429309 0 -0.25283600639573611 0.16907486109111261 0 -0.25060242597239979 0.1657845782070915 0 -0.25608963442430438 0.17432941306014441 0 -0.25945718747000779 0.16945819293840961 0 -0.25283600639573611 0.16907486109111261 0 -0.26448722718353179 0.14874810072661149 0 -0.270323107704937 0.15258271150375979 0 -0.24307100167447609 0.16318405166244451 0 -0.26448722718353179 0.14874810072661149 0 -0.24127364169884791 0.15916345717245309 0 -0.26448722718353179 0.14874810072661149 0 -0.2492397644375573 0.1485544685068895 0 -0.24127364169884791 0.15916345717245309 0 -0.25867389714695338 0.14396717401349041 0 -0.26448722718353179 0.14874810072661149 0 -0.2492397644375573 0.1485544685068895 0 -0.25867389714695338 0.14396717401349041 0 -0.25660171165408369 0.13837730322311151 0 -0.2492397644375573 0.1485544685068895 0 -0.25660171165408369 0.13837730322311151 0 -0.24484117155015039 0.13603799405898309 0 -0.2492397644375573 0.1485544685068895 0 -0.25867389714695338 0.14396717401349041 0 -0.26448722718353179 0.14874810072661149 0 -0.26436688531264108 0.1401888235973491 0 -0.25867389714695338 0.14396717401349041 0 -0.26436688531264108 0.1401888235973491 0 -0.25660171165408369 0.13837730322311151 0 -0.26448722718353179 0.14874810072661149 0 -0.27335374882410512 0.15094703990869329 0 -0.28067664656815561 0.1474877977403416 0 -0.28770081266821568 0.13833274428076969 0 -0.26448722718353179 0.14874810072661149 0 -0.28067664656815561 0.1474877977403416 0 -0.28770081266821568 0.13833274428076969 0 -0.26448722718353179 0.14874810072661149 0 -0.28770081266821568 0.13833274428076969 0 -0.26448722718353179 0.14874810072661149 0 -0.27291106258928571 0.13740974033794651 0 -0.26448722718353179 0.14874810072661149 0 -0.270323107704937 0.15258271150375979 0 -0.27335374882410512 0.15094703990869329 0 -0.26448722718353179 0.14874810072661149 0 -0.27291106258928571 0.13740974033794651 0 -0.26436688531264108 0.1401888235973491 0 -0.270323107704937 0.15258271150375979 0 -0.27335374882410512 0.15094703990869329 0 -0.27792801383979587 0.1549695496640604 0 -0.27315050454846912 0.1578738105890671 0 -0.270323107704937 0.15258271150375979 0 -0.27792801383979587 0.1549695496640604 0 -0.27335374882410512 0.15094703990869329 0 -0.28067664656815561 0.1474877977403416 0 -0.27792801383979587 0.1549695496640604 0 -0.28770081266821568 0.13833274428076969 0 -0.27919076515228453 0.12992591117285171 0 -0.27291106258928571 0.13740974033794651 0 -0.27291106258928571 0.13740974033794651 0 -0.26610347381868221 0.12930409567419951 0 -0.26436688531264108 0.1401888235973491 0 -0.27919076515228453 0.12992591117285171 0 -0.27291106258928571 0.13740974033794651 0 -0.26610347381868221 0.12930409567419951 0 -0.27919076515228453 0.12992591117285171 0 -0.26610347381868221 0.12930409567419951 0 -0.27467636295864972 0.1208808398924793 0 -0.26610347381868221 0.12930409567419951 0 -0.25660171165408369 0.13837730322311151 0 -0.25116920304913942 0.1229739772897126 0 -0.26610347381868221 0.12930409567419951 0 -0.26436688531264108 0.1401888235973491 0 -0.25660171165408369 0.13837730322311151 0 -0.25660171165408369 0.13837730322311151 0 -0.25116920304913942 0.1229739772897126 0 -0.24484117155015039 0.13603799405898309 0 -0.25116920304913942 0.1229739772897126 0 -0.26298893396872758 0.1154479238936349 0 -0.25054943601730989 0.108071301881526 0 -0.26610347381868221 0.12930409567419951 0 -0.25116920304913942 0.1229739772897126 0 -0.26298893396872758 0.1154479238936349 0 -0.25054943601730989 0.108071301881526 0 -0.26361833367591397 0.1023880606950727 0 -0.25566447336394388 0.093290664473130849 0 -0.26298893396872758 0.1154479238936349 0 -0.25054943601730989 0.108071301881526 0 -0.26361833367591397 0.1023880606950727 0 -0.26361833367591397 0.1023880606950727 0 -0.26930048805119922 0.09085229154625582 0 -0.25566447336394388 0.093290664473130849 0 -0.26361833367591397 0.1023880606950727 0 -0.27864473896410241 0.099231132295330399 0 -0.26930048805119922 0.09085229154625582 0 -0.26361833367591397 0.1023880606950727 0 -0.272583368954808 0.1092419452162519 0 -0.27864473896410241 0.099231132295330399 0 -0.26298893396872758 0.1154479238936349 0 -0.26361833367591397 0.1023880606950727 0 -0.272583368954808 0.1092419452162519 0 -0.272583368954808 0.1092419452162519 0 -0.27864473896410241 0.099231132295330399 0 -0.28524049199030088 0.1095464628505709 0 -0.26610347381868221 0.12930409567419951 0 -0.26298893396872758 0.1154479238936349 0 -0.27467636295864972 0.1208808398924793 0 -0.26298893396872758 0.1154479238936349 0 -0.272583368954808 0.1092419452162519 0 -0.27467636295864972 0.1208808398924793 0 -0.272583368954808 0.1092419452162519 0 -0.27467636295864972 0.1208808398924793 0 -0.28524049199030088 0.1095464628505709 0 -0.27919076515228453 0.12992591117285171 0 -0.27467636295864972 0.1208808398924793 0 -0.28641496701806041 0.1214959378132599 0 -0.30413064511043092 0.12973067501681759 0 -0.28641496701806041 0.1214959378132599 0 -0.2988234298268479 0.1125075514473524 0 -0.27467636295864972 0.1208808398924793 0 -0.28641496701806041 0.1214959378132599 0 -0.28524049199030088 0.1095464628505709 0 -0.28641496701806041 0.1214959378132599 0 -0.28524049199030088 0.1095464628505709 0 -0.2988234298268479 0.1125075514473524 0 -0.27864473896410241 0.099231132295330399 0 -0.28524049199030088 0.1095464628505709 0 -0.29185367192211231 0.098218092341408353 0 -0.27864473896410241 0.099231132295330399 0 -0.29185367192211231 0.098218092341408353 0 -0.28245727669843501 0.08749635708560051 0 -0.28524049199030088 0.1095464628505709 0 -0.29185367192211231 0.098218092341408353 0 -0.2988234298268479 0.1125075514473524 0 -0.29185367192211231 0.098218092341408353 0 -0.30359517449255341 0.10039400894351599 0 -0.2988234298268479 0.1125075514473524 0 -0.30359517449255341 0.10039400894351599 0 -0.31886824795491869 0.1169065099569669 0 -0.31357233209722402 0.088231230920382486 0 -0.29185367192211231 0.098218092341408353 0 -0.30359517449255341 0.10039400894351599 0 -0.29627051343744182 0.087417343045760723 0 -0.30413064511043092 0.12973067501681759 0 -0.2988234298268479 0.1125075514473524 0 -0.31886824795491869 0.1169065099569669 0 -0.30359517449255341 0.10039400894351599 0 -0.2988234298268479 0.1125075514473524 0 -0.31886824795491869 0.1169065099569669 0 -0.30080302159483091 0.075135201162782717 0 -0.28803371109243769 0.062039171405182968 0 -0.31475673479660088 0.070785232061989944 0 -0.28803371109243769 0.062039171405182968 0 -0.31475673479660088 0.070785232061989944 0 -0.30080302159483091 0.075135201162782717 0 -0.31119195005597522 0.075342408461599994 0 -0.31475673479660088 0.070785232061989944 0 -0.30080302159483091 0.075135201162782717 0 -0.31119195005597522 0.075342408461599994 0 -0.31357233209722402 0.088231230920382486 0 -0.30080302159483091 0.075135201162782717 0 -0.29627051343744182 0.087417343045760723 0 -0.31357233209722402 0.088231230920382486 0 -0.30080302159483091 0.075135201162782717 0 -0.31357233209722402 0.088231230920382486 0 -0.30359517449255341 0.10039400894351599 0 -0.29627051343744182 0.087417343045760723 0 -0.31357233209722402 0.088231230920382486 0 -0.31119195005597522 0.075342408461599994 0 -0.31357233209722402 0.088231230920382486 0 -0.30080302159483091 0.075135201162782717 0 -0.29627051343744182 0.087417343045760723 0 -0.28534160381949542 0.075029167820874307 0 -0.29185367192211231 0.098218092341408353 0 -0.29627051343744182 0.087417343045760723 0 -0.28245727669843501 0.08749635708560051 0 -0.29627051343744182 0.087417343045760723 0 -0.28245727669843501 0.08749635708560051 0 -0.28534160381949542 0.075029167820874307 0 -0.30080302159483091 0.075135201162782717 0 -0.28534160381949542 0.075029167820874307 0 -0.28803371109243769 0.062039171405182968 0 -0.30080302159483091 0.075135201162782717 0 -0.28803371109243769 0.062039171405182968 0 -0.28534160381949542 0.075029167820874307 0 -0.27924081796338451 0.067361817620180758 0 -0.28803371109243769 0.062039171405182968 0 -0.27924081796338451 0.067361817620180758 0 -0.28803371109243769 0.062039171405182968 0 -0.2842790472560614 0.060810324025394977 0 -0.27924081796338451 0.067361817620180758 0 -0.27001941532863633 0.069309967842681022 0 -0.27350316712814698 0.059625319866629611 0 -0.27924081796338451 0.067361817620180758 0 -0.27350316712814698 0.059625319866629611 0 -0.2842790472560614 0.060810324025394977 0 -0.28534160381949542 0.075029167820874307 0 -0.27924081796338451 0.067361817620180758 0 -0.27502047905159488 0.078392572866282872 0 -0.27924081796338451 0.067361817620180758 0 -0.27001941532863633 0.069309967842681022 0 -0.27502047905159488 0.078392572866282872 0 -0.27001941532863633 0.069309967842681022 0 -0.27502047905159488 0.078392572866282872 0 -0.26376327244841941 0.080305835282104748 0 -0.27001941532863633 0.069309967842681022 0 -0.27350316712814698 0.059625319866629611 0 -0.26578464350416681 0.061944854820588403 0 -0.27864473896410241 0.099231132295330399 0 -0.28245727669843501 0.08749635708560051 0 -0.26930048805119922 0.09085229154625582 0 -0.28245727669843501 0.08749635708560051 0 -0.28534160381949542 0.075029167820874307 0 -0.27502047905159488 0.078392572866282872 0 -0.28245727669843501 0.08749635708560051 0 -0.27502047905159488 0.078392572866282872 0 -0.26930048805119922 0.09085229154625582 0 -0.27502047905159488 0.078392572866282872 0 -0.26930048805119922 0.09085229154625582 0 -0.26376327244841941 0.080305835282104748 0 -0.26930048805119922 0.09085229154625582 0 -0.26376327244841941 0.080305835282104748 0 -0.25566447336394388 0.093290664473130849 0 -0.26376327244841941 0.080305835282104748 0 -0.25019838896120772 0.081394011590539134 0 -0.25566447336394388 0.093290664473130849 0 -0.25961260077318438 0.069606427772819446 0 -0.25768072235099271 0.059025649860388961 0 -0.26578464350416681 0.061944854820588403 0 -0.27001941532863633 0.069309967842681022 0 -0.25961260077318438 0.069606427772819446 0 -0.26578464350416681 0.061944854820588403 0 -0.26376327244841941 0.080305835282104748 0 -0.25019838896120772 0.081394011590539134 0 -0.25961260077318438 0.069606427772819446 0 -0.27001941532863633 0.069309967842681022 0 -0.26376327244841941 0.080305835282104748 0 -0.25961260077318438 0.069606427772819446 0 -0.25019838896120772 0.081394011590539134 0 -0.25961260077318438 0.069606427772819446 0 -0.24729063342449989 0.068340480831575207 0 -0.25961260077318438 0.069606427772819446 0 -0.25768072235099271 0.059025649860388961 0 -0.24729063342449989 0.068340480831575207 0 -0.25768072235099271 0.059025649860388961 0 -0.24418904689931151 0.036089952675353767 0 -0.25768072235099271 0.059025649860388961 0 -0.26578464350416681 0.061944854820588403 0 -0.26728099939297939 0.053253278805670393 0 -0.25768072235099271 0.059025649860388961 0 -0.26024411323787572 0.045464772724133573 0 -0.26728099939297939 0.053253278805670393 0 -0.26253398225971869 0.035886999168364277 0 -0.2695937960919631 0.026530104373212789 0 -0.24418904689931151 0.036089952675353767 0 -0.26253398225971869 0.035886999168364277 0 -0.26024411323787572 0.045464772724133573 0 -0.24418904689931151 0.036089952675353767 0 -0.25768072235099271 0.059025649860388961 0 -0.26024411323787572 0.045464772724133573 0 -0.24418904689931151 0.036089952675353767 0 -0.2695937960919631 0.026530104373212789 0 -0.24418904689931151 0.036089952675353767 0 -0.2695937960919631 0.026530104373212789 0 -0.2418276965371163 0.032075683502554873 0 -0.24418904689931151 0.036089952675353767 0 -0.26253398225971869 0.035886999168364277 0 -0.26024411323787572 0.045464772724133573 0 -0.26953581528637449 0.043067983110890003 0 -0.26253398225971869 0.035886999168364277 0 -0.26953581528637449 0.043067983110890003 0 -0.2695937960919631 0.026530104373212789 0 -0.26953581528637449 0.043067983110890003 0 -0.27352440414069412 0.025051010192986951 0 -0.26953581528637449 0.043067983110890003 0 -0.2695937960919631 0.026530104373212789 0 -0.27352440414069412 0.025051010192986951 0 -0.26953581528637449 0.043067983110890003 0 -0.27352440414069412 0.025051010192986951 0 -0.28132666878010432 0.039287306119303381 0 -0.26253398225971869 0.035886999168364277 0 -0.26953581528637449 0.043067983110890003 0 -0.26953581528637449 0.043067983110890003 0 -0.28803371109243769 0.062039171405182968 0 -0.26953581528637449 0.043067983110890003 0 -0.28803371109243769 0.062039171405182968 0 -0.2842790472560614 0.060810324025394977 0 -0.26953581528637449 0.043067983110890003 0 -0.28803371109243769 0.062039171405182968 0 -0.28132666878010432 0.039287306119303381 0 -0.26953581528637449 0.043067983110890003 0 -0.27350316712814698 0.059625319866629611 0 -0.2842790472560614 0.060810324025394977 0 -0.26953581528637449 0.043067983110890003 0 -0.27350316712814698 0.059625319866629611 0 -0.26728099939297939 0.053253278805670393 0 -0.27350316712814698 0.059625319866629611 0 -0.26578464350416681 0.061944854820588403 0 -0.26728099939297939 0.053253278805670393 0 -0.26024411323787572 0.045464772724133573 0 -0.26953581528637449 0.043067983110890003 0 -0.26728099939297939 0.053253278805670393 0 -0.26953581528637449 0.043067983110890003 0 -0.26728099939297939 0.053253278805670393 0 -0.25324650806817539 0.01696472638503203 0 -0.27548655526090199 0.016187719218489559 0 -0.26592444327961001 0.0028934705574912389 0 -0.25324650806817539 0.01696472638503203 0 -0.26592444327961001 0.0028934705574912389 0 -0.2482450729197497 0.001618596764240732 0 -0.2695937960919631 0.026530104373212789 0 -0.2418276965371163 0.032075683502554873 0 -0.25324650806817539 0.01696472638503203 0 -0.2695937960919631 0.026530104373212789 0 -0.2418276965371163 0.032075683502554873 0 -0.25324650806817539 0.01696472638503203 0 -0.2695937960919631 0.026530104373212789 0 -0.27548655526090199 0.016187719218489559 0 -0.2695937960919631 0.026530104373212789 0 -0.27352440414069412 0.025051010192986951 0 -0.27352440414069412 0.025051010192986951 0 -0.28125088552174599 0.024201894329772822 0 -0.28132666878010432 0.039287306119303381 0 -0.27352440414069412 0.025051010192986951 0 -0.28125088552174599 0.024201894329772822 0 -0.27352440414069412 0.025051010192986951 0 -0.28008572968035811 0.02258197275653399 0 -0.28125088552174599 0.024201894329772822 0 -0.27352440414069412 0.025051010192986951 0 -0.28008572968035811 0.02258197275653399 0 -0.27352440414069412 0.025051010192986951 0 -0.27548655526090199 0.016187719218489559 0 -0.27352440414069412 0.025051010192986951 0 -0.28008572968035811 0.02258197275653399 0 -0.27548655526090199 0.016187719218489559 0 -0.28008572968035811 0.02258197275653399 0 -0.28125088552174599 0.024201894329772822 0 -0.28008572968035811 0.02258197275653399 0 -0.27548655526090199 0.016187719218489559 0 -0.2695937960919631 0.026530104373212789 0 -0.27352440414069412 0.025051010192986951 0 -0.27548655526090199 0.016187719218489559 0 -0.28076377710825029 -0.0076501759815653381 0 -0.27548655526090199 0.016187719218489559 0 -0.28008572968035811 0.02258197275653399 0 -0.27548655526090199 0.016187719218489559 0 -0.28745831748251138 0.0064549291091905332 0 -0.28076377710825029 -0.0076501759815653381 0 -0.27548655526090199 0.016187719218489559 0 -0.28745831748251138 0.0064549291091905332 0 -0.28076377710825029 -0.0076501759815653381 0 -0.27548655526090199 0.016187719218489559 0 -0.26592444327961001 0.0028934705574912389 0 -0.27548655526090199 0.016187719218489559 0 -0.26592444327961001 0.0028934705574912389 0 -0.29702354389743563 -0.01114764881232271 0 -0.28745831748251138 0.0064549291091905332 0 -0.30390735917583678 0.013617854962672919 0 -0.28008572968035811 0.02258197275653399 0 -0.28745831748251138 0.0064549291091905332 0 -0.30390735917583678 0.013617854962672919 0 -0.28125088552174599 0.024201894329772822 0 -0.3040175051762749 0.019654835404468898 0 -0.28125088552174599 0.024201894329772822 0 -0.3040175051762749 0.019654835404468898 0 -0.29800381015917421 0.047493563195880897 0 -0.28008572968035811 0.02258197275653399 0 -0.30390735917583678 0.013617854962672919 0 -0.28125088552174599 0.024201894329772822 0 -0.3040175051762749 0.019654835404468898 0 -0.30390735917583678 0.013617854962672919 0 -0.28008572968035811 0.02258197275653399 0 -0.28125088552174599 0.024201894329772822 0 -0.30390735917583678 0.013617854962672919 0 -0.3040175051762749 0.019654835404468898 0 -0.30390735917583678 0.013617854962672919 0 -0.32678412483080332 0.015107776479162409 0 -0.28803371109243769 0.062039171405182968 0 -0.28132666878010432 0.039287306119303381 0 -0.29800381015917421 0.047493563195880897 0 -0.28803371109243769 0.062039171405182968 0 -0.2842790472560614 0.060810324025394977 0 -0.28125088552174599 0.024201894329772822 0 -0.29800381015917421 0.047493563195880897 0 -0.28125088552174599 0.024201894329772822 0 -0.28132666878010432 0.039287306119303381 0 -0.29800381015917421 0.047493563195880897 0 -0.3040175051762749 0.019654835404468898 0 -0.29800381015917421 0.047493563195880897 0 -0.32413938542307752 0.044369357406089868 0 -0.29800381015917421 0.047493563195880897 0 -0.31475673479660088 0.070785232061989944 0 -0.28803371109243769 0.062039171405182968 0 -0.29800381015917421 0.047493563195880897 0 -0.31475673479660088 0.070785232061989944 0 -0.29800381015917421 0.047493563195880897 0 -0.32413938542307752 0.044369357406089868 0 -0.31475673479660088 0.070785232061989944 0 -0.32413938542307752 0.044369357406089868 0 -0.33427530947752138 0.06203480232404314 0 -0.31475673479660088 0.070785232061989944 0 -0.32413938542307752 0.044369357406089868 0 -0.33787822681471658 0.03400142033278121 0 -0.34230223238718938 0.050403599458302167 0 -0.33427530947752138 0.06203480232404314 0 -0.34230223238718938 0.050403599458302167 0 -0.35047376179500561 0.065665568438793467 0 -0.32413938542307752 0.044369357406089868 0 -0.33427530947752138 0.06203480232404314 0 -0.34230223238718938 0.050403599458302167 0 -0.30390735917583678 0.013617854962672919 0 -0.32772898867131378 0.0046537371688069526 0 -0.31366586271511049 -0.0073783658866530804 0 -0.30390735917583678 0.013617854962672919 0 -0.32772898867131378 0.0046537371688069526 0 -0.30390735917583678 0.013617854962672919 0 -0.32772898867131378 0.0046537371688069526 0 -0.32678412483080332 0.015107776479162409 0 -0.32772898867131378 0.0046537371688069526 0 -0.32678412483080332 0.015107776479162409 0 -0.3040175051762749 0.019654835404468898 0 -0.32413938542307752 0.044369357406089868 0 -0.32678412483080332 0.015107776479162409 0 -0.3040175051762749 0.019654835404468898 0 -0.32678412483080332 0.015107776479162409 0 -0.32413938542307752 0.044369357406089868 0 -0.32678412483080332 0.015107776479162409 0 -0.33787822681471658 0.03400142033278121 0 -0.32678412483080332 0.015107776479162409 0 -0.34207908478871168 0.021656094469660249 0 -0.32413938542307752 0.044369357406089868 0 -0.33787822681471658 0.03400142033278121 0 -0.32678412483080332 0.015107776479162409 0 -0.33787822681471658 0.03400142033278121 0 -0.34207908478871168 0.021656094469660249 0 -0.35075342172155299 0.02634529724928323 0 -0.32678412483080332 0.015107776479162409 0 -0.34207908478871168 0.021656094469660249 0 -0.35405296149412302 0.0096615130894196887 0 -0.32678412483080332 0.015107776479162409 0 -0.35405296149412302 0.0096615130894196887 0 -0.32772898867131378 0.0046537371688069526 0 -0.32678412483080332 0.015107776479162409 0 -0.35405296149412302 0.0096615130894196887 0 -0.35566174062934791 -0.0058574026718233524 0 -0.32772898867131378 0.0046537371688069526 0 -0.35405296149412302 0.0096615130894196887 0 -0.36230379782765848 -0.00091360309627340139 0 -0.35566174062934791 -0.0058574026718233524 0 -0.35405296149412302 0.0096615130894196887 0 -0.34207908478871168 0.021656094469660249 0 -0.35405296149412302 0.0096615130894196887 0 -0.35075342172155299 0.02634529724928323 0 -0.35405296149412302 0.0096615130894196887 0 -0.359139377403768 0.021579773624755019 0 -0.35075342172155299 0.02634529724928323 0 -0.359139377403768 0.021579773624755019 0 -0.35075342172155299 0.02634529724928323 0 -0.35899986929927069 0.031095480365766578 0 -0.37883363504364681 0.0077949923721277233 0 -0.359139377403768 0.021579773624755019 0 -0.37077634213078581 0.026766859930800121 0 -0.359139377403768 0.021579773624755019 0 -0.35899986929927069 0.031095480365766578 0 -0.37077634213078581 0.026766859930800121 0 -0.37883363504364681 0.0077949923721277233 0 -0.359139377403768 0.021579773624755019 0 -0.37883363504364681 0.0077949923721277233 0 -0.35405296149412302 0.0096615130894196887 0 -0.359139377403768 0.021579773624755019 0 -0.36230379782765848 -0.00091360309627340139 0 -0.37883363504364681 0.0077949923721277233 0 -0.35405296149412302 0.0096615130894196887 0 -0.34230223238718938 0.050403599458302167 0 -0.36063489767698048 0.052419258339165213 0 -0.35047376179500561 0.065665568438793467 0 -0.34230223238718938 0.050403599458302167 0 -0.35239734405655088 0.039037693639616379 0 -0.36063489767698048 0.052419258339165213 0 -0.36063489767698048 0.052419258339165213 0 -0.36504416578765497 0.066286277833443416 0 -0.35047376179500561 0.065665568438793467 0 -0.33787822681471658 0.03400142033278121 0 -0.34230223238718938 0.050403599458302167 0 -0.35239734405655088 0.039037693639616379 0 -0.33787822681471658 0.03400142033278121 0 -0.35075342172155299 0.02634529724928323 0 -0.35239734405655088 0.039037693639616379 0 -0.35899986929927069 0.031095480365766578 0 -0.35239734405655088 0.039037693639616379 0 -0.36645709572302448 0.037356782164381652 0 -0.35075342172155299 0.02634529724928323 0 -0.35899986929927069 0.031095480365766578 0 -0.35239734405655088 0.039037693639616379 0 -0.35239734405655088 0.039037693639616379 0 -0.36645709572302448 0.037356782164381652 0 -0.36063489767698048 0.052419258339165213 0 -0.36645709572302448 0.037356782164381652 0 -0.37347921891255381 0.046948791725949637 0 -0.36063489767698048 0.052419258339165213 0 -0.35899986929927069 0.031095480365766578 0 -0.37077634213078581 0.026766859930800121 0 -0.36645709572302448 0.037356782164381652 0 -0.37942960985860058 0.037362526927287427 0 -0.37077634213078581 0.026766859930800121 0 -0.36645709572302448 0.037356782164381652 0 -0.37942960985860058 0.037362526927287427 0 -0.36645709572302448 0.037356782164381652 0 -0.37347921891255381 0.046948791725949637 0 -0.37616218416801261 0.059395047373765678 0 -0.37347921891255381 0.046948791725949637 0 -0.36063489767698048 0.052419258339165213 0 -0.37616218416801261 0.059395047373765678 0 -0.36063489767698048 0.052419258339165213 0 -0.36504416578765497 0.066286277833443416 0 -0.37616218416801261 0.059395047373765678 0 -0.37945273185901418 0.072417913338689646 0 -0.36504416578765497 0.066286277833443416 0 -0.37945273185901418 0.072417913338689646 0 -0.3678571387795887 0.077728664860225921 0 -0.36504416578765497 0.066286277833443416 0 -0.3678571387795887 0.077728664860225921 0 -0.35972289581615352 0.07366140921792759 0 -0.36504416578765497 0.066286277833443416 0 -0.35972289581615352 0.07366140921792759 0 -0.35047376179500561 0.065665568438793467 0 -0.33970443298573272 0.078950254255040653 0 -0.35972289581615352 0.07366140921792759 0 -0.36504416578765497 0.066286277833443416 0 -0.35047376179500561 0.065665568438793467 0 -0.3488850210166981 0.093095111923344367 0 -0.36465213117486478 0.087115276448090487 0 -0.36037007529804499 0.099601314085944595 0 -0.35972289581615352 0.07366140921792759 0 -0.36465213117486478 0.087115276448090487 0 -0.33970443298573272 0.078950254255040653 0 -0.36465213117486478 0.087115276448090487 0 -0.33970443298573272 0.078950254255040653 0 -0.3488850210166981 0.093095111923344367 0 -0.36465213117486478 0.087115276448090487 0 -0.33970443298573272 0.078950254255040653 0 -0.38780406665299311 0.095860125915306293 0 -0.3678571387795887 0.077728664860225921 0 -0.36465213117486478 0.087115276448090487 0 -0.3678571387795887 0.077728664860225921 0 -0.35972289581615352 0.07366140921792759 0 -0.36465213117486478 0.087115276448090487 0 -0.36465213117486478 0.087115276448090487 0 -0.36037007529804499 0.099601314085944595 0 -0.36959870579113158 0.10903897892679321 0 -0.38780406665299311 0.095860125915306293 0 -0.36465213117486478 0.087115276448090487 0 -0.36959870579113158 0.10903897892679321 0 -0.36037007529804499 0.099601314085944595 0 -0.36959870579113158 0.10903897892679321 0 -0.3494871976840358 0.1190711557826499 0 -0.36685242912775279 0.14321411764298 0 -0.36959870579113158 0.10903897892679321 0 -0.3494871976840358 0.1190711557826499 0 -0.3488850210166981 0.093095111923344367 0 -0.36037007529804499 0.099601314085944595 0 -0.3494871976840358 0.1190711557826499 0 -0.3494871976840358 0.1190711557826499 0 -0.33212196624031859 0.094928193922319645 0 -0.3488850210166981 0.093095111923344367 0 -0.3494871976840358 0.1190711557826499 0 -0.33212196624031859 0.094928193922319645 0 -0.3494871976840358 0.1190711557826499 0 -0.33212196624031859 0.094928193922319645 0 -0.31886824795491869 0.1169065099569669 0 -0.33212196624031859 0.094928193922319645 0 -0.31886824795491869 0.1169065099569669 0 -0.31559248829348452 0.090303075414747649 0 -0.31886824795491869 0.1169065099569669 0 -0.31357233209722402 0.088231230920382486 0 -0.31886824795491869 0.1169065099569669 0 -0.31559248829348452 0.090303075414747649 0 -0.31357233209722402 0.088231230920382486 0 -0.31559248829348452 0.090303075414747649 0 -0.31357233209722402 0.088231230920382486 0 -0.31475673479660088 0.070785232061989944 0 -0.33212196624031859 0.094928193922319645 0 -0.31559248829348452 0.090303075414747649 0 -0.31475673479660088 0.070785232061989944 0 -0.33212196624031859 0.094928193922319645 0 -0.31475673479660088 0.070785232061989944 0 -0.31559248829348452 0.090303075414747649 0 -0.31357233209722402 0.088231230920382486 0 -0.31475673479660088 0.070785232061989944 0 -0.33970443298573272 0.078950254255040653 0 -0.31119195005597522 0.075342408461599994 0 -0.31357233209722402 0.088231230920382486 0 -0.31475673479660088 0.070785232061989944 0 -0.33427530947752138 0.06203480232404314 0 -0.31475673479660088 0.070785232061989944 0 -0.33970443298573272 0.078950254255040653 0 -0.33427530947752138 0.06203480232404314 0 -0.35047376179500561 0.065665568438793467 0 -0.33970443298573272 0.078950254255040653 0 -0.33212196624031859 0.094928193922319645 0 -0.31475673479660088 0.070785232061989944 0 -0.33970443298573272 0.078950254255040653 0 -0.3488850210166981 0.093095111923344367 0 -0.33212196624031859 0.094928193922319645 0 -0.33970443298573272 0.078950254255040653 0 -0.40517745384443771 0.47520655836779679 0 -0.40253613771183588 0.50000000000000178 0 -0.38421375502220062 0.47612571934365372 0 -0.40517745384443771 0.47520655836779679 0 -0.40253613771183588 0.50000000000000178 0 -0.40253613771183588 0.50000000000000178 0 -0.38421375502220062 0.47612571934365372 0 -0.37449248461796542 0.5 0 -0.38421375502220062 0.47612571934365372 0 -0.37538029356791047 0.45381948236963487 0 -0.39202919506408618 0.45428181347826768 0 -0.39202919506408618 0.45428181347826768 0 -0.39718727824435002 0.43570637701554449 0 -0.38239761972857989 0.43441962703738429 0 -0.37538029356791047 0.45381948236963487 0 -0.39202919506408618 0.45428181347826768 0 -0.38239761972857989 0.43441962703738429 0 -0.39202919506408618 0.45428181347826768 0 -0.40781876997703909 0.45041311673559192 0 -0.39718727824435002 0.43570637701554449 0 -0.40517745384443771 0.47520655836779679 0 -0.38421375502220062 0.47612571934365372 0 -0.39202919506408618 0.45428181347826768 0 -0.40517745384443771 0.47520655836779679 0 -0.39202919506408618 0.45428181347826768 0 -0.40781876997703909 0.45041311673559192 0 -0.40517745384443771 0.47520655836779679 0 -0.40781876997703909 0.45041311673559192 0 -0.42629771624568569 0.45967530594126182 0 -0.40517745384443771 0.47520655836779679 0 -0.40781876997703909 0.45041311673559192 0 -0.40781876997703909 0.45041311673559192 0 -0.4104600861096418 0.42561967510338722 0 -0.40781876997703909 0.45041311673559192 0 -0.42111558502705132 0.44543203789714753 0 -0.42629771624568569 0.45967530594126182 0 -0.40781876997703909 0.45041311673559192 0 -0.42111558502705132 0.44543203789714753 0 -0.4139372765947758 0.43559972582870649 0 -0.42111558502705132 0.44543203789714753 0 -0.42420585003094619 0.43631424977441419 0 -0.4139372765947758 0.43559972582870649 0 -0.42111558502705132 0.44543203789714753 0 -0.43338826525916058 0.44417290551587479 0 -0.42420585003094619 0.43631424977441419 0 -0.42111558502705132 0.44543203789714753 0 -0.43338826525916058 0.44417290551587479 0 -0.42629771624568569 0.45967530594126182 0 -0.42629771624568569 0.45967530594126182 0 -0.43523567443492728 0.47777884996402697 0 -0.4492752387490126 0.45886596474457608 0 -0.43338826525916058 0.44417290551587479 0 -0.42629771624568569 0.45967530594126182 0 -0.4492752387490126 0.45886596474457608 0 -0.40253613771183588 0.50000000000000178 0 -0.43523567443492728 0.47777884996402697 0 -0.45917880306243741 0.5 0 -0.40517745384443771 0.47520655836779679 0 -0.42629771624568569 0.45967530594126182 0 -0.43523567443492728 0.47777884996402697 0 -0.40517745384443771 0.47520655836779679 0 -0.40253613771183588 0.50000000000000178 0 -0.43523567443492728 0.47777884996402697 0 -0.43523567443492728 0.47777884996402697 0 -0.46894869699615482 0.47292527073052748 0 -0.4492752387490126 0.45886596474457608 0 -0.43523567443492728 0.47777884996402697 0 -0.45917880306243741 0.5 0 -0.46894869699615482 0.47292527073052748 0 -0.45917880306243741 0.5 0 -0.5 0.5 0 -0.46894869699615482 0.47292527073052748 0 -0.5 0.5 0 -0.46894869699615482 0.47292527073052748 0 -0.5 0.45005735905143812 0 -0.46894869699615482 0.47292527073052748 0 -0.5 0.45005735905143812 0 -0.46831850828821592 0.44903791380379271 0 -0.5 0.45005735905143812 0 -0.46831850828821592 0.44903791380379271 0 -0.47444155637131941 0.4294414918061818 0 -0.46831850828821592 0.44903791380379271 0 -0.4492752387490126 0.45886596474457608 0 -0.44892704932459238 0.43389948268624001 0 -0.46894869699615482 0.47292527073052748 0 -0.46831850828821592 0.44903791380379271 0 -0.4492752387490126 0.45886596474457608 0 -0.43338826525916058 0.44417290551587479 0 -0.4492752387490126 0.45886596474457608 0 -0.44892704932459238 0.43389948268624001 0 -0.44892704932459238 0.43389948268624001 0 -0.44425217536459649 0.41562970678880978 0 -0.45945028957117179 0.41910797938872679 0 -0.43338826525916058 0.44417290551587479 0 -0.44892704932459238 0.43389948268624001 0 -0.43315695526199932 0.42330754212740429 0 -0.44892704932459238 0.43389948268624001 0 -0.44425217536459649 0.41562970678880978 0 -0.43315695526199932 0.42330754212740429 0 -0.44425217536459649 0.41562970678880978 0 -0.45437284429016161 0.40118421486353179 0 -0.43856533678273019 0.40337001467068401 0 -0.44425217536459649 0.41562970678880978 0 -0.45945028957117179 0.41910797938872679 0 -0.45437284429016161 0.40118421486353179 0 -0.44425217536459649 0.41562970678880978 0 -0.43856533678273019 0.40337001467068401 0 -0.43098855809356712 0.41146728188914522 0 -0.45945028957117179 0.41910797938872679 0 -0.47503011161609537 0.41097036188482228 0 -0.45437284429016161 0.40118421486353179 0 -0.46831850828821592 0.44903791380379271 0 -0.44892704932459238 0.43389948268624001 0 -0.47444155637131941 0.4294414918061818 0 -0.44892704932459238 0.43389948268624001 0 -0.45945028957117179 0.41910797938872679 0 -0.47444155637131941 0.4294414918061818 0 -0.5 0.45005735905143812 0 -0.47444155637131941 0.4294414918061818 0 -0.49999999999999972 0.41450673442860009 0 -0.45945028957117179 0.41910797938872679 0 -0.47444155637131941 0.4294414918061818 0 -0.47503011161609537 0.41097036188482228 0 -0.47444155637131941 0.4294414918061818 0 -0.47503011161609537 0.41097036188482228 0 -0.49999999999999972 0.41450673442860009 0 -0.49579259704686102 0.39019154291026498 0 -0.5 0.39110582802680588 0 -0.49999999999999928 0.36770492162501139 0 -0.49579259704686102 0.39019154291026498 0 -0.49158519409372309 0.36587635139192981 0 -0.49579259704686102 0.39019154291026498 0 -0.4772471747040295 0.37706042141380269 0 -0.49158519409372309 0.36587635139192981 0 -0.47503011161609537 0.41097036188482228 0 -0.49999999999999972 0.41450673442860009 0 -0.49579259704686102 0.39019154291026498 0 -0.49999999999999972 0.41450673442860009 0 -0.49579259704686102 0.39019154291026498 0 -0.49999999999999972 0.41450673442860009 0 -0.49579259704686102 0.39019154291026498 0 -0.5 0.39110582802680588 0 -0.47503011161609537 0.41097036188482228 0 -0.49579259704686102 0.39019154291026498 0 -0.46997728604112438 0.39283774013881112 0 -0.49579259704686102 0.39019154291026498 0 -0.46997728604112438 0.39283774013881112 0 -0.4772471747040295 0.37706042141380269 0 -0.46997728604112438 0.39283774013881112 0 -0.4772471747040295 0.37706042141380269 0 -0.45551553620379581 0.37743885594401699 0 -0.46997728604112438 0.39283774013881112 0 -0.45551553620379581 0.37743885594401699 0 -0.45437284429016161 0.40118421486353179 0 -0.47503011161609537 0.41097036188482228 0 -0.46997728604112438 0.39283774013881112 0 -0.45437284429016161 0.40118421486353179 0 -0.45437284429016161 0.40118421486353179 0 -0.43856533678273019 0.40337001467068401 0 -0.43932071364226621 0.38839228813277782 0 -0.45551553620379581 0.37743885594401699 0 -0.45437284429016161 0.40118421486353179 0 -0.43932071364226621 0.38839228813277782 0 -0.45551553620379581 0.37743885594401699 0 -0.43932071364226621 0.38839228813277782 0 -0.43446398643469047 0.37019223895525749 0 -0.43932071364226621 0.38839228813277782 0 -0.4256888181522519 0.38213145127681292 0 -0.42837416128032502 0.39829823259815827 0 -0.43932071364226621 0.38839228813277782 0 -0.4256888181522519 0.38213145127681292 0 -0.43446398643469047 0.37019223895525749 0 -0.4256888181522519 0.38213145127681292 0 -0.41362797253510297 0.39588343633298501 0 -0.41679585896056531 0.36614719756258279 0 -0.41362797253510297 0.39588343633298501 0 -0.41679585896056531 0.36614719756258279 0 -0.40625603976209618 0.38249826676419058 0 -0.41362797253510297 0.39588343633298501 0 -0.41679585896056531 0.36614719756258279 0 -0.40625603976209618 0.38249826676419058 0 -0.41362797253510297 0.39588343633298501 0 -0.40206111764531038 0.40151339399144048 0 -0.41362797253510297 0.39588343633298501 0 -0.42837416128032502 0.39829823259815827 0 -0.42200154961267478 0.40710319817941848 0 -0.4256888181522519 0.38213145127681292 0 -0.41362797253510297 0.39588343633298501 0 -0.42837416128032502 0.39829823259815827 0 -0.42837416128032502 0.39829823259815827 0 -0.43098855809356712 0.41146728188914522 0 -0.42200154961267478 0.40710319817941848 0 -0.43856533678273019 0.40337001467068401 0 -0.43932071364226621 0.38839228813277782 0 -0.42837416128032502 0.39829823259815827 0 -0.43856533678273019 0.40337001467068401 0 -0.42837416128032502 0.39829823259815827 0 -0.43098855809356712 0.41146728188914522 0 -0.44425217536459649 0.41562970678880978 0 -0.43098855809356712 0.41146728188914522 0 -0.43315695526199932 0.42330754212740429 0 -0.43098855809356712 0.41146728188914522 0 -0.43315695526199932 0.42330754212740429 0 -0.4194563249870209 0.41763485671329242 0 -0.43098855809356712 0.41146728188914522 0 -0.42200154961267478 0.40710319817941848 0 -0.4194563249870209 0.41763485671329242 0 -0.43338826525916058 0.44417290551587479 0 -0.43315695526199932 0.42330754212740429 0 -0.42420585003094619 0.43631424977441419 0 -0.43315695526199932 0.42330754212740429 0 -0.41976694227902989 0.4283315861914746 0 -0.4194563249870209 0.41763485671329242 0 -0.43315695526199932 0.42330754212740429 0 -0.42420585003094619 0.43631424977441419 0 -0.41976694227902989 0.4283315861914746 0 -0.40781876997703909 0.45041311673559192 0 -0.4104600861096418 0.42561967510338722 0 -0.4139372765947758 0.43559972582870649 0 -0.41976694227902989 0.4283315861914746 0 -0.4104600861096418 0.42561967510338722 0 -0.4139372765947758 0.43559972582870649 0 -0.42420585003094619 0.43631424977441419 0 -0.41976694227902989 0.4283315861914746 0 -0.4139372765947758 0.43559972582870649 0 -0.41976694227902989 0.4283315861914746 0 -0.4104600861096418 0.42561967510338722 0 -0.4194563249870209 0.41763485671329242 0 -0.4104600861096418 0.42561967510338722 0 -0.4139372765947758 0.43559972582870649 0 -0.41362797253510297 0.39588343633298501 0 -0.4104600861096418 0.42561967510338722 0 -0.4194563249870209 0.41763485671329242 0 -0.41362797253510297 0.39588343633298501 0 -0.4104600861096418 0.42561967510338722 0 -0.40206111764531038 0.40151339399144048 0 -0.41362797253510297 0.39588343633298501 0 -0.42200154961267478 0.40710319817941848 0 -0.4194563249870209 0.41763485671329242 0 -0.41362797253510297 0.39588343633298501 0 -0.4104600861096418 0.42561967510338722 0 -0.4104600861096418 0.42561967510338722 0 -0.40206111764531038 0.40151339399144048 0 -0.4104600861096418 0.42561967510338722 0 -0.39620516123468408 0.41719165682819642 0 -0.40206111764531038 0.40151339399144048 0 -0.39620516123468408 0.41719165682819642 0 -0.38797906522513298 0.4064144704537484 0 -0.40206111764531038 0.40151339399144048 0 -0.40781876997703909 0.45041311673559192 0 -0.4104600861096418 0.42561967510338722 0 -0.39718727824435002 0.43570637701554449 0 -0.4104600861096418 0.42561967510338722 0 -0.39620516123468408 0.41719165682819642 0 -0.39894748137596842 0.42616395823863618 0 -0.4104600861096418 0.42561967510338722 0 -0.39894748137596842 0.42616395823863618 0 -0.39718727824435002 0.43570637701554449 0 -0.39894748137596842 0.42616395823863618 0 -0.39159144841747823 0.42673005096139238 0 -0.39718727824435002 0.43570637701554449 0 -0.39620516123468408 0.41719165682819642 0 -0.39894748137596842 0.42616395823863618 0 -0.39159144841747823 0.42673005096139238 0 -0.38239761972857989 0.43441962703738429 0 -0.38321970150380852 0.42016863568720048 0 -0.36676406109452808 0.42380971970676501 0 -0.39159144841747823 0.42673005096139238 0 -0.39718727824435002 0.43570637701554449 0 -0.38239761972857989 0.43441962703738429 0 -0.39159144841747823 0.42673005096139238 0 -0.38239761972857989 0.43441962703738429 0 -0.38321970150380852 0.42016863568720048 0 -0.39620516123468408 0.41719165682819642 0 -0.38797906522513298 0.4064144704537484 0 -0.38321970150380852 0.42016863568720048 0 -0.39620516123468408 0.41719165682819642 0 -0.39159144841747823 0.42673005096139238 0 -0.38321970150380852 0.42016863568720048 0 -0.38797906522513298 0.4064144704537484 0 -0.38321970150380852 0.42016863568720048 0 -0.37290166378917777 0.41016116381297868 0 -0.38797906522513298 0.4064144704537484 0 -0.37764334119906751 0.39754939590786897 0 -0.37290166378917777 0.41016116381297868 0 -0.38797906522513298 0.4064144704537484 0 -0.38850847679897388 0.39365575935548458 0 -0.37764334119906751 0.39754939590786897 0 -0.38850847679897388 0.39365575935548458 0 -0.37764334119906751 0.39754939590786897 0 -0.37980966885980721 0.38523896167248539 0 -0.38850847679897388 0.39365575935548458 0 -0.37980966885980721 0.38523896167248539 0 -0.39366214918097803 0.37740711287949419 0 -0.37980966885980721 0.38523896167248539 0 -0.38093435484024157 0.37416986436480348 0 -0.37061327267684457 0.3767029793744488 0 -0.37980966885980721 0.38523896167248539 0 -0.39366214918097803 0.37740711287949419 0 -0.38093435484024157 0.37416986436480348 0 -0.39366214918097803 0.37740711287949419 0 -0.40206111764531038 0.40151339399144048 0 -0.40625603976209618 0.38249826676419058 0 -0.39366214918097803 0.37740711287949419 0 -0.40206111764531038 0.40151339399144048 0 -0.40625603976209618 0.38249826676419058 0 -0.39366214918097803 0.37740711287949419 0 -0.40513310048852441 0.37154019305445052 0 -0.38850847679897388 0.39365575935548458 0 -0.39366214918097803 0.37740711287949419 0 -0.40206111764531038 0.40151339399144048 0 -0.38797906522513298 0.4064144704537484 0 -0.38850847679897388 0.39365575935548458 0 -0.40206111764531038 0.40151339399144048 0 -0.40377984736614631 0.35882426549617868 0 -0.4020757715053952 0.34043106573332232 0 -0.41065380580453359 0.35045337189606612 0 -0.39501740569704052 0.35477374304998682 0 -0.40377984736614631 0.35882426549617868 0 -0.4020757715053952 0.34043106573332232 0 -0.39501740569704052 0.35477374304998682 0 -0.39030607971603748 0.34390543937339069 0 -0.4020757715053952 0.34043106573332232 0 -0.39366214918097803 0.37740711287949419 0 -0.39501740569704052 0.35477374304998682 0 -0.40377984736614631 0.35882426549617868 0 -0.39366214918097803 0.37740711287949419 0 -0.40377984736614631 0.35882426549617868 0 -0.40513310048852441 0.37154019305445052 0 -0.39366214918097803 0.37740711287949419 0 -0.39501740569704052 0.35477374304998682 0 -0.3852631807166455 0.3533008317675479 0 -0.39366214918097803 0.37740711287949419 0 -0.3852631807166455 0.3533008317675479 0 -0.39366214918097803 0.37740711287949419 0 -0.38587561521685149 0.36365270891535212 0 -0.3852631807166455 0.3533008317675479 0 -0.39366214918097803 0.37740711287949419 0 -0.38587561521685149 0.36365270891535212 0 -0.38093435484024157 0.37416986436480348 0 -0.38093435484024157 0.37416986436480348 0 -0.37440965347716559 0.36685636182932913 0 -0.37061327267684457 0.3767029793744488 0 -0.38587561521685149 0.36365270891535212 0 -0.38093435484024157 0.37416986436480348 0 -0.37440965347716559 0.36685636182932913 0 -0.38587561521685149 0.36365270891535212 0 -0.37057641784924739 0.3555044706016019 0 -0.37440965347716559 0.36685636182932913 0 -0.38587561521685149 0.36365270891535212 0 -0.38003223158394461 0.3410502207973532 0 -0.37057641784924739 0.3555044706016019 0 -0.38587561521685149 0.36365270891535212 0 -0.3852631807166455 0.3533008317675479 0 -0.38003223158394461 0.3410502207973532 0 -0.38587561521685149 0.36365270891535212 0 -0.38003223158394461 0.3410502207973532 0 -0.39501740569704052 0.35477374304998682 0 -0.3852631807166455 0.3533008317675479 0 -0.39030607971603748 0.34390543937339069 0 -0.3852631807166455 0.3533008317675479 0 -0.39030607971603748 0.34390543937339069 0 -0.38003223158394461 0.3410502207973532 0 -0.38003223158394461 0.3410502207973532 0 -0.38916025639043572 0.32663378355572298 0 -0.37418884795103757 0.31844773267935439 0 -0.38003223158394461 0.3410502207973532 0 -0.37418884795103757 0.31844773267935439 0 -0.39030607971603748 0.34390543937339069 0 -0.38003223158394461 0.3410502207973532 0 -0.38916025639043572 0.32663378355572298 0 -0.38916025639043572 0.32663378355572298 0 -0.38290726290976329 0.30394341998135932 0 -0.37418884795103757 0.31844773267935439 0 -0.38916025639043572 0.32663378355572298 0 -0.40702809681390001 0.31999602583470332 0 -0.39920578375018789 0.30256708767528689 0 -0.38916025639043572 0.32663378355572298 0 -0.4020757715053952 0.34043106573332232 0 -0.40702809681390001 0.31999602583470332 0 -0.39030607971603748 0.34390543937339069 0 -0.38916025639043572 0.32663378355572298 0 -0.4020757715053952 0.34043106573332232 0 -0.4020757715053952 0.34043106573332232 0 -0.41996374538602749 0.33641095879218069 0 -0.40702809681390001 0.31999602583470332 0 -0.4020757715053952 0.34043106573332232 0 -0.41996374538602749 0.33641095879218069 0 -0.41065380580453359 0.35045337189606612 0 -0.41996374538602749 0.33641095879218069 0 -0.42313163181148977 0.30667472002177859 0 -0.41996374538602749 0.33641095879218069 0 -0.40702809681390001 0.31999602583470332 0 -0.42313163181148977 0.30667472002177859 0 -0.41996374538602749 0.33641095879218069 0 -0.4332233050178691 0.32690795857589788 0 -0.42313163181148977 0.30667472002177859 0 -0.4332233050178691 0.32690795857589788 0 -0.44440230632403932 0.31478801926368849 0 -0.42313163181148977 0.30667472002177859 0 -0.41996374538602749 0.33641095879218069 0 -0.43304345934013422 0.34150573508179399 0 -0.42336075617081398 0.35105091421082751 0 -0.41996374538602749 0.33641095879218069 0 -0.4332233050178691 0.32690795857589788 0 -0.43304345934013422 0.34150573508179399 0 -0.4332233050178691 0.32690795857589788 0 -0.43304345934013422 0.34150573508179399 0 -0.44557538222765469 0.33516035972004787 0 -0.42336075617081398 0.35105091421082751 0 -0.43446398643469047 0.37019223895525749 0 -0.44610223547845052 0.35599272660452791 0 -0.42336075617081398 0.35105091421082751 0 -0.44610223547845052 0.35599272660452791 0 -0.43304345934013422 0.34150573508179399 0 -0.42336075617081398 0.35105091421082751 0 -0.44610223547845052 0.35599272660452791 0 -0.41996374538602749 0.33641095879218069 0 -0.41065380580453359 0.35045337189606612 0 -0.41679585896056531 0.36614719756258279 0 -0.40377984736614631 0.35882426549617868 0 -0.41065380580453359 0.35045337189606612 0 -0.41679585896056531 0.36614719756258279 0 -0.41996374538602749 0.33641095879218069 0 -0.41679585896056531 0.36614719756258279 0 -0.41996374538602749 0.33641095879218069 0 -0.42336075617081398 0.35105091421082751 0 -0.41679585896056531 0.36614719756258279 0 -0.40625603976209618 0.38249826676419058 0 -0.40513310048852441 0.37154019305445052 0 -0.41679585896056531 0.36614719756258279 0 -0.40377984736614631 0.35882426549617868 0 -0.40513310048852441 0.37154019305445052 0 -0.41679585896056531 0.36614719756258279 0 -0.42336075617081398 0.35105091421082751 0 -0.41679585896056531 0.36614719756258279 0 -0.43446398643469047 0.37019223895525749 0 -0.4256888181522519 0.38213145127681292 0 -0.41679585896056531 0.36614719756258279 0 -0.43446398643469047 0.37019223895525749 0 -0.45551553620379581 0.37743885594401699 0 -0.43446398643469047 0.37019223895525749 0 -0.44610223547845052 0.35599272660452791 0 -0.43304345934013422 0.34150573508179399 0 -0.44610223547845052 0.35599272660452791 0 -0.44557538222765469 0.33516035972004787 0 -0.44610223547845052 0.35599272660452791 0 -0.46308423273836358 0.34346076441661871 0 -0.44557538222765469 0.33516035972004787 0 -0.44610223547845052 0.35599272660452791 0 -0.468843714786087 0.36093453899822819 0 -0.44610223547845052 0.35599272660452791 0 -0.468843714786087 0.36093453899822819 0 -0.46308423273836358 0.34346076441661871 0 -0.45551553620379581 0.37743885594401699 0 -0.44610223547845052 0.35599272660452791 0 -0.468843714786087 0.36093453899822819 0 -0.4772471747040295 0.37706042141380269 0 -0.45551553620379581 0.37743885594401699 0 -0.468843714786087 0.36093453899822819 0 -0.4772471747040295 0.37706042141380269 0 -0.468843714786087 0.36093453899822819 0 -0.49158519409372309 0.36587635139192981 0 -0.468843714786087 0.36093453899822819 0 -0.49158519409372309 0.36587635139192981 0 -0.468843714786087 0.36093453899822819 0 -0.48960953309970912 0.35445872014058732 0 -0.49158519409372309 0.36587635139192981 0 -0.468843714786087 0.36093453899822819 0 -0.47823713455040151 0.3468865151230609 0 -0.46308423273836358 0.34346076441661871 0 -0.468843714786087 0.36093453899822819 0 -0.47823713455040151 0.3468865151230609 0 -0.48960953309970912 0.35445872014058732 0 -0.48960953309970912 0.35445872014058732 0 -0.49999999999999928 0.36770492162501139 0 -0.5 0.33957076893245791 0 -0.47823713455040151 0.3468865151230609 0 -0.48960953309970912 0.35445872014058732 0 -0.48719239412034948 0.3434306876916709 0 -0.48960953309970912 0.35445872014058732 0 -0.5 0.33957076893245791 0 -0.48719239412034948 0.3434306876916709 0 -0.48960953309970912 0.35445872014058732 0 -0.49999999999999928 0.36770492162501139 0 -0.49158519409372309 0.36587635139192981 0 -0.49999999999999928 0.36770492162501139 0 -0.49158519409372309 0.36587635139192981 0 -0.49579259704686102 0.39019154291026498 0 -0.49999999999999928 0.36770492162501139 0 -0.49158519409372309 0.36587635139192981 0 -0.48960953309970912 0.35445872014058732 0 -0.49158519409372309 0.36587635139192981 0 -0.5 0.33957076893245791 0 -0.48092290883128791 0.33280674657057752 0 -0.5 0.31143661623990421 0 -0.48092290883128791 0.33280674657057752 0 -0.47727352678067198 0.31371132189770412 0 -0.5 0.31143661623990421 0 -0.5 0.33957076893245791 0 -0.48719239412034948 0.3434306876916709 0 -0.48092290883128791 0.33280674657057752 0 -0.47823713455040151 0.3468865151230609 0 -0.48092290883128791 0.33280674657057752 0 -0.46308423273836358 0.34346076441661871 0 -0.47823713455040151 0.3468865151230609 0 -0.48719239412034948 0.3434306876916709 0 -0.48092290883128791 0.33280674657057752 0 -0.48092290883128791 0.33280674657057752 0 -0.47727352678067198 0.31371132189770412 0 -0.46035097703759631 0.32624299818142283 0 -0.46035097703759631 0.32624299818142283 0 -0.46258860598939822 0.30272443255818832 0 -0.47727352678067198 0.31371132189770412 0 -0.46035097703759631 0.32624299818142283 0 -0.46258860598939822 0.30272443255818832 0 -0.46035097703759631 0.32624299818142283 0 -0.44440230632403932 0.31478801926368849 0 -0.46258860598939822 0.30272443255818832 0 -0.48092290883128791 0.33280674657057752 0 -0.46035097703759631 0.32624299818142283 0 -0.46308423273836358 0.34346076441661871 0 -0.46035097703759631 0.32624299818142283 0 -0.46308423273836358 0.34346076441661871 0 -0.44557538222765469 0.33516035972004787 0 -0.4332233050178691 0.32690795857589788 0 -0.44557538222765469 0.33516035972004787 0 -0.44440230632403932 0.31478801926368849 0 -0.46035097703759631 0.32624299818142283 0 -0.44557538222765469 0.33516035972004787 0 -0.44440230632403932 0.31478801926368849 0 -0.44440230632403932 0.31478801926368849 0 -0.44455206344037279 0.28901188901930758 0 -0.46258860598939822 0.30272443255818832 0 -0.46258860598939822 0.30272443255818832 0 -0.46482623494120018 0.27920586693495392 0 -0.44455206344037279 0.28901188901930758 0 -0.46258860598939822 0.30272443255818832 0 -0.46482623494120018 0.27920586693495392 0 -0.47727352678067198 0.31371132189770412 0 -0.46258860598939822 0.30272443255818832 0 -0.48250514204507738 0.29534581593842762 0 -0.46258860598939822 0.30272443255818832 0 -0.48250514204507738 0.29534581593842762 0 -0.46482623494120018 0.27920586693495392 0 -0.48250514204507738 0.29534581593842762 0 -0.48358127685127078 0.27034589236135592 0 -0.46482623494120018 0.27920586693495392 0 -0.48250514204507738 0.29534581593842762 0 -0.5 0.28330246354735061 0 -0.5 0.31143661623990421 0 -0.48250514204507738 0.29534581593842762 0 -0.5 0.28330246354735061 0 -0.48358127685127078 0.27034589236135592 0 -0.47727352678067198 0.31371132189770412 0 -0.48250514204507738 0.29534581593842762 0 -0.5 0.31143661623990421 0 -0.48709242022834559 0.25336559558088712 0 -0.5 0.25516831085479702 0 -0.48358127685127078 0.27034589236135592 0 -0.5 0.28330246354735061 0 -0.5 0.25516831085479702 0 -0.48358127685127078 0.27034589236135592 0 -0.48358127685127078 0.27034589236135592 0 -0.46706386389300197 0.25568730131171941 0 -0.46482623494120018 0.27920586693495392 0 -0.46763119430916372 0.24972438345985301 0 -0.48709242022834559 0.25336559558088712 0 -0.46706386389300197 0.25568730131171941 0 -0.48709242022834559 0.25336559558088712 0 -0.48358127685127078 0.27034589236135592 0 -0.46706386389300197 0.25568730131171941 0 -0.48709242022834559 0.25336559558088712 0 -0.46706386389300197 0.25568730131171941 0 -0.45859915964930192 0.24488965703356061 0 -0.46763119430916372 0.24972438345985301 0 -0.46706386389300197 0.25568730131171941 0 -0.45859915964930192 0.24488965703356061 0 -0.46706386389300197 0.25568730131171941 0 -0.45069184888611141 0.25046307531823891 0 -0.46763119430916372 0.24972438345985301 0 -0.46706386389300197 0.25568730131171941 0 -0.46706386389300197 0.25568730131171941 0 -0.46482623494120018 0.27920586693495392 0 -0.44455206344037279 0.28901188901930758 0 -0.46482623494120018 0.27920586693495392 0 -0.45160294080052188 0.26987172746626548 0 -0.46706386389300197 0.25568730131171941 0 -0.46482623494120018 0.27920586693495392 0 -0.45160294080052188 0.26987172746626548 0 -0.44455206344037279 0.28901188901930758 0 -0.45160294080052188 0.26987172746626548 0 -0.43996384860014559 0.27373698159605858 0 -0.45160294080052188 0.26987172746626548 0 -0.43996384860014559 0.27373698159605858 0 -0.43740087192273569 0.25912582864728517 0 -0.46706386389300197 0.25568730131171941 0 -0.45160294080052188 0.26987172746626548 0 -0.43740087192273569 0.25912582864728517 0 -0.46706386389300197 0.25568730131171941 0 -0.45069184888611141 0.25046307531823891 0 -0.43740087192273569 0.25912582864728517 0 -0.46706386389300197 0.25568730131171941 0 -0.43740087192273569 0.25912582864728517 0 -0.44264316725088487 0.24247965961696791 0 -0.45069184888611141 0.25046307531823891 0 -0.43740087192273569 0.25912582864728517 0 -0.42357238427207788 0.24738313748557261 0 -0.43740087192273569 0.25912582864728517 0 -0.4077378799524693 0.26256435598285099 0 -0.43740087192273569 0.25912582864728517 0 -0.4077378799524693 0.26256435598285099 0 -0.42357238427207788 0.24738313748557261 0 -0.4077378799524693 0.26256435598285099 0 -0.40860375304798152 0.25332431899974922 0 -0.4077378799524693 0.26256435598285099 0 -0.42629951823695211 0.27693848125137638 0 -0.40695216916449811 0.28275056005034299 0 -0.43740087192273569 0.25912582864728517 0 -0.4077378799524693 0.26256435598285099 0 -0.42629951823695211 0.27693848125137638 0 -0.43996384860014559 0.27373698159605858 0 -0.43740087192273569 0.25912582864728517 0 -0.42629951823695211 0.27693848125137638 0 -0.44455206344037279 0.28901188901930758 0 -0.43996384860014559 0.27373698159605858 0 -0.42629951823695211 0.27693848125137638 0 -0.44455206344037279 0.28901188901930758 0 -0.42629951823695211 0.27693848125137638 0 -0.42313163181148977 0.30667472002177859 0 -0.42629951823695211 0.27693848125137638 0 -0.42313163181148977 0.30667472002177859 0 -0.44440230632403932 0.31478801926368849 0 -0.44455206344037279 0.28901188901930758 0 -0.42313163181148977 0.30667472002177859 0 -0.40702809681390001 0.31999602583470332 0 -0.42313163181148977 0.30667472002177859 0 -0.39920578375018789 0.30256708767528689 0 -0.42313163181148977 0.30667472002177859 0 -0.40695216916449811 0.28275056005034299 0 -0.39920578375018789 0.30256708767528689 0 -0.42629951823695211 0.27693848125137638 0 -0.42313163181148977 0.30667472002177859 0 -0.40695216916449811 0.28275056005034299 0 -0.40695216916449811 0.28275056005034299 0 -0.39920578375018789 0.30256708767528689 0 -0.38847460868305461 0.27458478178055218 0 -0.38290726290976329 0.30394341998135932 0 -0.36834546431812848 0.29584524456135608 0 -0.37418884795103757 0.31844773267935439 0 -0.38916025639043572 0.32663378355572298 0 -0.39920578375018789 0.30256708767528689 0 -0.38290726290976329 0.30394341998135932 0 -0.38847460868305461 0.27458478178055218 0 -0.37270456055364509 0.27899363238690378 0 -0.36834546431812848 0.29584524456135608 0 -0.38290726290976329 0.30394341998135932 0 -0.38847460868305461 0.27458478178055218 0 -0.36834546431812848 0.29584524456135608 0 -0.39920578375018789 0.30256708767528689 0 -0.38290726290976329 0.30394341998135932 0 -0.38847460868305461 0.27458478178055218 0 -0.38847460868305461 0.27458478178055218 0 -0.36834546431812848 0.29584524456135608 0 -0.38847460868305461 0.27458478178055218 0 -0.37275394271396223 0.26819338868338771 0 -0.37270456055364509 0.27899363238690378 0 -0.38847460868305461 0.27458478178055218 0 -0.38083911324100439 0.26187910730093039 0 -0.37275394271396223 0.26819338868338771 0 -0.38083911324100439 0.26187910730093039 0 -0.37393275902425938 0.25584788116673007 0 -0.37275394271396223 0.26819338868338771 0 -0.38847460868305461 0.27458478178055218 0 -0.38083911324100439 0.26187910730093039 0 -0.39046507503009581 0.25680421154548277 0 -0.38083911324100439 0.26187910730093039 0 -0.38160459254513962 0.25292609891533901 0 -0.37393275902425938 0.25584788116673007 0 -0.37651490307859342 0.2470886687101386 0 -0.38160459254513962 0.25292609891533901 0 -0.37393275902425938 0.25584788116673007 0 -0.38853539280783761 0.24861290607178729 0 -0.38160459254513962 0.25292609891533901 0 -0.39046507503009581 0.25680421154548277 0 -0.38083911324100439 0.26187910730093039 0 -0.38160459254513962 0.25292609891533901 0 -0.39046507503009581 0.25680421154548277 0 -0.39683508010241553 0.24753252475573509 0 -0.40860375304798152 0.25332431899974922 0 -0.39046507503009581 0.25680421154548277 0 -0.4077378799524693 0.26256435598285099 0 -0.40860375304798152 0.25332431899974922 0 -0.38847460868305461 0.27458478178055218 0 -0.40860375304798152 0.25332431899974922 0 -0.38847460868305461 0.27458478178055218 0 -0.40860375304798152 0.25332431899974922 0 -0.38847460868305461 0.27458478178055218 0 -0.39046507503009581 0.25680421154548277 0 -0.38853539280783761 0.24861290607178729 0 -0.39683508010241553 0.24753252475573509 0 -0.39046507503009581 0.25680421154548277 0 -0.4077378799524693 0.26256435598285099 0 -0.40695216916449811 0.28275056005034299 0 -0.38847460868305461 0.27458478178055218 0 -0.36112748260370697 0.26792574514367912 0 -0.35419866861185573 0.29152344170814809 0 -0.34940942106430561 0.27730113497824221 0 -0.36112748260370697 0.26792574514367912 0 -0.35419866861185573 0.29152344170814809 0 -0.35096803837579282 0.26888152469590171 0 -0.35135656192569298 0.26242096215474459 0 -0.36112748260370697 0.26792574514367912 0 -0.34940942106430561 0.27730113497824221 0 -0.35096803837579282 0.26888152469590171 0 -0.36112748260370697 0.26792574514367912 0 -0.34940942106430561 0.27730113497824221 0 -0.35096803837579282 0.26888152469590171 0 -0.34197868790946562 0.2678782565069408 0 -0.35096803837579282 0.26888152469590171 0 -0.35135656192569298 0.26242096215474459 0 -0.34197868790946562 0.2678782565069408 0 -0.35135656192569298 0.26242096215474459 0 -0.34197868790946562 0.2678782565069408 0 -0.34230914049319822 0.25843708444671359 0 -0.36627485387062048 0.23695871848075431 0 -0.35135656192569298 0.26242096215474459 0 -0.35910446597007889 0.26010061978881122 0 -0.35043894926063018 0.24962174678034141 0 -0.35135656192569298 0.26242096215474459 0 -0.34230914049319822 0.25843708444671359 0 -0.35135656192569298 0.26242096215474459 0 -0.35910446597007889 0.26010061978881122 0 -0.36112748260370697 0.26792574514367912 0 -0.35910446597007889 0.26010061978881122 0 -0.36112748260370697 0.26792574514367912 0 -0.36912135141255092 0.2407007553042802 0 -0.36923388393861978 0.25816694257451928 0 -0.36112748260370697 0.26792574514367912 0 -0.36912135141255092 0.2407007553042802 0 -0.35910446597007889 0.26010061978881122 0 -0.36112748260370697 0.26792574514367912 0 -0.36912135141255092 0.2407007553042802 0 -0.37393275902425938 0.25584788116673007 0 -0.36923388393861978 0.25816694257451928 0 -0.36912135141255092 0.2407007553042802 0 -0.36112748260370697 0.26792574514367912 0 -0.37393275902425938 0.25584788116673007 0 -0.36923388393861978 0.25816694257451928 0 -0.37275394271396223 0.26819338868338771 0 -0.36923388393861978 0.25816694257451928 0 -0.37275394271396223 0.26819338868338771 0 -0.36112748260370697 0.26792574514367912 0 -0.37275394271396223 0.26819338868338771 0 -0.36112748260370697 0.26792574514367912 0 -0.37270456055364509 0.27899363238690378 0 -0.36112748260370697 0.26792574514367912 0 -0.37270456055364509 0.27899363238690378 0 -0.36834546431812848 0.29584524456135608 0 -0.36112748260370697 0.26792574514367912 0 -0.36834546431812848 0.29584524456135608 0 -0.36112748260370697 0.26792574514367912 0 -0.36834546431812848 0.29584524456135608 0 -0.35419866861185573 0.29152344170814809 0 -0.36834546431812848 0.29584524456135608 0 -0.35270766373174778 0.312361936543536 0 -0.36189948496563312 0.320871569242903 0 -0.36834546431812848 0.29584524456135608 0 -0.35270766373174778 0.312361936543536 0 -0.36834546431812848 0.29584524456135608 0 -0.36189948496563312 0.320871569242903 0 -0.37418884795103757 0.31844773267935439 0 -0.36834546431812848 0.29584524456135608 0 -0.37418884795103757 0.31844773267935439 0 -0.35419866861185573 0.29152344170814809 0 -0.3472698546200037 0.31512113827261712 0 -0.35270766373174778 0.312361936543536 0 -0.35419866861185573 0.29152344170814809 0 -0.3472698546200037 0.31512113827261712 0 -0.35419866861185573 0.29152344170814809 0 -0.335643244558395 0.29752965970658429 0 -0.34240597776913517 0.30475344015670858 0 -0.35419866861185573 0.29152344170814809 0 -0.34240597776913517 0.30475344015670858 0 -0.3472698546200037 0.31512113827261712 0 -0.36834546431812848 0.29584524456135608 0 -0.35270766373174778 0.312361936543536 0 -0.35419866861185573 0.29152344170814809 0 -0.35419866861185573 0.29152344170814809 0 -0.34215911615888012 0.2876601406009463 0 -0.335643244558395 0.29752965970658429 0 -0.34940942106430561 0.27730113497824221 0 -0.35419866861185573 0.29152344170814809 0 -0.34215911615888012 0.2876601406009463 0 -0.34215911615888012 0.2876601406009463 0 -0.335643244558395 0.29752965970658429 0 -0.32611737403364272 0.27846563377827438 0 -0.335643244558395 0.29752965970658429 0 -0.34240597776913517 0.30475344015670858 0 -0.33251214328628631 0.31483952093948497 0 -0.335643244558395 0.29752965970658429 0 -0.31886394400340001 0.30385174117013902 0 -0.33251214328628631 0.31483952093948497 0 -0.34240597776913517 0.30475344015670858 0 -0.33251214328628631 0.31483952093948497 0 -0.3472698546200037 0.31512113827261712 0 -0.31886394400340001 0.30385174117013902 0 -0.32611737403364272 0.27846563377827438 0 -0.3074432349115056 0.28899345387608971 0 -0.335643244558395 0.29752965970658429 0 -0.31886394400340001 0.30385174117013902 0 -0.32611737403364272 0.27846563377827438 0 -0.32611737403364272 0.27846563377827438 0 -0.32191582325138068 0.265555133094868 0 -0.30410286391238761 0.25963957243767349 0 -0.32611737403364272 0.27846563377827438 0 -0.30410286391238761 0.25963957243767349 0 -0.32611737403364272 0.27846563377827438 0 -0.33197806313875788 0.26915994041164942 0 -0.32191582325138068 0.265555133094868 0 -0.32611737403364272 0.27846563377827438 0 -0.33197806313875788 0.26915994041164942 0 -0.33832853246101041 0.27609302125521062 0 -0.34215911615888012 0.2876601406009463 0 -0.32611737403364272 0.27846563377827438 0 -0.33832853246101041 0.27609302125521062 0 -0.33197806313875788 0.26915994041164942 0 -0.34197868790946562 0.2678782565069408 0 -0.33832853246101041 0.27609302125521062 0 -0.34940942106430561 0.27730113497824221 0 -0.34197868790946562 0.2678782565069408 0 -0.33832853246101041 0.27609302125521062 0 -0.34940942106430561 0.27730113497824221 0 -0.34215911615888012 0.2876601406009463 0 -0.33832853246101041 0.27609302125521062 0 -0.33816867368026698 0.25122163454172652 0 -0.34230914049319822 0.25843708444671359 0 -0.3318787668810364 0.25875585570873422 0 -0.35043894926063018 0.24962174678034141 0 -0.33816867368026698 0.25122163454172652 0 -0.34230914049319822 0.25843708444671359 0 -0.34197868790946562 0.2678782565069408 0 -0.34230914049319822 0.25843708444671359 0 -0.3318787668810364 0.25875585570873422 0 -0.33197806313875788 0.26915994041164942 0 -0.34197868790946562 0.2678782565069408 0 -0.3318787668810364 0.25875585570873422 0 -0.33197806313875788 0.26915994041164942 0 -0.3318787668810364 0.25875585570873422 0 -0.32191582325138068 0.265555133094868 0 -0.32431945501868897 0.24769513105101101 0 -0.33816867368026698 0.25122163454172652 0 -0.3318787668810364 0.25875585570873422 0 -0.32431945501868897 0.24769513105101101 0 -0.3318787668810364 0.25875585570873422 0 -0.32267049386793317 0.25750069632055972 0 -0.32191582325138068 0.265555133094868 0 -0.31256793032062669 0.25799666542762573 0 -0.30410286391238761 0.25963957243767349 0 -0.3318787668810364 0.25875585570873422 0 -0.32267049386793317 0.25750069632055972 0 -0.32191582325138068 0.265555133094868 0 -0.32267049386793317 0.25750069632055972 0 -0.32191582325138068 0.265555133094868 0 -0.31256793032062669 0.25799666542762573 0 -0.32431945501868897 0.24769513105101101 0 -0.32267049386793317 0.25750069632055972 0 -0.31256793032062669 0.25799666542762573 0 -0.30834972046380649 0.2414778257957628 0 -0.31256793032062669 0.25799666542762573 0 -0.30410286391238761 0.25963957243767349 0 -0.30410286391238761 0.25963957243767349 0 -0.30098995950808299 0.27591765729795181 0 -0.29125159116289467 0.26340152651566617 0 -0.32611737403364272 0.27846563377827438 0 -0.30410286391238761 0.25963957243767349 0 -0.30098995950808299 0.27591765729795181 0 -0.32611737403364272 0.27846563377827438 0 -0.30098995950808299 0.27591765729795181 0 -0.3074432349115056 0.28899345387608971 0 -0.30098995950808299 0.27591765729795181 0 -0.28474016404044461 0.27588505544777031 0 -0.29125159116289467 0.26340152651566617 0 -0.30098995950808299 0.27591765729795181 0 -0.28474016404044461 0.27588505544777031 0 -0.29417310925277967 0.28842894760409371 0 -0.28474016404044461 0.27588505544777031 0 -0.29125159116289467 0.26340152651566617 0 -0.2796068017422299 0.26359034719680058 0 -0.28208835379116393 0.24081351109703589 0 -0.30410286391238761 0.25963957243767349 0 -0.28208835379116393 0.24081351109703589 0 -0.30410286391238761 0.25963957243767349 0 -0.28852495205151618 0.25095668989007108 0 -0.30410286391238761 0.25963957243767349 0 -0.29125159116289467 0.26340152651566617 0 -0.28852495205151618 0.25095668989007108 0 -0.29125159116289467 0.26340152651566617 0 -0.28852495205151618 0.25095668989007108 0 -0.2796068017422299 0.26359034719680058 0 -0.28852495205151618 0.25095668989007108 0 -0.26789636206368961 0.25102109109898729 0 -0.2796068017422299 0.26359034719680058 0 -0.26789636206368961 0.25102109109898729 0 -0.2796068017422299 0.26359034719680058 0 -0.2656209393925929 0.27668737303149188 0 -0.28852495205151618 0.25095668989007108 0 -0.26789636206368961 0.25102109109898729 0 -0.28474016404044461 0.27588505544777031 0 -0.2796068017422299 0.26359034719680058 0 -0.2656209393925929 0.27668737303149188 0 -0.2656209393925929 0.27668737303149188 0 -0.25069604166486548 0.26339240936795971 0 -0.24820645972729041 0.27807384087211329 0 -0.26789636206368961 0.25102109109898729 0 -0.25069604166486548 0.26339240936795971 0 -0.23835895435988499 0.25111330509733959 0 -0.26789636206368961 0.25102109109898729 0 -0.2656209393925929 0.27668737303149188 0 -0.25069604166486548 0.26339240936795971 0 -0.26789636206368961 0.25102109109898729 0 -0.25069604166486548 0.26339240936795971 0 -0.26789636206368961 0.25102109109898729 0 -0.23835895435988499 0.25111330509733959 0 -0.2648203799173115 0.3026740152290876 0 -0.25883471327476482 0.30839130654273739 0 -0.25250689350392591 0.30534550890508783 0 -0.2648203799173115 0.3026740152290876 0 -0.25883471327476482 0.30839130654273739 0 -0.26081647644160599 0.31642798744167749 0 -0.25883471327476482 0.30839130654273739 0 -0.25338005760018761 0.31190460545066628 0 -0.25250689350392591 0.30534550890508783 0 -0.25883471327476482 0.30839130654273739 0 -0.25338005760018761 0.31190460545066628 0 -0.26081647644160599 0.31642798744167749 0 -0.25338005760018761 0.31190460545066628 0 -0.25250689350392591 0.30534550890508783 0 -0.24580016817518441 0.31150226059455588 0 -0.2648203799173115 0.3026740152290876 0 -0.25250689350392591 0.30534550890508783 0 -0.25103006099755781 0.29330144216514248 0 -0.2656209393925929 0.27668737303149188 0 -0.25103006099755781 0.29330144216514248 0 -0.24820645972729041 0.27807384087211329 0 -0.2656209393925929 0.27668737303149188 0 -0.2648203799173115 0.3026740152290876 0 -0.25103006099755781 0.29330144216514248 0 -0.2656209393925929 0.27668737303149188 0 -0.2648203799173115 0.3026740152290876 0 -0.27839225062650469 0.29809064091310661 0 -0.28474016404044461 0.27588505544777031 0 -0.2656209393925929 0.27668737303149188 0 -0.27839225062650469 0.29809064091310661 0 -0.27839225062650469 0.29809064091310661 0 -0.26081647644160599 0.31642798744167749 0 -0.27839225062650469 0.29809064091310661 0 -0.28841299870740961 0.31846413994832101 0 -0.27209321830676869 0.31650628421093863 0 -0.27839225062650469 0.29809064091310661 0 -0.27209321830676869 0.31650628421093863 0 -0.26081647644160599 0.31642798744167749 0 -0.2648203799173115 0.3026740152290876 0 -0.27839225062650469 0.29809064091310661 0 -0.26081647644160599 0.31642798744167749 0 -0.27839225062650469 0.29809064091310661 0 -0.29929993717736042 0.30325793048554989 0 -0.28841299870740961 0.31846413994832101 0 -0.27839225062650469 0.29809064091310661 0 -0.29417310925277967 0.28842894760409371 0 -0.29929993717736042 0.30325793048554989 0 -0.28474016404044461 0.27588505544777031 0 -0.27839225062650469 0.29809064091310661 0 -0.29417310925277967 0.28842894760409371 0 -0.30098995950808299 0.27591765729795181 0 -0.29417310925277967 0.28842894760409371 0 -0.3074432349115056 0.28899345387608971 0 -0.29417310925277967 0.28842894760409371 0 -0.3074432349115056 0.28899345387608971 0 -0.29929993717736042 0.30325793048554989 0 -0.31886394400340001 0.30385174117013902 0 -0.3074432349115056 0.28899345387608971 0 -0.29929993717736042 0.30325793048554989 0 -0.31886394400340001 0.30385174117013902 0 -0.29929993717736042 0.30325793048554989 0 -0.30594077299538891 0.31701406972797908 0 -0.30594077299538891 0.31701406972797908 0 -0.30098146615634391 0.33310529562160901 0 -0.31955660165208571 0.32393279223422278 0 -0.29929993717736042 0.30325793048554989 0 -0.30594077299538891 0.31701406972797908 0 -0.28841299870740961 0.31846413994832101 0 -0.30594077299538891 0.31701406972797908 0 -0.30098146615634391 0.33310529562160901 0 -0.28841299870740961 0.31846413994832101 0 -0.30098146615634391 0.33310529562160901 0 -0.29956085656731768 0.34864312466256953 0 -0.32143206255898832 0.3453953205078974 0 -0.30098146615634391 0.33310529562160901 0 -0.28456402545514847 0.33109647886496518 0 -0.28535529588502839 0.34309824142775458 0 -0.30098146615634391 0.33310529562160901 0 -0.28535529588502839 0.34309824142775458 0 -0.29956085656731768 0.34864312466256953 0 -0.28456402545514847 0.33109647886496518 0 -0.28535529588502839 0.34309824142775458 0 -0.27575288955665161 0.33865739318991223 0 -0.30098146615634391 0.33310529562160901 0 -0.28456402545514847 0.33109647886496518 0 -0.28841299870740961 0.31846413994832101 0 -0.28456402545514847 0.33109647886496518 0 -0.28841299870740961 0.31846413994832101 0 -0.27359839459926638 0.32817823193505608 0 -0.28841299870740961 0.31846413994832101 0 -0.27209321830676869 0.31650628421093863 0 -0.27359839459926638 0.32817823193505608 0 -0.27209321830676869 0.31650628421093863 0 -0.26829663680695298 0.32097366334174882 0 -0.26274496493800858 0.31810125597285538 0 -0.27209321830676869 0.31650628421093863 0 -0.26829663680695298 0.32097366334174882 0 -0.27359839459926638 0.32817823193505608 0 -0.26669375618048669 0.32629217655426218 0 -0.26829663680695298 0.32097366334174882 0 -0.27359839459926638 0.32817823193505608 0 -0.26669375618048669 0.32629217655426218 0 -0.26829663680695298 0.32097366334174882 0 -0.26452058914878329 0.32407185408146111 0 -0.28456402545514847 0.33109647886496518 0 -0.27359839459926638 0.32817823193505608 0 -0.27575288955665161 0.33865739318991223 0 -0.27575288955665161 0.33865739318991223 0 -0.26757797128780503 0.33648111836347688 0 -0.2672045551902742 0.34600676325124008 0 -0.27359839459926638 0.32817823193505608 0 -0.26757797128780503 0.33648111836347688 0 -0.2665402168232992 0.33075063426010243 0 -0.27359839459926638 0.32817823193505608 0 -0.27575288955665161 0.33865739318991223 0 -0.26757797128780503 0.33648111836347688 0 -0.26669375618048669 0.32629217655426218 0 -0.27359839459926638 0.32817823193505608 0 -0.2665402168232992 0.33075063426010243 0 -0.26669375618048669 0.32629217655426218 0 -0.2665402168232992 0.33075063426010243 0 -0.26034699866968503 0.33092032045697778 0 -0.26034699866968503 0.33092032045697778 0 -0.25159489881183378 0.34058879523588198 0 -0.26274496493800858 0.31810125597285538 0 -0.25159489881183378 0.34058879523588198 0 -0.26274496493800858 0.31810125597285538 0 -0.25159489881183378 0.34058879523588198 0 -0.25459926061203891 0.32747084315516578 0 -0.26274496493800858 0.31810125597285538 0 -0.26757797128780503 0.33648111836347688 0 -0.2665402168232992 0.33075063426010243 0 -0.26034699866968503 0.33092032045697778 0 -0.26757797128780503 0.33648111836347688 0 -0.26030009944801807 0.34080110987594198 0 -0.2672045551902742 0.34600676325124008 0 -0.26757797128780503 0.33648111836347688 0 -0.26034699866968503 0.33092032045697778 0 -0.26030009944801807 0.34080110987594198 0 -0.26034699866968503 0.33092032045697778 0 -0.26030009944801807 0.34080110987594198 0 -0.25159489881183378 0.34058879523588198 0 -0.26081647644160599 0.31642798744167749 0 -0.24324070225670719 0.33476533397024838 0 -0.25459926061203891 0.32747084315516578 0 -0.26081647644160599 0.31642798744167749 0 -0.24324070225670719 0.33476533397024838 0 -0.26081647644160599 0.31642798744167749 0 -0.2489420366054573 0.31785596376927311 0 -0.2451410255450715 0.32459148850949432 0 -0.25338005760018761 0.31190460545066628 0 -0.26081647644160599 0.31642798744167749 0 -0.2489420366054573 0.31785596376927311 0 -0.27209321830676869 0.31650628421093863 0 -0.26081647644160599 0.31642798744167749 0 -0.26274496493800858 0.31810125597285538 0 -0.26829663680695298 0.32097366334174882 0 -0.26274496493800858 0.31810125597285538 0 -0.26452058914878329 0.32407185408146111 0 -0.26034699866968503 0.33092032045697778 0 -0.26274496493800858 0.31810125597285538 0 -0.26452058914878329 0.32407185408146111 0 -0.25459926061203891 0.32747084315516578 0 -0.26081647644160599 0.31642798744167749 0 -0.26274496493800858 0.31810125597285538 0 -0.26669375618048669 0.32629217655426218 0 -0.26034699866968503 0.33092032045697778 0 -0.26452058914878329 0.32407185408146111 0 -0.25792582964019001 0.36698942726569878 0 -0.25435523313165831 0.38398162687785392 0 -0.240444832685659 0.36307633449890858 0 -0.25792582964019001 0.36698942726569878 0 -0.25587356619010299 0.35325745861766472 0 -0.240444832685659 0.36307633449890858 0 -0.25792582964019001 0.36698942726569878 0 -0.25587356619010299 0.35325745861766472 0 -0.26790896983271067 0.35869627549272248 0 -0.26030009944801807 0.34080110987594198 0 -0.25159489881183378 0.34058879523588198 0 -0.25587356619010299 0.35325745861766472 0 -0.26030009944801807 0.34080110987594198 0 -0.25587356619010299 0.35325745861766472 0 -0.2672045551902742 0.34600676325124008 0 -0.25587356619010299 0.35325745861766472 0 -0.26790896983271067 0.35869627549272248 0 -0.2672045551902742 0.34600676325124008 0 -0.26790896983271067 0.35869627549272248 0 -0.27632249714317492 0.35065450328177422 0 -0.28424119626361938 0.35970475326550871 0 -0.26790896983271067 0.35869627549272248 0 -0.2672045551902742 0.34600676325124008 0 -0.27632249714317492 0.35065450328177422 0 -0.27575288955665161 0.33865739318991223 0 -0.2672045551902742 0.34600676325124008 0 -0.27632249714317492 0.35065450328177422 0 -0.28535529588502839 0.34309824142775458 0 -0.27575288955665161 0.33865739318991223 0 -0.27632249714317492 0.35065450328177422 0 -0.25792582964019001 0.36698942726569878 0 -0.26790896983271067 0.35869627549272248 0 -0.27109065816704031 0.37446383390125892 0 -0.27109065816704031 0.37446383390125892 0 -0.28424119626361938 0.35970475326550871 0 -0.28720812396125722 0.37733776911119832 0 -0.26790896983271067 0.35869627549272248 0 -0.27109065816704031 0.37446383390125892 0 -0.28424119626361938 0.35970475326550871 0 -0.28424119626361938 0.35970475326550871 0 -0.30579426197260851 0.36191201249007809 0 -0.28720812396125722 0.37733776911119832 0 -0.28424119626361938 0.35970475326550871 0 -0.29956085656731768 0.34864312466256953 0 -0.30579426197260851 0.36191201249007809 0 -0.28535529588502839 0.34309824142775458 0 -0.27632249714317492 0.35065450328177422 0 -0.28424119626361938 0.35970475326550871 0 -0.28535529588502839 0.34309824142775458 0 -0.28424119626361938 0.35970475326550871 0 -0.29956085656731768 0.34864312466256953 0 -0.29956085656731768 0.34864312466256953 0 -0.30579426197260851 0.36191201249007809 0 -0.32143206255898832 0.3453953205078974 0 -0.30579426197260851 0.36191201249007809 0 -0.31601659625970441 0.37309702729104638 0 -0.30457938408238522 0.38395426724435661 0 -0.30579426197260851 0.36191201249007809 0 -0.30457938408238522 0.38395426724435661 0 -0.28720812396125722 0.37733776911119832 0 -0.30579426197260851 0.36191201249007809 0 -0.31601659625970441 0.37309702729104638 0 -0.32610461141784541 0.36156572120402808 0 -0.31601659625970441 0.37309702729104638 0 -0.32610461141784541 0.36156572120402808 0 -0.33051118645966632 0.3767496451239839 0 -0.32610461141784541 0.36156572120402808 0 -0.34126838963111528 0.3650843715896408 0 -0.33051118645966632 0.3767496451239839 0 -0.34126838963111528 0.3650843715896408 0 -0.34324799230457331 0.37946821928557051 0 -0.33051118645966632 0.3767496451239839 0 -0.32610461141784541 0.36156572120402808 0 -0.34126838963111528 0.3650843715896408 0 -0.34160517162498999 0.34715595022152229 0 -0.32610461141784541 0.36156572120402808 0 -0.34160517162498999 0.34715595022152229 0 -0.32143206255898832 0.3453953205078974 0 -0.30579426197260851 0.36191201249007809 0 -0.32143206255898832 0.3453953205078974 0 -0.30579426197260851 0.36191201249007809 0 -0.32610461141784541 0.36156572120402808 0 -0.32143206255898832 0.3453953205078974 0 -0.32143206255898832 0.3453953205078974 0 -0.31955660165208571 0.32393279223422278 0 -0.33706986314536802 0.3288786285257167 0 -0.30098146615634391 0.33310529562160901 0 -0.32143206255898832 0.3453953205078974 0 -0.31955660165208571 0.32393279223422278 0 -0.31886394400340001 0.30385174117013902 0 -0.31955660165208571 0.32393279223422278 0 -0.33251214328628631 0.31483952093948497 0 -0.31886394400340001 0.30385174117013902 0 -0.30594077299538891 0.31701406972797908 0 -0.31955660165208571 0.32393279223422278 0 -0.31955660165208571 0.32393279223422278 0 -0.33251214328628631 0.31483952093948497 0 -0.33706986314536802 0.3288786285257167 0 -0.33251214328628631 0.31483952093948497 0 -0.33706986314536802 0.3288786285257167 0 -0.3472698546200037 0.31512113827261712 0 -0.32143206255898832 0.3453953205078974 0 -0.33706986314536802 0.3288786285257167 0 -0.34160517162498999 0.34715595022152229 0 -0.32143206255898832 0.3453953205078974 0 -0.33706986314536802 0.3288786285257167 0 -0.34160517162498999 0.34715595022152229 0 -0.33706986314536802 0.3288786285257167 0 -0.34857887032491192 0.33667182598971152 0 -0.34160517162498999 0.34715595022152229 0 -0.34857887032491192 0.33667182598971152 0 -0.35714749140395502 0.3467194626218506 0 -0.33706986314536802 0.3288786285257167 0 -0.34857887032491192 0.33667182598971152 0 -0.35153011559862712 0.32660641649673933 0 -0.34857887032491192 0.33667182598971152 0 -0.35924768179933009 0.33449757228093002 0 -0.35153011559862712 0.32660641649673933 0 -0.34857887032491192 0.33667182598971152 0 -0.35924768179933009 0.33449757228093002 0 -0.35714749140395502 0.3467194626218506 0 -0.35270766373174778 0.312361936543536 0 -0.33706986314536802 0.3288786285257167 0 -0.3472698546200037 0.31512113827261712 0 -0.35270766373174778 0.312361936543536 0 -0.33706986314536802 0.3288786285257167 0 -0.35153011559862712 0.32660641649673933 0 -0.35270766373174778 0.312361936543536 0 -0.33706986314536802 0.3288786285257167 0 -0.35924768179933009 0.33449757228093002 0 -0.35153011559862712 0.32660641649673933 0 -0.36189948496563312 0.320871569242903 0 -0.35270766373174778 0.312361936543536 0 -0.35153011559862712 0.32660641649673933 0 -0.36189948496563312 0.320871569242903 0 -0.36189948496563312 0.320871569242903 0 -0.37418884795103757 0.31844773267935439 0 -0.368713314236224 0.33170376180668532 0 -0.38003223158394461 0.3410502207973532 0 -0.37418884795103757 0.31844773267935439 0 -0.368713314236224 0.33170376180668532 0 -0.35924768179933009 0.33449757228093002 0 -0.36756759971794378 0.34266591069190627 0 -0.35714749140395502 0.3467194626218506 0 -0.35924768179933009 0.33449757228093002 0 -0.368713314236224 0.33170376180668532 0 -0.36756759971794378 0.34266591069190627 0 -0.35924768179933009 0.33449757228093002 0 -0.36189948496563312 0.320871569242903 0 -0.368713314236224 0.33170376180668532 0 -0.38003223158394461 0.3410502207973532 0 -0.368713314236224 0.33170376180668532 0 -0.36756759971794378 0.34266591069190627 0 -0.38003223158394461 0.3410502207973532 0 -0.36756759971794378 0.34266591069190627 0 -0.37057641784924739 0.3555044706016019 0 -0.36756759971794378 0.34266591069190627 0 -0.37057641784924739 0.3555044706016019 0 -0.35714749140395502 0.3467194626218506 0 -0.37057641784924739 0.3555044706016019 0 -0.35509960574382637 0.35955259523856858 0 -0.35714749140395502 0.3467194626218506 0 -0.37057641784924739 0.3555044706016019 0 -0.37440965347716559 0.36685636182932913 0 -0.36434817589115792 0.36683854005368111 0 -0.37440965347716559 0.36685636182932913 0 -0.36434817589115792 0.36683854005368111 0 -0.37061327267684457 0.3767029793744488 0 -0.36434817589115792 0.36683854005368111 0 -0.3558687511411513 0.37510031832537999 0 -0.37061327267684457 0.3767029793744488 0 -0.37057641784924739 0.3555044706016019 0 -0.36434817589115792 0.36683854005368111 0 -0.35509960574382637 0.35955259523856858 0 -0.36434817589115792 0.36683854005368111 0 -0.35509960574382637 0.35955259523856858 0 -0.3558687511411513 0.37510031832537999 0 -0.34126838963111528 0.3650843715896408 0 -0.3558687511411513 0.37510031832537999 0 -0.34324799230457331 0.37946821928557051 0 -0.34126838963111528 0.3650843715896408 0 -0.35509960574382637 0.35955259523856858 0 -0.3558687511411513 0.37510031832537999 0 -0.34126838963111528 0.3650843715896408 0 -0.34160517162498999 0.34715595022152229 0 -0.35509960574382637 0.35955259523856858 0 -0.34160517162498999 0.34715595022152229 0 -0.35509960574382637 0.35955259523856858 0 -0.35714749140395502 0.3467194626218506 0 -0.3509652434812498 0.39061748962704879 0 -0.36078460859815842 0.40066194231654528 0 -0.34217961037545169 0.40540208734769262 0 -0.36078460859815842 0.40066194231654528 0 -0.35955107005346543 0.41222512419264967 0 -0.34217961037545169 0.40540208734769262 0 -0.3509652434812498 0.39061748962704879 0 -0.3558687511411513 0.37510031832537999 0 -0.36677302296779041 0.3895697849858335 0 -0.3509652434812498 0.39061748962704879 0 -0.34324799230457331 0.37946821928557051 0 -0.33762639080968398 0.38978927176179912 0 -0.3509652434812498 0.39061748962704879 0 -0.3558687511411513 0.37510031832537999 0 -0.34324799230457331 0.37946821928557051 0 -0.3558687511411513 0.37510031832537999 0 -0.36677302296779041 0.3895697849858335 0 -0.37061327267684457 0.3767029793744488 0 -0.37980966885980721 0.38523896167248539 0 -0.36677302296779041 0.3895697849858335 0 -0.37061327267684457 0.3767029793744488 0 -0.37764334119906751 0.39754939590786897 0 -0.37980966885980721 0.38523896167248539 0 -0.36677302296779041 0.3895697849858335 0 -0.37764334119906751 0.39754939590786897 0 -0.36677302296779041 0.3895697849858335 0 -0.36078460859815842 0.40066194231654528 0 -0.3509652434812498 0.39061748962704879 0 -0.36677302296779041 0.3895697849858335 0 -0.36078460859815842 0.40066194231654528 0 -0.37764334119906751 0.39754939590786897 0 -0.36078460859815842 0.40066194231654528 0 -0.37290166378917777 0.41016116381297868 0 -0.38321970150380852 0.42016863568720048 0 -0.37290166378917777 0.41016116381297868 0 -0.36676406109452808 0.42380971970676501 0 -0.37290166378917777 0.41016116381297868 0 -0.35955107005346543 0.41222512419264967 0 -0.36676406109452808 0.42380971970676501 0 -0.36078460859815842 0.40066194231654528 0 -0.37290166378917777 0.41016116381297868 0 -0.35955107005346543 0.41222512419264967 0 -0.38239761972857989 0.43441962703738429 0 -0.36676406109452808 0.42380971970676501 0 -0.36647825551986191 0.43896692894557621 0 -0.36676406109452808 0.42380971970676501 0 -0.35319250016850628 0.43205620994137911 0 -0.36647825551986191 0.43896692894557621 0 -0.36676406109452808 0.42380971970676501 0 -0.35319250016850628 0.43205620994137911 0 -0.34960761689829789 0.41867034833018663 0 -0.35319250016850628 0.43205620994137911 0 -0.34960761689829789 0.41867034833018663 0 -0.33699047126710502 0.42236669038169627 0 -0.35955107005346543 0.41222512419264967 0 -0.36676406109452808 0.42380971970676501 0 -0.34960761689829789 0.41867034833018663 0 -0.35955107005346543 0.41222512419264967 0 -0.34960761689829789 0.41867034833018663 0 -0.34217961037545169 0.40540208734769262 0 -0.34960761689829789 0.41867034833018663 0 -0.33699047126710502 0.42236669038169627 0 -0.34217961037545169 0.40540208734769262 0 -0.33699047126710502 0.42236669038169627 0 -0.32053740353276122 0.41041039995067191 0 -0.34217961037545169 0.40540208734769262 0 -0.33699047126710502 0.42236669038169627 0 -0.32174978832883899 0.42530246567944863 0 -0.33467590829877408 0.44235863104079948 0 -0.35319250016850628 0.43205620994137911 0 -0.33699047126710502 0.42236669038169627 0 -0.33467590829877408 0.44235863104079948 0 -0.32174978832883899 0.42530246567944863 0 -0.31478984432137169 0.4389941299456489 0 -0.33467590829877408 0.44235863104079948 0 -0.32174978832883899 0.42530246567944863 0 -0.30416072276642953 0.42352474492647729 0 -0.31478984432137169 0.4389941299456489 0 -0.33699047126710502 0.42236669038169627 0 -0.32174978832883899 0.42530246567944863 0 -0.32053740353276122 0.41041039995067191 0 -0.32174978832883899 0.42530246567944863 0 -0.32053740353276122 0.41041039995067191 0 -0.30416072276642953 0.42352474492647729 0 -0.32053740353276122 0.41041039995067191 0 -0.32226640006643997 0.39348544003904068 0 -0.304422003578391 0.4041640793594985 0 -0.32226640006643997 0.39348544003904068 0 -0.34217961037545169 0.40540208734769262 0 -0.33762639080968398 0.38978927176179912 0 -0.32053740353276122 0.41041039995067191 0 -0.32226640006643997 0.39348544003904068 0 -0.34217961037545169 0.40540208734769262 0 -0.3509652434812498 0.39061748962704879 0 -0.34217961037545169 0.40540208734769262 0 -0.33762639080968398 0.38978927176179912 0 -0.32226640006643997 0.39348544003904068 0 -0.33762639080968398 0.38978927176179912 0 -0.33051118645966632 0.3767496451239839 0 -0.34324799230457331 0.37946821928557051 0 -0.33762639080968398 0.38978927176179912 0 -0.33051118645966632 0.3767496451239839 0 -0.31601659625970441 0.37309702729104638 0 -0.32226640006643997 0.39348544003904068 0 -0.33051118645966632 0.3767496451239839 0 -0.31601659625970441 0.37309702729104638 0 -0.32226640006643997 0.39348544003904068 0 -0.30457938408238522 0.38395426724435661 0 -0.30457938408238522 0.38395426724435661 0 -0.304422003578391 0.4041640793594985 0 -0.29127263454112912 0.39273659442082148 0 -0.32226640006643997 0.39348544003904068 0 -0.30457938408238522 0.38395426724435661 0 -0.304422003578391 0.4041640793594985 0 -0.29127263454112912 0.39273659442082148 0 -0.27515868017664008 0.39159669541967801 0 -0.28145110212593571 0.40773505534138249 0 -0.304422003578391 0.4041640793594985 0 -0.29127263454112912 0.39273659442082148 0 -0.28145110212593571 0.40773505534138249 0 -0.30457938408238522 0.38395426724435661 0 -0.29127263454112912 0.39273659442082148 0 -0.28720812396125722 0.37733776911119832 0 -0.29127263454112912 0.39273659442082148 0 -0.28720812396125722 0.37733776911119832 0 -0.27515868017664008 0.39159669541967801 0 -0.27109065816704031 0.37446383390125892 0 -0.28720812396125722 0.37733776911119832 0 -0.27515868017664008 0.39159669541967801 0 -0.27109065816704031 0.37446383390125892 0 -0.27515868017664008 0.39159669541967801 0 -0.25435523313165831 0.38398162687785392 0 -0.27515868017664008 0.39159669541967801 0 -0.26384650154852379 0.41240613311147051 0 -0.28145110212593571 0.40773505534138249 0 -0.27515868017664008 0.39159669541967801 0 -0.25435523313165831 0.38398162687785392 0 -0.26384650154852379 0.41240613311147051 0 -0.25435523313165831 0.38398162687785392 0 -0.26384650154852379 0.41240613311147051 0 -0.2439075682156667 0.41089140105712818 0 -0.25792582964019001 0.36698942726569878 0 -0.27109065816704031 0.37446383390125892 0 -0.25435523313165831 0.38398162687785392 0 -0.26461221404073321 0.43060378717466458 0 -0.2439075682156667 0.41089140105712818 0 -0.24305097584580709 0.4340168918521875 0 -0.26461221404073321 0.43060378717466458 0 -0.26384650154852379 0.41240613311147051 0 -0.2439075682156667 0.41089140105712818 0 -0.26461221404073321 0.43060378717466458 0 -0.26384650154852379 0.41240613311147051 0 -0.28145110212593571 0.40773505534138249 0 -0.26461221404073321 0.43060378717466458 0 -0.28625767235252092 0.4354534870604278 0 -0.28145110212593571 0.40773505534138249 0 -0.28625767235252092 0.4354534870604278 0 -0.28145110212593571 0.40773505534138249 0 -0.30416072276642953 0.42352474492647729 0 -0.304422003578391 0.4041640793594985 0 -0.28145110212593571 0.40773505534138249 0 -0.30416072276642953 0.42352474492647729 0 -0.28625767235252092 0.4354534870604278 0 -0.28145110212593571 0.40773505534138249 0 -0.32053740353276122 0.41041039995067191 0 -0.304422003578391 0.4041640793594985 0 -0.30416072276642953 0.42352474492647729 0 -0.30416072276642953 0.42352474492647729 0 -0.30085672942028258 0.44337713886045621 0 -0.31478984432137169 0.4389941299456489 0 -0.28625767235252092 0.4354534870604278 0 -0.30416072276642953 0.42352474492647729 0 -0.30085672942028258 0.44337713886045621 0 -0.30085672942028258 0.44337713886045621 0 -0.30801116508198478 0.45574141359025372 0 -0.31478984432137169 0.4389941299456489 0 -0.30801116508198478 0.45574141359025372 0 -0.30341371689522001 0.46803569888248547 0 -0.31295164186266372 0.47343268371575059 0 -0.30801116508198478 0.45574141359025372 0 -0.30341371689522001 0.46803569888248547 0 -0.29106424257910601 0.46317191877947322 0 -0.30085672942028258 0.44337713886045621 0 -0.30801116508198478 0.45574141359025372 0 -0.29106424257910601 0.46317191877947322 0 -0.29106424257910601 0.46317191877947322 0 -0.27319531780594009 0.45373585811644301 0 -0.28177842157114702 0.4768679290582214 0 -0.28625767235252092 0.4354534870604278 0 -0.29106424257910601 0.46317191877947322 0 -0.27319531780594009 0.45373585811644301 0 -0.28625767235252092 0.4354534870604278 0 -0.30085672942028258 0.44337713886045621 0 -0.29106424257910601 0.46317191877947322 0 -0.28625767235252092 0.4354534870604278 0 -0.29106424257910601 0.46317191877947322 0 -0.26461221404073321 0.43060378717466458 0 -0.27319531780594009 0.45373585811644301 0 -0.26461221404073321 0.43060378717466458 0 -0.28625767235252092 0.4354534870604278 0 -0.27319531780594009 0.45373585811644301 0 -0.27319531780594009 0.45373585811644301 0 -0.28177842157114702 0.4768679290582214 0 -0.27319531780594009 0.45373585811644301 0 -0.26519199969565188 0.46883712670416111 0 -0.28177842157114702 0.4768679290582214 0 -0.25479703666384063 0.45240156644386043 0 -0.26519199969565188 0.46883712670416111 0 -0.24856570368655589 0.47661267747651431 0 -0.27319531780594009 0.45373585811644301 0 -0.25479703666384063 0.45240156644386043 0 -0.26519199969565188 0.46883712670416111 0 -0.26461221404073321 0.43060378717466458 0 -0.27319531780594009 0.45373585811644301 0 -0.25479703666384063 0.45240156644386043 0 -0.26461221404073321 0.43060378717466458 0 -0.25479703666384063 0.45240156644386043 0 -0.24305097584580709 0.4340168918521875 0 -0.26298807390353518 0.5 0 -0.26818412529176772 0.48454051585298757 0 -0.24856570368655589 0.47661267747651431 0 -0.26519199969565188 0.46883712670416111 0 -0.26818412529176772 0.48454051585298757 0 -0.24856570368655589 0.47661267747651431 0 -0.26519199969565188 0.46883712670416111 0 -0.26818412529176772 0.48454051585298757 0 -0.28177842157114702 0.4768679290582214 0 -0.26298807390353518 0.5 0 -0.26818412529176772 0.48454051585298757 0 -0.29036152533635379 0.49999999999999989 0 -0.26818412529176772 0.48454051585298757 0 -0.29036152533635379 0.49999999999999989 0 -0.28177842157114702 0.4768679290582214 0 -0.29587081280569122 0.49089035049851831 0 -0.29036152533635379 0.49999999999999989 0 -0.28177842157114702 0.4768679290582214 0 -0.29036152533635379 0.49999999999999989 0 -0.28177842157114702 0.4768679290582214 0 -0.29106424257910601 0.46317191877947322 0 -0.29587081280569122 0.49089035049851831 0 -0.30162781805712557 0.47979677944446458 0 -0.29106424257910601 0.46317191877947322 0 -0.29587081280569122 0.49089035049851831 0 -0.29106424257910601 0.46317191877947322 0 -0.29587081280569122 0.49089035049851831 0 -0.28177842157114702 0.4768679290582214 0 -0.30341371689522001 0.46803569888248547 0 -0.29106424257910601 0.46317191877947322 0 -0.30162781805712557 0.47979677944446458 0 -0.30162781805712557 0.47979677944446458 0 -0.31149722887994369 0.48573009961586611 0 -0.31295164186266372 0.47343268371575059 0 -0.30341371689522001 0.46803569888248547 0 -0.30162781805712557 0.47979677944446458 0 -0.31295164186266372 0.47343268371575059 0 -0.29587081280569122 0.49089035049851831 0 -0.30162781805712557 0.47979677944446458 0 -0.31149722887994369 0.48573009961586611 0 -0.29587081280569122 0.49089035049851831 0 -0.29036152533635379 0.49999999999999989 0 -0.31840517843022431 0.5 0 -0.29587081280569122 0.49089035049851831 0 -0.31149722887994369 0.48573009961586611 0 -0.31840517843022431 0.5 0 -0.31149722887994369 0.48573009961586611 0 -0.31840517843022431 0.5 0 -0.32886879348482412 0.48340547051966642 0 -0.32886879348482412 0.48340547051966642 0 -0.34644883152409478 0.5 0 -0.35560480664248723 0.47563377628371151 0 -0.31840517843022431 0.5 0 -0.32886879348482412 0.48340547051966642 0 -0.34644883152409478 0.5 0 -0.32886879348482412 0.48340547051966642 0 -0.32981670591223111 0.46296524376380049 0 -0.35560480664248723 0.47563377628371151 0 -0.32886879348482412 0.48340547051966642 0 -0.31295164186266372 0.47343268371575059 0 -0.32981670591223111 0.46296524376380049 0 -0.31149722887994369 0.48573009961586611 0 -0.32886879348482412 0.48340547051966642 0 -0.31295164186266372 0.47343268371575059 0 -0.30801116508198478 0.45574141359025372 0 -0.31295164186266372 0.47343268371575059 0 -0.32981670591223111 0.46296524376380049 0 -0.30801116508198478 0.45574141359025372 0 -0.32182340590359038 0.45001485458512569 0 -0.32981670591223111 0.46296524376380049 0 -0.32182340590359038 0.45001485458512569 0 -0.31478984432137169 0.4389941299456489 0 -0.33467590829877408 0.44235863104079948 0 -0.30801116508198478 0.45574141359025372 0 -0.32182340590359038 0.45001485458512569 0 -0.31478984432137169 0.4389941299456489 0 -0.33467590829877408 0.44235863104079948 0 -0.32981670591223111 0.46296524376380049 0 -0.35318866797887888 0.4505919110596226 0 -0.32182340590359038 0.45001485458512569 0 -0.33467590829877408 0.44235863104079948 0 -0.32981670591223111 0.46296524376380049 0 -0.32981670591223111 0.46296524376380049 0 -0.35318866797887888 0.4505919110596226 0 -0.35560480664248723 0.47563377628371151 0 -0.35319250016850628 0.43205620994137911 0 -0.33467590829877408 0.44235863104079948 0 -0.35318866797887888 0.4505919110596226 0 -0.35319250016850628 0.43205620994137911 0 -0.35318866797887888 0.4505919110596226 0 -0.36647825551986191 0.43896692894557621 0 -0.37538029356791047 0.45381948236963487 0 -0.38239761972857989 0.43441962703738429 0 -0.36647825551986191 0.43896692894557621 0 -0.37538029356791047 0.45381948236963487 0 -0.35318866797887888 0.4505919110596226 0 -0.36647825551986191 0.43896692894557621 0 -0.37538029356791047 0.45381948236963487 0 -0.35318866797887888 0.4505919110596226 0 -0.35560480664248723 0.47563377628371151 0 -0.38421375502220062 0.47612571934365372 0 -0.37538029356791047 0.45381948236963487 0 -0.35560480664248723 0.47563377628371151 0 -0.38421375502220062 0.47612571934365372 0 -0.37449248461796542 0.5 0 -0.35560480664248723 0.47563377628371151 0 -0.37449248461796542 0.5 0 -0.34644883152409478 0.5 0 -0.35560480664248723 0.47563377628371151 0 -0.15466799326223321 0.47214225783525798 0 -0.14574840491260491 0.48771513714463438 0 -0.13217153159229919 0.46474737174673542 0 -0.15466799326223321 0.47214225783525798 0 -0.14574840491260491 0.48771513714463438 0 -0.1652173179816982 0.48550545331725231 0 -0.15349426817226061 0.5 0 -0.14574840491260491 0.48771513714463438 0 -0.1652173179816982 0.48550545331725231 0 -0.15349426817226061 0.5 0 -0.14574840491260491 0.48771513714463438 0 -0.12612081673944209 0.5 0 -0.14574840491260491 0.48771513714463438 0 -0.12612081673944209 0.5 0 -0.12869881579587741 0.48229690186979141 0 -0.14574840491260491 0.48771513714463438 0 -0.13217153159229919 0.46474737174673542 0 -0.14574840491260491 0.48771513714463438 0 -0.12869881579587741 0.48229690186979141 0 -0.13217153159229919 0.46474737174673542 0 -0.13217153159229919 0.46474737174673542 0 -0.11859465827199329 0.44177960634883628 0 -0.13217153159229919 0.46474737174673542 0 -0.13781850360900399 0.44639975605581339 0 -0.11859465827199329 0.44177960634883628 0 -0.13781850360900399 0.44639975605581339 0 -0.1572111990444976 0.45296525981720898 0 -0.15095450839502969 0.43360318833883849 0 -0.15466799326223321 0.47214225783525798 0 -0.13217153159229919 0.46474737174673542 0 -0.1572111990444976 0.45296525981720898 0 -0.13217153159229919 0.46474737174673542 0 -0.13781850360900399 0.44639975605581339 0 -0.1572111990444976 0.45296525981720898 0 -0.15466799326223321 0.47214225783525798 0 -0.1572111990444976 0.45296525981720898 0 -0.1729915127800658 0.46977806715045861 0 -0.1572111990444976 0.45296525981720898 0 -0.18410358282118461 0.44851826243283133 0 -0.1729915127800658 0.46977806715045861 0 -0.1572111990444976 0.45296525981720898 0 -0.16824128131176411 0.43438189555250278 0 -0.15095450839502969 0.43360318833883849 0 -0.1572111990444976 0.45296525981720898 0 -0.18410358282118461 0.44851826243283133 0 -0.16824128131176411 0.43438189555250278 0 -0.18410358282118461 0.44851826243283133 0 -0.1729915127800658 0.46977806715045861 0 -0.19999044694726181 0.47168356010830098 0 -0.1729915127800658 0.46977806715045861 0 -0.18570482818388809 0.48340790952087048 0 -0.1652173179816982 0.48550545331725231 0 -0.1729915127800658 0.46977806715045861 0 -0.18570482818388809 0.48340790952087048 0 -0.19999044694726181 0.47168356010830098 0 -0.15466799326223321 0.47214225783525798 0 -0.1729915127800658 0.46977806715045861 0 -0.1652173179816982 0.48550545331725231 0 -0.15349426817226061 0.5 0 -0.1652173179816982 0.48550545331725231 0 -0.1808677196050793 0.5 0 -0.18570482818388809 0.48340790952087048 0 -0.1652173179816982 0.48550545331725231 0 -0.1808677196050793 0.5 0 -0.18570482818388809 0.48340790952087048 0 -0.19999044694726181 0.47168356010830098 0 -0.20824117103789799 0.5 0 -0.18570482818388809 0.48340790952087048 0 -0.1808677196050793 0.5 0 -0.20824117103789799 0.5 0 -0.19999044694726181 0.47168356010830098 0 -0.20824117103789799 0.5 0 -0.22232187005015819 0.47688251695900458 0 -0.20824117103789799 0.5 0 -0.22232187005015819 0.47688251695900458 0 -0.23561462247071649 0.5 0 -0.26298807390353518 0.5 0 -0.24856570368655589 0.47661267747651431 0 -0.23561462247071649 0.5 0 -0.22232187005015819 0.47688251695900458 0 -0.24856570368655589 0.47661267747651431 0 -0.23561462247071649 0.5 0 -0.25479703666384063 0.45240156644386043 0 -0.23049510019298619 0.45093838869632091 0 -0.24305097584580709 0.4340168918521875 0 -0.25479703666384063 0.45240156644386043 0 -0.24856570368655589 0.47661267747651431 0 -0.23049510019298619 0.45093838869632091 0 -0.22232187005015819 0.47688251695900458 0 -0.23049510019298619 0.45093838869632091 0 -0.21025318545264771 0.45517378653520552 0 -0.22232187005015819 0.47688251695900458 0 -0.24856570368655589 0.47661267747651431 0 -0.23049510019298619 0.45093838869632091 0 -0.23049510019298619 0.45093838869632091 0 -0.21025318545264771 0.45517378653520552 0 -0.20467443489492079 0.43527827817564863 0 -0.19999044694726181 0.47168356010830098 0 -0.22232187005015819 0.47688251695900458 0 -0.21025318545264771 0.45517378653520552 0 -0.18410358282118461 0.44851826243283133 0 -0.19999044694726181 0.47168356010830098 0 -0.21025318545264771 0.45517378653520552 0 -0.18410358282118461 0.44851826243283133 0 -0.21025318545264771 0.45517378653520552 0 -0.20467443489492079 0.43527827817564863 0 -0.20062649044906969 0.41230913494433069 0 -0.20467443489492079 0.43527827817564863 0 -0.180084385390165 0.41970803909950838 0 -0.18410358282118461 0.44851826243283133 0 -0.20467443489492079 0.43527827817564863 0 -0.180084385390165 0.41970803909950838 0 -0.20062649044906969 0.41230913494433069 0 -0.18782430593514601 0.39608333455478661 0 -0.180084385390165 0.41970803909950838 0 -0.20062649044906969 0.41230913494433069 0 -0.2181447004333093 0.40805141302496212 0 -0.22413416038889819 0.42516770162304007 0 -0.20062649044906969 0.41230913494433069 0 -0.20467443489492079 0.43527827817564863 0 -0.22413416038889819 0.42516770162304007 0 -0.23049510019298619 0.45093838869632091 0 -0.22413416038889819 0.42516770162304007 0 -0.24305097584580709 0.4340168918521875 0 -0.23049510019298619 0.45093838869632091 0 -0.20467443489492079 0.43527827817564863 0 -0.22413416038889819 0.42516770162304007 0 -0.2181447004333093 0.40805141302496212 0 -0.22413416038889819 0.42516770162304007 0 -0.2439075682156667 0.41089140105712818 0 -0.22413416038889819 0.42516770162304007 0 -0.2439075682156667 0.41089140105712818 0 -0.24305097584580709 0.4340168918521875 0 -0.25435523313165831 0.38398162687785392 0 -0.22929476655948419 0.38556387376193529 0 -0.240444832685659 0.36307633449890858 0 -0.25435523313165831 0.38398162687785392 0 -0.2439075682156667 0.41089140105712818 0 -0.22929476655948419 0.38556387376193529 0 -0.2181447004333093 0.40805141302496212 0 -0.22929476655948419 0.38556387376193529 0 -0.2181447004333093 0.40805141302496212 0 -0.2439075682156667 0.41089140105712818 0 -0.22929476655948419 0.38556387376193529 0 -0.22929476655948419 0.38556387376193529 0 -0.20732947292219589 0.39130633980383112 0 -0.2085223065626349 0.37010966414506119 0 -0.20062649044906969 0.41230913494433069 0 -0.2181447004333093 0.40805141302496212 0 -0.20732947292219589 0.39130633980383112 0 -0.2181447004333093 0.40805141302496212 0 -0.22929476655948419 0.38556387376193529 0 -0.20732947292219589 0.39130633980383112 0 -0.20062649044906969 0.41230913494433069 0 -0.20732947292219589 0.39130633980383112 0 -0.18782430593514601 0.39608333455478661 0 -0.20732947292219589 0.39130633980383112 0 -0.18782430593514601 0.39608333455478661 0 -0.19305970572063691 0.37852859607966882 0 -0.20732947292219589 0.39130633980383112 0 -0.19305970572063691 0.37852859607966882 0 -0.2085223065626349 0.37010966414506119 0 -0.18782430593514601 0.39608333455478661 0 -0.19305970572063691 0.37852859607966882 0 -0.17129035380972291 0.37831965628758402 0 -0.17129035380972291 0.37831965628758402 0 -0.1488427443180636 0.38788761144695999 0 -0.15368678346095629 0.37003722358880359 0 -0.17129035380972291 0.37831965628758402 0 -0.1654732125252012 0.39975224500780349 0 -0.1488427443180636 0.38788761144695999 0 -0.18782430593514601 0.39608333455478661 0 -0.1654732125252012 0.39975224500780349 0 -0.180084385390165 0.41970803909950838 0 -0.18782430593514601 0.39608333455478661 0 -0.17129035380972291 0.37831965628758402 0 -0.1654732125252012 0.39975224500780349 0 -0.18410358282118461 0.44851826243283133 0 -0.180084385390165 0.41970803909950838 0 -0.16824128131176411 0.43438189555250278 0 -0.16824128131176411 0.43438189555250278 0 -0.15327983794389069 0.4127726654169519 0 -0.15095450839502969 0.43360318833883849 0 -0.180084385390165 0.41970803909950838 0 -0.16824128131176411 0.43438189555250278 0 -0.15327983794389069 0.4127726654169519 0 -0.1654732125252012 0.39975224500780349 0 -0.180084385390165 0.41970803909950838 0 -0.15327983794389069 0.4127726654169519 0 -0.15327983794389069 0.4127726654169519 0 -0.15095450839502969 0.43360318833883849 0 -0.13065484781577871 0.41897600055214318 0 -0.13781850360900399 0.44639975605581339 0 -0.15095450839502969 0.43360318833883849 0 -0.13065484781577871 0.41897600055214318 0 -0.13781850360900399 0.44639975605581339 0 -0.13065484781577871 0.41897600055214318 0 -0.11859465827199329 0.44177960634883628 0 -0.15327983794389069 0.4127726654169519 0 -0.13065484781577871 0.41897600055214318 0 -0.12692200363058409 0.39460173495563478 0 -0.12692200363058409 0.39460173495563478 0 -0.1488427443180636 0.38788761144695999 0 -0.13454471357068951 0.37054542194286783 0 -0.1488427443180636 0.38788761144695999 0 -0.15368678346095629 0.37003722358880359 0 -0.13454471357068951 0.37054542194286783 0 -0.1654732125252012 0.39975224500780349 0 -0.15327983794389069 0.4127726654169519 0 -0.1488427443180636 0.38788761144695999 0 -0.15327983794389069 0.4127726654169519 0 -0.12692200363058409 0.39460173495563478 0 -0.1488427443180636 0.38788761144695999 0 -0.14828325323960331 0.35289372758379789 0 -0.15200804715850971 0.33437367954509928 0 -0.16578712413374569 0.35535317326764082 0 -0.14828325323960331 0.35289372758379789 0 -0.13057892925561501 0.34978655742484183 0 -0.15200804715850971 0.33437367954509928 0 -0.14828325323960331 0.35289372758379789 0 -0.15368678346095629 0.37003722358880359 0 -0.16578712413374569 0.35535317326764082 0 -0.14828325323960331 0.35289372758379789 0 -0.15368678346095629 0.37003722358880359 0 -0.13454471357068951 0.37054542194286783 0 -0.14828325323960331 0.35289372758379789 0 -0.13454471357068951 0.37054542194286783 0 -0.13057892925561501 0.34978655742484183 0 -0.13057892925561501 0.34978655742484183 0 -0.12720845616693441 0.33415306979000797 0 -0.15200804715850971 0.33437367954509928 0 -0.12720845616693441 0.33415306979000797 0 -0.1383273858938166 0.32418672508774787 0 -0.15200804715850971 0.33437367954509928 0 -0.1383273858938166 0.32418672508774787 0 -0.12699013814771631 0.3181618734084829 0 -0.14710290210210611 0.31005827760740151 0 -0.12720845616693441 0.33415306979000797 0 -0.1383273858938166 0.32418672508774787 0 -0.12699013814771631 0.3181618734084829 0 -0.1383273858938166 0.32418672508774787 0 -0.15200804715850971 0.33437367954509928 0 -0.14710290210210611 0.31005827760740151 0 -0.13057892925561501 0.34978655742484183 0 -0.15200804715850971 0.33437367954509928 0 -0.15200804715850971 0.33437367954509928 0 -0.1790967523712621 0.34035460309545118 0 -0.16578712413374569 0.35535317326764082 0 -0.15200804715850971 0.33437367954509928 0 -0.17343716506140419 0.31896080166535712 0 -0.1790967523712621 0.34035460309545118 0 -0.15200804715850971 0.33437367954509928 0 -0.17343716506140419 0.31896080166535712 0 -0.14710290210210611 0.31005827760740151 0 -0.15200804715850971 0.33437367954509928 0 -0.17343716506140419 0.31896080166535712 0 -0.17343716506140419 0.31896080166535712 0 -0.1790967523712621 0.34035460309545118 0 -0.1947848821034133 0.32390974914158349 0 -0.1790967523712621 0.34035460309545118 0 -0.16578712413374569 0.35535317326764082 0 -0.18639663609591489 0.36281694612176552 0 -0.17129035380972291 0.37831965628758402 0 -0.15368678346095629 0.37003722358880359 0 -0.16578712413374569 0.35535317326764082 0 -0.19305970572063691 0.37852859607966882 0 -0.17129035380972291 0.37831965628758402 0 -0.18639663609591489 0.36281694612176552 0 -0.17129035380972291 0.37831965628758402 0 -0.16578712413374569 0.35535317326764082 0 -0.18639663609591489 0.36281694612176552 0 -0.18639663609591489 0.36281694612176552 0 -0.20215423205681149 0.3483206582231812 0 -0.2085223065626349 0.37010966414506119 0 -0.19305970572063691 0.37852859607966882 0 -0.18639663609591489 0.36281694612176552 0 -0.2085223065626349 0.37010966414506119 0 -0.1790967523712621 0.34035460309545118 0 -0.18639663609591489 0.36281694612176552 0 -0.20215423205681149 0.3483206582231812 0 -0.20215423205681149 0.3483206582231812 0 -0.21554446743749101 0.35690732096375682 0 -0.2085223065626349 0.37010966414506119 0 -0.20215423205681149 0.3483206582231812 0 -0.21554446743749101 0.35690732096375682 0 -0.21637569031634649 0.34474457504627443 0 -0.21554446743749101 0.35690732096375682 0 -0.2085223065626349 0.37010966414506119 0 -0.22500518017985391 0.36825902690544809 0 -0.22929476655948419 0.38556387376193529 0 -0.22500518017985391 0.36825902690544809 0 -0.240444832685659 0.36307633449890858 0 -0.22929476655948419 0.38556387376193529 0 -0.2085223065626349 0.37010966414506119 0 -0.22500518017985391 0.36825902690544809 0 -0.22500518017985391 0.36825902690544809 0 -0.22566492807180849 0.35310268049881932 0 -0.240444832685659 0.36307633449890858 0 -0.21554446743749101 0.35690732096375682 0 -0.22500518017985391 0.36825902690544809 0 -0.22566492807180849 0.35310268049881932 0 -0.21637569031634649 0.34474457504627443 0 -0.22566492807180849 0.35310268049881932 0 -0.22729826177988721 0.33651514810256961 0 -0.21554446743749101 0.35690732096375682 0 -0.21637569031634649 0.34474457504627443 0 -0.22566492807180849 0.35310268049881932 0 -0.25159489881183378 0.34058879523588198 0 -0.240444832685659 0.36307633449890858 0 -0.25159489881183378 0.34058879523588198 0 -0.25587356619010299 0.35325745861766472 0 -0.240444832685659 0.36307633449890858 0 -0.22566492807180849 0.35310268049881932 0 -0.24324070225670719 0.33476533397024838 0 -0.22566492807180849 0.35310268049881932 0 -0.23972583293253991 0.3487117751144494 0 -0.24324070225670719 0.33476533397024838 0 -0.22566492807180849 0.35310268049881932 0 -0.23972583293253991 0.3487117751144494 0 -0.240444832685659 0.36307633449890858 0 -0.25159489881183378 0.34058879523588198 0 -0.23972583293253991 0.3487117751144494 0 -0.240444832685659 0.36307633449890858 0 -0.22929476655948419 0.38556387376193529 0 -0.240444832685659 0.36307633449890858 0 -0.26081647644160599 0.31642798744167749 0 -0.2451410255450715 0.32459148850949432 0 -0.24324070225670719 0.33476533397024838 0 -0.23756757181269469 0.3240833324065398 0 -0.2451410255450715 0.32459148850949432 0 -0.23629602566567709 0.32908977542875839 0 -0.23756757181269469 0.3240833324065398 0 -0.24121442121865991 0.31798458881696201 0 -0.2451410255450715 0.32459148850949432 0 -0.23756757181269469 0.3240833324065398 0 -0.24121442121865991 0.31798458881696201 0 -0.2320152406064411 0.31789585179514779 0 -0.24121442121865991 0.31798458881696201 0 -0.2320152406064411 0.31789585179514779 0 -0.2378204845671105 0.31197863582676111 0 -0.24121442121865991 0.31798458881696201 0 -0.24580016817518441 0.31150226059455588 0 -0.2378204845671105 0.31197863582676111 0 -0.24121442121865991 0.31798458881696201 0 -0.2489420366054573 0.31785596376927311 0 -0.2451410255450715 0.32459148850949432 0 -0.24121442121865991 0.31798458881696201 0 -0.2489420366054573 0.31785596376927311 0 -0.24580016817518441 0.31150226059455588 0 -0.25338005760018761 0.31190460545066628 0 -0.2489420366054573 0.31785596376927311 0 -0.24580016817518441 0.31150226059455588 0 -0.25159489881183378 0.34058879523588198 0 -0.25459926061203891 0.32747084315516578 0 -0.24324070225670719 0.33476533397024838 0 -0.24324070225670719 0.33476533397024838 0 -0.23629602566567709 0.32908977542875839 0 -0.22729826177988721 0.33651514810256961 0 -0.25159489881183378 0.34058879523588198 0 -0.23972583293253991 0.3487117751144494 0 -0.24324070225670719 0.33476533397024838 0 -0.2451410255450715 0.32459148850949432 0 -0.24324070225670719 0.33476533397024838 0 -0.23629602566567709 0.32908977542875839 0 -0.22566492807180849 0.35310268049881932 0 -0.24324070225670719 0.33476533397024838 0 -0.22729826177988721 0.33651514810256961 0 -0.23629602566567709 0.32908977542875839 0 -0.22729826177988721 0.33651514810256961 0 -0.22823256693402491 0.32549357415493979 0 -0.21637569031634649 0.34474457504627443 0 -0.22729826177988721 0.33651514810256961 0 -0.21412933645322399 0.32879001950858688 0 -0.22729826177988721 0.33651514810256961 0 -0.22823256693402491 0.32549357415493979 0 -0.21412933645322399 0.32879001950858688 0 -0.22823256693402491 0.32549357415493979 0 -0.22241302068755911 0.31405480964597521 0 -0.21412933645322399 0.32879001950858688 0 -0.23756757181269469 0.3240833324065398 0 -0.22823256693402491 0.32549357415493979 0 -0.2320152406064411 0.31789585179514779 0 -0.23756757181269469 0.3240833324065398 0 -0.23629602566567709 0.32908977542875839 0 -0.22823256693402491 0.32549357415493979 0 -0.2320152406064411 0.31789585179514779 0 -0.22241302068755911 0.31405480964597521 0 -0.23060164003539341 0.31166580897792029 0 -0.22823256693402491 0.32549357415493979 0 -0.2320152406064411 0.31789585179514779 0 -0.22241302068755911 0.31405480964597521 0 -0.2320152406064411 0.31789585179514779 0 -0.23060164003539341 0.31166580897792029 0 -0.2378204845671105 0.31197863582676111 0 -0.2088563997876027 0.3136274145517069 0 -0.21412933645322399 0.32879001950858688 0 -0.1947848821034133 0.32390974914158349 0 -0.22241302068755911 0.31405480964597521 0 -0.2088563997876027 0.3136274145517069 0 -0.21412933645322399 0.32879001950858688 0 -0.20215423205681149 0.3483206582231812 0 -0.21412933645322399 0.32879001950858688 0 -0.1947848821034133 0.32390974914158349 0 -0.20215423205681149 0.3483206582231812 0 -0.21637569031634649 0.34474457504627443 0 -0.21412933645322399 0.32879001950858688 0 -0.1790967523712621 0.34035460309545118 0 -0.20215423205681149 0.3483206582231812 0 -0.1947848821034133 0.32390974914158349 0 -0.2088563997876027 0.3136274145517069 0 -0.1947848821034133 0.32390974914158349 0 -0.19486628296429889 0.30354792378561468 0 -0.17343716506140419 0.31896080166535712 0 -0.1947848821034133 0.32390974914158349 0 -0.19486628296429889 0.30354792378561468 0 -0.19486628296429889 0.30354792378561468 0 -0.2003568831291499 0.2817501833243824 0 -0.18246146127348151 0.2831549204482865 0 -0.19486628296429889 0.30354792378561468 0 -0.2003568831291499 0.2817501833243824 0 -0.2162954008671949 0.28813504590587419 0 -0.19486628296429889 0.30354792378561468 0 -0.2162954008671949 0.28813504590587419 0 -0.21845457727177031 0.29880388699753058 0 -0.19486628296429889 0.30354792378561468 0 -0.2162954008671949 0.28813504590587419 0 -0.2162954008671949 0.28813504590587419 0 -0.21845457727177031 0.29880388699753058 0 -0.2088563997876027 0.3136274145517069 0 -0.19486628296429889 0.30354792378561468 0 -0.21845457727177031 0.29880388699753058 0 -0.22241302068755911 0.31405480964597521 0 -0.2088563997876027 0.3136274145517069 0 -0.21845457727177031 0.29880388699753058 0 -0.22241302068755911 0.31405480964597521 0 -0.21845457727177031 0.29880388699753058 0 -0.22974288103353699 0.30368011568619713 0 -0.22241302068755911 0.31405480964597521 0 -0.23060164003539341 0.31166580897792029 0 -0.22974288103353699 0.30368011568619713 0 -0.23060164003539341 0.31166580897792029 0 -0.22974288103353699 0.30368011568619713 0 -0.2378204845671105 0.31197863582676111 0 -0.21845457727177031 0.29880388699753058 0 -0.22974288103353699 0.30368011568619713 0 -0.22720533036024701 0.29147147922523148 0 -0.22720533036024701 0.29147147922523148 0 -0.2380380713627048 0.29097461989964118 0 -0.23349572126602949 0.27576372763691598 0 -0.2162954008671949 0.28813504590587419 0 -0.22720533036024701 0.29147147922523148 0 -0.23349572126602949 0.27576372763691598 0 -0.2162954008671949 0.28813504590587419 0 -0.23349572126602949 0.27576372763691598 0 -0.2162954008671949 0.28813504590587419 0 -0.21845457727177031 0.29880388699753058 0 -0.22720533036024701 0.29147147922523148 0 -0.22974288103353699 0.30368011568619713 0 -0.22720533036024701 0.29147147922523148 0 -0.2380380713627048 0.29097461989964118 0 -0.2380380713627048 0.29097461989964118 0 -0.24820645972729041 0.27807384087211329 0 -0.23349572126602949 0.27576372763691598 0 -0.25103006099755781 0.29330144216514248 0 -0.2380380713627048 0.29097461989964118 0 -0.24820645972729041 0.27807384087211329 0 -0.25103006099755781 0.29330144216514248 0 -0.2380380713627048 0.29097461989964118 0 -0.24200583375825011 0.30274168880466978 0 -0.25250689350392591 0.30534550890508783 0 -0.25103006099755781 0.29330144216514248 0 -0.24200583375825011 0.30274168880466978 0 -0.25250689350392591 0.30534550890508783 0 -0.24580016817518441 0.31150226059455588 0 -0.24200583375825011 0.30274168880466978 0 -0.24580016817518441 0.31150226059455588 0 -0.2378204845671105 0.31197863582676111 0 -0.24200583375825011 0.30274168880466978 0 -0.22974288103353699 0.30368011568619713 0 -0.2378204845671105 0.31197863582676111 0 -0.24200583375825011 0.30274168880466978 0 -0.22974288103353699 0.30368011568619713 0 -0.2380380713627048 0.29097461989964118 0 -0.24200583375825011 0.30274168880466978 0 -0.25069604166486548 0.26339240936795971 0 -0.23835895435988499 0.25111330509733959 0 -0.22628130161782661 0.26153546897013608 0 -0.25069604166486548 0.26339240936795971 0 -0.23349572126602949 0.27576372763691598 0 -0.22628130161782661 0.26153546897013608 0 -0.25069604166486548 0.26339240936795971 0 -0.23349572126602949 0.27576372763691598 0 -0.25069604166486548 0.26339240936795971 0 -0.24820645972729041 0.27807384087211329 0 -0.23349572126602949 0.27576372763691598 0 -0.2162954008671949 0.28813504590587419 0 -0.23349572126602949 0.27576372763691598 0 -0.21255847376163819 0.26967028250079511 0 -0.23349572126602949 0.27576372763691598 0 -0.22628130161782661 0.26153546897013608 0 -0.21255847376163819 0.26967028250079511 0 -0.23835895435988499 0.25111330509733959 0 -0.22628130161782661 0.26153546897013608 0 -0.2088215466560806 0.25120551909571609 0 -0.23835895435988499 0.25111330509733959 0 -0.2088215466560806 0.25120551909571609 0 -0.2088215466560806 0.25120551909571609 0 -0.21255847376163819 0.26967028250079511 0 -0.1985798340122531 0.26467256890354868 0 -0.2088215466560806 0.25120551909571609 0 -0.21255847376163819 0.26967028250079511 0 -0.22628130161782661 0.26153546897013608 0 -0.2088215466560806 0.25120551909571609 0 -0.21255847376163819 0.26967028250079511 0 -0.2162954008671949 0.28813504590587419 0 -0.21255847376163819 0.26967028250079511 0 -0.2003568831291499 0.2817501833243824 0 -0.21255847376163819 0.26967028250079511 0 -0.1985798340122531 0.26467256890354868 0 -0.2003568831291499 0.2817501833243824 0 -0.2162954008671949 0.28813504590587419 0 -0.21255847376163819 0.26967028250079511 0 -0.1985798340122531 0.26467256890354868 0 -0.18273708352395049 0.26262964089024232 0 -0.18246146127348151 0.2831549204482865 0 -0.2003568831291499 0.2817501833243824 0 -0.1985798340122531 0.26467256890354868 0 -0.18246146127348151 0.2831549204482865 0 -0.1985798340122531 0.26467256890354868 0 -0.19222285971539771 0.25125733919130339 0 -0.18273708352395049 0.26262964089024232 0 -0.2088215466560806 0.25120551909571609 0 -0.1985798340122531 0.26467256890354868 0 -0.19222285971539771 0.25125733919130339 0 -0.2088215466560806 0.25120551909571609 0 -0.19222285971539771 0.25125733919130339 0 -0.19222285971539771 0.25125733919130339 0 -0.18273708352395049 0.26262964089024232 0 -0.17562417277471479 0.25130915928689052 0 -0.19222285971539771 0.25125733919130339 0 -0.17562417277471479 0.25130915928689052 0 -0.18273708352395049 0.26262964089024232 0 -0.1700087552527976 0.25905622219345631 0 -0.17075646401539521 0.26918869305197241 0 -0.18273708352395049 0.26262964089024232 0 -0.17562417277471479 0.25130915928689052 0 -0.1700087552527976 0.25905622219345631 0 -0.17562417277471479 0.25130915928689052 0 -0.16478531422737339 0.25152931351338942 0 -0.1700087552527976 0.25905622219345631 0 -0.16478531422737339 0.25152931351338942 0 -0.1700087552527976 0.25905622219345631 0 -0.1598292403370184 0.25883035811335892 0 -0.1700087552527976 0.25905622219345631 0 -0.1598292403370184 0.25883035811335892 0 -0.17075646401539521 0.26918869305197241 0 -0.16478531422737339 0.25152931351338942 0 -0.1598292403370184 0.25883035811335892 0 -0.15456248616661331 0.24825110581640769 0 -0.17075646401539521 0.26918869305197241 0 -0.18246146127348151 0.2831549204482865 0 -0.15601394006313241 0.28731768420410708 0 -0.17075646401539521 0.26918869305197241 0 -0.15601394006313241 0.28731768420410708 0 -0.14697874852143011 0.27108039057229372 0 -0.1598292403370184 0.25883035811335892 0 -0.17075646401539521 0.26918869305197241 0 -0.14697874852143011 0.27108039057229372 0 -0.18273708352395049 0.26262964089024232 0 -0.17075646401539521 0.26918869305197241 0 -0.18246146127348151 0.2831549204482865 0 -0.19486628296429889 0.30354792378561468 0 -0.18246146127348151 0.2831549204482865 0 -0.1714709766978183 0.29942510059188659 0 -0.17343716506140419 0.31896080166535712 0 -0.19486628296429889 0.30354792378561468 0 -0.1714709766978183 0.29942510059188659 0 -0.17343716506140419 0.31896080166535712 0 -0.19486628296429889 0.30354792378561468 0 -0.17343716506140419 0.31896080166535712 0 -0.1714709766978183 0.29942510059188659 0 -0.14710290210210611 0.31005827760740151 0 -0.1714709766978183 0.29942510059188659 0 -0.15601394006313241 0.28731768420410708 0 -0.14710290210210611 0.31005827760740151 0 -0.18246146127348151 0.2831549204482865 0 -0.15601394006313241 0.28731768420410708 0 -0.18246146127348151 0.2831549204482865 0 -0.1714709766978183 0.29942510059188659 0 -0.15601394006313241 0.28731768420410708 0 -0.15601394006313241 0.28731768420410708 0 -0.12956641885278339 0.29148044795992772 0 -0.14697874852143011 0.27108039057229372 0 -0.15601394006313241 0.28731768420410708 0 -0.12956641885278339 0.29148044795992772 0 -0.15601394006313241 0.28731768420410708 0 -0.14710290210210611 0.31005827760740151 0 -0.12956641885278339 0.29148044795992772 0 -0.14710290210210611 0.31005827760740151 0 -0.12628769698294129 0.3054757114052099 0 -0.12956641885278339 0.29148044795992772 0 -0.12699013814771631 0.3181618734084829 0 -0.14710290210210611 0.31005827760740151 0 -0.12628769698294129 0.3054757114052099 0 -0.12791335351937411 0.27330877892903921 0 -0.1371274059231577 0.26176717994595661 0 -0.14697874852143011 0.27108039057229372 0 -0.12956641885278339 0.29148044795992772 0 -0.12791335351937411 0.27330877892903921 0 -0.14697874852143011 0.27108039057229372 0 -0.12791335351937411 0.27330877892903921 0 -0.1256670021236366 0.25780254445871192 0 -0.1371274059231577 0.26176717994595661 0 -0.1256670021236366 0.25780254445871192 0 -0.13717873843413311 0.25259206702517989 0 -0.12984742909823779 0.2441897785733689 0 -0.1256670021236366 0.25780254445871192 0 -0.13717873843413311 0.25259206702517989 0 -0.1371274059231577 0.26176717994595661 0 -0.1371274059231577 0.26176717994595661 0 -0.14764441693914959 0.25566959180169418 0 -0.14697874852143011 0.27108039057229372 0 -0.13717873843413311 0.25259206702517989 0 -0.14764441693914959 0.25566959180169418 0 -0.1463551885713045 0.24220950740129379 0 -0.13717873843413311 0.25259206702517989 0 -0.1371274059231577 0.26176717994595661 0 -0.14764441693914959 0.25566959180169418 0 -0.1598292403370184 0.25883035811335892 0 -0.14764441693914959 0.25566959180169418 0 -0.15456248616661331 0.24825110581640769 0 -0.1598292403370184 0.25883035811335892 0 -0.14764441693914959 0.25566959180169418 0 -0.14697874852143011 0.27108039057229372 0 -0.1082292836338011 0.27090663073059479 0 -0.096793832568278587 0.28256301110086152 0 -0.088605433014381244 0.26761876895624059 0 -0.1082292836338011 0.27090663073059479 0 -0.088605433014381244 0.26761876895624059 0 -0.090986801715571858 0.24885150024796579 0 -0.1082292836338011 0.27090663073059479 0 -0.11333966962517079 0.24617004974544221 0 -0.090986801715571858 0.24885150024796579 0 -0.1256670021236366 0.25780254445871192 0 -0.1082292836338011 0.27090663073059479 0 -0.11333966962517079 0.24617004974544221 0 -0.1082292836338011 0.27090663073059479 0 -0.11333966962517079 0.24617004974544221 0 -0.12791335351937411 0.27330877892903921 0 -0.1256670021236366 0.25780254445871192 0 -0.1082292836338011 0.27090663073059479 0 -0.12791335351937411 0.27330877892903921 0 -0.1082292836338011 0.27090663073059479 0 -0.1171034241649216 0.28310163619580081 0 -0.1082292836338011 0.27090663073059479 0 -0.1171034241649216 0.28310163619580081 0 -0.1031188976424343 0.29564321171574809 0 -0.12956641885278339 0.29148044795992772 0 -0.12791335351937411 0.27330877892903921 0 -0.1171034241649216 0.28310163619580081 0 -0.12956641885278339 0.29148044795992772 0 -0.11303597981501801 0.2992677505402499 0 -0.1031188976424343 0.29564321171574809 0 -0.12956641885278339 0.29148044795992772 0 -0.1171034241649216 0.28310163619580081 0 -0.1031188976424343 0.29564321171574809 0 -0.12956641885278339 0.29148044795992772 0 -0.1031188976424343 0.29564321171574809 0 -0.12628769698294129 0.3054757114052099 0 -0.12956641885278339 0.29148044795992772 0 -0.11303597981501801 0.2992677505402499 0 -0.12699013814771631 0.3181618734084829 0 -0.12628769698294129 0.3054757114052099 0 -0.1147430459970829 0.30841020750998749 0 -0.12628769698294129 0.3054757114052099 0 -0.11303597981501801 0.2992677505402499 0 -0.1147430459970829 0.30841020750998749 0 -0.11303597981501801 0.2992677505402499 0 -0.1147430459970829 0.30841020750998749 0 -0.1024959538464498 0.29865854161149169 0 -0.1024959538464498 0.29865854161149169 0 -0.093463963304893316 0.30588764244213262 0 -0.098814251210144866 0.31647964858463701 0 -0.1024959538464498 0.29865854161149169 0 -0.098814251210144866 0.31647964858463701 0 -0.1147430459970829 0.30841020750998749 0 -0.1024959538464498 0.29865854161149169 0 -0.098814251210144866 0.31647964858463701 0 -0.1147430459970829 0.30841020750998749 0 -0.1024959538464498 0.29865854161149169 0 -0.11303597981501801 0.2992677505402499 0 -0.1024959538464498 0.29865854161149169 0 -0.1031188976424343 0.29564321171574809 0 -0.1024959538464498 0.29865854161149169 0 -0.1031188976424343 0.29564321171574809 0 -0.1024959538464498 0.29865854161149169 0 -0.093463963304893316 0.30588764244213262 0 -0.09078979304791096 0.29691618668882008 0 -0.1024959538464498 0.29865854161149169 0 -0.10150089536544341 0.2958978806195719 0 -0.082514653185332867 0.28274856348215188 0 -0.1082292836338011 0.27090663073059479 0 -0.1031188976424343 0.29564321171574809 0 -0.096793832568278587 0.28256301110086152 0 -0.1082292836338011 0.27090663073059479 0 -0.1031188976424343 0.29564321171574809 0 -0.1024959538464498 0.29865854161149169 0 -0.1031188976424343 0.29564321171574809 0 -0.10150089536544341 0.2958978806195719 0 -0.1031188976424343 0.29564321171574809 0 -0.10150089536544341 0.2958978806195719 0 -0.1031188976424343 0.29564321171574809 0 -0.10150089536544341 0.2958978806195719 0 -0.096793832568278587 0.28256301110086152 0 -0.1024959538464498 0.29865854161149169 0 -0.082514653185332867 0.28274856348215188 0 -0.09078979304791096 0.29691618668882008 0 -0.082514653185332867 0.28274856348215188 0 -0.09078979304791096 0.29691618668882008 0 -0.0846846018549679 0.30036999921950441 0 -0.1024959538464498 0.29865854161149169 0 -0.082514653185332867 0.28274856348215188 0 -0.10150089536544341 0.2958978806195719 0 -0.096793832568278587 0.28256301110086152 0 -0.082514653185332867 0.28274856348215188 0 -0.082514653185332867 0.28274856348215188 0 -0.0846846018549679 0.30036999921950441 0 -0.07678990528776633 0.29393759325971253 0 -0.093463963304893316 0.30588764244213262 0 -0.087469052702734876 0.3113913065843486 0 -0.098814251210144866 0.31647964858463701 0 -0.093463963304893316 0.30588764244213262 0 -0.087469052702734876 0.3113913065843486 0 -0.0846846018549679 0.30036999921950441 0 -0.093463963304893316 0.30588764244213262 0 -0.09078979304791096 0.29691618668882008 0 -0.0846846018549679 0.30036999921950441 0 -0.0846846018549679 0.30036999921950441 0 -0.075338077903483791 0.3071511564101726 0 -0.07678990528776633 0.29393759325971253 0 -0.087469052702734876 0.3113913065843486 0 -0.0846846018549679 0.30036999921950441 0 -0.075338077903483791 0.3071511564101726 0 -0.075338077903483791 0.3071511564101726 0 -0.065631786566783076 0.28723422655504871 0 -0.075338077903483791 0.3071511564101726 0 -0.065631786566783076 0.28723422655504871 0 -0.057810858348732681 0.30419415294628532 0 -0.075338077903483791 0.3071511564101726 0 -0.057810858348732681 0.30419415294628532 0 -0.062236552299708037 0.31810648575646039 0 -0.082514653185332867 0.28274856348215188 0 -0.065631786566783076 0.28723422655504871 0 -0.07678990528776633 0.29393759325971253 0 -0.075338077903483791 0.3071511564101726 0 -0.065631786566783076 0.28723422655504871 0 -0.07678990528776633 0.29393759325971253 0 -0.082514653185332867 0.28274856348215188 0 -0.062533352524216407 0.2668385853528118 0 -0.082514653185332867 0.28274856348215188 0 -0.062533352524216407 0.2668385853528118 0 -0.07677739679918924 0.26882257906628759 0 -0.082514653185332867 0.28274856348215188 0 -0.065631786566783076 0.28723422655504871 0 -0.062533352524216407 0.2668385853528118 0 -0.082514653185332867 0.28274856348215188 0 -0.07677739679918924 0.26882257906628759 0 -0.088605433014381244 0.26761876895624059 0 -0.096793832568278587 0.28256301110086152 0 -0.082514653185332867 0.28274856348215188 0 -0.088605433014381244 0.26761876895624059 0 -0.073456148472826485 0.25808439847394621 0 -0.090986801715571858 0.24885150024796579 0 -0.088605433014381244 0.26761876895624059 0 -0.073456148472826485 0.25808439847394621 0 -0.090986801715571858 0.24885150024796579 0 -0.073456148472826485 0.25808439847394621 0 -0.083887317691853203 0.24970315450011851 0 -0.090986801715571858 0.24885150024796579 0 -0.07677739679918924 0.26882257906628759 0 -0.088605433014381244 0.26761876895624059 0 -0.073456148472826485 0.25808439847394621 0 -0.073456148472826485 0.25808439847394621 0 -0.055925495230080502 0.26731729669992571 0 -0.074367827458855687 0.25081837762876741 0 -0.073456148472826485 0.25808439847394621 0 -0.083887317691853203 0.24970315450011851 0 -0.074367827458855687 0.25081837762876741 0 -0.073456148472826485 0.25808439847394621 0 -0.064345821301566589 0.25473287307598708 0 -0.073456148472826485 0.25808439847394621 0 -0.064345821301566589 0.25473287307598708 0 -0.055925495230080502 0.26731729669992571 0 -0.062533352524216407 0.2668385853528118 0 -0.073456148472826485 0.25808439847394621 0 -0.055925495230080502 0.26731729669992571 0 -0.062533352524216407 0.2668385853528118 0 -0.07677739679918924 0.26882257906628759 0 -0.073456148472826485 0.25808439847394621 0 -0.064345821301566589 0.25473287307598708 0 -0.049157707069244723 0.25343006032942861 0 -0.073817678148723281 0.24195817437827091 0 -0.064345821301566589 0.25473287307598708 0 -0.049157707069244723 0.25343006032942861 0 -0.055925495230080502 0.26731729669992571 0 -0.049157707069244723 0.25343006032942861 0 -0.055925495230080502 0.26731729669992571 0 -0.04276548821230787 0.25640373801401628 0 -0.049157707069244723 0.25343006032942861 0 -0.055925495230080502 0.26731729669992571 0 -0.065631786566783076 0.28723422655504871 0 -0.055925495230080502 0.26731729669992571 0 -0.065631786566783076 0.28723422655504871 0 -0.055925495230080502 0.26731729669992571 0 -0.052038475197811809 0.28059203072934219 0 -0.055925495230080502 0.26731729669992571 0 -0.052038475197811809 0.28059203072934219 0 -0.039160578125517431 0.27614690340368442 0 -0.055925495230080502 0.26731729669992571 0 -0.039160578125517431 0.27614690340368442 0 -0.065631786566783076 0.28723422655504871 0 -0.062533352524216407 0.2668385853528118 0 -0.055925495230080502 0.26731729669992571 0 -0.055925495230080502 0.26731729669992571 0 -0.039160578125517431 0.27614690340368442 0 -0.04276548821230787 0.25640373801401628 0 -0.039160578125517431 0.27614690340368442 0 -0.04276548821230787 0.25640373801401628 0 -0.039160578125517431 0.27614690340368442 0 -0.02530022966585364 0.28344675612067471 0 -0.039160578125517431 0.27614690340368442 0 -0.04276548821230787 0.25640373801401628 0 -0.02623087973824011 0.26409568307146192 0 -0.04276548821230787 0.25640373801401628 0 -0.02623087973824011 0.26409568307146192 0 -0.032753750981188899 0.2474474516629255 0 -0.04276548821230787 0.25640373801401628 0 -0.02623087973824011 0.26409568307146192 0 -0.049157707069244723 0.25343006032942861 0 -0.04276548821230787 0.25640373801401628 0 -0.02623087973824011 0.26409568307146192 0 -0.020015889617545982 0.25244153211968762 0 -0.0082229864918420149 0.25576800303731828 0 -0.02623087973824011 0.26409568307146192 0 -0.020015889617545982 0.25244153211968762 0 -0.032753750981188899 0.2474474516629255 0 -0.039160578125517431 0.27614690340368442 0 -0.02623087973824011 0.26409568307146192 0 -0.02530022966585364 0.28344675612067471 0 -0.02623087973824011 0.26409568307146192 0 -0.0096962712641714306 0.27178762812890578 0 -0.02623087973824011 0.26409568307146192 0 -0.0096962712641714306 0.27178762812890578 0 -0.02530022966585364 0.28344675612067471 0 -0.00336591907935764 0.2747325252685191 0 -0.0043609143426928433 0.28352363158534649 0 0.002887592750890238 0.28068936214897089 0 -0.0096962712641714306 0.27178762812890578 0 -0.00336591907935764 0.2747325252685191 0 -0.0043609143426928433 0.28352363158534649 0 -0.0096962712641714306 0.27178762812890578 0 -0.00336591907935764 0.2747325252685191 0 -0.0021114681099658771 0.26598803976022878 0 -0.0096962712641714306 0.27178762812890578 0 -0.00336591907935764 0.2747325252685191 0 -0.0096962712641714306 0.27178762812890578 0 -0.0021114681099658771 0.26598803976022878 0 -0.0082229864918420149 0.25576800303731828 0 -0.0096962712641714306 0.27178762812890578 0 -0.0082229864918420149 0.25576800303731828 0 -0.0021114681099658771 0.26598803976022878 0 -0.0082229864918420149 0.25576800303731828 0 0.0064432837103905929 0.2604142078277335 0 -0.02623087973824011 0.26409568307146192 0 -0.0096962712641714306 0.27178762812890578 0 -0.0082229864918420149 0.25576800303731828 0 -0.0054830346729634744 0.29388391108347978 0 0.00023828875049646691 0.29068609127308842 0 0.00040687792626042772 0.30750086324505738 0 -0.01299370060415006 0.30764191969874022 0 -0.011439881206189099 0.29074660883766362 0 -0.01299370060415006 0.30764191969874022 0 -0.0063484719963431474 0.3023405449268689 0 -0.011439881206189099 0.29074660883766362 0 -0.01299370060415006 0.30764191969874022 0 -0.011439881206189099 0.29074660883766362 0 -0.022336293756404332 0.2975323531036525 0 -0.01299370060415006 0.30764191969874022 0 -0.0063484719963431474 0.3023405449268689 0 0.00040687792626042772 0.30750086324505738 0 -0.0063484719963431474 0.3023405449268689 0 -0.0054830346729634744 0.29388391108347978 0 0.00040687792626042772 0.30750086324505738 0 -0.0063484719963431474 0.3023405449268689 0 -0.0054830346729634744 0.29388391108347978 0 -0.011439881206189099 0.29074660883766362 0 -0.0054830346729634744 0.29388391108347978 0 -0.0043609143426928433 0.28352363158534649 0 0.00023828875049646691 0.29068609127308842 0 -0.0096962712641714306 0.27178762812890578 0 -0.0043609143426928433 0.28352363158534649 0 -0.011439881206189099 0.29074660883766362 0 -0.0054830346729634744 0.29388391108347978 0 -0.0043609143426928433 0.28352363158534649 0 -0.011439881206189099 0.29074660883766362 0 -0.0096962712641714306 0.27178762812890578 0 -0.011439881206189099 0.29074660883766362 0 -0.02530022966585364 0.28344675612067471 0 -0.0096962712641714306 0.27178762812890578 0 -0.011439881206189099 0.29074660883766362 0 -0.0043609143426928433 0.28352363158534649 0 0.00023828875049646691 0.29068609127308842 0 0.002887592750890238 0.28068936214897089 0 -0.0054830346729634744 0.29388391108347978 0 -0.011439881206189099 0.29074660883766362 0 -0.011439881206189099 0.29074660883766362 0 -0.02530022966585364 0.28344675612067471 0 -0.022336293756404332 0.2975323531036525 0 -0.011439881206189099 0.29074660883766362 0 -0.02530022966585364 0.28344675612067471 0 -0.02530022966585364 0.28344675612067471 0 -0.022336293756404332 0.2975323531036525 0 -0.035162771549716511 0.29804186181365372 0 -0.022336293756404332 0.2975323531036525 0 -0.02718160355366939 0.30941936722312069 0 -0.035162771549716511 0.29804186181365372 0 -0.01299370060415006 0.30764191969874022 0 -0.022336293756404332 0.2975323531036525 0 -0.02718160355366939 0.30941936722312069 0 -0.02718160355366939 0.30941936722312069 0 -0.035162771549716511 0.29804186181365372 0 -0.047436040868866547 0.29166969625871081 0 -0.02718160355366939 0.30941936722312069 0 -0.043936312350579571 0.30693686164249367 0 -0.047436040868866547 0.29166969625871081 0 -0.02718160355366939 0.30941936722312069 0 -0.047436040868866547 0.29166969625871081 0 -0.02718160355366939 0.30941936722312069 0 -0.043936312350579571 0.30693686164249367 0 -0.036961745723887572 0.31657321194897281 0 -0.039160578125517431 0.27614690340368442 0 -0.035162771549716511 0.29804186181365372 0 -0.039160578125517431 0.27614690340368442 0 -0.02530022966585364 0.28344675612067471 0 -0.035162771549716511 0.29804186181365372 0 -0.039160578125517431 0.27614690340368442 0 -0.035162771549716511 0.29804186181365372 0 -0.047436040868866547 0.29166969625871081 0 -0.052038475197811809 0.28059203072934219 0 -0.039160578125517431 0.27614690340368442 0 -0.047436040868866547 0.29166969625871081 0 -0.065631786566783076 0.28723422655504871 0 -0.052038475197811809 0.28059203072934219 0 -0.047436040868866547 0.29166969625871081 0 -0.065631786566783076 0.28723422655504871 0 -0.047436040868866547 0.29166969625871081 0 -0.057810858348732681 0.30419415294628532 0 -0.043936312350579571 0.30693686164249367 0 -0.057810858348732681 0.30419415294628532 0 -0.049013674291286363 0.31703811615829602 0 -0.043936312350579571 0.30693686164249367 0 -0.047436040868866547 0.29166969625871081 0 -0.057810858348732681 0.30419415294628532 0 -0.049013674291286363 0.31703811615829602 0 -0.054125015136528683 0.33851411134348292 0 -0.038507242861643302 0.32663752207229302 0 -0.062236552299708037 0.31810648575646039 0 -0.049013674291286363 0.31703811615829602 0 -0.054125015136528683 0.33851411134348292 0 -0.057810858348732681 0.30419415294628532 0 -0.062236552299708037 0.31810648575646039 0 -0.049013674291286363 0.31703811615829602 0 -0.054125015136528683 0.33851411134348292 0 -0.032590734516023193 0.33723591011215048 0 -0.038507242861643302 0.32663752207229302 0 -0.054125015136528683 0.33851411134348292 0 -0.032590734516023193 0.33723591011215048 0 -0.033354894454548568 0.35339333076290091 0 -0.032590734516023193 0.33723591011215048 0 -0.038507242861643302 0.32663752207229302 0 -0.02672607359859679 0.32501137910114541 0 -0.049013674291286363 0.31703811615829602 0 -0.038507242861643302 0.32663752207229302 0 -0.036961745723887572 0.31657321194897281 0 -0.043936312350579571 0.30693686164249367 0 -0.049013674291286363 0.31703811615829602 0 -0.036961745723887572 0.31657321194897281 0 -0.038507242861643302 0.32663752207229302 0 -0.036961745723887572 0.31657321194897281 0 -0.02672607359859679 0.32501137910114541 0 -0.02718160355366939 0.30941936722312069 0 -0.02672607359859679 0.32501137910114541 0 -0.0069271662384688534 0.32716903818752691 0 -0.02718160355366939 0.30941936722312069 0 -0.0069271662384688534 0.32716903818752691 0 -0.02718160355366939 0.30941936722312069 0 -0.036961745723887572 0.31657321194897281 0 -0.02672607359859679 0.32501137910114541 0 -0.01299370060415006 0.30764191969874022 0 -0.02718160355366939 0.30941936722312069 0 -0.0069271662384688534 0.32716903818752691 0 -0.02672607359859679 0.32501137910114541 0 -0.01846603771605726 0.3341218182890513 0 -0.0069271662384688534 0.32716903818752691 0 -0.032590734516023193 0.33723591011215048 0 -0.01846603771605726 0.3341218182890513 0 -0.033354894454548568 0.35339333076290091 0 -0.032590734516023193 0.33723591011215048 0 -0.02672607359859679 0.32501137910114541 0 -0.01846603771605726 0.3341218182890513 0 -0.01846603771605726 0.3341218182890513 0 -0.01357146079415167 0.34498746752273712 0 -0.021665416996271641 0.34969703424942949 0 -0.01846603771605726 0.3341218182890513 0 -0.0069271662384688534 0.32716903818752691 0 -0.01357146079415167 0.34498746752273712 0 -0.0069271662384688534 0.32716903818752691 0 -0.01357146079415167 0.34498746752273712 0 -0.0069271662384688534 0.32716903818752691 0 -0.01357146079415167 0.34498746752273712 0 0.01576885959242524 0.34705835845987998 0 -0.0069271662384688534 0.32716903818752691 0 0.00040687792626042772 0.30750086324505738 0 -0.01299370060415006 0.30764191969874022 0 -0.0069271662384688534 0.32716903818752691 0 0.00040687792626042772 0.30750086324505738 0 -0.0069271662384688534 0.32716903818752691 0 0.0024190994722557819 0.31945267763882002 0 0.00040687792626042772 0.30750086324505738 0 -0.0202157553498367 0.36280589685794651 0 -0.0025797780880571219 0.37543989063062583 0 -0.0202157553498367 0.36280589685794651 0 -0.0025797780880571219 0.37543989063062583 0 0.00010098149986300999 0.35959132194679128 0 -0.01357146079415167 0.34498746752273712 0 -0.0202157553498367 0.36280589685794651 0 0.00010098149986300999 0.35959132194679128 0 -0.01357146079415167 0.34498746752273712 0 -0.0202157553498367 0.36280589685794651 0 -0.01846603771605726 0.3341218182890513 0 -0.033354894454548568 0.35339333076290091 0 -0.01846603771605726 0.3341218182890513 0 -0.021665416996271641 0.34969703424942949 0 -0.033354894454548568 0.35339333076290091 0 -0.01357146079415167 0.34498746752273712 0 -0.021665416996271641 0.34969703424942949 0 -0.0202157553498367 0.36280589685794651 0 -0.0202157553498367 0.36280589685794651 0 -0.033354894454548568 0.35339333076290091 0 -0.021665416996271641 0.34969703424942949 0 -0.0202157553498367 0.36280589685794651 0 -0.033354894454548568 0.35339333076290091 0 -0.0202157553498367 0.36280589685794651 0 -0.034804150492666379 0.36929321009710753 0 -0.033354894454548568 0.35339333076290091 0 -0.0202157553498367 0.36280589685794651 0 -0.034804150492666379 0.36929321009710753 0 -0.029971568008284679 0.38896868314101191 0 -0.034804150492666379 0.36929321009710753 0 -0.033354894454548568 0.35339333076290091 0 -0.049823235000746112 0.37470926091347961 0 -0.033354894454548568 0.35339333076290091 0 -0.056276835770670511 0.35676635588525119 0 -0.049823235000746112 0.37470926091347961 0 -0.033354894454548568 0.35339333076290091 0 -0.049823235000746112 0.37470926091347961 0 -0.054125015136528683 0.33851411134348292 0 -0.033354894454548568 0.35339333076290091 0 -0.054125015136528683 0.33851411134348292 0 -0.056276835770670511 0.35676635588525119 0 -0.07380612154573632 0.34923509812445253 0 -0.054125015136528683 0.33851411134348292 0 -0.033354894454548568 0.35339333076290091 0 -0.056276835770670511 0.35676635588525119 0 -0.056276835770670511 0.35676635588525119 0 -0.049823235000746112 0.37470926091347961 0 -0.070274912715792962 0.3679799782819404 0 -0.070274912715792962 0.3679799782819404 0 -0.092688534941869488 0.35076414411501389 0 -0.087720693449825582 0.38061231318432648 0 -0.070274912715792962 0.3679799782819404 0 -0.092688534941869488 0.35076414411501389 0 -0.07380612154573632 0.34923509812445253 0 -0.092688534941869488 0.35076414411501389 0 -0.07380612154573632 0.34923509812445253 0 -0.084545386537668271 0.33965826656782849 0 -0.056276835770670511 0.35676635588525119 0 -0.070274912715792962 0.3679799782819404 0 -0.07380612154573632 0.34923509812445253 0 -0.054125015136528683 0.33851411134348292 0 -0.07380612154573632 0.34923509812445253 0 -0.076055358386711416 0.33692324877659707 0 -0.054125015136528683 0.33851411134348292 0 -0.074895135818508693 0.32363489192406503 0 -0.054125015136528683 0.33851411134348292 0 -0.076055358386711416 0.33692324877659707 0 -0.074895135818508693 0.32363489192406503 0 -0.062236552299708037 0.31810648575646039 0 -0.054125015136528683 0.33851411134348292 0 -0.074895135818508693 0.32363489192406503 0 -0.075338077903483791 0.3071511564101726 0 -0.062236552299708037 0.31810648575646039 0 -0.074895135818508693 0.32363489192406503 0 -0.075338077903483791 0.3071511564101726 0 -0.085044369240184492 0.32706808626529649 0 -0.085044369240184492 0.32706808626529649 0 -0.095132548573839695 0.33430075555778221 0 -0.098814251210144866 0.31647964858463701 0 -0.087469052702734876 0.3113913065843486 0 -0.075338077903483791 0.3071511564101726 0 -0.085044369240184492 0.32706808626529649 0 -0.075338077903483791 0.3071511564101726 0 -0.074895135818508693 0.32363489192406503 0 -0.085044369240184492 0.32706808626529649 0 -0.087469052702734876 0.3113913065843486 0 -0.085044369240184492 0.32706808626529649 0 -0.098814251210144866 0.31647964858463701 0 -0.092688534941869488 0.35076414411501389 0 -0.084545386537668271 0.33965826656782849 0 -0.095132548573839695 0.33430075555778221 0 -0.07380612154573632 0.34923509812445253 0 -0.076055358386711416 0.33692324877659707 0 -0.084545386537668271 0.33965826656782849 0 -0.076055358386711416 0.33692324877659707 0 -0.085044369240184492 0.32706808626529649 0 -0.084545386537668271 0.33965826656782849 0 -0.076055358386711416 0.33692324877659707 0 -0.074895135818508693 0.32363489192406503 0 -0.085044369240184492 0.32706808626529649 0 -0.085044369240184492 0.32706808626529649 0 -0.084545386537668271 0.33965826656782849 0 -0.095132548573839695 0.33430075555778221 0 -0.092688534941869488 0.35076414411501389 0 -0.095132548573839695 0.33430075555778221 0 -0.11111862038072851 0.3434290005611576 0 -0.095132548573839695 0.33430075555778221 0 -0.1119534419933919 0.32637004117471591 0 -0.11111862038072851 0.3434290005611576 0 -0.095132548573839695 0.33430075555778221 0 -0.098814251210144866 0.31647964858463701 0 -0.1119534419933919 0.32637004117471591 0 -0.1147430459970829 0.30841020750998749 0 -0.098814251210144866 0.31647964858463701 0 -0.1119534419933919 0.32637004117471591 0 -0.095132548573839695 0.33430075555778221 0 -0.098814251210144866 0.31647964858463701 0 -0.12699013814771631 0.3181618734084829 0 -0.1147430459970829 0.30841020750998749 0 -0.1119534419933919 0.32637004117471591 0 -0.12720845616693441 0.33415306979000797 0 -0.12699013814771631 0.3181618734084829 0 -0.1119534419933919 0.32637004117471591 0 -0.12699013814771631 0.3181618734084829 0 -0.1147430459970829 0.30841020750998749 0 -0.13057892925561501 0.34978655742484183 0 -0.12720845616693441 0.33415306979000797 0 -0.11111862038072851 0.3434290005611576 0 -0.12720845616693441 0.33415306979000797 0 -0.1119534419933919 0.32637004117471591 0 -0.11111862038072851 0.3434290005611576 0 -0.13057892925561501 0.34978655742484183 0 -0.1091498113527203 0.3651994353045841 0 -0.13057892925561501 0.34978655742484183 0 -0.11111862038072851 0.3434290005611576 0 -0.1091498113527203 0.3651994353045841 0 -0.13454471357068951 0.37054542194286783 0 -0.13057892925561501 0.34978655742484183 0 -0.1091498113527203 0.3651994353045841 0 -0.092688534941869488 0.35076414411501389 0 -0.1091498113527203 0.3651994353045841 0 -0.087720693449825582 0.38061231318432648 0 -0.1091498113527203 0.3651994353045841 0 -0.087720693449825582 0.38061231318432648 0 -0.092688534941869488 0.35076414411501389 0 -0.11111862038072851 0.3434290005611576 0 -0.1091498113527203 0.3651994353045841 0 -0.1045832326444628 0.39599270658065772 0 -0.1050177849516874 0.41881184095093721 0 -0.085219388482486974 0.39973795555688157 0 -0.1091498113527203 0.3651994353045841 0 -0.1045832326444628 0.39599270658065772 0 -0.087720693449825582 0.38061231318432648 0 -0.12692200363058409 0.39460173495563478 0 -0.13454471357068951 0.37054542194286783 0 -0.1091498113527203 0.3651994353045841 0 -0.12692200363058409 0.39460173495563478 0 -0.1091498113527203 0.3651994353045841 0 -0.1045832326444628 0.39599270658065772 0 -0.12692200363058409 0.39460173495563478 0 -0.1045832326444628 0.39599270658065772 0 -0.1171125465088369 0.40727936751336358 0 -0.13065484781577871 0.41897600055214318 0 -0.12692200363058409 0.39460173495563478 0 -0.1171125465088369 0.40727936751336358 0 -0.13065484781577871 0.41897600055214318 0 -0.1171125465088369 0.40727936751336358 0 -0.1050177849516874 0.41881184095093721 0 -0.13065484781577871 0.41897600055214318 0 -0.1050177849516874 0.41881184095093721 0 -0.11859465827199329 0.44177960634883628 0 -0.1050177849516874 0.41881184095093721 0 -0.11859465827199329 0.44177960634883628 0 -0.1050177849516874 0.41881184095093721 0 -0.096116961320735952 0.43920172496551502 0 -0.11859465827199329 0.44177960634883628 0 -0.1050177849516874 0.41881184095093721 0 -0.08403381127114784 0.41898999777007201 0 -0.096116961320735952 0.43920172496551502 0 -0.1045832326444628 0.39599270658065772 0 -0.1171125465088369 0.40727936751336358 0 -0.1050177849516874 0.41881184095093721 0 -0.1050177849516874 0.41881184095093721 0 -0.08403381127114784 0.41898999777007201 0 -0.085219388482486974 0.39973795555688157 0 -0.08403381127114784 0.41898999777007201 0 -0.072546070897783602 0.44168377077120002 0 -0.096116961320735952 0.43920172496551502 0 -0.08403381127114784 0.41898999777007201 0 -0.064327680782658575 0.4248059314289534 0 -0.072546070897783602 0.44168377077120002 0 -0.08403381127114784 0.41898999777007201 0 -0.066291575546930326 0.39602519106406858 0 -0.08403381127114784 0.41898999777007201 0 -0.064327680782658575 0.4248059314289534 0 -0.064225732138914249 0.41271562153111913 0 -0.08403381127114784 0.41898999777007201 0 -0.064225732138914249 0.41271562153111913 0 -0.066291575546930326 0.39602519106406858 0 -0.066291575546930326 0.39602519106406858 0 -0.085219388482486974 0.39973795555688157 0 -0.087720693449825582 0.38061231318432648 0 -0.08403381127114784 0.41898999777007201 0 -0.066291575546930326 0.39602519106406858 0 -0.085219388482486974 0.39973795555688157 0 -0.1045832326444628 0.39599270658065772 0 -0.085219388482486974 0.39973795555688157 0 -0.087720693449825582 0.38061231318432648 0 -0.066291575546930326 0.39602519106406858 0 -0.087720693449825582 0.38061231318432648 0 -0.070274912715792962 0.3679799782819404 0 -0.066291575546930326 0.39602519106406858 0 -0.087720693449825582 0.38061231318432648 0 -0.049823235000746112 0.37470926091347961 0 -0.066291575546930326 0.39602519106406858 0 -0.049823235000746112 0.37470926091347961 0 -0.070274912715792962 0.3679799782819404 0 -0.066291575546930326 0.39602519106406858 0 -0.049823235000746112 0.37470926091347961 0 -0.066291575546930326 0.39602519106406858 0 -0.046246075133599067 0.39067746160398698 0 -0.064225732138914249 0.41271562153111913 0 -0.066291575546930326 0.39602519106406858 0 -0.053009478106832389 0.40557833024407342 0 -0.066291575546930326 0.39602519106406858 0 -0.053009478106832389 0.40557833024407342 0 -0.046246075133599067 0.39067746160398698 0 -0.066291575546930326 0.39602519106406858 0 -0.053009478106832389 0.40557833024407342 0 -0.053009478106832389 0.40557833024407342 0 -0.046246075133599067 0.39067746160398698 0 -0.039727380666733432 0.41513146942407692 0 -0.046246075133599067 0.39067746160398698 0 -0.029971568008284679 0.38896868314101191 0 -0.039727380666733432 0.41513146942407692 0 -0.029971568008284679 0.38896868314101191 0 -0.039727380666733432 0.41513146942407692 0 -0.034804150492666379 0.36929321009710753 0 -0.049823235000746112 0.37470926091347961 0 -0.046246075133599067 0.39067746160398698 0 -0.034804150492666379 0.36929321009710753 0 -0.046246075133599067 0.39067746160398698 0 -0.029971568008284679 0.38896868314101191 0 -0.0202157553498367 0.36280589685794651 0 -0.029971568008284679 0.38896868314101191 0 -0.0025797780880571219 0.37543989063062583 0 -0.0202157553498367 0.36280589685794651 0 -0.029971568008284679 0.38896868314101191 0 -0.029971568008284679 0.38896868314101191 0 -0.018475263758611731 0.411378979885687 0 -0.039727380666733432 0.41513146942407692 0 -0.029971568008284679 0.38896868314101191 0 -0.0054410299765013138 0.39673920570106452 0 -0.018475263758611731 0.411378979885687 0 -0.029971568008284679 0.38896868314101191 0 -0.0054410299765013138 0.39673920570106452 0 -0.0025797780880571219 0.37543989063062583 0 -0.0054410299765013138 0.39673920570106452 0 -0.018475263758611731 0.411378979885687 0 0.0099931046433973467 0.4163887716221798 0 -0.018475263758611731 0.411378979885687 0 -0.016128183136638701 0.43210517553925759 0 0.0099931046433973467 0.4163887716221798 0 -0.018475263758611731 0.411378979885687 0 -0.016128183136638701 0.43210517553925759 0 -0.039727380666733432 0.41513146942407692 0 -0.016128183136638701 0.43210517553925759 0 -0.039727380666733432 0.41513146942407692 0 -0.039727380666733432 0.41513146942407692 0 -0.047639013968500898 0.43634860206805809 0 -0.016128183136638701 0.43210517553925759 0 -0.039727380666733432 0.41513146942407692 0 -0.047639013968500898 0.43634860206805809 0 -0.053009478106832389 0.40557833024407342 0 -0.039727380666733432 0.41513146942407692 0 -0.053009478106832389 0.40557833024407342 0 -0.039727380666733432 0.41513146942407692 0 -0.053466114987001732 0.41817865714842761 0 -0.064327680782658575 0.4248059314289534 0 -0.064225732138914249 0.41271562153111913 0 -0.053466114987001732 0.41817865714842761 0 -0.064225732138914249 0.41271562153111913 0 -0.053009478106832389 0.40557833024407342 0 -0.053466114987001732 0.41817865714842761 0 -0.064327680782658575 0.4248059314289534 0 -0.047639013968500898 0.43634860206805809 0 -0.072546070897783602 0.44168377077120002 0 -0.039727380666733432 0.41513146942407692 0 -0.053466114987001732 0.41817865714842761 0 -0.047639013968500898 0.43634860206805809 0 -0.064327680782658575 0.4248059314289534 0 -0.053466114987001732 0.41817865714842761 0 -0.047639013968500898 0.43634860206805809 0 -0.016128183136638701 0.43210517553925759 0 -0.047639013968500898 0.43634860206805809 0 -0.035563243031224358 0.45217486525683309 0 -0.047639013968500898 0.43634860206805809 0 -0.055550647270268677 0.45756573471203921 0 -0.072546070897783602 0.44168377077120002 0 -0.047639013968500898 0.43634860206805809 0 -0.055550647270268677 0.45756573471203921 0 -0.055550647270268677 0.45756573471203921 0 -0.063462280572036456 0.47878286735602038 0 -0.035563243031224358 0.45217486525683309 0 -0.01828801677401944 0.46192608965163579 0 -0.04021035400669408 0.47292872431317462 0 -0.055550647270268677 0.45756573471203921 0 -0.035563243031224358 0.45217486525683309 0 -0.04021035400669408 0.47292872431317462 0 -0.047639013968500898 0.43634860206805809 0 -0.055550647270268677 0.45756573471203921 0 -0.035563243031224358 0.45217486525683309 0 -0.016128183136638701 0.43210517553925759 0 -0.035563243031224358 0.45217486525683309 0 -0.01828801677401944 0.46192608965163579 0 -0.01828801677401944 0.46192608965163579 0 0.0047442145766311422 0.47788143583345832 0 0.0074710143934566403 0.44907888165443771 0 -0.016128183136638701 0.43210517553925759 0 -0.01828801677401944 0.46192608965163579 0 0.0074710143934566403 0.44907888165443771 0 -0.016128183136638701 0.43210517553925759 0 0.0074710143934566403 0.44907888165443771 0 -0.011516905530788209 0.5 0 -0.0227757341047954 0.48370078196999988 0 0.0047442145766311422 0.47788143583345832 0 -0.01828801677401944 0.46192608965163579 0 -0.0227757341047954 0.48370078196999988 0 0.0047442145766311422 0.47788143583345832 0 -0.01828801677401944 0.46192608965163579 0 -0.0227757341047954 0.48370078196999988 0 -0.04021035400669408 0.47292872431317462 0 -0.011516905530788209 0.5 0 -0.0227757341047954 0.48370078196999988 0 -0.041445409702296487 0.5 0 -0.0227757341047954 0.48370078196999988 0 -0.041445409702296487 0.5 0 -0.04021035400669408 0.47292872431317462 0 -0.055550647270268677 0.45756573471203921 0 -0.04021035400669408 0.47292872431317462 0 -0.063462280572036456 0.47878286735602038 0 -0.041445409702296487 0.5 0 -0.04021035400669408 0.47292872431317462 0 -0.063462280572036456 0.47878286735602038 0 -0.041445409702296487 0.5 0 -0.071373913873804734 0.50000000000000133 0 -0.063462280572036456 0.47878286735602038 0 -0.071373913873804734 0.50000000000000133 0 -0.084100179450013163 0.47943034608364948 0 -0.063462280572036456 0.47878286735602038 0 -0.071373913873804734 0.50000000000000133 0 -0.063462280572036456 0.47878286735602038 0 -0.071373913873804734 0.50000000000000133 0 -0.084100179450013163 0.47943034608364948 0 -0.098747365306623425 0.5 0 -0.084100179450013163 0.47943034608364948 0 -0.063462280572036456 0.47878286735602038 0 -0.07247720188512688 0.46327510801626731 0 -0.07247720188512688 0.46327510801626731 0 -0.072546070897783602 0.44168377077120002 0 -0.088955731306547853 0.45719299604487268 0 -0.055550647270268677 0.45756573471203921 0 -0.063462280572036456 0.47878286735602038 0 -0.07247720188512688 0.46327510801626731 0 -0.055550647270268677 0.45756573471203921 0 -0.07247720188512688 0.46327510801626731 0 -0.072546070897783602 0.44168377077120002 0 -0.072546070897783602 0.44168377077120002 0 -0.088955731306547853 0.45719299604487268 0 -0.096116961320735952 0.43920172496551502 0 -0.084100179450013163 0.47943034608364948 0 -0.07247720188512688 0.46327510801626731 0 -0.088955731306547853 0.45719299604487268 0 -0.088955731306547853 0.45719299604487268 0 -0.1079604056512186 0.4565632097733372 0 -0.10974146016859559 0.47721005883519058 0 -0.1079604056512186 0.4565632097733372 0 -0.096116961320735952 0.43920172496551502 0 -0.11859465827199329 0.44177960634883628 0 -0.088955731306547853 0.45719299604487268 0 -0.1079604056512186 0.4565632097733372 0 -0.096116961320735952 0.43920172496551502 0 -0.13217153159229919 0.46474737174673542 0 -0.1079604056512186 0.4565632097733372 0 -0.11859465827199329 0.44177960634883628 0 -0.13217153159229919 0.46474737174673542 0 -0.1079604056512186 0.4565632097733372 0 -0.10974146016859559 0.47721005883519058 0 -0.12869881579587741 0.48229690186979141 0 -0.13217153159229919 0.46474737174673542 0 -0.10974146016859559 0.47721005883519058 0 -0.12612081673944209 0.5 0 -0.12869881579587741 0.48229690186979141 0 -0.10974146016859559 0.47721005883519058 0 -0.12612081673944209 0.5 0 -0.10974146016859559 0.47721005883519058 0 -0.098747365306623425 0.5 0 -0.084100179450013163 0.47943034608364948 0 -0.10974146016859559 0.47721005883519058 0 -0.098747365306623425 0.5 0 -0.084100179450013163 0.47943034608364948 0 -0.088955731306547853 0.45719299604487268 0 -0.10974146016859559 0.47721005883519058 0 -0.167369771154561 0.092398546135955065 0 -0.1601567109350758 0.075435759259825069 0 -0.18429171281247159 0.086006835119737612 0 -0.167369771154561 0.092398546135955065 0 -0.1601567109350758 0.075435759259825069 0 -0.1528319580725758 0.094656283564832314 0 -0.1601567109350758 0.075435759259825069 0 -0.18515745015756091 0.06844979524076511 0 -0.16409936697113561 0.058162809088764048 0 -0.1601567109350758 0.075435759259825069 0 -0.18515745015756091 0.06844979524076511 0 -0.18429171281247159 0.086006835119737612 0 -0.1601567109350758 0.075435759259825069 0 -0.18429171281247159 0.086006835119737612 0 -0.18429171281247159 0.086006835119737612 0 -0.1772933198549837 0.10989086698783899 0 -0.1907997249711077 0.1064732965217786 0 -0.167369771154561 0.092398546135955065 0 -0.18429171281247159 0.086006835119737612 0 -0.1772933198549837 0.10989086698783899 0 -0.1786494167413791 0.1208600549569767 0 -0.1890669120213522 0.1200275871497398 0 -0.18049268908833399 0.1289877796372077 0 -0.1772933198549837 0.10989086698783899 0 -0.1890669120213522 0.1200275871497398 0 -0.1907997249711077 0.1064732965217786 0 -0.1772933198549837 0.10989086698783899 0 -0.1786494167413791 0.1208600549569767 0 -0.1890669120213522 0.1200275871497398 0 -0.1772933198549837 0.10989086698783899 0 -0.1786494167413791 0.1208600549569767 0 -0.16774474600084671 0.1245339860531202 0 -0.1786494167413791 0.1208600549569767 0 -0.16774474600084671 0.1245339860531202 0 -0.18049268908833399 0.1289877796372077 0 -0.16774474600084671 0.1245339860531202 0 -0.16121814968661599 0.1057733534165009 0 -0.16774474600084671 0.1245339860531202 0 -0.16121814968661599 0.1057733534165009 0 -0.15576038624593061 0.1237732032738611 0 -0.1772933198549837 0.10989086698783899 0 -0.16774474600084671 0.1245339860531202 0 -0.16121814968661599 0.1057733534165009 0 -0.167369771154561 0.092398546135955065 0 -0.1772933198549837 0.10989086698783899 0 -0.16121814968661599 0.1057733534165009 0 -0.167369771154561 0.092398546135955065 0 -0.16121814968661599 0.1057733534165009 0 -0.1528319580725758 0.094656283564832314 0 -0.16121814968661599 0.1057733534165009 0 -0.1528319580725758 0.094656283564832314 0 -0.14808645078934571 0.1120062938487901 0 -0.1528319580725758 0.094656283564832314 0 -0.14808645078934571 0.1120062938487901 0 -0.13768924053296491 0.10161275630394449 0 -0.16121814968661599 0.1057733534165009 0 -0.15576038624593061 0.1237732032738611 0 -0.14808645078934571 0.1120062938487901 0 -0.15576038624593061 0.1237732032738611 0 -0.14808645078934571 0.1120062938487901 0 -0.14385850524548641 0.12480714660781431 0 -0.14808645078934571 0.1120062938487901 0 -0.14385850524548641 0.12480714660781431 0 -0.1341947746342623 0.1170794655598361 0 -0.1341947746342623 0.1170794655598361 0 -0.12279717720951509 0.1074305474415032 0 -0.1192886350787581 0.1247345076055992 0 -0.14385850524548641 0.12480714660781431 0 -0.1341947746342623 0.1170794655598361 0 -0.13344863894950371 0.13188554155136559 0 -0.14808645078934571 0.1120062938487901 0 -0.1341947746342623 0.1170794655598361 0 -0.13768924053296491 0.10161275630394449 0 -0.1341947746342623 0.1170794655598361 0 -0.13344863894950371 0.13188554155136559 0 -0.1192886350787581 0.1247345076055992 0 -0.1341947746342623 0.1170794655598361 0 -0.13768924053296491 0.10161275630394449 0 -0.12279717720951509 0.1074305474415032 0 -0.13768924053296491 0.10161275630394449 0 -0.12752608452163181 0.091888103636393437 0 -0.12279717720951509 0.1074305474415032 0 -0.13768924053296491 0.10161275630394449 0 -0.12752608452163181 0.091888103636393437 0 -0.14225121608458299 0.08274648568834489 0 -0.12752608452163181 0.091888103636393437 0 -0.12521444809085969 0.078893422456786169 0 -0.14225121608458299 0.08274648568834489 0 -0.1601567109350758 0.075435759259825069 0 -0.1528319580725758 0.094656283564832314 0 -0.14225121608458299 0.08274648568834489 0 -0.1528319580725758 0.094656283564832314 0 -0.13768924053296491 0.10161275630394449 0 -0.14225121608458299 0.08274648568834489 0 -0.1601567109350758 0.075435759259825069 0 -0.14225121608458299 0.08274648568834489 0 -0.13602170905768221 0.064864683399907391 0 -0.1601567109350758 0.075435759259825069 0 -0.13602170905768221 0.064864683399907391 0 -0.1601567109350758 0.075435759259825069 0 -0.13602170905768221 0.064864683399907391 0 -0.16409936697113561 0.058162809088764048 0 -0.12521444809085969 0.078893422456786169 0 -0.14225121608458299 0.08274648568834489 0 -0.13602170905768221 0.064864683399907391 0 -0.12521444809085969 0.078893422456786169 0 -0.13602170905768221 0.064864683399907391 0 -0.13602170905768221 0.064864683399907391 0 -0.12745267427392179 0.051457622877073672 0 -0.1117881332998015 0.054250432404829851 0 -0.13602170905768221 0.064864683399907391 0 -0.12745267427392179 0.051457622877073672 0 -0.15146193878698261 0.044821958928309917 0 -0.12745267427392179 0.051457622877073672 0 -0.15146193878698261 0.044821958928309917 0 -0.1235159725445605 0.036040748729495482 0 -0.15146193878698261 0.044821958928309917 0 -0.148271524354669 0.018925094324170139 0 -0.1235159725445605 0.036040748729495482 0 -0.13602170905768221 0.064864683399907391 0 -0.15146193878698261 0.044821958928309917 0 -0.13602170905768221 0.064864683399907391 0 -0.15146193878698261 0.044821958928309917 0 -0.16409936697113561 0.058162809088764048 0 -0.13029174811000349 0.0070918604316854029 0 -0.148271524354669 0.018925094324170139 0 -0.1235159725445605 0.036040748729495482 0 -0.148271524354669 0.018925094324170139 0 -0.1235159725445605 0.036040748729495482 0 -0.15146193878698261 0.044821958928309917 0 -0.148271524354669 0.018925094324170139 0 -0.16690216851628389 0.024779234456713289 0 -0.15753431684281241 -0.001750762085388194 0 -0.13029174811000349 0.0070918604316854029 0 -0.15753431684281241 -0.001750762085388194 0 -0.13029174811000349 0.0070918604316854029 0 -0.148271524354669 0.018925094324170139 0 -0.15753431684281241 -0.001750762085388194 0 -0.148271524354669 0.018925094324170139 0 -0.1730270761647775 0.0018094399188447899 0 -0.148271524354669 0.018925094324170139 0 -0.1730270761647775 0.0018094399188447899 0 -0.148271524354669 0.018925094324170139 0 -0.16690216851628389 0.024779234456713289 0 -0.1730270761647775 0.0018094399188447899 0 -0.17938896877820179 0.02718558103407721 0 -0.19073304893257881 0.010226432398601191 0 -0.17938896877820179 0.02718558103407721 0 -0.17984164611816239 0.0167319394686271 0 -0.19073304893257881 0.010226432398601191 0 -0.16690216851628389 0.024779234456713289 0 -0.17938896877820179 0.02718558103407721 0 -0.17355813854371871 0.032881452542864467 0 -0.16690216851628389 0.024779234456713289 0 -0.17938896877820179 0.02718558103407721 0 -0.17984164611816239 0.0167319394686271 0 -0.16690216851628389 0.024779234456713289 0 -0.1730270761647775 0.0018094399188447899 0 -0.18234239824558529 0.0047365099851166964 0 -0.16690216851628389 0.024779234456713289 0 -0.18234239824558529 0.0047365099851166964 0 -0.16690216851628389 0.024779234456713289 0 -0.17984164611816239 0.0167319394686271 0 -0.18234239824558529 0.0047365099851166964 0 -0.17984164611816239 0.0167319394686271 0 -0.18234239824558529 0.0047365099851166964 0 -0.19073304893257881 0.010226432398601191 0 -0.15146193878698261 0.044821958928309917 0 -0.16409936697113561 0.058162809088764048 0 -0.1695477862500363 0.041889420624250197 0 -0.15146193878698261 0.044821958928309917 0 -0.16690216851628389 0.024779234456713289 0 -0.1695477862500363 0.041889420624250197 0 -0.15146193878698261 0.044821958928309917 0 -0.16690216851628389 0.024779234456713289 0 -0.16690216851628389 0.024779234456713289 0 -0.1695477862500363 0.041889420624250197 0 -0.17355813854371871 0.032881452542864467 0 -0.1695477862500363 0.041889420624250197 0 -0.17839363063035271 0.037671574056417169 0 -0.18225060663947609 0.053515237079526642 0 -0.17839363063035271 0.037671574056417169 0 -0.18225060663947609 0.053515237079526642 0 -0.18885944745530289 0.033432585974059507 0 -0.18225060663947609 0.053515237079526642 0 -0.18885944745530289 0.033432585974059507 0 -0.1695477862500363 0.041889420624250197 0 -0.17839363063035271 0.037671574056417169 0 -0.17355813854371871 0.032881452542864467 0 -0.17938896877820179 0.02718558103407721 0 -0.17839363063035271 0.037671574056417169 0 -0.17355813854371871 0.032881452542864467 0 -0.17938896877820179 0.02718558103407721 0 -0.17839363063035271 0.037671574056417169 0 -0.18885944745530289 0.033432585974059507 0 -0.16409936697113561 0.058162809088764048 0 -0.1695477862500363 0.041889420624250197 0 -0.18225060663947609 0.053515237079526642 0 -0.18515745015756091 0.06844979524076511 0 -0.16409936697113561 0.058162809088764048 0 -0.18225060663947609 0.053515237079526642 0 -0.18225060663947609 0.053515237079526642 0 -0.19633254551298379 0.05409843172212838 0 -0.18885944745530289 0.033432585974059507 0 -0.18515745015756091 0.06844979524076511 0 -0.18225060663947609 0.053515237079526642 0 -0.19633254551298379 0.05409843172212838 0 -0.19633254551298379 0.05409843172212838 0 -0.18885944745530289 0.033432585974059507 0 -0.20138198020197701 0.039467912507906718 0 -0.18885944745530289 0.033432585974059507 0 -0.20138198020197701 0.039467912507906718 0 -0.197385537621975 0.025247173950674679 0 -0.19633254551298379 0.05409843172212838 0 -0.20138198020197701 0.039467912507906718 0 -0.22026079620614769 0.045094192198740821 0 -0.20846268519438799 0.02875490930723567 0 -0.22500701094476269 0.029237917200665719 0 -0.22026079620614769 0.045094192198740821 0 -0.20138198020197701 0.039467912507906718 0 -0.20846268519438799 0.02875490930723567 0 -0.22026079620614769 0.045094192198740821 0 -0.22026079620614769 0.045094192198740821 0 -0.22090096666712239 0.071580523021778156 0 -0.20361543052394171 0.067342622129172428 0 -0.19633254551298379 0.05409843172212838 0 -0.22026079620614769 0.045094192198740821 0 -0.20361543052394171 0.067342622129172428 0 -0.19633254551298379 0.05409843172212838 0 -0.22026079620614769 0.045094192198740821 0 -0.2020771290869561 -0.0067327162368746828 0 -0.19073304893257881 0.010226432398601191 0 -0.19546828827112969 0.01334993486859243 0 -0.2020771290869561 -0.0067327162368746828 0 -0.19546828827112969 0.01334993486859243 0 -0.2020771290869561 -0.0067327162368746828 0 -0.19073304893257881 0.010226432398601191 0 -0.2020771290869561 -0.0067327162368746828 0 -0.19546828827112969 0.01334993486859243 0 -0.20470036820778989 0.005056858126057653 0 -0.1932338010600016 -0.001768997084909288 0 -0.2020771290869561 -0.0067327162368746828 0 -0.19073304893257881 0.010226432398601191 0 -0.1932338010600016 -0.001768997084909288 0 -0.18234239824558529 0.0047365099851166964 0 -0.19073304893257881 0.010226432398601191 0 -0.19546828827112969 0.01334993486859243 0 -0.20340728921435899 0.01216287335878072 0 -0.20470036820778989 0.005056858126057653 0 -0.19546828827112969 0.01334993486859243 0 -0.2013400855076945 0.018631068243873089 0 -0.20340728921435899 0.01216287335878072 0 -0.18885944745530289 0.033432585974059507 0 -0.19546828827112969 0.01334993486859243 0 -0.197385537621975 0.025247173950674679 0 -0.17938896877820179 0.02718558103407721 0 -0.18885944745530289 0.033432585974059507 0 -0.19546828827112969 0.01334993486859243 0 -0.17938896877820179 0.02718558103407721 0 -0.19073304893257881 0.010226432398601191 0 -0.19546828827112969 0.01334993486859243 0 -0.18885944745530289 0.033432585974059507 0 -0.19546828827112969 0.01334993486859243 0 -0.19546828827112969 0.01334993486859243 0 -0.2013400855076945 0.018631068243873089 0 -0.197385537621975 0.025247173950674679 0 -0.2013400855076945 0.018631068243873089 0 -0.197385537621975 0.025247173950674679 0 -0.20355128176102341 0.0227139352838212 0 -0.20138198020197701 0.039467912507906718 0 -0.197385537621975 0.025247173950674679 0 -0.20846268519438799 0.02875490930723567 0 -0.20846268519438799 0.02875490930723567 0 -0.21636709549779379 0.018804022258994049 0 -0.22500701094476269 0.029237917200665719 0 -0.197385537621975 0.025247173950674679 0 -0.20846268519438799 0.02875490930723567 0 -0.20355128176102341 0.0227139352838212 0 -0.20846268519438799 0.02875490930723567 0 -0.21636709549779379 0.018804022258994049 0 -0.20701681872003599 0.01822258963350137 0 -0.20846268519438799 0.02875490930723567 0 -0.20355128176102341 0.0227139352838212 0 -0.20701681872003599 0.01822258963350137 0 -0.2013400855076945 0.018631068243873089 0 -0.20355128176102341 0.0227139352838212 0 -0.20701681872003599 0.01822258963350137 0 -0.2013400855076945 0.018631068243873089 0 -0.20701681872003599 0.01822258963350137 0 -0.20340728921435899 0.01216287335878072 0 -0.21636709549779379 0.018804022258994049 0 -0.21147137789647041 0.0089849623331989502 0 -0.22790469448703671 0.0084067359303357583 0 -0.21107775657003461 -0.0024807636934089899 0 -0.21147137789647041 0.0089849623331989502 0 -0.22790469448703671 0.0084067359303357583 0 -0.20340728921435899 0.01216287335878072 0 -0.21147137789647041 0.0089849623331989502 0 -0.20470036820778989 0.005056858126057653 0 -0.20701681872003599 0.01822258963350137 0 -0.20340728921435899 0.01216287335878072 0 -0.21147137789647041 0.0089849623331989502 0 -0.21636709549779379 0.018804022258994049 0 -0.20701681872003599 0.01822258963350137 0 -0.21147137789647041 0.0089849623331989502 0 -0.21107775657003461 -0.0024807636934089899 0 -0.21147137789647041 0.0089849623331989502 0 -0.20470036820778989 0.005056858126057653 0 -0.22790469448703671 0.0084067359303357583 0 -0.22500701094476269 0.029237917200665719 0 -0.2418276965371163 0.032075683502554873 0 -0.21636709549779379 0.018804022258994049 0 -0.22790469448703671 0.0084067359303357583 0 -0.22500701094476269 0.029237917200665719 0 -0.25324650806817539 0.01696472638503203 0 -0.22790469448703671 0.0084067359303357583 0 -0.2418276965371163 0.032075683502554873 0 -0.22790469448703671 0.0084067359303357583 0 -0.2418276965371163 0.032075683502554873 0 -0.23778738746560901 -0.009771170948148656 0 -0.22790469448703671 0.0084067359303357583 0 -0.2482450729197497 0.001618596764240732 0 -0.25324650806817539 0.01696472638503203 0 -0.22790469448703671 0.0084067359303357583 0 -0.2482450729197497 0.001618596764240732 0 -0.23229238022107501 0.053165208796229532 0 -0.22026079620614769 0.045094192198740821 0 -0.22090096666712239 0.071580523021778156 0 -0.23229238022107501 0.053165208796229532 0 -0.22026079620614769 0.045094192198740821 0 -0.24418904689931151 0.036089952675353767 0 -0.22026079620614769 0.045094192198740821 0 -0.24418904689931151 0.036089952675353767 0 -0.22500701094476269 0.029237917200665719 0 -0.22026079620614769 0.045094192198740821 0 -0.2418276965371163 0.032075683502554873 0 -0.22026079620614769 0.045094192198740821 0 -0.2418276965371163 0.032075683502554873 0 -0.24418904689931151 0.036089952675353767 0 -0.2418276965371163 0.032075683502554873 0 -0.24418904689931151 0.036089952675353767 0 -0.23229238022107501 0.053165208796229532 0 -0.24418904689931151 0.036089952675353767 0 -0.24349962065446071 0.055438611922231242 0 -0.25768072235099271 0.059025649860388961 0 -0.24418904689931151 0.036089952675353767 0 -0.24349962065446071 0.055438611922231242 0 -0.23229238022107501 0.053165208796229532 0 -0.24349962065446071 0.055438611922231242 0 -0.23582897543255019 0.06447383543429025 0 -0.25768072235099271 0.059025649860388961 0 -0.24349962065446071 0.055438611922231242 0 -0.24729063342449989 0.068340480831575207 0 -0.24729063342449989 0.068340480831575207 0 -0.23582897543255019 0.06447383543429025 0 -0.23692349237460389 0.080104348409182305 0 -0.24349962065446071 0.055438611922231242 0 -0.24729063342449989 0.068340480831575207 0 -0.23582897543255019 0.06447383543429025 0 -0.25019838896120772 0.081394011590539134 0 -0.24729063342449989 0.068340480831575207 0 -0.23692349237460389 0.080104348409182305 0 -0.23692349237460389 0.080104348409182305 0 -0.22627801662816269 0.10093693448437829 0 -0.24073051888516131 0.096588666132737089 0 -0.25019838896120772 0.081394011590539134 0 -0.23692349237460389 0.080104348409182305 0 -0.24073051888516131 0.096588666132737089 0 -0.25019838896120772 0.081394011590539134 0 -0.25566447336394388 0.093290664473130849 0 -0.24073051888516131 0.096588666132737089 0 -0.23692349237460389 0.080104348409182305 0 -0.22090096666712239 0.071580523021778156 0 -0.22627801662816269 0.10093693448437829 0 -0.23582897543255019 0.06447383543429025 0 -0.23692349237460389 0.080104348409182305 0 -0.22090096666712239 0.071580523021778156 0 -0.23229238022107501 0.053165208796229532 0 -0.23582897543255019 0.06447383543429025 0 -0.22090096666712239 0.071580523021778156 0 -0.22090096666712239 0.071580523021778156 0 -0.20361543052394171 0.067342622129172428 0 -0.2039360223385932 0.082573474643794151 0 -0.22090096666712239 0.071580523021778156 0 -0.2039360223385932 0.082573474643794151 0 -0.22627801662816269 0.10093693448437829 0 -0.18515745015756091 0.06844979524076511 0 -0.18429171281247159 0.086006835119737612 0 -0.2039360223385932 0.082573474643794151 0 -0.18429171281247159 0.086006835119737612 0 -0.2039360223385932 0.082573474643794151 0 -0.20337255724230019 0.1011241378669334 0 -0.18515745015756091 0.06844979524076511 0 -0.20361543052394171 0.067342622129172428 0 -0.2039360223385932 0.082573474643794151 0 -0.18515745015756091 0.06844979524076511 0 -0.19633254551298379 0.05409843172212838 0 -0.20361543052394171 0.067342622129172428 0 -0.19959655783049829 0.1147573909655438 0 -0.1890669120213522 0.1200275871497398 0 -0.1997331869962046 0.1253082352054444 0 -0.19959655783049829 0.1147573909655438 0 -0.1890669120213522 0.1200275871497398 0 -0.1907997249711077 0.1064732965217786 0 -0.18429171281247159 0.086006835119737612 0 -0.1907997249711077 0.1064732965217786 0 -0.20337255724230019 0.1011241378669334 0 -0.19959655783049829 0.1147573909655438 0 -0.1907997249711077 0.1064732965217786 0 -0.20337255724230019 0.1011241378669334 0 -0.20337255724230019 0.1011241378669334 0 -0.21501040792152651 0.1208536980838229 0 -0.22627801662816269 0.10093693448437829 0 -0.2039360223385932 0.082573474643794151 0 -0.20337255724230019 0.1011241378669334 0 -0.22627801662816269 0.10093693448437829 0 -0.19959655783049829 0.1147573909655438 0 -0.20337255724230019 0.1011241378669334 0 -0.21501040792152651 0.1208536980838229 0 -0.19959655783049829 0.1147573909655438 0 -0.21501040792152651 0.1208536980838229 0 -0.1997331869962046 0.1253082352054444 0 -0.21501040792152651 0.1208536980838229 0 -0.22627801662816269 0.10093693448437829 0 -0.23454220804542769 0.11937652315847461 0 -0.21501040792152651 0.1208536980838229 0 -0.22627801662816269 0.10093693448437829 0 -0.22627801662816269 0.10093693448437829 0 -0.24073051888516131 0.096588666132737089 0 -0.23454220804542769 0.11937652315847461 0 -0.25054943601730989 0.108071301881526 0 -0.24073051888516131 0.096588666132737089 0 -0.23454220804542769 0.11937652315847461 0 -0.25054943601730989 0.108071301881526 0 -0.25566447336394388 0.093290664473130849 0 -0.24073051888516131 0.096588666132737089 0 -0.25116920304913942 0.1229739772897126 0 -0.25054943601730989 0.108071301881526 0 -0.23454220804542769 0.11937652315847461 0 -0.25116920304913942 0.1229739772897126 0 -0.23454220804542769 0.11937652315847461 0 -0.24484117155015039 0.13603799405898309 0 -0.23454220804542769 0.11937652315847461 0 -0.24484117155015039 0.13603799405898309 0 -0.23271237754530949 0.13542722369026081 0 -0.24484117155015039 0.13603799405898309 0 -0.23271237754530949 0.13542722369026081 0 -0.24266682955660979 0.1439900170165917 0 -0.21501040792152651 0.1208536980838229 0 -0.23271237754530949 0.13542722369026081 0 -0.22166168392975391 0.13923575376044309 0 -0.21501040792152651 0.1208536980838229 0 -0.23454220804542769 0.11937652315847461 0 -0.23271237754530949 0.13542722369026081 0 -0.22479213819116081 0.1559348124332601 0 -0.2153916548731914 0.1590527041100826 0 -0.2166886844281759 0.15011456457132369 0 -0.22479213819116081 0.1559348124332601 0 -0.2275469143102691 0.1472953251078242 0 -0.2166886844281759 0.15011456457132369 0 -0.22166168392975391 0.13923575376044309 0 -0.2275469143102691 0.1472953251078242 0 -0.2166886844281759 0.15011456457132369 0 -0.23271237754530949 0.13542722369026081 0 -0.2275469143102691 0.1472953251078242 0 -0.2367548008551488 0.14824719481008661 0 -0.23271237754530949 0.13542722369026081 0 -0.22166168392975391 0.13923575376044309 0 -0.2275469143102691 0.1472953251078242 0 -0.2275469143102691 0.1472953251078242 0 -0.2326718009120656 0.15481240138157079 0 -0.2367548008551488 0.14824719481008661 0 -0.22479213819116081 0.1559348124332601 0 -0.2275469143102691 0.1472953251078242 0 -0.2326718009120656 0.15481240138157079 0 -0.2326718009120656 0.15481240138157079 0 -0.23774530336037189 0.1545242975382744 0 -0.2367548008551488 0.14824719481008661 0 -0.2326718009120656 0.15481240138157079 0 -0.23774530336037189 0.1545242975382744 0 -0.23541547886496739 0.15739084928168171 0 -0.23774530336037189 0.1545242975382744 0 -0.24186066184359889 0.1510042151724455 0 -0.24127364169884791 0.15916345717245309 0 -0.23774530336037189 0.1545242975382744 0 -0.24186066184359889 0.1510042151724455 0 -0.2367548008551488 0.14824719481008661 0 -0.23271237754530949 0.13542722369026081 0 -0.2367548008551488 0.14824719481008661 0 -0.24266682955660979 0.1439900170165917 0 -0.24186066184359889 0.1510042151724455 0 -0.2367548008551488 0.14824719481008661 0 -0.24266682955660979 0.1439900170165917 0 -0.24484117155015039 0.13603799405898309 0 -0.24266682955660979 0.1439900170165917 0 -0.2492397644375573 0.1485544685068895 0 -0.24186066184359889 0.1510042151724455 0 -0.24266682955660979 0.1439900170165917 0 -0.2492397644375573 0.1485544685068895 0 -0.24186066184359889 0.1510042151724455 0 -0.2492397644375573 0.1485544685068895 0 -0.24127364169884791 0.15916345717245309 0 -0.26448722718353179 0.14874810072661149 0 -0.24307100167447609 0.16318405166244451 0 -0.24127364169884791 0.15916345717245309 0 -0.25060242597239979 0.1657845782070915 0 -0.24307100167447609 0.16318405166244451 0 -0.24596295136095439 0.16938010358051581 0 -0.24307100167447609 0.16318405166244451 0 -0.24596295136095439 0.16938010358051581 0 -0.23753331340622941 0.17353659386823261 0 -0.25283600639573611 0.16907486109111261 0 -0.24596295136095439 0.16938010358051581 0 -0.24827215438598041 0.17656107981440819 0 -0.25283600639573611 0.16907486109111261 0 -0.25060242597239979 0.1657845782070915 0 -0.24596295136095439 0.16938010358051581 0 -0.23541547886496739 0.15739084928168171 0 -0.24127364169884791 0.15916345717245309 0 -0.2299711694885839 0.16106324103442829 0 -0.23774530336037189 0.1545242975382744 0 -0.23541547886496739 0.15739084928168171 0 -0.24127364169884791 0.15916345717245309 0 -0.24827215438598041 0.17656107981440819 0 -0.2391999026278849 0.18198822213022339 0 -0.2473808015411986 0.19126964712816619 0 -0.24596295136095439 0.16938010358051581 0 -0.24827215438598041 0.17656107981440819 0 -0.23753331340622941 0.17353659386823261 0 -0.24827215438598041 0.17656107981440819 0 -0.23753331340622941 0.17353659386823261 0 -0.2391999026278849 0.18198822213022339 0 -0.23753331340622941 0.17353659386823261 0 -0.2391999026278849 0.18198822213022339 0 -0.23130169209426271 0.17920012379042169 0 -0.23753331340622941 0.17353659386823261 0 -0.23130169209426271 0.17920012379042169 0 -0.21581889564401499 0.17378539182112909 0 -0.2391999026278849 0.18198822213022339 0 -0.23130169209426271 0.17920012379042169 0 -0.23151155171175331 0.1893736660498882 0 -0.23130169209426271 0.17920012379042169 0 -0.22281885599618639 0.18344106513380939 0 -0.23151155171175331 0.1893736660498882 0 -0.23130169209426271 0.17920012379042169 0 -0.22281885599618639 0.18344106513380939 0 -0.21581889564401499 0.17378539182112909 0 -0.22281885599618639 0.18344106513380939 0 -0.21434007031284619 0.183002732794705 0 -0.22048384595768239 0.19061504808012811 0 -0.24307100167447609 0.16318405166244451 0 -0.21806005621416411 0.1695788136182948 0 -0.21581889564401499 0.17378539182112909 0 -0.24127364169884791 0.15916345717245309 0 -0.21806005621416411 0.1695788136182948 0 -0.24127364169884791 0.15916345717245309 0 -0.2299711694885839 0.16106324103442829 0 -0.21806005621416411 0.1695788136182948 0 -0.24307100167447609 0.16318405166244451 0 -0.24127364169884791 0.15916345717245309 0 -0.21806005621416411 0.1695788136182948 0 -0.24307100167447609 0.16318405166244451 0 -0.21581889564401499 0.17378539182112909 0 -0.24307100167447609 0.16318405166244451 0 -0.23753331340622941 0.17353659386823261 0 -0.21581889564401499 0.17378539182112909 0 -0.22479213819116081 0.1559348124332601 0 -0.2326718009120656 0.15481240138157079 0 -0.2299711694885839 0.16106324103442829 0 -0.2326718009120656 0.15481240138157079 0 -0.23541547886496739 0.15739084928168171 0 -0.2299711694885839 0.16106324103442829 0 -0.2299711694885839 0.16106324103442829 0 -0.2207461902759067 0.1620504098536609 0 -0.21806005621416411 0.1695788136182948 0 -0.22479213819116081 0.1559348124332601 0 -0.2299711694885839 0.16106324103442829 0 -0.2207461902759067 0.1620504098536609 0 -0.22479213819116081 0.1559348124332601 0 -0.2207461902759067 0.1620504098536609 0 -0.2153916548731914 0.1590527041100826 0 -0.2153916548731914 0.1590527041100826 0 -0.21488820313063919 0.16521444948225239 0 -0.20763643412840241 0.16601662326875399 0 -0.2207461902759067 0.1620504098536609 0 -0.2153916548731914 0.1590527041100826 0 -0.21488820313063919 0.16521444948225239 0 -0.2207461902759067 0.1620504098536609 0 -0.21488820313063919 0.16521444948225239 0 -0.21806005621416411 0.1695788136182948 0 -0.21488820313063919 0.16521444948225239 0 -0.21806005621416411 0.1695788136182948 0 -0.2126066801615315 0.16937369656046941 0 -0.21806005621416411 0.1695788136182948 0 -0.2126066801615315 0.16937369656046941 0 -0.21581889564401499 0.17378539182112909 0 -0.21488820313063919 0.16521444948225239 0 -0.2126066801615315 0.16937369656046941 0 -0.20763643412840241 0.16601662326875399 0 -0.2126066801615315 0.16937369656046941 0 -0.20763643412840241 0.16601662326875399 0 -0.2047215060968709 0.1734107286343762 0 -0.20763643412840241 0.16601662326875399 0 -0.2047215060968709 0.1734107286343762 0 -0.19897873093685159 0.17349119954171499 0 -0.20763643412840241 0.16601662326875399 0 -0.20608892150391109 0.15646096738639251 0 -0.19746762385546959 0.16694380614252291 0 -0.2153916548731914 0.1590527041100826 0 -0.20763643412840241 0.16601662326875399 0 -0.20608892150391109 0.15646096738639251 0 -0.21581889564401499 0.17378539182112909 0 -0.20526656256291351 0.18080779404950431 0 -0.1885667896135543 0.18438673197981381 0 -0.22281885599618639 0.18344106513380939 0 -0.21434007031284619 0.183002732794705 0 -0.21581889564401499 0.17378539182112909 0 -0.2126066801615315 0.16937369656046941 0 -0.21581889564401499 0.17378539182112909 0 -0.2047215060968709 0.1734107286343762 0 -0.21434007031284619 0.183002732794705 0 -0.21581889564401499 0.17378539182112909 0 -0.20526656256291351 0.18080779404950431 0 -0.20526656256291351 0.18080779404950431 0 -0.21058113798956171 0.1915527051515109 0 -0.1987335627657317 0.1882117242014511 0 -0.21434007031284619 0.183002732794705 0 -0.20526656256291351 0.18080779404950431 0 -0.21058113798956171 0.1915527051515109 0 -0.20526656256291351 0.18080779404950431 0 -0.1885667896135543 0.18438673197981381 0 -0.18886206251477539 0.18843921231157221 0 -0.20526656256291351 0.18080779404950431 0 -0.1987335627657317 0.1882117242014511 0 -0.18886206251477539 0.18843921231157221 0 -0.21581889564401499 0.17378539182112909 0 -0.1885667896135543 0.18438673197981381 0 -0.2047215060968709 0.1734107286343762 0 -0.19897873093685159 0.17349119954171499 0 -0.1885667896135543 0.18438673197981381 0 -0.20526656256291351 0.18080779404950431 0 -0.18886206251477539 0.18843921231157221 0 -0.21581889564401499 0.17378539182112909 0 -0.2047215060968709 0.1734107286343762 0 -0.1885667896135543 0.18438673197981381 0 -0.19280572991704001 0.17432471307008579 0 -0.1885667896135543 0.18438673197981381 0 -0.18494968469277789 0.17398940183103839 0 -0.19897873093685159 0.17349119954171499 0 -0.19280572991704001 0.17432471307008579 0 -0.1885667896135543 0.18438673197981381 0 -0.1943462419538331 0.1573799317571524 0 -0.18494968469277789 0.17398940183103839 0 -0.19746762385546959 0.16694380614252291 0 -0.1943462419538331 0.1573799317571524 0 -0.18494968469277789 0.17398940183103839 0 -0.20608892150391109 0.15646096738639251 0 -0.19746762385546959 0.16694380614252291 0 -0.1943462419538331 0.1573799317571524 0 -0.20763643412840241 0.16601662326875399 0 -0.19897873093685159 0.17349119954171499 0 -0.19746762385546959 0.16694380614252291 0 -0.19897873093685159 0.17349119954171499 0 -0.19280572991704001 0.17432471307008579 0 -0.19746762385546959 0.16694380614252291 0 -0.19280572991704001 0.17432471307008579 0 -0.19746762385546959 0.16694380614252291 0 -0.18494968469277789 0.17398940183103839 0 -0.20608892150391109 0.15646096738639251 0 -0.1943462419538331 0.1573799317571524 0 -0.2037427992148895 0.1407704616832671 0 -0.1943462419538331 0.1573799317571524 0 -0.2037427992148895 0.1407704616832671 0 -0.17427134231507699 0.14329461868973969 0 -0.2037427992148895 0.1407704616832671 0 -0.17427134231507699 0.14329461868973969 0 -0.1943462419538331 0.1573799317571524 0 -0.2037427992148895 0.1407704616832671 0 -0.19012514882122461 0.13161795215401381 0 -0.2037427992148895 0.1407704616832671 0 -0.17427134231507699 0.14329461868973969 0 -0.1890669120213522 0.1200275871497398 0 -0.19012514882122461 0.13161795215401381 0 -0.1997331869962046 0.1253082352054444 0 -0.19012514882122461 0.13161795215401381 0 -0.1997331869962046 0.1253082352054444 0 -0.2037427992148895 0.1407704616832671 0 -0.21501040792152651 0.1208536980838229 0 -0.2037427992148895 0.1407704616832671 0 -0.21501040792152651 0.1208536980838229 0 -0.1997331869962046 0.1253082352054444 0 -0.2037427992148895 0.1407704616832671 0 -0.21501040792152651 0.1208536980838229 0 -0.22166168392975391 0.13923575376044309 0 -0.2037427992148895 0.1407704616832671 0 -0.22166168392975391 0.13923575376044309 0 -0.2037427992148895 0.1407704616832671 0 -0.20608892150391109 0.15646096738639251 0 -0.2166886844281759 0.15011456457132369 0 -0.2037427992148895 0.1407704616832671 0 -0.22166168392975391 0.13923575376044309 0 -0.2166886844281759 0.15011456457132369 0 -0.2037427992148895 0.1407704616832671 0 -0.2153916548731914 0.1590527041100826 0 -0.20608892150391109 0.15646096738639251 0 -0.2166886844281759 0.15011456457132369 0 -0.23835895435988499 0.25111330509733959 0 -0.2088215466560806 0.25120551909571609 0 -0.2235398056752724 0.23500124070661821 0 -0.25872289257184927 0.2377480085381638 0 -0.23835895435988499 0.25111330509733959 0 -0.24131719811821711 0.23026677869535059 0 -0.23835895435988499 0.25111330509733959 0 -0.2235398056752724 0.23500124070661821 0 -0.24131719811821711 0.23026677869535059 0 -0.25500457036020791 0.22478830146187501 0 -0.24131719811821711 0.23026677869535059 0 -0.2420909958891401 0.21281575136507039 0 -0.24131719811821711 0.23026677869535059 0 -0.2310416335427726 0.2224252971328462 0 -0.2420909958891401 0.21281575136507039 0 -0.2235398056752724 0.23500124070661821 0 -0.24131719811821711 0.23026677869535059 0 -0.2310416335427726 0.2224252971328462 0 -0.2235398056752724 0.23500124070661821 0 -0.2310416335427726 0.2224252971328462 0 -0.21975713578738079 0.2130929936373068 0 -0.2310416335427726 0.2224252971328462 0 -0.21975713578738079 0.2130929936373068 0 -0.2420909958891401 0.21281575136507039 0 -0.21975713578738079 0.2130929936373068 0 -0.2420909958891401 0.21281575136507039 0 -0.21975713578738079 0.2130929936373068 0 -0.2420909958891401 0.21281575136507039 0 -0.23356896866428961 0.20218132038273631 0 -0.21975713578738079 0.2130929936373068 0 -0.23356896866428961 0.20218132038273631 0 -0.22398244549248891 0.19938765442686421 0 -0.21975713578738079 0.2130929936373068 0 -0.22398244549248891 0.19938765442686421 0 -0.21459072534133841 0.20167524398426159 0 -0.21975713578738079 0.2130929936373068 0 -0.23356896866428961 0.20218132038273631 0 -0.25269266269831953 0.2029174757593134 0 -0.2420909958891401 0.21281575136507039 0 -0.23356896866428961 0.20218132038273631 0 -0.2391999026278849 0.18198822213022339 0 -0.2473808015411986 0.19126964712816619 0 -0.23151155171175331 0.1893736660498882 0 -0.25269266269831953 0.2029174757593134 0 -0.2473808015411986 0.19126964712816619 0 -0.23356896866428961 0.20218132038273631 0 -0.2473808015411986 0.19126964712816619 0 -0.23151155171175331 0.1893736660498882 0 -0.23356896866428961 0.20218132038273631 0 -0.2473808015411986 0.19126964712816619 0 -0.23356896866428961 0.20218132038273631 0 -0.23151155171175331 0.1893736660498882 0 -0.23356896866428961 0.20218132038273631 0 -0.22398244549248891 0.19938765442686421 0 -0.22398244549248891 0.19938765442686421 0 -0.22048384595768239 0.19061504808012811 0 -0.21459072534133841 0.20167524398426159 0 -0.23151155171175331 0.1893736660498882 0 -0.22398244549248891 0.19938765442686421 0 -0.22048384595768239 0.19061504808012811 0 -0.22281885599618639 0.18344106513380939 0 -0.23151155171175331 0.1893736660498882 0 -0.22048384595768239 0.19061504808012811 0 -0.22048384595768239 0.19061504808012811 0 -0.21459072534133841 0.20167524398426159 0 -0.21058113798956171 0.1915527051515109 0 -0.21434007031284619 0.183002732794705 0 -0.22048384595768239 0.19061504808012811 0 -0.21058113798956171 0.1915527051515109 0 -0.21459072534133841 0.20167524398426159 0 -0.2031756817105437 0.19745459749910299 0 -0.21058113798956171 0.1915527051515109 0 -0.21459072534133841 0.20167524398426159 0 -0.2031756817105437 0.19745459749910299 0 -0.20721618113621551 0.20582118461976351 0 -0.2031756817105437 0.19745459749910299 0 -0.19903084794838199 0.20353896071325089 0 -0.20721618113621551 0.20582118461976351 0 -0.2031756817105437 0.19745459749910299 0 -0.21058113798956171 0.1915527051515109 0 -0.1987335627657317 0.1882117242014511 0 -0.1987335627657317 0.1882117242014511 0 -0.19326344877807289 0.1919557479292146 0 -0.1953294270432053 0.19627139560409079 0 -0.2031756817105437 0.19745459749910299 0 -0.1987335627657317 0.1882117242014511 0 -0.1953294270432053 0.19627139560409079 0 -0.1987335627657317 0.1882117242014511 0 -0.19326344877807289 0.1919557479292146 0 -0.18886206251477539 0.18843921231157221 0 -0.19326344877807289 0.1919557479292146 0 -0.19012874278857919 0.1949006595997442 0 -0.1953294270432053 0.19627139560409079 0 -0.19326344877807289 0.1919557479292146 0 -0.19012874278857919 0.1949006595997442 0 -0.18886206251477539 0.18843921231157221 0 -0.19012874278857919 0.1949006595997442 0 -0.18986478936191331 0.20285782725957621 0 -0.18274801204040081 0.19680377710102831 0 -0.18986478936191331 0.20285782725957621 0 -0.1953294270432053 0.19627139560409079 0 -0.19903084794838199 0.20353896071325089 0 -0.19012874278857919 0.1949006595997442 0 -0.18986478936191331 0.20285782725957621 0 -0.1953294270432053 0.19627139560409079 0 -0.2031756817105437 0.19745459749910299 0 -0.1953294270432053 0.19627139560409079 0 -0.19903084794838199 0.20353896071325089 0 -0.19903084794838199 0.20353896071325089 0 -0.19952651489343279 0.21334412726489529 0 -0.20721618113621551 0.20582118461976351 0 -0.19952651489343279 0.21334412726489529 0 -0.1792958939994849 0.2135952608924834 0 -0.18986478936191331 0.20285782725957621 0 -0.19903084794838199 0.20353896071325089 0 -0.19952651489343279 0.21334412726489529 0 -0.18986478936191331 0.20285782725957621 0 -0.19952651489343279 0.21334412726489529 0 -0.1792958939994849 0.2135952608924834 0 -0.19952651489343279 0.21334412726489529 0 -0.1845542748477346 0.22137309866737631 0 -0.1792958939994849 0.2135952608924834 0 -0.21975713578738079 0.2130929936373068 0 -0.19952651489343279 0.21334412726489529 0 -0.20321953741721971 0.22352508213059591 0 -0.21975713578738079 0.2130929936373068 0 -0.19952651489343279 0.21334412726489529 0 -0.20721618113621551 0.20582118461976351 0 -0.21975713578738079 0.2130929936373068 0 -0.19952651489343279 0.21334412726489529 0 -0.21975713578738079 0.2130929936373068 0 -0.21459072534133841 0.20167524398426159 0 -0.20721618113621551 0.20582118461976351 0 -0.21975713578738079 0.2130929936373068 0 -0.20367895432583 0.22579513564841039 0 -0.2235398056752724 0.23500124070661821 0 -0.21975713578738079 0.2130929936373068 0 -0.20367895432583 0.22579513564841039 0 -0.21975713578738079 0.2130929936373068 0 -0.20367895432583 0.22579513564841039 0 -0.20321953741721971 0.22352508213059591 0 -0.20367895432583 0.22579513564841039 0 -0.20321953741721971 0.22352508213059591 0 -0.19952651489343279 0.21334412726489529 0 -0.20321953741721971 0.22352508213059591 0 -0.19788299156498509 0.22131474901567219 0 -0.19952651489343279 0.21334412726489529 0 -0.19788299156498509 0.22131474901567219 0 -0.19274627647460299 0.22243842723162821 0 -0.20367895432583 0.22579513564841039 0 -0.19984707184691719 0.2239464207529544 0 -0.19513805096651529 0.22698174473599139 0 -0.20367895432583 0.22579513564841039 0 -0.19513805096651529 0.22698174473599139 0 -0.18145460106252401 0.24335289813109651 0 -0.20321953741721971 0.22352508213059591 0 -0.19984707184691719 0.2239464207529544 0 -0.19788299156498509 0.22131474901567219 0 -0.20367895432583 0.22579513564841039 0 -0.20321953741721971 0.22352508213059591 0 -0.19984707184691719 0.2239464207529544 0 -0.19984707184691719 0.2239464207529544 0 -0.19788299156498509 0.22131474901567219 0 -0.19513805096651529 0.22698174473599139 0 -0.19274627647460299 0.22243842723162821 0 -0.19513805096651529 0.22698174473599139 0 -0.18678993904609981 0.22676246309789741 0 -0.19952651489343279 0.21334412726489529 0 -0.19274627647460299 0.22243842723162821 0 -0.1845542748477346 0.22137309866737631 0 -0.19274627647460299 0.22243842723162821 0 -0.18678993904609981 0.22676246309789741 0 -0.1845542748477346 0.22137309866737631 0 -0.19788299156498509 0.22131474901567219 0 -0.19274627647460299 0.22243842723162821 0 -0.19513805096651529 0.22698174473599139 0 -0.19513805096651529 0.22698174473599139 0 -0.18196785897213241 0.23793741071425509 0 -0.18678993904609981 0.22676246309789741 0 -0.2088215466560806 0.25120551909571609 0 -0.19222285971539771 0.25125733919130339 0 -0.20050341821889861 0.2452143467694958 0 -0.20367895432583 0.22579513564841039 0 -0.18145460106252401 0.24335289813109651 0 -0.20367895432583 0.22579513564841039 0 -0.1944649583306626 0.24140492993507659 0 -0.18145460106252401 0.24335289813109651 0 -0.20367895432583 0.22579513564841039 0 -0.1944649583306626 0.24140492993507659 0 -0.20050341821889861 0.2452143467694958 0 -0.19222285971539771 0.25125733919130339 0 -0.1944649583306626 0.24140492993507659 0 -0.18145460106252401 0.24335289813109651 0 -0.19222285971539771 0.25125733919130339 0 -0.1944649583306626 0.24140492993507659 0 -0.20050341821889861 0.2452143467694958 0 -0.2088215466560806 0.25120551909571609 0 -0.2235398056752724 0.23500124070661821 0 -0.20367895432583 0.22579513564841039 0 -0.2088215466560806 0.25120551909571609 0 -0.20367895432583 0.22579513564841039 0 -0.20050341821889861 0.2452143467694958 0 -0.2088215466560806 0.25120551909571609 0 -0.20367895432583 0.22579513564841039 0 -0.1641615237717185 0.24007345905777491 0 -0.1664729816287924 0.22877398894376999 0 -0.1463551885713045 0.24220950740129379 0 -0.16478531422737339 0.25152931351338942 0 -0.1641615237717185 0.24007345905777491 0 -0.15456248616661331 0.24825110581640769 0 -0.17562417277471479 0.25130915928689052 0 -0.16478531422737339 0.25152931351338942 0 -0.1641615237717185 0.24007345905777491 0 -0.19222285971539771 0.25125733919130339 0 -0.17562417277471479 0.25130915928689052 0 -0.18145460106252401 0.24335289813109651 0 -0.17562417277471479 0.25130915928689052 0 -0.1641615237717185 0.24007345905777491 0 -0.18145460106252401 0.24335289813109651 0 -0.19513805096651529 0.22698174473599139 0 -0.18145460106252401 0.24335289813109651 0 -0.18196785897213241 0.23793741071425509 0 -0.1641615237717185 0.24007345905777491 0 -0.18145460106252401 0.24335289813109651 0 -0.18196785897213241 0.23793741071425509 0 -0.1641615237717185 0.24007345905777491 0 -0.18196785897213241 0.23793741071425509 0 -0.1727677153272251 0.23339506619108261 0 -0.1641615237717185 0.24007345905777491 0 -0.18196785897213241 0.23793741071425509 0 -0.1727677153272251 0.23339506619108261 0 -0.1784684969362571 0.22679540604853049 0 -0.1664729816287924 0.22877398894376999 0 -0.18196785897213241 0.23793741071425509 0 -0.1727677153272251 0.23339506619108261 0 -0.1784684969362571 0.22679540604853049 0 -0.18196785897213241 0.23793741071425509 0 -0.1784684969362571 0.22679540604853049 0 -0.18678993904609981 0.22676246309789741 0 -0.1784684969362571 0.22679540604853049 0 -0.1845542748477346 0.22137309866737631 0 -0.1792958939994849 0.2135952608924834 0 -0.1784684969362571 0.22679540604853049 0 -0.18678993904609981 0.22676246309789741 0 -0.1845542748477346 0.22137309866737631 0 -0.1784684969362571 0.22679540604853049 0 -0.1664729816287924 0.22877398894376999 0 -0.1792958939994849 0.2135952608924834 0 -0.15940637551897011 0.21914006898746649 0 -0.1664729816287924 0.22877398894376999 0 -0.1463551885713045 0.24220950740129379 0 -0.15940637551897011 0.21914006898746649 0 -0.1664729816287924 0.22877398894376999 0 -0.1792958939994849 0.2135952608924834 0 -0.1641615237717185 0.24007345905777491 0 -0.1727677153272251 0.23339506619108261 0 -0.1664729816287924 0.22877398894376999 0 -0.15940637551897011 0.21914006898746649 0 -0.1792958939994849 0.2135952608924834 0 -0.17245756246663729 0.19607063057363999 0 -0.16153890806398491 0.21169370535444779 0 -0.17245756246663729 0.19607063057363999 0 -0.14779759138715881 0.20754251652479791 0 -0.15940637551897011 0.21914006898746649 0 -0.16153890806398491 0.21169370535444779 0 -0.17245756246663729 0.19607063057363999 0 -0.15940637551897011 0.21914006898746649 0 -0.17245756246663729 0.19607063057363999 0 -0.18986478936191331 0.20285782725957621 0 -0.1792958939994849 0.2135952608924834 0 -0.18274801204040081 0.19680377710102831 0 -0.1792958939994849 0.2135952608924834 0 -0.17245756246663729 0.19607063057363999 0 -0.18274801204040081 0.19680377710102831 0 -0.18886206251477539 0.18843921231157221 0 -0.17245756246663729 0.19607063057363999 0 -0.17638708507782441 0.18912475812249799 0 -0.18886206251477539 0.18843921231157221 0 -0.17245756246663729 0.19607063057363999 0 -0.18274801204040081 0.19680377710102831 0 -0.18886206251477539 0.18843921231157221 0 -0.17245756246663729 0.19607063057363999 0 -0.19012874278857919 0.1949006595997442 0 -0.18886206251477539 0.18843921231157221 0 -0.18274801204040081 0.19680377710102831 0 -0.17245756246663729 0.19607063057363999 0 -0.17638708507782441 0.18912475812249799 0 -0.17638708507782441 0.18912475812249799 0 -0.14841776151217939 0.20000510303222011 0 -0.17638708507782441 0.18912475812249799 0 -0.1603117455308104 0.18884413133288211 0 -0.14841776151217939 0.20000510303222011 0 -0.17245756246663729 0.19607063057363999 0 -0.14779759138715881 0.20754251652479791 0 -0.17245756246663729 0.19607063057363999 0 -0.17638708507782441 0.18912475812249799 0 -0.14841776151217939 0.20000510303222011 0 -0.17245756246663729 0.19607063057363999 0 -0.14841776151217939 0.20000510303222011 0 -0.14779759138715881 0.20754251652479791 0 -0.1517884128869158 0.1893307557641844 0 -0.14841776151217939 0.20000510303222011 0 -0.14633641418193141 0.1922900010894186 0 -0.1603117455308104 0.18884413133288211 0 -0.1517884128869158 0.1893307557641844 0 -0.14841776151217939 0.20000510303222011 0 -0.14841776151217939 0.20000510303222011 0 -0.14067987501619131 0.19315443810477739 0 -0.14633641418193141 0.1922900010894186 0 -0.1517884128869158 0.1893307557641844 0 -0.14633641418193141 0.1922900010894186 0 -0.14445960731243901 0.18666970745649231 0 -0.14067987501619131 0.19315443810477739 0 -0.14633641418193141 0.1922900010894186 0 -0.14445960731243901 0.18666970745649231 0 -0.14841776151217939 0.20000510303222011 0 -0.14067987501619131 0.19315443810477739 0 -0.13093747452551849 0.1964355416472448 0 -0.14067987501619131 0.19315443810477739 0 -0.14445960731243901 0.18666970745649231 0 -0.13379056175867141 0.18509621363947801 0 -0.14841776151217939 0.20000510303222011 0 -0.13093747452551849 0.1964355416472448 0 -0.1204484379465343 0.21088544794194169 0 -0.14067987501619131 0.19315443810477739 0 -0.13093747452551849 0.1964355416472448 0 -0.13379056175867141 0.18509621363947801 0 -0.12515529763352601 0.18895226625831019 0 -0.13093747452551849 0.1964355416472448 0 -0.13379056175867141 0.18509621363947801 0 -0.12515529763352601 0.18895226625831019 0 -0.13093747452551849 0.1964355416472448 0 -0.1198837410042895 0.19918042990548901 0 -0.14779759138715881 0.20754251652479791 0 -0.13849302473401889 0.22383131895999989 0 -0.1231376203076803 0.21901440247595561 0 -0.14779759138715881 0.20754251652479791 0 -0.1231376203076803 0.21901440247595561 0 -0.14779759138715881 0.20754251652479791 0 -0.1231376203076803 0.21901440247595561 0 -0.1204484379465343 0.21088544794194169 0 -0.14841776151217939 0.20000510303222011 0 -0.14779759138715881 0.20754251652479791 0 -0.1204484379465343 0.21088544794194169 0 -0.14841776151217939 0.20000510303222011 0 -0.1204484379465343 0.21088544794194169 0 -0.15940637551897011 0.21914006898746649 0 -0.16153890806398491 0.21169370535444779 0 -0.13849302473401889 0.22383131895999989 0 -0.16153890806398491 0.21169370535444779 0 -0.14779759138715881 0.20754251652479791 0 -0.13849302473401889 0.22383131895999989 0 -0.16153890806398491 0.21169370535444779 0 -0.13849302473401889 0.22383131895999989 0 -0.15940637551897011 0.21914006898746649 0 -0.13849302473401889 0.22383131895999989 0 -0.1463551885713045 0.24220950740129379 0 -0.15940637551897011 0.21914006898746649 0 -0.1463551885713045 0.24220950740129379 0 -0.13849302473401889 0.22383131895999989 0 -0.1154471414040536 0.23596893256555351 0 -0.13849302473401889 0.22383131895999989 0 -0.1231376203076803 0.21901440247595561 0 -0.1175100424502469 0.2259835579031208 0 -0.12984742909823779 0.2441897785733689 0 -0.1463551885713045 0.24220950740129379 0 -0.13717873843413311 0.25259206702517989 0 -0.12984742909823779 0.2441897785733689 0 -0.1463551885713045 0.24220950740129379 0 -0.13849302473401889 0.22383131895999989 0 -0.12984742909823779 0.2441897785733689 0 -0.1154471414040536 0.23596893256555351 0 -0.13849302473401889 0.22383131895999989 0 -0.12984742909823779 0.2441897785733689 0 -0.1463551885713045 0.24220950740129379 0 -0.1641615237717185 0.24007345905777491 0 -0.1463551885713045 0.24220950740129379 0 -0.1641615237717185 0.24007345905777491 0 -0.1463551885713045 0.24220950740129379 0 -0.15456248616661331 0.24825110581640769 0 -0.14764441693914959 0.25566959180169418 0 -0.1463551885713045 0.24220950740129379 0 -0.15456248616661331 0.24825110581640769 0 -0.17427134231507699 0.14329461868973969 0 -0.15305339803812179 0.145111882861368 0 -0.1659938591707642 0.15477666677670551 0 -0.17427134231507699 0.14329461868973969 0 -0.15305339803812179 0.145111882861368 0 -0.1659938591707642 0.15477666677670551 0 -0.15734215804678719 0.163929308935641 0 -0.15305339803812179 0.145111882861368 0 -0.16684893507884399 0.12942928248843541 0 -0.15305339803812179 0.145111882861368 0 -0.16684893507884399 0.12942928248843541 0 -0.17427134231507699 0.14329461868973969 0 -0.15305339803812179 0.145111882861368 0 -0.16774474600084671 0.1245339860531202 0 -0.17427134231507699 0.14329461868973969 0 -0.15576038624593061 0.1237732032738611 0 -0.16684893507884399 0.12942928248843541 0 -0.14764991913585951 0.13364041475348021 0 -0.16774474600084671 0.1245339860531202 0 -0.16684893507884399 0.12942928248843541 0 -0.17427134231507699 0.14329461868973969 0 -0.16774474600084671 0.1245339860531202 0 -0.15576038624593061 0.1237732032738611 0 -0.16684893507884399 0.12942928248843541 0 -0.16774474600084671 0.1245339860531202 0 -0.18049268908833399 0.1289877796372077 0 -0.17427134231507699 0.14329461868973969 0 -0.19012514882122461 0.13161795215401381 0 -0.18049268908833399 0.1289877796372077 0 -0.17427134231507699 0.14329461868973969 0 -0.1890669120213522 0.1200275871497398 0 -0.19012514882122461 0.13161795215401381 0 -0.18049268908833399 0.1289877796372077 0 -0.1943462419538331 0.1573799317571524 0 -0.17427134231507699 0.14329461868973969 0 -0.1796105135039284 0.15864201026038879 0 -0.17427134231507699 0.14329461868973969 0 -0.1796105135039284 0.15864201026038879 0 -0.1659938591707642 0.15477666677670551 0 -0.17427134231507699 0.14329461868973969 0 -0.1796105135039284 0.15864201026038879 0 -0.1943462419538331 0.1573799317571524 0 -0.1796105135039284 0.15864201026038879 0 -0.18494968469277789 0.17398940183103839 0 -0.1762635714045582 0.16825781579457191 0 -0.1796105135039284 0.15864201026038879 0 -0.18494968469277789 0.17398940183103839 0 -0.1796105135039284 0.15864201026038879 0 -0.18494968469277789 0.17398940183103839 0 -0.1762635714045582 0.16825781579457191 0 -0.17199056206614199 0.1748345732478393 0 -0.1674749505939129 0.16548191112140451 0 -0.1762635714045582 0.16825781579457191 0 -0.1796105135039284 0.15864201026038879 0 -0.1674749505939129 0.16548191112140451 0 -0.1885667896135543 0.18438673197981381 0 -0.18886206251477539 0.18843921231157221 0 -0.17638708507782441 0.18912475812249799 0 -0.17638708507782441 0.18912475812249799 0 -0.18494968469277789 0.17398940183103839 0 -0.1885667896135543 0.18438673197981381 0 -0.17638708507782441 0.18912475812249799 0 -0.1885667896135543 0.18438673197981381 0 -0.17638708507782441 0.18912475812249799 0 -0.18494968469277789 0.17398940183103839 0 -0.1885667896135543 0.18438673197981381 0 -0.18494968469277789 0.17398940183103839 0 -0.18494968469277789 0.17398940183103839 0 -0.17199056206614199 0.1748345732478393 0 -0.17512156803543991 0.1802395454103044 0 -0.1762635714045582 0.16825781579457191 0 -0.18494968469277789 0.17398940183103839 0 -0.17199056206614199 0.1748345732478393 0 -0.17638708507782441 0.18912475812249799 0 -0.17512156803543991 0.1802395454103044 0 -0.1671589403050138 0.1830094484398419 0 -0.17638708507782441 0.18912475812249799 0 -0.18494968469277789 0.17398940183103839 0 -0.17512156803543991 0.1802395454103044 0 -0.17638708507782441 0.18912475812249799 0 -0.1603117455308104 0.18884413133288211 0 -0.1671589403050138 0.1830094484398419 0 -0.17199056206614199 0.1748345732478393 0 -0.1671589403050138 0.1830094484398419 0 -0.16192501392869191 0.17461346121602919 0 -0.17199056206614199 0.1748345732478393 0 -0.17512156803543991 0.1802395454103044 0 -0.1671589403050138 0.1830094484398419 0 -0.16192501392869191 0.17461346121602919 0 -0.15734215804678719 0.163929308935641 0 -0.1497769446881774 0.17767493424578329 0 -0.16192501392869191 0.17461346121602919 0 -0.15780652787211841 0.18275059130566529 0 -0.1497769446881774 0.17767493424578329 0 -0.1603117455308104 0.18884413133288211 0 -0.1671589403050138 0.1830094484398419 0 -0.15780652787211841 0.18275059130566529 0 -0.1603117455308104 0.18884413133288211 0 -0.1517884128869158 0.1893307557641844 0 -0.15780652787211841 0.18275059130566529 0 -0.1671589403050138 0.1830094484398419 0 -0.16192501392869191 0.17461346121602919 0 -0.15780652787211841 0.18275059130566529 0 -0.1659938591707642 0.15477666677670551 0 -0.1796105135039284 0.15864201026038879 0 -0.1674749505939129 0.16548191112140451 0 -0.17199056206614199 0.1748345732478393 0 -0.16192501392869191 0.17461346121602919 0 -0.1674749505939129 0.16548191112140451 0 -0.16192501392869191 0.17461346121602919 0 -0.1674749505939129 0.16548191112140451 0 -0.15734215804678719 0.163929308935641 0 -0.1659938591707642 0.15477666677670551 0 -0.1674749505939129 0.16548191112140451 0 -0.15734215804678719 0.163929308935641 0 -0.15734215804678719 0.163929308935641 0 -0.14821284954012739 0.1639246887189385 0 -0.15305339803812179 0.145111882861368 0 -0.15734215804678719 0.163929308935641 0 -0.14821284954012739 0.1639246887189385 0 -0.1497769446881774 0.17767493424578329 0 -0.14821284954012739 0.1639246887189385 0 -0.1497769446881774 0.17767493424578329 0 -0.14057956276700209 0.17331137619261469 0 -0.14821284954012739 0.1639246887189385 0 -0.14057956276700209 0.17331137619261469 0 -0.14031218416054861 0.15959594135928551 0 -0.1517884128869158 0.1893307557641844 0 -0.1497769446881774 0.17767493424578329 0 -0.14445960731243901 0.18666970745649231 0 -0.1517884128869158 0.1893307557641844 0 -0.15780652787211841 0.18275059130566529 0 -0.1497769446881774 0.17767493424578329 0 -0.1497769446881774 0.17767493424578329 0 -0.14445960731243901 0.18666970745649231 0 -0.14057956276700209 0.17331137619261469 0 -0.14445960731243901 0.18666970745649231 0 -0.13379056175867141 0.18509621363947801 0 -0.14057956276700209 0.17331137619261469 0 -0.14057956276700209 0.17331137619261469 0 -0.12757097028297629 0.17407999985720379 0 -0.13379056175867141 0.18509621363947801 0 -0.14057956276700209 0.17331137619261469 0 -0.12757097028297629 0.17407999985720379 0 -0.12515529763352601 0.18895226625831019 0 -0.13379056175867141 0.18509621363947801 0 -0.12757097028297629 0.17407999985720379 0 -0.14057956276700209 0.17331137619261469 0 -0.12757097028297629 0.17407999985720379 0 -0.14031218416054861 0.15959594135928551 0 -0.12757097028297629 0.17407999985720379 0 -0.14031218416054861 0.15959594135928551 0 -0.12757097028297629 0.17407999985720379 0 -0.14031218416054861 0.15959594135928551 0 -0.12595335430011809 0.15945267354773529 0 -0.14031218416054861 0.15959594135928551 0 -0.12595335430011809 0.15945267354773529 0 -0.1329296512572708 0.14683543173803709 0 -0.1329296512572708 0.14683543173803709 0 -0.15305339803812179 0.145111882861368 0 -0.14764991913585951 0.13364041475348021 0 -0.14031218416054861 0.15959594135928551 0 -0.15305339803812179 0.145111882861368 0 -0.14031218416054861 0.15959594135928551 0 -0.1329296512572708 0.14683543173803709 0 -0.15305339803812179 0.145111882861368 0 -0.14821284954012739 0.1639246887189385 0 -0.14031218416054861 0.15959594135928551 0 -0.15305339803812179 0.145111882861368 0 -0.1329296512572708 0.14683543173803709 0 -0.15305339803812179 0.145111882861368 0 -0.16684893507884399 0.12942928248843541 0 -0.15305339803812179 0.145111882861368 0 -0.14764991913585951 0.13364041475348021 0 -0.15576038624593061 0.1237732032738611 0 -0.14385850524548641 0.12480714660781431 0 -0.14764991913585951 0.13364041475348021 0 -0.14385850524548641 0.12480714660781431 0 -0.14764991913585951 0.13364041475348021 0 -0.13344863894950371 0.13188554155136559 0 -0.1329296512572708 0.14683543173803709 0 -0.14764991913585951 0.13364041475348021 0 -0.13344863894950371 0.13188554155136559 0 -0.1329296512572708 0.14683543173803709 0 -0.13344863894950371 0.13188554155136559 0 -0.1220495736465632 0.13787329125140349 0 -0.13344863894950371 0.13188554155136559 0 -0.1220495736465632 0.13787329125140349 0 -0.1192886350787581 0.1247345076055992 0 -0.1220495736465632 0.13787329125140349 0 -0.1073694022731964 0.13502412324565 0 -0.1128059044764195 0.14855898061470499 0 -0.1220495736465632 0.13787329125140349 0 -0.1073694022731964 0.13502412324565 0 -0.1192886350787581 0.1247345076055992 0 -0.1073694022731964 0.13502412324565 0 -0.092495765311517111 0.13211855513410559 0 -0.092682157695568201 0.1502825294913728 0 -0.1073694022731964 0.13502412324565 0 -0.1192886350787581 0.1247345076055992 0 -0.1005524472456505 0.1203648612045367 0 -0.1073694022731964 0.13502412324565 0 -0.092495765311517111 0.13211855513410559 0 -0.1005524472456505 0.1203648612045367 0 -0.1128059044764195 0.14855898061470499 0 -0.092682157695568201 0.1502825294913728 0 -0.1128059044764195 0.14855898061470499 0 -0.1018880164218615 0.16290884028121991 0 -0.092682157695568201 0.1502825294913728 0 -0.1073694022731964 0.13502412324565 0 -0.1128059044764195 0.14855898061470499 0 -0.092682157695568201 0.1502825294913728 0 -0.12595335430011809 0.15945267354773529 0 -0.1329296512572708 0.14683543173803709 0 -0.1128059044764195 0.14855898061470499 0 -0.1329296512572708 0.14683543173803709 0 -0.1220495736465632 0.13787329125140349 0 -0.1128059044764195 0.14855898061470499 0 -0.1329296512572708 0.14683543173803709 0 -0.1128059044764195 0.14855898061470499 0 -0.12595335430011809 0.15945267354773529 0 -0.1128059044764195 0.14855898061470499 0 -0.1150293275614558 0.16363007142530531 0 -0.12757097028297629 0.17407999985720379 0 -0.1150293275614558 0.16363007142530531 0 -0.1054978875529467 0.17538420657730691 0 -0.12757097028297629 0.17407999985720379 0 -0.12595335430011809 0.15945267354773529 0 -0.1150293275614558 0.16363007142530531 0 -0.1128059044764195 0.14855898061470499 0 -0.1150293275614558 0.16363007142530531 0 -0.1018880164218615 0.16290884028121991 0 -0.12757097028297629 0.17407999985720379 0 -0.1054978875529467 0.17538420657730691 0 -0.12515529763352601 0.18895226625831019 0 -0.12757097028297629 0.17407999985720379 0 -0.11359374059617421 0.1899691462421354 0 -0.12757097028297629 0.17407999985720379 0 -0.1054978875529467 0.17538420657730691 0 -0.11359374059617421 0.1899691462421354 0 -0.12757097028297629 0.17407999985720379 0 -0.11359374059617421 0.1899691462421354 0 -0.1054978875529467 0.17538420657730691 0 -0.083424804822917198 0.17668841329740961 0 -0.1054978875529467 0.17538420657730691 0 -0.083424804822917198 0.17668841329740961 0 -0.097196385730808077 0.1891910326049708 0 -0.1054978875529467 0.17538420657730691 0 -0.11359374059617421 0.1899691462421354 0 -0.097196385730808077 0.1891910326049708 0 -0.1054978875529467 0.17538420657730691 0 -0.1018880164218615 0.16290884028121991 0 -0.083424804822917198 0.17668841329740961 0 -0.1150293275614558 0.16363007142530531 0 -0.1054978875529467 0.17538420657730691 0 -0.1018880164218615 0.16290884028121991 0 -0.083424804822917198 0.17668841329740961 0 -0.071220952944119162 0.15758433756010681 0 -0.092682157695568201 0.1502825294913728 0 -0.1018880164218615 0.16290884028121991 0 -0.083424804822917198 0.17668841329740961 0 -0.092682157695568201 0.1502825294913728 0 -0.083424804822917198 0.17668841329740961 0 -0.069877686762702867 0.19377142648139489 0 -0.061351722092887737 0.17799262001751481 0 -0.069877686762702867 0.19377142648139489 0 -0.061351722092887737 0.17799262001751481 0 -0.083424804822917198 0.17668841329740961 0 -0.061351722092887737 0.17799262001751481 0 -0.083424804822917198 0.17668841329740961 0 -0.071220952944119162 0.15758433756010681 0 -0.061351722092887737 0.17799262001751481 0 -0.071220952944119162 0.15758433756010681 0 -0.06268611258816506 0.14122370238711041 0 -0.079757193033842183 0.13610002028599719 0 -0.06268611258816506 0.14122370238711041 0 -0.079757193033842183 0.13610002028599719 0 -0.062084844097520263 0.1237759756656813 0 -0.079757193033842183 0.13610002028599719 0 -0.062084844097520263 0.1237759756656813 0 -0.080140280021869778 0.117792763606796 0 -0.079757193033842183 0.13610002028599719 0 -0.092495765311517111 0.13211855513410559 0 -0.092682157695568201 0.1502825294913728 0 -0.079757193033842183 0.13610002028599719 0 -0.092495765311517111 0.13211855513410559 0 -0.080140280021869778 0.117792763606796 0 -0.071220952944119162 0.15758433756010681 0 -0.079757193033842183 0.13610002028599719 0 -0.092682157695568201 0.1502825294913728 0 -0.1154471414040536 0.23596893256555351 0 -0.090986801715571858 0.24885150024796579 0 -0.1154471414040536 0.23596893256555351 0 -0.098477649228201805 0.2304862884271133 0 -0.090986801715571858 0.24885150024796579 0 -0.11333966962517079 0.24617004974544221 0 -0.1154471414040536 0.23596893256555351 0 -0.090986801715571858 0.24885150024796579 0 -0.11333966962517079 0.24617004974544221 0 -0.090986801715571858 0.24885150024796579 0 -0.12984742909823779 0.2441897785733689 0 -0.11333966962517079 0.24617004974544221 0 -0.1154471414040536 0.23596893256555351 0 -0.12984742909823779 0.2441897785733689 0 -0.11333966962517079 0.24617004974544221 0 -0.1256670021236366 0.25780254445871192 0 -0.12984742909823779 0.2441897785733689 0 -0.11333966962517079 0.24617004974544221 0 -0.11333966962517079 0.24617004974544221 0 -0.1154471414040536 0.23596893256555351 0 -0.1154471414040536 0.23596893256555351 0 -0.1175100424502469 0.2259835579031208 0 -0.1231376203076803 0.21901440247595561 0 -0.098477649228201805 0.2304862884271133 0 -0.1231376203076803 0.21901440247595561 0 -0.098477649228201805 0.2304862884271133 0 -0.1204484379465343 0.21088544794194169 0 -0.13849302473401889 0.22383131895999989 0 -0.1154471414040536 0.23596893256555351 0 -0.1175100424502469 0.2259835579031208 0 -0.1231376203076803 0.21901440247595561 0 -0.1175100424502469 0.2259835579031208 0 -0.098477649228201805 0.2304862884271133 0 -0.1154471414040536 0.23596893256555351 0 -0.1175100424502469 0.2259835579031208 0 -0.098477649228201805 0.2304862884271133 0 -0.098477649228201805 0.2304862884271133 0 -0.1204484379465343 0.21088544794194169 0 -0.092479114380889016 0.22176579285166331 0 -0.099616510909372347 0.2058582926270672 0 -0.1096284625602106 0.205566142275937 0 -0.092479114380889016 0.22176579285166331 0 -0.1204484379465343 0.21088544794194169 0 -0.1096284625602106 0.205566142275937 0 -0.092479114380889016 0.22176579285166331 0 -0.1204484379465343 0.21088544794194169 0 -0.092479114380889016 0.22176579285166331 0 -0.1204484379465343 0.21088544794194169 0 -0.1096284625602106 0.205566142275937 0 -0.1198837410042895 0.19918042990548901 0 -0.1096284625602106 0.205566142275937 0 -0.1198837410042895 0.19918042990548901 0 -0.11359374059617421 0.1899691462421354 0 -0.13093747452551849 0.1964355416472448 0 -0.1204484379465343 0.21088544794194169 0 -0.1198837410042895 0.19918042990548901 0 -0.12515529763352601 0.18895226625831019 0 -0.1198837410042895 0.19918042990548901 0 -0.11359374059617421 0.1899691462421354 0 -0.099616510909372347 0.2058582926270672 0 -0.11359374059617421 0.1899691462421354 0 -0.099616510909372347 0.2058582926270672 0 -0.1096284625602106 0.205566142275937 0 -0.11359374059617421 0.1899691462421354 0 -0.099616510909372347 0.2058582926270672 0 -0.11359374059617421 0.1899691462421354 0 -0.097196385730808077 0.1891910326049708 0 -0.099616510909372347 0.2058582926270672 0 -0.097196385730808077 0.1891910326049708 0 -0.085734591632173313 0.197250238989057 0 -0.083424804822917198 0.17668841329740961 0 -0.085734591632173313 0.197250238989057 0 -0.069877686762702867 0.19377142648139489 0 -0.083424804822917198 0.17668841329740961 0 -0.097196385730808077 0.1891910326049708 0 -0.085734591632173313 0.197250238989057 0 -0.085734591632173313 0.197250238989057 0 -0.069877686762702867 0.19377142648139489 0 -0.078403651432518956 0.20955023294527439 0 -0.069877686762702867 0.19377142648139489 0 -0.078403651432518956 0.20955023294527439 0 -0.069877686762702867 0.19377142648139489 0 -0.078403651432518956 0.20955023294527439 0 -0.057129649557278263 0.20800923689674111 0 -0.078403651432518956 0.20955023294527439 0 -0.065981415955757641 0.22316293914564811 0 -0.057129649557278263 0.20800923689674111 0 -0.078403651432518956 0.20955023294527439 0 -0.08201108618154182 0.2229246573569803 0 -0.065981415955757641 0.22316293914564811 0 -0.078403651432518956 0.20955023294527439 0 -0.088196996783626844 0.21130823896597431 0 -0.08201108618154182 0.2229246573569803 0 -0.099616510909372347 0.2058582926270672 0 -0.088196996783626844 0.21130823896597431 0 -0.092479114380889016 0.22176579285166331 0 -0.085734591632173313 0.197250238989057 0 -0.078403651432518956 0.20955023294527439 0 -0.088196996783626844 0.21130823896597431 0 -0.099616510909372347 0.2058582926270672 0 -0.085734591632173313 0.197250238989057 0 -0.088196996783626844 0.21130823896597431 0 -0.088196996783626844 0.21130823896597431 0 -0.092479114380889016 0.22176579285166331 0 -0.08201108618154182 0.2229246573569803 0 -0.098477649228201805 0.2304862884271133 0 -0.08201108618154182 0.2229246573569803 0 -0.073817678148723281 0.24195817437827091 0 -0.098477649228201805 0.2304862884271133 0 -0.092479114380889016 0.22176579285166331 0 -0.08201108618154182 0.2229246573569803 0 -0.08201108618154182 0.2229246573569803 0 -0.065981415955757641 0.22316293914564811 0 -0.073817678148723281 0.24195817437827091 0 -0.065981415955757641 0.22316293914564811 0 -0.073817678148723281 0.24195817437827091 0 -0.057995103262387132 0.23419700656653811 0 -0.074367827458855687 0.25081837762876741 0 -0.073817678148723281 0.24195817437827091 0 -0.083887317691853203 0.24970315450011851 0 -0.074367827458855687 0.25081837762876741 0 -0.064345821301566589 0.25473287307598708 0 -0.073817678148723281 0.24195817437827091 0 -0.098477649228201805 0.2304862884271133 0 -0.073817678148723281 0.24195817437827091 0 -0.098477649228201805 0.2304862884271133 0 -0.073817678148723281 0.24195817437827091 0 -0.090986801715571858 0.24885150024796579 0 -0.073817678148723281 0.24195817437827091 0 -0.083887317691853203 0.24970315450011851 0 -0.090986801715571858 0.24885150024796579 0 -0.083887317691853203 0.24970315450011851 0 -0.090986801715571858 0.24885150024796579 0 -0.04276548821230787 0.25640373801401628 0 -0.045801215387559012 0.2397778410412961 0 -0.049157707069244723 0.25343006032942861 0 -0.04276548821230787 0.25640373801401628 0 -0.045801215387559012 0.2397778410412961 0 -0.04276548821230787 0.25640373801401628 0 -0.045801215387559012 0.2397778410412961 0 -0.032753750981188899 0.2474474516629255 0 -0.045801215387559012 0.2397778410412961 0 -0.032753750981188899 0.2474474516629255 0 -0.033077723067008777 0.23114549865498221 0 -0.049157707069244723 0.25343006032942861 0 -0.073817678148723281 0.24195817437827091 0 -0.049157707069244723 0.25343006032942861 0 -0.045801215387559012 0.2397778410412961 0 -0.057995103262387132 0.23419700656653811 0 -0.049157707069244723 0.25343006032942861 0 -0.073817678148723281 0.24195817437827091 0 -0.057995103262387132 0.23419700656653811 0 -0.045801215387559012 0.2397778410412961 0 -0.048836942562810091 0.22315194406857591 0 -0.057995103262387132 0.23419700656653811 0 -0.045801215387559012 0.2397778410412961 0 -0.048836942562810091 0.22315194406857591 0 -0.065981415955757641 0.22316293914564811 0 -0.048836942562810091 0.22315194406857591 0 -0.057995103262387132 0.23419700656653811 0 -0.048836942562810091 0.22315194406857591 0 -0.033077723067008777 0.23114549865498221 0 -0.038997060043596772 0.21458091980684199 0 -0.045801215387559012 0.2397778410412961 0 -0.048836942562810091 0.22315194406857591 0 -0.033077723067008777 0.23114549865498221 0 -0.033077723067008777 0.23114549865498221 0 -0.038997060043596772 0.21458091980684199 0 -0.024194027292897449 0.21979402059941169 0 -0.038997060043596772 0.21458091980684199 0 -0.043355095892416873 0.20177177131172391 0 -0.027500272603235822 0.20666757177042899 0 -0.038997060043596772 0.21458091980684199 0 -0.057129649557278263 0.20800923689674111 0 -0.043355095892416873 0.20177177131172391 0 -0.065981415955757641 0.22316293914564811 0 -0.048836942562810091 0.22315194406857591 0 -0.057129649557278263 0.20800923689674111 0 -0.048836942562810091 0.22315194406857591 0 -0.038997060043596772 0.21458091980684199 0 -0.057129649557278263 0.20800923689674111 0 -0.057129649557278263 0.20800923689674111 0 -0.052741654026870179 0.19159335328189889 0 -0.043355095892416873 0.20177177131172391 0 -0.069877686762702867 0.19377142648139489 0 -0.052741654026870179 0.19159335328189889 0 -0.061351722092887737 0.17799262001751481 0 -0.069877686762702867 0.19377142648139489 0 -0.057129649557278263 0.20800923689674111 0 -0.052741654026870179 0.19159335328189889 0 -0.043355095892416873 0.20177177131172391 0 -0.033696618572543961 0.19163930301505169 0 -0.027500272603235822 0.20666757177042899 0 -0.052741654026870179 0.19159335328189889 0 -0.043355095892416873 0.20177177131172391 0 -0.033696618572543961 0.19163930301505169 0 -0.033696618572543961 0.19163930301505169 0 -0.016876988817661181 0.19760978700915949 0 -0.019485230760255021 0.1848553292157579 0 -0.033696618572543961 0.19163930301505169 0 -0.016876988817661181 0.19760978700915949 0 -0.027500272603235822 0.20666757177042899 0 -0.016876988817661181 0.19760978700915949 0 -0.019485230760255021 0.1848553292157579 0 -0.001861042967100371 0.1823134684705659 0 -0.016876988817661181 0.19760978700915949 0 -0.001861042967100371 0.1823134684705659 0 0.0057983184807665084 0.20142877031041501 0 -0.016876988817661181 0.19760978700915949 0 -0.0046241221650291653 0.2166360861439508 0 0.0057983184807665084 0.20142877031041501 0 -0.0046241221650291653 0.2166360861439508 0 -0.027500272603235822 0.20666757177042899 0 -0.024194027292897449 0.21979402059941169 0 -0.016876988817661181 0.19760978700915949 0 -0.0046241221650291653 0.2166360861439508 0 -0.027500272603235822 0.20666757177042899 0 -0.038997060043596772 0.21458091980684199 0 -0.027500272603235822 0.20666757177042899 0 -0.024194027292897449 0.21979402059941169 0 -0.033077723067008777 0.23114549865498221 0 -0.01603883692709011 0.22889211166153101 0 -0.024194027292897449 0.21979402059941169 0 -0.033077723067008777 0.23114549865498221 0 -0.01603883692709011 0.22889211166153101 0 -0.022872287630044719 0.24144003985818771 0 -0.0046241221650291653 0.2166360861439508 0 -0.01603883692709011 0.22889211166153101 0 -0.0067497017195101566 0.2397483779457312 0 -0.0046241221650291653 0.2166360861439508 0 -0.0067497017195101566 0.2397483779457312 0 0.003621595421219188 0.2290483121386829 0 -0.0046241221650291653 0.2166360861439508 0 -0.01603883692709011 0.22889211166153101 0 -0.024194027292897449 0.21979402059941169 0 -0.0046241221650291653 0.2166360861439508 0 -0.0067497017195101566 0.2397483779457312 0 -0.0082229864918420149 0.25576800303731828 0 -0.0067497017195101566 0.2397483779457312 0 0.0046331383972979022 0.2492808563884113 0 -0.020015889617545982 0.25244153211968762 0 -0.0082229864918420149 0.25576800303731828 0 -0.0067497017195101566 0.2397483779457312 0 -0.0067497017195101566 0.2397483779457312 0 -0.022872287630044719 0.24144003985818771 0 -0.01603883692709011 0.22889211166153101 0 -0.0067497017195101566 0.2397483779457312 0 -0.022872287630044719 0.24144003985818771 0 -0.0082229864918420149 0.25576800303731828 0 -0.0067497017195101566 0.2397483779457312 0 -0.020015889617545982 0.25244153211968762 0 -0.0067497017195101566 0.2397483779457312 0 -0.022872287630044719 0.24144003985818771 0 -0.032753750981188899 0.2474474516629255 0 -0.033077723067008777 0.23114549865498221 0 -0.022872287630044719 0.24144003985818771 0 -0.020015889617545982 0.25244153211968762 0 -0.032753750981188899 0.2474474516629255 0 -0.022872287630044719 0.24144003985818771 0 -0.047351271787176102 0.15208230906313769 0 -0.027157821854972099 0.16118605223392529 0 -0.03074305016605464 0.14613916778033789 0 -0.033350821481465467 0.12617199810876009 0 -0.047351271787176102 0.15208230906313769 0 -0.03074305016605464 0.14613916778033789 0 -0.033350821481465467 0.12617199810876009 0 -0.047351271787176102 0.15208230906313769 0 -0.033350821481465467 0.12617199810876009 0 -0.04793959791209311 0.1334956721379279 0 -0.047351271787176102 0.15208230906313769 0 -0.033350821481465467 0.12617199810876009 0 -0.04793959791209311 0.1334956721379279 0 -0.041911027221187003 0.1246097852952508 0 -0.04793959791209311 0.1334956721379279 0 -0.041911027221187003 0.1246097852952508 0 -0.046926698356845223 0.12009242074845269 0 -0.06268611258816506 0.14122370238711041 0 -0.04793959791209311 0.1334956721379279 0 -0.062084844097520263 0.1237759756656813 0 -0.04793959791209311 0.1334956721379279 0 -0.046926698356845223 0.12009242074845269 0 -0.062084844097520263 0.1237759756656813 0 -0.071220952944119162 0.15758433756010681 0 -0.06268611258816506 0.14122370238711041 0 -0.047351271787176102 0.15208230906313769 0 -0.06268611258816506 0.14122370238711041 0 -0.04793959791209311 0.1334956721379279 0 -0.047351271787176102 0.15208230906313769 0 -0.071220952944119162 0.15758433756010681 0 -0.047351271787176102 0.15208230906313769 0 -0.061351722092887737 0.17799262001751481 0 -0.047351271787176102 0.15208230906313769 0 -0.061351722092887737 0.17799262001751481 0 -0.045934160237247328 0.17890357967030099 0 -0.047351271787176102 0.15208230906313769 0 -0.061351722092887737 0.17799262001751481 0 -0.061351722092887737 0.17799262001751481 0 -0.045934160237247328 0.17890357967030099 0 -0.052741654026870179 0.19159335328189889 0 -0.061351722092887737 0.17799262001751481 0 -0.045934160237247328 0.17890357967030099 0 -0.052741654026870179 0.19159335328189889 0 -0.033696618572543961 0.19163930301505169 0 -0.045934160237247328 0.17890357967030099 0 -0.045934160237247328 0.17890357967030099 0 -0.030516598381607161 0.1798145393230898 0 -0.045934160237247328 0.17890357967030099 0 -0.037739963065250667 0.1679966200726134 0 -0.030516598381607161 0.1798145393230898 0 -0.033696618572543961 0.19163930301505169 0 -0.045934160237247328 0.17890357967030099 0 -0.030516598381607161 0.1798145393230898 0 -0.037739963065250667 0.1679966200726134 0 -0.027157821854972099 0.16118605223392529 0 -0.030516598381607161 0.1798145393230898 0 -0.047351271787176102 0.15208230906313769 0 -0.045934160237247328 0.17890357967030099 0 -0.037739963065250667 0.1679966200726134 0 -0.047351271787176102 0.15208230906313769 0 -0.037739963065250667 0.1679966200726134 0 -0.027157821854972099 0.16118605223392529 0 -0.027157821854972099 0.16118605223392529 0 -0.030516598381607161 0.1798145393230898 0 -0.014474905062362429 0.17289954826092249 0 -0.027157821854972099 0.16118605223392529 0 -0.014474905062362429 0.17289954826092249 0 -0.0099939533334200518 0.15788374548331019 0 -0.030516598381607161 0.1798145393230898 0 -0.019485230760255021 0.1848553292157579 0 -0.014474905062362429 0.17289954826092249 0 -0.033696618572543961 0.19163930301505169 0 -0.030516598381607161 0.1798145393230898 0 -0.019485230760255021 0.1848553292157579 0 -0.001861042967100371 0.1823134684705659 0 -0.014474905062362429 0.17289954826092249 0 -0.001273520355644526 0.16634979465973401 0 -0.019485230760255021 0.1848553292157579 0 -0.001861042967100371 0.1823134684705659 0 -0.014474905062362429 0.17289954826092249 0 -0.014474905062362429 0.17289954826092249 0 -0.0099939533334200518 0.15788374548331019 0 -0.001273520355644526 0.16634979465973401 0 -0.0099939533334200518 0.15788374548331019 0 -0.001273520355644526 0.16634979465973401 0 0.0040867701547092116 0.15371352480510181 0 -0.0099939533334200518 0.15788374548331019 0 -0.0051602800561790854 0.14571061063844051 0 0.0040867701547092116 0.15371352480510181 0 -0.0051602800561790854 0.14571061063844051 0 -0.019081968291584719 0.14826644816465079 0 -0.014456848112687061 0.13976805559306271 0 -0.0099939533334200518 0.15788374548331019 0 -0.0051602800561790854 0.14571061063844051 0 -0.019081968291584719 0.14826644816465079 0 -0.027157821854972099 0.16118605223392529 0 -0.0099939533334200518 0.15788374548331019 0 -0.019081968291584719 0.14826644816465079 0 -0.019081968291584719 0.14826644816465079 0 -0.026979856226195399 0.13891105725882799 0 -0.014456848112687061 0.13976805559306271 0 -0.019081968291584719 0.14826644816465079 0 -0.03074305016605464 0.14613916778033789 0 -0.026979856226195399 0.13891105725882799 0 -0.027157821854972099 0.16118605223392529 0 -0.019081968291584719 0.14826644816465079 0 -0.03074305016605464 0.14613916778033789 0 -0.033350821481465467 0.12617199810876009 0 -0.03074305016605464 0.14613916778033789 0 -0.026979856226195399 0.13891105725882799 0 -0.033350821481465467 0.12617199810876009 0 -0.0279722912275479 0.12987815548232479 0 -0.026979856226195399 0.13891105725882799 0 -0.0279722912275479 0.12987815548232479 0 -0.026979856226195399 0.13891105725882799 0 -0.019972335740847329 0.13312548050423451 0 -0.026979856226195399 0.13891105725882799 0 -0.019972335740847329 0.13312548050423451 0 -0.014456848112687061 0.13976805559306271 0 -0.019972335740847329 0.13312548050423451 0 -0.01281307061042083 0.1300750805865383 0 -0.014456848112687061 0.13976805559306271 0 -0.0279722912275479 0.12987815548232479 0 -0.021229326713123109 0.12690068265023161 0 -0.01915360559668932 0.1184081428577982 0 -0.019972335740847329 0.13312548050423451 0 -0.017819074287407869 0.12619095175656889 0 -0.01281307061042083 0.1300750805865383 0 -0.0279722912275479 0.12987815548232479 0 -0.019972335740847329 0.13312548050423451 0 -0.021229326713123109 0.12690068265023161 0 -0.019972335740847329 0.13312548050423451 0 -0.021229326713123109 0.12690068265023161 0 -0.017819074287407869 0.12619095175656889 0 -0.01281307061042083 0.1300750805865383 0 -0.0048243010661870034 0.1348067713644481 0 -0.0060258008914458178 0.1251533046014606 0 -0.01281307061042083 0.1300750805865383 0 -0.0060258008914458178 0.1251533046014606 0 -0.01278045449275144 0.1220889493260767 0 -0.017819074287407869 0.12619095175656889 0 -0.01281307061042083 0.1300750805865383 0 -0.01278045449275144 0.1220889493260767 0 -0.01281307061042083 0.1300750805865383 0 -0.014456848112687061 0.13976805559306271 0 -0.0048243010661870034 0.1348067713644481 0 -0.0051602800561790854 0.14571061063844051 0 -0.014456848112687061 0.13976805559306271 0 -0.0048243010661870034 0.1348067713644481 0 -0.0051602800561790854 0.14571061063844051 0 -0.0048243010661870034 0.1348067713644481 0 0.0061350511215508222 0.14020462999964331 0 -0.0048243010661870034 0.1348067713644481 0 -0.0060258008914458178 0.1251533046014606 0 0.0036478567994623992 0.12847529951267789 0 -0.0060258008914458178 0.1251533046014606 0 0.00033808575315118699 0.11848126439970651 0 0.0036478567994623992 0.12847529951267789 0 -0.0060258008914458178 0.1251533046014606 0 -0.00747260111095349 0.1172918776785208 0 0.00033808575315118699 0.11848126439970651 0 -0.0060258008914458178 0.1251533046014606 0 -0.00747260111095349 0.1172918776785208 0 -0.01278045449275144 0.1220889493260767 0 -0.00747260111095349 0.1172918776785208 0 -0.01278045449275144 0.1220889493260767 0 -0.01339857445959132 0.1154143384755737 0 -0.01278045449275144 0.1220889493260767 0 -0.01339857445959132 0.1154143384755737 0 -0.01915360559668932 0.1184081428577982 0 -0.01499150130732587 0.11229706773882531 0 -0.01339857445959132 0.1154143384755737 0 -0.010801258285019349 0.1098751367229835 0 -0.00747260111095349 0.1172918776785208 0 -0.01339857445959132 0.1154143384755737 0 -0.010801258285019349 0.1098751367229835 0 -0.0043797183364914219 0.1112456297706724 0 0.0031576338486196918 0.11015296213728849 0 0.00033808575315118699 0.11848126439970651 0 -0.00747260111095349 0.1172918776785208 0 -0.010801258285019349 0.1098751367229835 0 -0.0043797183364914219 0.1112456297706724 0 -0.00747260111095349 0.1172918776785208 0 -0.0043797183364914219 0.1112456297706724 0 0.00033808575315118699 0.11848126439970651 0 -0.016612566888003499 0.10549065289894589 0 -0.019350371175754791 0.1002616871543825 0 -0.0052528425484590904 0.081103150315567085 0 -0.0067296964817817736 0.10289187901237901 0 -0.001359828334924402 0.1057874364935652 0 0.0027357799186256541 0.099922074134735195 0 -0.0043797183364914219 0.1112456297706724 0 -0.001359828334924402 0.1057874364935652 0 0.0031576338486196918 0.11015296213728849 0 -0.0043797183364914219 0.1112456297706724 0 -0.0067296964817817736 0.10289187901237901 0 -0.001359828334924402 0.1057874364935652 0 -0.0031237589504393881 0.094663000115075446 0 -0.016612566888003499 0.10549065289894589 0 -0.0052528425484590904 0.081103150315567085 0 -0.010801258285019349 0.1098751367229835 0 -0.0043797183364914219 0.1112456297706724 0 -0.0067296964817817736 0.10289187901237901 0 -0.0067296964817817736 0.10289187901237901 0 -0.0031237589504393881 0.094663000115075446 0 0.0027357799186256541 0.099922074134735195 0 -0.0067296964817817736 0.10289187901237901 0 -0.0031237589504393881 0.094663000115075446 0 -0.016612566888003499 0.10549065289894589 0 -0.010801258285019349 0.1098751367229835 0 -0.0067296964817817736 0.10289187901237901 0 -0.016612566888003499 0.10549065289894589 0 -0.01499150130732587 0.11229706773882531 0 -0.010801258285019349 0.1098751367229835 0 -0.016612566888003499 0.10549065289894589 0 -0.019350371175754791 0.1002616871543825 0 -0.02437867410857289 0.097582455072828894 0 -0.02494015526333682 0.1039819367620219 0 -0.019819675169783141 0.094249510115892832 0 -0.02437867410857289 0.097582455072828894 0 -0.024375743780031749 0.091883670047321578 0 -0.019350371175754791 0.1002616871543825 0 -0.019819675169783141 0.094249510115892832 0 -0.02437867410857289 0.097582455072828894 0 -0.02437867410857289 0.097582455072828894 0 -0.02948524549430773 0.094684195886049011 0 -0.024375743780031749 0.091883670047321578 0 -0.02437867410857289 0.097582455072828894 0 -0.02976853495516079 0.100327918260746 0 -0.02494015526333682 0.1039819367620219 0 -0.02976853495516079 0.100327918260746 0 -0.02948524549430773 0.094684195886049011 0 -0.034478130949482169 0.097400241082690825 0 -0.02437867410857289 0.097582455072828894 0 -0.02976853495516079 0.100327918260746 0 -0.02948524549430773 0.094684195886049011 0 -0.02976853495516079 0.100327918260746 0 -0.031039318577460829 0.10822650643307891 0 -0.02494015526333682 0.1039819367620219 0 -0.033350821481465467 0.12617199810876009 0 -0.019350371175754791 0.1002616871543825 0 -0.033350821481465467 0.12617199810876009 0 -0.016612566888003499 0.10549065289894589 0 -0.019350371175754791 0.1002616871543825 0 -0.033350821481465467 0.12617199810876009 0 -0.0279722912275479 0.12987815548232479 0 -0.016612566888003499 0.10549065289894589 0 -0.033350821481465467 0.12617199810876009 0 -0.031039318577460829 0.10822650643307891 0 -0.02494015526333682 0.1039819367620219 0 -0.033350821481465467 0.12617199810876009 0 -0.019350371175754791 0.1002616871543825 0 -0.02494015526333682 0.1039819367620219 0 -0.0279722912275479 0.12987815548232479 0 -0.016612566888003499 0.10549065289894589 0 -0.01915360559668932 0.1184081428577982 0 -0.0279722912275479 0.12987815548232479 0 -0.016612566888003499 0.10549065289894589 0 -0.021229326713123109 0.12690068265023161 0 -0.017819074287407869 0.12619095175656889 0 -0.01915360559668932 0.1184081428577982 0 -0.017819074287407869 0.12619095175656889 0 -0.01278045449275144 0.1220889493260767 0 -0.01915360559668932 0.1184081428577982 0 -0.01499150130732587 0.11229706773882531 0 -0.016612566888003499 0.10549065289894589 0 -0.01915360559668932 0.1184081428577982 0 -0.01499150130732587 0.11229706773882531 0 -0.01339857445959132 0.1154143384755737 0 -0.01915360559668932 0.1184081428577982 0 -0.005349920870044135 0.074351376200004884 0 -0.0052528425484590904 0.081103150315567085 0 0.0061068817910853689 0.056715647732188103 0 -0.005349920870044135 0.074351376200004884 0 -0.001878767006935739 0.061883215635714688 0 0.0061068817910853689 0.056715647732188103 0 -0.01445784440088334 0.066312881006794694 0 -0.0067425233072981039 0.068656630499997123 0 -0.010384946244844101 0.071857304021185883 0 -0.0067425233072981039 0.068656630499997123 0 -0.005349920870044135 0.074351376200004884 0 -0.001878767006935739 0.061883215635714688 0 -0.0067425233072981039 0.068656630499997123 0 -0.005349920870044135 0.074351376200004884 0 -0.010384946244844101 0.071857304021185883 0 -0.005349920870044135 0.074351376200004884 0 -0.0122903489652272 0.076023409042111412 0 -0.012922878567720709 0.082091661377737338 0 -0.005349920870044135 0.074351376200004884 0 -0.010384946244844101 0.071857304021185883 0 -0.0122903489652272 0.076023409042111412 0 -0.010384946244844101 0.071857304021185883 0 -0.0122903489652272 0.076023409042111412 0 -0.016335771099918781 0.073308618693100333 0 -0.01445784440088334 0.066312881006794694 0 -0.010384946244844101 0.071857304021185883 0 -0.016335771099918781 0.073308618693100333 0 -0.0122903489652272 0.076023409042111412 0 -0.016458228043608261 0.078508084918528551 0 -0.016335771099918781 0.073308618693100333 0 -0.019350371175754791 0.1002616871543825 0 -0.005349920870044135 0.074351376200004884 0 -0.012922878567720709 0.082091661377737338 0 -0.019350371175754791 0.1002616871543825 0 -0.005349920870044135 0.074351376200004884 0 -0.019350371175754791 0.1002616871543825 0 -0.005349920870044135 0.074351376200004884 0 -0.0052528425484590904 0.081103150315567085 0 -0.016612566888003499 0.10549065289894589 0 -0.0052528425484590904 0.081103150315567085 0 -0.0122903489652272 0.076023409042111412 0 -0.012922878567720709 0.082091661377737338 0 -0.016458228043608261 0.078508084918528551 0 -0.0052528425484590904 0.081103150315567085 0 0.001417095723915271 0.08646179589862367 0 0.003195514349617666 0.080119023603714257 0 -0.0031237589504393881 0.094663000115075446 0 -0.0052528425484590904 0.081103150315567085 0 0.001417095723915271 0.08646179589862367 0 -0.019350371175754791 0.1002616871543825 0 -0.019819675169783141 0.094249510115892832 0 -0.012922878567720709 0.082091661377737338 0 -0.019819675169783141 0.094249510115892832 0 -0.012922878567720709 0.082091661377737338 0 -0.020195141944039569 0.087257475339180768 0 -0.020195141944039569 0.087257475339180768 0 -0.024375743780031749 0.091883670047321578 0 -0.02464530419159193 0.085503575116119168 0 -0.019819675169783141 0.094249510115892832 0 -0.020195141944039569 0.087257475339180768 0 -0.024375743780031749 0.091883670047321578 0 -0.02948524549430773 0.094684195886049011 0 -0.024375743780031749 0.091883670047321578 0 -0.02964671663438289 0.088341729690788018 0 -0.024375743780031749 0.091883670047321578 0 -0.02964671663438289 0.088341729690788018 0 -0.02464530419159193 0.085503575116119168 0 -0.029901287453463991 0.081829696917354908 0 -0.023638460220224221 0.076741430194755433 0 -0.033414142968331249 0.076640717760399796 0 -0.02464530419159193 0.085503575116119168 0 -0.029901287453463991 0.081829696917354908 0 -0.023638460220224221 0.076741430194755433 0 -0.02964671663438289 0.088341729690788018 0 -0.02464530419159193 0.085503575116119168 0 -0.029901287453463991 0.081829696917354908 0 -0.01921210801107032 0.082558960038832965 0 -0.016458228043608261 0.078508084918528551 0 -0.023638460220224221 0.076741430194755433 0 -0.02464530419159193 0.085503575116119168 0 -0.01921210801107032 0.082558960038832965 0 -0.023638460220224221 0.076741430194755433 0 -0.020195141944039569 0.087257475339180768 0 -0.02464530419159193 0.085503575116119168 0 -0.01921210801107032 0.082558960038832965 0 -0.012922878567720709 0.082091661377737338 0 -0.020195141944039569 0.087257475339180768 0 -0.01921210801107032 0.082558960038832965 0 -0.012922878567720709 0.082091661377737338 0 -0.01921210801107032 0.082558960038832965 0 -0.016458228043608261 0.078508084918528551 0 -0.016458228043608261 0.078508084918528551 0 -0.016335771099918781 0.073308618693100333 0 -0.023638460220224221 0.076741430194755433 0 -0.016335771099918781 0.073308618693100333 0 -0.023638460220224221 0.076741430194755433 0 -0.022176677862350929 0.069454167967105088 0 -0.023638460220224221 0.076741430194755433 0 -0.03009010590856051 0.06935415727021188 0 -0.022176677862350929 0.069454167967105088 0 -0.023638460220224221 0.076741430194755433 0 -0.03009010590856051 0.06935415727021188 0 -0.033414142968331249 0.076640717760399796 0 -0.03009010590856051 0.06935415727021188 0 -0.026322645040458819 0.064514231810552519 0 -0.022176677862350929 0.069454167967105088 0 -0.03009010590856051 0.06935415727021188 0 -0.026322645040458819 0.064514231810552519 0 -0.030793861620206898 0.062011796389272518 0 -0.026322645040458819 0.064514231810552519 0 -0.019761500952622191 0.062830628634345229 0 -0.02526450058856081 0.060621999212957182 0 -0.026322645040458819 0.064514231810552519 0 -0.019761500952622191 0.062830628634345229 0 -0.022176677862350929 0.069454167967105088 0 -0.019761500952622191 0.062830628634345229 0 -0.022176677862350929 0.069454167967105088 0 -0.01818294857894381 0.067976574075336332 0 -0.016335771099918781 0.073308618693100333 0 -0.022176677862350929 0.069454167967105088 0 -0.01818294857894381 0.067976574075336332 0 -0.01445784440088334 0.066312881006794694 0 -0.016335771099918781 0.073308618693100333 0 -0.01818294857894381 0.067976574075336332 0 -0.01445784440088334 0.066312881006794694 0 -0.019761500952622191 0.062830628634345229 0 -0.01818294857894381 0.067976574075336332 0 -0.043477254130578062 0.066708627057405614 0 -0.036855940082728599 0.064737705173948751 0 -0.038316175795119131 0.071905001685735132 0 -0.043477254130578062 0.066708627057405614 0 -0.036855940082728599 0.064737705173948751 0 -0.042052391023659097 0.059632676309315263 0 -0.03009010590856051 0.06935415727021188 0 -0.036855940082728599 0.064737705173948751 0 -0.038316175795119131 0.071905001685735132 0 -0.03009010590856051 0.06935415727021188 0 -0.036855940082728599 0.064737705173948751 0 -0.030793861620206898 0.062011796389272518 0 -0.03009010590856051 0.06935415727021188 0 -0.038316175795119131 0.071905001685735132 0 -0.033414142968331249 0.076640717760399796 0 -0.038316175795119131 0.071905001685735132 0 -0.033414142968331249 0.076640717760399796 0 -0.040090248856170518 0.079792683536384745 0 -0.038316175795119131 0.071905001685735132 0 -0.04596936282434589 0.074196119316060072 0 -0.040090248856170518 0.079792683536384745 0 -0.043477254130578062 0.066708627057405614 0 -0.038316175795119131 0.071905001685735132 0 -0.04596936282434589 0.074196119316060072 0 -0.04596936282434589 0.074196119316060072 0 -0.040090248856170518 0.079792683536384745 0 -0.048369281517146687 0.081836115044209484 0 -0.040090248856170518 0.079792683536384745 0 -0.040825474814645657 0.087512222151568425 0 -0.048369281517146687 0.081836115044209484 0 -0.033414142968331249 0.076640717760399796 0 -0.040090248856170518 0.079792683536384745 0 -0.034690257210868367 0.084447701869735783 0 -0.029901287453463991 0.081829696917354908 0 -0.033414142968331249 0.076640717760399796 0 -0.034690257210868367 0.084447701869735783 0 -0.02964671663438289 0.088341729690788018 0 -0.029901287453463991 0.081829696917354908 0 -0.034690257210868367 0.084447701869735783 0 -0.040090248856170518 0.079792683536384745 0 -0.034690257210868367 0.084447701869735783 0 -0.040825474814645657 0.087512222151568425 0 -0.034690257210868367 0.084447701869735783 0 -0.034782461676033577 0.091701538308147645 0 -0.040825474814645657 0.087512222151568425 0 -0.02964671663438289 0.088341729690788018 0 -0.034690257210868367 0.084447701869735783 0 -0.034782461676033577 0.091701538308147645 0 -0.02948524549430773 0.094684195886049011 0 -0.02964671663438289 0.088341729690788018 0 -0.034782461676033577 0.091701538308147645 0 -0.034782461676033577 0.091701538308147645 0 -0.040825474814645657 0.087512222151568425 0 -0.04172552560032497 0.095189019627926086 0 -0.049931288954373237 0.089761863549521481 0 -0.04172552560032497 0.095189019627926086 0 -0.048328157455854968 0.096175650395506018 0 -0.040825474814645657 0.087512222151568425 0 -0.049931288954373237 0.089761863549521481 0 -0.048369281517146687 0.081836115044209484 0 -0.040825474814645657 0.087512222151568425 0 -0.049931288954373237 0.089761863549521481 0 -0.04172552560032497 0.095189019627926086 0 -0.049931288954373237 0.089761863549521481 0 -0.061997200542862833 0.090714352519897651 0 -0.056400083775318008 0.083990930843295342 0 -0.049931288954373237 0.089761863549521481 0 -0.061997200542862833 0.090714352519897651 0 -0.055071743775067163 0.098060670762139451 0 -0.056400083775318008 0.083990930843295342 0 -0.054868746905894987 0.076224299579539426 0 -0.064618618308146775 0.080756585132940137 0 -0.061997200542862833 0.090714352519897651 0 -0.056400083775318008 0.083990930843295342 0 -0.064618618308146775 0.080756585132940137 0 -0.049931288954373237 0.089761863549521481 0 -0.056400083775318008 0.083990930843295342 0 -0.048369281517146687 0.081836115044209484 0 -0.056400083775318008 0.083990930843295342 0 -0.048369281517146687 0.081836115044209484 0 -0.054868746905894987 0.076224299579539426 0 -0.04596936282434589 0.074196119316060072 0 -0.048369281517146687 0.081836115044209484 0 -0.054868746905894987 0.076224299579539426 0 -0.04596936282434589 0.074196119316060072 0 -0.054868746905894987 0.076224299579539426 0 -0.052632562969558767 0.068220484613443655 0 -0.054868746905894987 0.076224299579539426 0 -0.064618618308146775 0.080756585132940137 0 -0.062734646789868398 0.070639624035334719 0 -0.054868746905894987 0.076224299579539426 0 -0.052632562969558767 0.068220484613443655 0 -0.062734646789868398 0.070639624035334719 0 -0.052632562969558767 0.068220484613443655 0 -0.062734646789868398 0.070639624035334719 0 -0.059514734278167648 0.061319961156781462 0 -0.043477254130578062 0.066708627057405614 0 -0.04596936282434589 0.074196119316060072 0 -0.052632562969558767 0.068220484613443655 0 -0.043477254130578062 0.066708627057405614 0 -0.052632562969558767 0.068220484613443655 0 -0.049230632888497688 0.060234276535540601 0 -0.052632562969558767 0.068220484613443655 0 -0.049230632888497688 0.060234276535540601 0 -0.059514734278167648 0.061319961156781462 0 -0.033350821481465467 0.12617199810876009 0 -0.031039318577460829 0.10822650643307891 0 -0.034603833772868048 0.1118955038249701 0 -0.042883809647137013 0.11105384941572929 0 -0.039426991134344232 0.11867905018586269 0 -0.046926698356845223 0.12009242074845269 0 -0.041911027221187003 0.1246097852952508 0 -0.039426991134344232 0.11867905018586269 0 -0.046926698356845223 0.12009242074845269 0 -0.033350821481465467 0.12617199810876009 0 -0.039426991134344232 0.11867905018586269 0 -0.034603833772868048 0.1118955038249701 0 -0.033350821481465467 0.12617199810876009 0 -0.041911027221187003 0.1246097852952508 0 -0.039426991134344232 0.11867905018586269 0 -0.042883809647137013 0.11105384941572929 0 -0.039426991134344232 0.11867905018586269 0 -0.034603833772868048 0.1118955038249701 0 -0.042883809647137013 0.11105384941572929 0 -0.034603833772868048 0.1118955038249701 0 -0.037022685828468828 0.1032481292431494 0 -0.031039318577460829 0.10822650643307891 0 -0.034603833772868048 0.1118955038249701 0 -0.037022685828468828 0.1032481292431494 0 -0.02976853495516079 0.100327918260746 0 -0.031039318577460829 0.10822650643307891 0 -0.037022685828468828 0.1032481292431494 0 -0.037022685828468828 0.1032481292431494 0 -0.034478130949482169 0.097400241082690825 0 -0.04172552560032497 0.095189019627926086 0 -0.02948524549430773 0.094684195886049011 0 -0.034782461676033577 0.091701538308147645 0 -0.034478130949482169 0.097400241082690825 0 -0.02976853495516079 0.100327918260746 0 -0.037022685828468828 0.1032481292431494 0 -0.034478130949482169 0.097400241082690825 0 -0.034782461676033577 0.091701538308147645 0 -0.034478130949482169 0.097400241082690825 0 -0.04172552560032497 0.095189019627926086 0 -0.037022685828468828 0.1032481292431494 0 -0.04172552560032497 0.095189019627926086 0 -0.04674654955656482 0.10219603589141391 0 -0.04172552560032497 0.095189019627926086 0 -0.04674654955656482 0.10219603589141391 0 -0.048328157455854968 0.096175650395506018 0 -0.042883809647137013 0.11105384941572929 0 -0.037022685828468828 0.1032481292431494 0 -0.04674654955656482 0.10219603589141391 0 -0.042883809647137013 0.11105384941572929 0 -0.04674654955656482 0.10219603589141391 0 -0.052696879159033622 0.1107935691631821 0 -0.04674654955656482 0.10219603589141391 0 -0.055071743775067163 0.098060670762139451 0 -0.052696879159033622 0.1107935691631821 0 -0.049931288954373237 0.089761863549521481 0 -0.048328157455854968 0.096175650395506018 0 -0.055071743775067163 0.098060670762139451 0 -0.04674654955656482 0.10219603589141391 0 -0.048328157455854968 0.096175650395506018 0 -0.055071743775067163 0.098060670762139451 0 -0.055071743775067163 0.098060670762139451 0 -0.062467629521067269 0.1095824624956763 0 -0.052696879159033622 0.1107935691631821 0 -0.062467629521067269 0.1095824624956763 0 -0.052696879159033622 0.1107935691631821 0 -0.062084844097520263 0.1237759756656813 0 -0.042883809647137013 0.11105384941572929 0 -0.052696879159033622 0.1107935691631821 0 -0.046926698356845223 0.12009242074845269 0 -0.052696879159033622 0.1107935691631821 0 -0.046926698356845223 0.12009242074845269 0 -0.062084844097520263 0.1237759756656813 0 -0.062467629521067269 0.1095824624956763 0 -0.062084844097520263 0.1237759756656813 0 -0.080140280021869778 0.117792763606796 0 -0.062467629521067269 0.1095824624956763 0 -0.080140280021869778 0.117792763606796 0 -0.071576330072496322 0.10096847965534241 0 -0.080140280021869778 0.117792763606796 0 -0.08734075460590586 0.10624268953741391 0 -0.1005524472456505 0.1203648612045367 0 -0.092495765311517111 0.13211855513410559 0 -0.080140280021869778 0.117792763606796 0 -0.1005524472456505 0.1203648612045367 0 -0.080140280021869778 0.117792763606796 0 -0.08734075460590586 0.10624268953741391 0 -0.071576330072496322 0.10096847965534241 0 -0.08734075460590586 0.10624268953741391 0 -0.081151313376561604 0.095393951517089084 0 -0.071576330072496322 0.10096847965534241 0 -0.090604634916063992 0.094734210008962538 0 -0.08734075460590586 0.10624268953741391 0 -0.099510957975379261 0.10189716664613289 0 -0.090604634916063992 0.094734210008962538 0 -0.08734075460590586 0.10624268953741391 0 -0.081151313376561604 0.095393951517089084 0 -0.061997200542862833 0.090714352519897651 0 -0.055071743775067163 0.098060670762139451 0 -0.071576330072496322 0.10096847965534241 0 -0.055071743775067163 0.098060670762139451 0 -0.062467629521067269 0.1095824624956763 0 -0.071576330072496322 0.10096847965534241 0 -0.081151313376561604 0.095393951517089084 0 -0.071576330072496322 0.10096847965534241 0 -0.072833227919386401 0.088380427764717953 0 -0.061997200542862833 0.090714352519897651 0 -0.071576330072496322 0.10096847965534241 0 -0.072833227919386401 0.088380427764717953 0 -0.061997200542862833 0.090714352519897651 0 -0.064618618308146775 0.080756585132940137 0 -0.072833227919386401 0.088380427764717953 0 -0.072833227919386401 0.088380427764717953 0 -0.074773212259330993 0.076457304604736542 0 -0.084624965528151158 0.085271675024165494 0 -0.064618618308146775 0.080756585132940137 0 -0.072833227919386401 0.088380427764717953 0 -0.074773212259330993 0.076457304604736542 0 -0.062734646789868398 0.070639624035334719 0 -0.073990866325897089 0.065109964440076606 0 -0.059514734278167648 0.061319961156781462 0 -0.064618618308146775 0.080756585132940137 0 -0.062734646789868398 0.070639624035334719 0 -0.074773212259330993 0.076457304604736542 0 -0.062734646789868398 0.070639624035334719 0 -0.074773212259330993 0.076457304604736542 0 -0.073990866325897089 0.065109964440076606 0 -0.073990866325897089 0.065109964440076606 0 -0.088162851994208896 0.073315115133051834 0 -0.09014445694933404 0.056742798949003727 0 -0.074773212259330993 0.076457304604736542 0 -0.073990866325897089 0.065109964440076606 0 -0.088162851994208896 0.073315115133051834 0 -0.081151313376561604 0.095393951517089084 0 -0.072833227919386401 0.088380427764717953 0 -0.084624965528151158 0.085271675024165494 0 -0.090604634916063992 0.094734210008962538 0 -0.081151313376561604 0.095393951517089084 0 -0.084624965528151158 0.085271675024165494 0 -0.074773212259330993 0.076457304604736542 0 -0.088162851994208896 0.073315115133051834 0 -0.084624965528151158 0.085271675024165494 0 -0.088162851994208896 0.073315115133051834 0 -0.084624965528151158 0.085271675024165494 0 -0.097950924103102646 0.08628175718011899 0 -0.090604634916063992 0.094734210008962538 0 -0.084624965528151158 0.085271675024165494 0 -0.097950924103102646 0.08628175718011899 0 -0.097950924103102646 0.08628175718011899 0 -0.10929888057601581 0.071585704364444835 0 -0.1144071871240382 0.092922161513665738 0 -0.097950924103102646 0.08628175718011899 0 -0.1144071871240382 0.092922161513665738 0 -0.099510957975379261 0.10189716664613289 0 -0.088162851994208896 0.073315115133051834 0 -0.097950924103102646 0.08628175718011899 0 -0.10929888057601581 0.071585704364444835 0 -0.088162851994208896 0.073315115133051834 0 -0.10929888057601581 0.071585704364444835 0 -0.09014445694933404 0.056742798949003727 0 -0.12521444809085969 0.078893422456786169 0 -0.13602170905768221 0.064864683399907391 0 -0.10929888057601581 0.071585704364444835 0 -0.13602170905768221 0.064864683399907391 0 -0.10929888057601581 0.071585704364444835 0 -0.1117881332998015 0.054250432404829851 0 -0.12521444809085969 0.078893422456786169 0 -0.10929888057601581 0.071585704364444835 0 -0.1144071871240382 0.092922161513665738 0 -0.12521444809085969 0.078893422456786169 0 -0.1144071871240382 0.092922161513665738 0 -0.12752608452163181 0.091888103636393437 0 -0.12521444809085969 0.078893422456786169 0 -0.1144071871240382 0.092922161513665738 0 -0.12752608452163181 0.091888103636393437 0 -0.1144071871240382 0.092922161513665738 0 -0.12279717720951509 0.1074305474415032 0 -0.1144071871240382 0.092922161513665738 0 -0.12279717720951509 0.1074305474415032 0 -0.1097640139813416 0.1098315105028935 0 -0.12279717720951509 0.1074305474415032 0 -0.1097640139813416 0.1098315105028935 0 -0.1192886350787581 0.1247345076055992 0 -0.1097640139813416 0.1098315105028935 0 -0.1192886350787581 0.1247345076055992 0 -0.1005524472456505 0.1203648612045367 0 -0.08734075460590586 0.10624268953741391 0 -0.1005524472456505 0.1203648612045367 0 -0.099510957975379261 0.10189716664613289 0 -0.1097640139813416 0.1098315105028935 0 -0.1005524472456505 0.1203648612045367 0 -0.099510957975379261 0.10189716664613289 0 -0.1144071871240382 0.092922161513665738 0 -0.1097640139813416 0.1098315105028935 0 -0.099510957975379261 0.10189716664613289 0 -0.090604634916063992 0.094734210008962538 0 -0.097950924103102646 0.08628175718011899 0 -0.099510957975379261 0.10189716664613289 0 -0.10304917937719479 0.01593448294875896 0 -0.1235159725445605 0.036040748729495482 0 -0.0988419239185407 0.037048605716671797 0 -0.1093518552721765 -0.004773364731077848 0 -0.10304917937719479 0.01593448294875896 0 -0.090376957116416523 0.0065913810648580203 0 -0.13029174811000349 0.0070918604316854029 0 -0.10304917937719479 0.01593448294875896 0 -0.1093518552721765 -0.004773364731077848 0 -0.13029174811000349 0.0070918604316854029 0 -0.10304917937719479 0.01593448294875896 0 -0.13029174811000349 0.0070918604316854029 0 -0.10304917937719479 0.01593448294875896 0 -0.1235159725445605 0.036040748729495482 0 -0.1235159725445605 0.036040748729495482 0 -0.1117881332998015 0.054250432404829851 0 -0.0988419239185407 0.037048605716671797 0 -0.13602170905768221 0.064864683399907391 0 -0.1117881332998015 0.054250432404829851 0 -0.12745267427392179 0.051457622877073672 0 -0.1235159725445605 0.036040748729495482 0 -0.1117881332998015 0.054250432404829851 0 -0.10929888057601581 0.071585704364444835 0 -0.1117881332998015 0.054250432404829851 0 -0.09014445694933404 0.056742798949003727 0 -0.1117881332998015 0.054250432404829851 0 -0.0988419239185407 0.037048605716671797 0 -0.09014445694933404 0.056742798949003727 0 -0.0988419239185407 0.037048605716671797 0 -0.082125256520102816 0.041433701659649019 0 -0.09014445694933404 0.056742798949003727 0 -0.0988419239185407 0.037048605716671797 0 -0.082125256520102816 0.041433701659649019 0 -0.075806610644386055 0.024777105465832529 0 -0.082125256520102816 0.041433701659649019 0 -0.09014445694933404 0.056742798949003727 0 -0.06861529568447261 0.052184982761551389 0 -0.073990866325897089 0.065109964440076606 0 -0.09014445694933404 0.056742798949003727 0 -0.06861529568447261 0.052184982761551389 0 -0.073990866325897089 0.065109964440076606 0 -0.06861529568447261 0.052184982761551389 0 -0.059514734278167648 0.061319961156781462 0 -0.070000747862522306 0.040310232055070942 0 -0.075806610644386055 0.024777105465832529 0 -0.059756736620978627 0.037369428847607328 0 -0.082125256520102816 0.041433701659649019 0 -0.070000747862522306 0.040310232055070942 0 -0.075806610644386055 0.024777105465832529 0 -0.082125256520102816 0.041433701659649019 0 -0.06861529568447261 0.052184982761551389 0 -0.070000747862522306 0.040310232055070942 0 -0.06861529568447261 0.052184982761551389 0 -0.070000747862522306 0.040310232055070942 0 -0.055576019656443848 0.046766851220511732 0 -0.075806610644386055 0.024777105465832529 0 -0.065799299891067073 0.012560980027935129 0 -0.059186248068172159 0.01998714048993178 0 -0.10304917937719479 0.01593448294875896 0 -0.075806610644386055 0.024777105465832529 0 -0.10304917937719479 0.01593448294875896 0 -0.0988419239185407 0.037048605716671797 0 -0.075806610644386055 0.024777105465832529 0 -0.10304917937719479 0.01593448294875896 0 -0.075806610644386055 0.024777105465832529 0 -0.090376957116416523 0.0065913810648580203 0 -0.075806610644386055 0.024777105465832529 0 -0.090376957116416523 0.0065913810648580203 0 -0.076137387701349396 0.0037200876556672969 0 -0.092108345008767994 -0.0090572951029760269 0 -0.090376957116416523 0.0065913810648580203 0 -0.076137387701349396 0.0037200876556672969 0 -0.075806610644386055 0.024777105465832529 0 -0.076137387701349396 0.0037200876556672969 0 -0.065799299891067073 0.012560980027935129 0 -0.076137387701349396 0.0037200876556672969 0 -0.065799299891067073 0.012560980027935129 0 -0.061776760647051843 0.0025532956499628211 0 -0.06927733635922316 -0.0034046240633964641 0 -0.076137387701349396 0.0037200876556672969 0 -0.061776760647051843 0.0025532956499628211 0 -0.054515483748811808 -0.0053109874646789651 0 -0.061776760647051843 0.0025532956499628211 0 -0.052817537323960037 0.0036461484825202118 0 -0.061776760647051843 0.0025532956499628211 0 -0.052817537323960037 0.0036461484825202118 0 -0.056089492394375932 0.011767270878281239 0 -0.045035077950967603 -0.0001443398781687212 0 -0.052817537323960037 0.0036461484825202118 0 -0.047522035222151773 0.0093081714689351169 0 -0.052817537323960037 0.0036461484825202118 0 -0.047522035222151773 0.0093081714689351169 0 -0.056089492394375932 0.011767270878281239 0 -0.047522035222151773 0.0093081714689351169 0 -0.056089492394375932 0.011767270878281239 0 -0.046068274530031712 0.018056999715354079 0 -0.065799299891067073 0.012560980027935129 0 -0.056089492394375932 0.011767270878281239 0 -0.059186248068172159 0.01998714048993178 0 -0.065799299891067073 0.012560980027935129 0 -0.061776760647051843 0.0025532956499628211 0 -0.056089492394375932 0.011767270878281239 0 -0.075806610644386055 0.024777105465832529 0 -0.048564041911577337 0.033619727982906078 0 -0.075806610644386055 0.024777105465832529 0 -0.05107745426771499 0.027684726776225511 0 -0.048564041911577337 0.033619727982906078 0 -0.075806610644386055 0.024777105465832529 0 -0.059186248068172159 0.01998714048993178 0 -0.05107745426771499 0.027684726776225511 0 -0.056089492394375932 0.011767270878281239 0 -0.059186248068172159 0.01998714048993178 0 -0.046068274530031712 0.018056999715354079 0 -0.059186248068172159 0.01998714048993178 0 -0.05107745426771499 0.027684726776225511 0 -0.046068274530031712 0.018056999715354079 0 -0.046068274530031712 0.018056999715354079 0 -0.037599793911422541 0.0132147781466882 0 -0.030164509871874998 0.02657389617154382 0 -0.05107745426771499 0.027684726776225511 0 -0.046068274530031712 0.018056999715354079 0 -0.030164509871874998 0.02657389617154382 0 -0.05107745426771499 0.027684726776225511 0 -0.030164509871874998 0.02657389617154382 0 -0.05107745426771499 0.027684726776225511 0 -0.048564041911577337 0.033619727982906078 0 -0.030164509871874998 0.02657389617154382 0 -0.037599793911422541 0.0132147781466882 0 -0.030164509871874998 0.02657389617154382 0 -0.046184686715580167 -0.002209864085063335 0 -0.02891487698710175 0.0042187897996601269 0 -0.045035077950967603 -0.0001443398781687212 0 -0.037599793911422541 0.0132147781466882 0 -0.028966724035380819 0.0079526240136048934 0 -0.046184686715580167 -0.002209864085063335 0 -0.045035077950967603 -0.0001443398781687212 0 -0.02891487698710175 0.0042187897996601269 0 -0.045035077950967603 -0.0001443398781687212 0 -0.02891487698710175 0.0042187897996601269 0 -0.028966724035380819 0.0079526240136048934 0 -0.045035077950967603 -0.0001443398781687212 0 -0.028966724035380819 0.0079526240136048934 0 -0.045035077950967603 -0.0001443398781687212 0 -0.047522035222151773 0.0093081714689351169 0 -0.037599793911422541 0.0132147781466882 0 -0.045035077950967603 -0.0001443398781687212 0 -0.037599793911422541 0.0132147781466882 0 -0.047522035222151773 0.0093081714689351169 0 -0.046068274530031712 0.018056999715354079 0 -0.037599793911422541 0.0132147781466882 0 -0.049230632888497688 0.060234276535540601 0 -0.055584002562719198 0.054817709121291129 0 -0.04770696738413123 0.05363797582779789 0 -0.049230632888497688 0.060234276535540601 0 -0.059514734278167648 0.061319961156781462 0 -0.055584002562719198 0.054817709121291129 0 -0.06861529568447261 0.052184982761551389 0 -0.059514734278167648 0.061319961156781462 0 -0.055584002562719198 0.054817709121291129 0 -0.06861529568447261 0.052184982761551389 0 -0.055584002562719198 0.054817709121291129 0 -0.055576019656443848 0.046766851220511732 0 -0.055584002562719198 0.054817709121291129 0 -0.04770696738413123 0.05363797582779789 0 -0.055576019656443848 0.046766851220511732 0 -0.04770696738413123 0.05363797582779789 0 -0.055576019656443848 0.046766851220511732 0 -0.044963569297829492 0.047373135898742633 0 -0.075806610644386055 0.024777105465832529 0 -0.059756736620978627 0.037369428847607328 0 -0.048564041911577337 0.033619727982906078 0 -0.048836263029963599 0.041373227513715388 0 -0.055576019656443848 0.046766851220511732 0 -0.044963569297829492 0.047373135898742633 0 -0.048836263029963599 0.041373227513715388 0 -0.055576019656443848 0.046766851220511732 0 -0.059756736620978627 0.037369428847607328 0 -0.070000747862522306 0.040310232055070942 0 -0.055576019656443848 0.046766851220511732 0 -0.059756736620978627 0.037369428847607328 0 -0.048836263029963599 0.041373227513715388 0 -0.059756736620978627 0.037369428847607328 0 -0.048564041911577337 0.033619727982906078 0 -0.048836263029963599 0.041373227513715388 0 -0.048564041911577337 0.033619727982906078 0 -0.043507005678639257 0.040082302934237687 0 -0.048564041911577337 0.033619727982906078 0 -0.021321473178769521 0.042462350499982378 0 -0.030164509871874998 0.02657389617154382 0 -0.048564041911577337 0.033619727982906078 0 -0.021321473178769521 0.042462350499982378 0 -0.048564041911577337 0.033619727982906078 0 -0.034576590827370739 0.042067236588695628 0 -0.021321473178769521 0.042462350499982378 0 -0.048564041911577337 0.033619727982906078 0 -0.034576590827370739 0.042067236588695628 0 -0.043507005678639257 0.040082302934237687 0 -0.034576590827370739 0.042067236588695628 0 -0.037733143182992299 0.04766653038820632 0 -0.031305153098364229 0.047979985958252883 0 -0.034576590827370739 0.042067236588695628 0 -0.042051126945645362 0.043269019651633669 0 -0.037733143182992299 0.04766653038820632 0 -0.034576590827370739 0.042067236588695628 0 -0.042051126945645362 0.043269019651633669 0 -0.043507005678639257 0.040082302934237687 0 -0.042051126945645362 0.043269019651633669 0 -0.044963569297829492 0.047373135898742633 0 -0.037733143182992299 0.04766653038820632 0 -0.048836263029963599 0.041373227513715388 0 -0.042051126945645362 0.043269019651633669 0 -0.043507005678639257 0.040082302934237687 0 -0.048836263029963599 0.041373227513715388 0 -0.042051126945645362 0.043269019651633669 0 -0.044963569297829492 0.047373135898742633 0 -0.04770696738413123 0.05363797582779789 0 -0.044963569297829492 0.047373135898742633 0 -0.040197007414696603 0.053030956829249722 0 -0.044963569297829492 0.047373135898742633 0 -0.040197007414696603 0.053030956829249722 0 -0.037733143182992299 0.04766653038820632 0 -0.037733143182992299 0.04766653038820632 0 -0.031305153098364229 0.047979985958252883 0 -0.033432381778852202 0.052524880682391813 0 -0.040197007414696603 0.053030956829249722 0 -0.037733143182992299 0.04766653038820632 0 -0.033432381778852202 0.052524880682391813 0 -0.040197007414696603 0.053030956829249722 0 -0.033432381778852202 0.052524880682391813 0 -0.035372986776644383 0.058179211474036173 0 -0.033432381778852202 0.052524880682391813 0 -0.035372986776644383 0.058179211474036173 0 -0.028859922817056849 0.056783289936454047 0 -0.036855940082728599 0.064737705173948751 0 -0.035372986776644383 0.058179211474036173 0 -0.030793861620206898 0.062011796389272518 0 -0.035372986776644383 0.058179211474036173 0 -0.030793861620206898 0.062011796389272518 0 -0.028859922817056849 0.056783289936454047 0 -0.036855940082728599 0.064737705173948751 0 -0.035372986776644383 0.058179211474036173 0 -0.042052391023659097 0.059632676309315263 0 -0.040197007414696603 0.053030956829249722 0 -0.035372986776644383 0.058179211474036173 0 -0.042052391023659097 0.059632676309315263 0 -0.04770696738413123 0.05363797582779789 0 -0.040197007414696603 0.053030956829249722 0 -0.042052391023659097 0.059632676309315263 0 -0.049230632888497688 0.060234276535540601 0 -0.04770696738413123 0.05363797582779789 0 -0.042052391023659097 0.059632676309315263 0 -0.043477254130578062 0.066708627057405614 0 -0.049230632888497688 0.060234276535540601 0 -0.042052391023659097 0.059632676309315263 0 -0.01445784440088334 0.066312881006794694 0 -0.019761500952622191 0.062830628634345229 0 -0.020631204984183159 0.049380629003849159 0 -0.0067425233072981039 0.068656630499997123 0 -0.020631204984183159 0.049380629003849159 0 -0.019701449288396771 0.045373078622745172 0 -0.019761500952622191 0.062830628634345229 0 -0.023858258468520799 0.056330458781724262 0 -0.020631204984183159 0.049380629003849159 0 -0.019761500952622191 0.062830628634345229 0 -0.02526450058856081 0.060621999212957182 0 -0.023858258468520799 0.056330458781724262 0 -0.026322645040458819 0.064514231810552519 0 -0.02526450058856081 0.060621999212957182 0 -0.030793861620206898 0.062011796389272518 0 -0.02526450058856081 0.060621999212957182 0 -0.030793861620206898 0.062011796389272518 0 -0.028859922817056849 0.056783289936454047 0 -0.02526450058856081 0.060621999212957182 0 -0.028859922817056849 0.056783289936454047 0 -0.023858258468520799 0.056330458781724262 0 -0.028859922817056849 0.056783289936454047 0 -0.023858258468520799 0.056330458781724262 0 -0.027126077383358909 0.051509309508151732 0 -0.023858258468520799 0.056330458781724262 0 -0.027126077383358909 0.051509309508151732 0 -0.020631204984183159 0.049380629003849159 0 -0.033432381778852202 0.052524880682391813 0 -0.028859922817056849 0.056783289936454047 0 -0.027126077383358909 0.051509309508151732 0 -0.031305153098364229 0.047979985958252883 0 -0.027126077383358909 0.051509309508151732 0 -0.02577699146007445 0.046462098363613133 0 -0.031305153098364229 0.047979985958252883 0 -0.033432381778852202 0.052524880682391813 0 -0.027126077383358909 0.051509309508151732 0 -0.027126077383358909 0.051509309508151732 0 -0.020631204984183159 0.049380629003849159 0 -0.02577699146007445 0.046462098363613133 0 -0.020631204984183159 0.049380629003849159 0 -0.019701449288396771 0.045373078622745172 0 -0.02577699146007445 0.046462098363613133 0 -0.019186901063845511 0.043155207903878251 0 -0.019701449288396771 0.045373078622745172 0 -0.010906489523945941 0.053415422409555408 0 -0.020631204984183159 0.049380629003849159 0 -0.019701449288396771 0.045373078622745172 0 -0.019186901063845511 0.043155207903878251 0 -0.0151550560805021 0.02577664063853528 0 -0.021321473178769521 0.042462350499982378 0 -0.030164509871874998 0.02657389617154382 0 -0.021321473178769521 0.042462350499982378 0 -0.030164509871874998 0.02657389617154382 0 -0.0151550560805021 0.02577664063853528 0 -0.019186901063845511 0.043155207903878251 0 -0.021321473178769521 0.042462350499982378 0 -0.0151550560805021 0.02577664063853528 0 -0.019186901063845511 0.043155207903878251 0 -0.019701449288396771 0.045373078622745172 0 -0.019186901063845511 0.043155207903878251 0 -0.021321473178769521 0.042462350499982378 0 -0.021321473178769521 0.042462350499982378 0 -0.019701449288396771 0.045373078622745172 0 -0.02577699146007445 0.046462098363613133 0 -0.021321473178769521 0.042462350499982378 0 -0.019701449288396771 0.045373078622745172 0 -0.019186901063845511 0.043155207903878251 0 -0.021321473178769521 0.042462350499982378 0 -0.019701449288396771 0.045373078622745172 0 -0.034576590827370739 0.042067236588695628 0 -0.031305153098364229 0.047979985958252883 0 -0.02577699146007445 0.046462098363613133 0 -0.034576590827370739 0.042067236588695628 0 -0.021321473178769521 0.042462350499982378 0 -0.02577699146007445 0.046462098363613133 0 -0.019186901063845511 0.043155207903878251 0 -0.003904097857025903 0.038989186545079518 0 -0.0151550560805021 0.02577664063853528 0 -0.003904097857025903 0.038989186545079518 0 -0.0151550560805021 0.02577664063853528 0 0.0029852740090939669 0.03325412386061815 0 -0.019186901063845511 0.043155207903878251 0 -0.003904097857025903 0.038989186545079518 0 0.0060569674735301282 0.051349075469597383 0 -0.019186901063845511 0.043155207903878251 0 -0.0045821239237160399 0.053076667315586877 0 0.0060569674735301282 0.051349075469597383 0 -0.0067425233072981039 0.068656630499997123 0 -0.019701449288396771 0.045373078622745172 0 -0.0067425233072981039 0.068656630499997123 0 -0.019701449288396771 0.045373078622745172 0 -0.010906489523945941 0.053415422409555408 0 -0.019186901063845511 0.043155207903878251 0 0.0060569674735301282 0.051349075469597383 0 -0.01445784440088334 0.066312881006794694 0 -0.0067425233072981039 0.068656630499997123 0 -0.020631204984183159 0.049380629003849159 0 -0.019186901063845511 0.043155207903878251 0 -0.010906489523945941 0.053415422409555408 0 -0.0045821239237160399 0.053076667315586877 0 -0.010906489523945941 0.053415422409555408 0 -0.0045821239237160399 0.053076667315586877 0 -0.0043194500364703821 0.056815527705570329 0 -0.0067425233072981039 0.068656630499997123 0 -0.010906489523945941 0.053415422409555408 0 -0.0043194500364703821 0.056815527705570329 0 -0.0067425233072981039 0.068656630499997123 0 -0.0043194500364703821 0.056815527705570329 0 -0.001878767006935739 0.061883215635714688 0 -0.0043194500364703821 0.056815527705570329 0 0.0006027876966993907 0.056759703893998488 0 6.6733226032064186e-07 0.054331484134992059 0 -0.0045821239237160399 0.053076667315586877 0 -0.0043194500364703821 0.056815527705570329 0 6.6733226032064186e-07 0.054331484134992059 0 -0.0043194500364703821 0.056815527705570329 0 -0.001878767006935739 0.061883215635714688 0 0.0006027876966993907 0.056759703893998488 0 -0.028966724035380819 0.0079526240136048934 0 -0.01289837011979458 0.016049587905379439 0 -0.01164506725862193 0.010647443684379931 0 -0.028966724035380819 0.0079526240136048934 0 -0.01289837011979458 0.016049587905379439 0 -0.02891487698710175 0.0042187897996601269 0 -0.01164506725862193 0.010647443684379931 0 -0.034611754017477708 -0.0073742377835858894 0 -0.02891487698710175 0.0042187897996601269 0 -0.0099551073919055839 0.0033631653103914781 0 -0.02891487698710175 0.0042187897996601269 0 -0.01164506725862193 0.010647443684379931 0 -0.0099551073919055839 0.0033631653103914781 0 -0.02891487698710175 0.0042187897996601269 0 -0.028966724035380819 0.0079526240136048934 0 -0.01164506725862193 0.010647443684379931 0 -0.028966724035380819 0.0079526240136048934 0 -0.02495689080379512 0.01791350537515014 0 -0.01289837011979458 0.016049587905379439 0 -0.037599793911422541 0.0132147781466882 0 -0.028966724035380819 0.0079526240136048934 0 -0.02495689080379512 0.01791350537515014 0 -0.037599793911422541 0.0132147781466882 0 -0.02495689080379512 0.01791350537515014 0 -0.030164509871874998 0.02657389617154382 0 -0.030164509871874998 0.02657389617154382 0 -0.0151550560805021 0.02577664063853528 0 -0.02495689080379512 0.01791350537515014 0 -0.01289837011979458 0.016049587905379439 0 -0.0151550560805021 0.02577664063853528 0 -0.02495689080379512 0.01791350537515014 0 -0.030164509871874998 0.02657389617154382 0 -0.0151550560805021 0.02577664063853528 0 -0.01289837011979458 0.016049587905379439 0 0.0043489621356643674 0.024740647813292601 0 -0.01289837011979458 0.016049587905379439 0 0.0043489621356643674 0.024740647813292601 0 0.0078743151724629326 0.017913496736836992 0 -0.0151550560805021 0.02577664063853528 0 0.0043489621356643674 0.024740647813292601 0 -0.0151550560805021 0.02577664063853528 0 0.0043489621356643674 0.024740647813292601 0 0.0029852740090939669 0.03325412386061815 0 -0.01289837011979458 0.016049587905379439 0 -0.0151550560805021 0.02577664063853528 0 0.0043489621356643674 0.024740647813292601 0 -0.01289837011979458 0.016049587905379439 0 -0.0151550560805021 0.02577664063853528 0 -0.0024677066761123741 -0.01085137102075517 0 -0.0099551073919055839 0.0033631653103914781 0 0.0049815738509715237 0.0098677468062828497 0 -0.01164506725862193 0.010647443684379931 0 -0.0099551073919055839 0.0033631653103914781 0 0.0049815738509715237 0.0098677468062828497 0 -0.01289837011979458 0.016049587905379439 0 -0.01164506725862193 0.010647443684379931 0 0.0078743151724629326 0.017913496736836992 0 -0.01164506725862193 0.010647443684379931 0 0.0078743151724629326 0.017913496736836992 0 -0.01289837011979458 0.016049587905379439 0 -0.01164506725862193 0.010647443684379931 0 -0.01164506725862193 0.010647443684379931 0 -0.0099551073919055839 0.0033631653103914781 0 -0.0099551073919055839 0.0033631653103914781 0 0.0049815738509715237 0.0098677468062828497 0 0.01309102914163208 0.01339922826239303 0 0.011284172552750139 -0.010635754128112169 0 -0.00054800408978100679 -0.0084191619305039114 0 0.0072021928638943194 0.001053014752512365 0 0.0049815738509715237 0.0098677468062828497 0 -0.01164506725862193 0.010647443684379931 0 0.0049815738509715237 0.0098677468062828497 0 0.0078743151724629326 0.017913496736836992 0 0.0072021928638943194 0.001053014752512365 0 0.01309102914163208 0.01339922826239303 0 0.011284172552750139 -0.010635754128112169 0 0.0072021928638943194 0.001053014752512365 0 0.01309102914163208 0.01339922826239303 0 0.0049815738509715237 0.0098677468062828497 0 0.01309102914163208 0.01339922826239303 0 0.0049815738509715237 0.0098677468062828497 0 0.01309102914163208 0.01339922826239303 0 0.0049815738509715237 0.0098677468062828497 0 0.0078743151724629326 0.017913496736836992 0 0.0049815738509715237 0.0098677468062828497 0 0.0078743151724629326 0.017913496736836992 0 0.0043489621356643674 0.024740647813292601 0 0.01021686360061342 0.024428963126090851 0 0.0078743151724629326 0.017913496736836992 0 0.0043489621356643674 0.024740647813292601 0 0.01165204904949101 0.028420728010080339 0 0.0029852740090939669 0.03325412386061815 0 0.0043489621356643674 0.024740647813292601 0 0.01021686360061342 0.024428963126090851 0 0.01165204904949101 0.028420728010080339 0 0.01021686360061342 0.024428963126090851 0 0.0043489621356643674 0.024740647813292601 0 0.01165204904949101 0.028420728010080339 0 0.0043489621356643674 0.024740647813292601 0 0.01165204904949101 0.028420728010080339 0 0.01021686360061342 0.024428963126090851 0 0.01165204904949101 0.028420728010080339 0 0.01021686360061342 0.024428963126090851 0 0.01390547268855939 0.02423303567627183 0 0.01390547268855939 0.02423303567627183 0 0.014321407239316851 0.0297658375957096 0 0.01021686360061342 0.024428963126090851 0 0.01390547268855939 0.02423303567627183 0 0.01021686360061342 0.024428963126090851 0 0.01390547268855939 0.02423303567627183 0 0.01139675107847603 0.02165419411261604 0 0.01165204904949101 0.028420728010080339 0 0.01390547268855939 0.02423303567627183 0 0.014321407239316851 0.0297658375957096 0 0.01165204904949101 0.028420728010080339 0 0.014321407239316851 0.0297658375957096 0 0.0078743151724629326 0.017913496736836992 0 0.013590352852270129 0.02004128091126248 0 0.01309102914163208 0.01339922826239303 0 0.0078743151724629326 0.017913496736836992 0 0.013590352852270129 0.02004128091126248 0 0.01021686360061342 0.024428963126090851 0 0.0078743151724629326 0.017913496736836992 0 0.0078743151724629326 0.017913496736836992 0 0.01139675107847603 0.02165419411261604 0 0.013590352852270129 0.02004128091126248 0 0.01021686360061342 0.024428963126090851 0 0.0078743151724629326 0.017913496736836992 0 0.01139675107847603 0.02165419411261604 0 0.01390547268855939 0.02423303567627183 0 0.01139675107847603 0.02165419411261604 0 0.013590352852270129 0.02004128091126248 0 0.01390547268855939 0.02423303567627183 0 0.013590352852270129 0.02004128091126248 0 0.01309102914163208 0.01339922826239303 0 0.013590352852270129 0.02004128091126248 0 0.01309102914163208 0.01339922826239303 0 0.013590352852270129 0.02004128091126248 0 0.023484192302006841 0.02372424386298895 0 0.01309102914163208 0.01339922826239303 0 0.023484192302006841 0.02372424386298895 0 0.035353009432884358 0.023093809187662889 0 0.01309102914163208 0.01339922826239303 0 0.035353009432884358 0.023093809187662889 0 0.01309102914163208 0.01339922826239303 0 0.027722489084772799 0.012819160098087441 0 0.035353009432884358 0.023093809187662889 0 0.013590352852270129 0.02004128091126248 0 0.023484192302006841 0.02372424386298895 0 0.01390547268855939 0.02423303567627183 0 0.013590352852270129 0.02004128091126248 0 0.023484192302006841 0.02372424386298895 0 0.01390547268855939 0.02423303567627183 0 0.014321407239316851 0.0297658375957096 0 0.023484192302006841 0.02372424386298895 0 0.014321407239316851 0.0297658375957096 0 0.023484192302006841 0.02372424386298895 0 0.02724594126660854 0.030498898442169721 0 0.01390547268855939 0.02423303567627183 0 0.023484192302006841 0.02372424386298895 0 0.023484192302006841 0.02372424386298895 0 0.037165367120972882 0.028817035215660331 0 0.023484192302006841 0.02372424386298895 0 0.02724594126660854 0.030498898442169721 0 0.037165367120972882 0.028817035215660331 0 0.023484192302006841 0.02372424386298895 0 0.035353009432884358 0.023093809187662889 0 0.027722489084772799 0.012819160098087441 0 0.02467877432803221 0.0042019712561680751 0 0.037767143436542999 0.01058163168612599 0 0.01309102914163208 0.01339922826239303 0 0.02467877432803221 0.0042019712561680751 0 0.011284172552750139 -0.010635754128112169 0 0.01309102914163208 0.01339922826239303 0 0.027722489084772799 0.012819160098087441 0 0.02467877432803221 0.0042019712561680751 0 0.010164118904638921 0.051953471586150712 0 0.014899249891112781 0.037452356850086133 0 0.016854589515634049 0.063462475047618719 0 0.010962993916319349 0.059734039959327252 0 0.0061068817910853689 0.056715647732188103 0 0.01040774367450875 0.064766607492450334 0 0.010962993916319349 0.059734039959327252 0 0.010164118904638921 0.051953471586150712 0 0.016854589515634049 0.063462475047618719 0 0.010962993916319349 0.059734039959327252 0 0.0061068817910853689 0.056715647732188103 0 0.010164118904638921 0.051953471586150712 0 -0.001878767006935739 0.061883215635714688 0 0.0006027876966993907 0.056759703893998488 0 0.0061068817910853689 0.056715647732188103 0 0.0006027876966993907 0.056759703893998488 0 0.0031918260733938019 0.054788977807694011 0 0.0061068817910853689 0.056715647732188103 0 0.0006027876966993907 0.056759703893998488 0 0.0031918260733938019 0.054788977807694011 0 6.6733226032064186e-07 0.054331484134992059 0 0.0060569674735301282 0.051349075469597383 0 0.010164118904638921 0.051953471586150712 0 0.0061040308401520051 0.043007234458086629 0 0.0031918260733938019 0.054788977807694011 0 0.0061068817910853689 0.056715647732188103 0 0.0060569674735301282 0.051349075469597383 0 -0.0045821239237160399 0.053076667315586877 0 0.0060569674735301282 0.051349075469597383 0 6.6733226032064186e-07 0.054331484134992059 0 0.0061068817910853689 0.056715647732188103 0 0.0060569674735301282 0.051349075469597383 0 0.010164118904638921 0.051953471586150712 0 0.0031918260733938019 0.054788977807694011 0 0.0060569674735301282 0.051349075469597383 0 6.6733226032064186e-07 0.054331484134992059 0 0.010164118904638921 0.051953471586150712 0 0.0061040308401520051 0.043007234458086629 0 0.014899249891112781 0.037452356850086133 0 -0.003904097857025903 0.038989186545079518 0 0.0060569674735301282 0.051349075469597383 0 0.0061040308401520051 0.043007234458086629 0 -0.003904097857025903 0.038989186545079518 0 0.0061040308401520051 0.043007234458086629 0 0.0029852740090939669 0.03325412386061815 0 0.01165204904949101 0.028420728010080339 0 0.014899249891112781 0.037452356850086133 0 0.01165204904949101 0.028420728010080339 0 0.014321407239316851 0.0297658375957096 0 0.014899249891112781 0.037452356850086133 0 0.01165204904949101 0.028420728010080339 0 0.0029852740090939669 0.03325412386061815 0 0.014899249891112781 0.037452356850086133 0 0.0061040308401520051 0.043007234458086629 0 0.0029852740090939669 0.03325412386061815 0 0.014899249891112781 0.037452356850086133 0 0.014321407239316851 0.0297658375957096 0 0.014899249891112781 0.037452356850086133 0 0.014321407239316851 0.0297658375957096 0 0.02724594126660854 0.030498898442169721 0 0.034012798404135007 0.039688477094318747 0 0.014899249891112781 0.037452356850086133 0 0.0233212679072912 0.060877006114457462 0 0.034012798404135007 0.039688477094318747 0 0.014321407239316851 0.0297658375957096 0 0.014899249891112781 0.037452356850086133 0 0.034012798404135007 0.039688477094318747 0 0.014321407239316851 0.0297658375957096 0 0.034012798404135007 0.039688477094318747 0 0.014899249891112781 0.037452356850086133 0 0.016854589515634049 0.063462475047618719 0 0.014899249891112781 0.037452356850086133 0 0.0233212679072912 0.060877006114457462 0 0.016854589515634049 0.063462475047618719 0 0.014899249891112781 0.037452356850086133 0 0.0233212679072912 0.060877006114457462 0 0.0233212679072912 0.060877006114457462 0 0.039522294805906077 0.061143765734462299 0 0.034012798404135007 0.039688477094318747 0 0.039522294805906077 0.061143765734462299 0 0.034012798404135007 0.039688477094318747 0 0.053704189568955292 0.049611116592923492 0 0.034012798404135007 0.039688477094318747 0 0.053704189568955292 0.049611116592923492 0 0.034012798404135007 0.039688477094318747 0 0.046631109095776113 0.038164681216460217 0 0.053704189568955292 0.049611116592923492 0 0.02724594126660854 0.030498898442169721 0 0.034012798404135007 0.039688477094318747 0 0.037165367120972882 0.028817035215660331 0 0.034012798404135007 0.039688477094318747 0 0.046631109095776113 0.038164681216460217 0 0.037165367120972882 0.028817035215660331 0 0.046631109095776113 0.038164681216460217 0 0.061642081289041251 0.034542095962938307 0 0.037165367120972882 0.028817035215660331 0 0.061642081289041251 0.034542095962938307 0 0.053704189568955292 0.049611116592923492 0 0.069168251184242677 0.047419337846400657 0 0.046631109095776113 0.038164681216460217 0 0.061642081289041251 0.034542095962938307 0 0.053704189568955292 0.049611116592923492 0 0.053704189568955292 0.049611116592923492 0 0.073395580733775556 0.059533756091528223 0 0.054829932225679091 0.071240573491783046 0 0.039522294805906077 0.061143765734462299 0 0.053704189568955292 0.049611116592923492 0 0.054829932225679091 0.071240573491783046 0 0.053884457359936293 0.0089331346316180692 0 0.036106344407698297 -0.0051612020737346461 0 0.046830909409811577 0.015450095056334391 0 0.037767143436542999 0.01058163168612599 0 0.053884457359936293 0.0089331346316180692 0 0.02467877432803221 0.0042019712561680751 0 0.037767143436542999 0.01058163168612599 0 0.036106344407698297 -0.0051612020737346461 0 0.037767143436542999 0.01058163168612599 0 0.053884457359936293 0.0089331346316180692 0 0.036106344407698297 -0.0051612020737346461 0 0.027722489084772799 0.012819160098087441 0 0.037767143436542999 0.01058163168612599 0 0.035353009432884358 0.023093809187662889 0 0.037767143436542999 0.01058163168612599 0 0.035353009432884358 0.023093809187662889 0 0.041227606836799331 0.022781768832992499 0 0.061642081289041251 0.034542095962938307 0 0.035353009432884358 0.023093809187662889 0 0.037165367120972882 0.028817035215660331 0 0.061642081289041251 0.034542095962938307 0 0.035353009432884358 0.023093809187662889 0 0.041227606836799331 0.022781768832992499 0 0.035353009432884358 0.023093809187662889 0 0.041227606836799331 0.022781768832992499 0 0.023484192302006841 0.02372424386298895 0 0.035353009432884358 0.023093809187662889 0 0.037165367120972882 0.028817035215660331 0 0.046830909409811577 0.015450095056334391 0 0.037767143436542999 0.01058163168612599 0 0.041227606836799331 0.022781768832992499 0 0.061642081289041251 0.034542095962938307 0 0.035353009432884358 0.023093809187662889 0 0.061642081289041251 0.034542095962938307 0 0.054444430005967687 0.019503845074601012 0 0.066871884636324028 0.01853234933150779 0 0.061642081289041251 0.034542095962938307 0 0.041227606836799331 0.022781768832992499 0 0.054444430005967687 0.019503845074601012 0 0.046830909409811577 0.015450095056334391 0 0.041227606836799331 0.022781768832992499 0 0.054444430005967687 0.019503845074601012 0 0.054444430005967687 0.019503845074601012 0 0.053884457359936293 0.0089331346316180692 0 0.066871884636324028 0.01853234933150779 0 0.046830909409811577 0.015450095056334391 0 0.054444430005967687 0.019503845074601012 0 0.053884457359936293 0.0089331346316180692 0 0.053884457359936293 0.0089331346316180692 0 0.077078311167659674 0.0048659417653447177 0 0.057185388887520977 -0.0041612752712019956 0 0.053884457359936293 0.0089331346316180692 0 0.077078311167659674 0.0048659417653447177 0 0.066871884636324028 0.01853234933150779 0 0.077078311167659674 0.0048659417653447177 0 0.096641392955245917 0.003349163440841085 0 0.096243290527937952 0.021549422038762381 0 0.077078311167659674 0.0048659417653447177 0 0.081605432429424543 0.027759263863281071 0 0.096243290527937952 0.021549422038762381 0 0.081605432429424543 0.027759263863281071 0 0.099383557608084233 0.037700119273501982 0 0.096243290527937952 0.021549422038762381 0 0.077078311167659674 0.0048659417653447177 0 0.081605432429424543 0.027759263863281071 0 0.066871884636324028 0.01853234933150779 0 0.061642081289041251 0.034542095962938307 0 0.081605432429424543 0.027759263863281071 0 0.066871884636324028 0.01853234933150779 0 0.061642081289041251 0.034542095962938307 0 0.081605432429424543 0.027759263863281071 0 0.087931153145198643 0.045990382738212598 0 0.061642081289041251 0.034542095962938307 0 0.069168251184242677 0.047419337846400657 0 0.087931153145198643 0.045990382738212598 0 0.061642081289041251 0.034542095962938307 0 0.087931153145198643 0.045990382738212598 0 0.053704189568955292 0.049611116592923492 0 0.069168251184242677 0.047419337846400657 0 0.073395580733775556 0.059533756091528223 0 0.069168251184242677 0.047419337846400657 0 0.073395580733775556 0.059533756091528223 0 0.087931153145198643 0.045990382738212598 0 0.053704189568955292 0.049611116592923492 0 0.073395580733775556 0.059533756091528223 0 0.073395580733775556 0.059533756091528223 0 0.087931153145198643 0.045990382738212598 0 0.10014939978398971 0.054366734571334147 0 0.073395580733775556 0.059533756091528223 0 0.10014939978398971 0.054366734571334147 0 0.082391264872524128 0.073303152772481769 0 0.081605432429424543 0.027759263863281071 0 0.087931153145198643 0.045990382738212598 0 0.099383557608084233 0.037700119273501982 0 0.087931153145198643 0.045990382738212598 0 0.099383557608084233 0.037700119273501982 0 0.10014939978398971 0.054366734571334147 0 0.10014939978398971 0.054366734571334147 0 0.1179075346954552 0.035430316370186607 0 0.099383557608084233 0.037700119273501982 0 0.1179075346954552 0.035430316370186607 0 0.096243290527937952 0.021549422038762381 0 0.099383557608084233 0.037700119273501982 0 0.10014939978398971 0.054366734571334147 0 0.1179075346954552 0.035430316370186607 0 0.10014939978398971 0.054366734571334147 0 0.11877773352340019 0.071860060002970266 0 0.12947630272360311 0.051288548756999598 0 0.10014939978398971 0.054366734571334147 0 0.1179075346954552 0.035430316370186607 0 0.12947630272360311 0.051288548756999598 0 0.1179075346954552 0.035430316370186607 0 0.118158237685422 0.011120547471588371 0 0.096243290527937952 0.021549422038762381 0 0.118158237685422 0.011120547471588371 0 0.096641392955245917 0.003349163440841085 0 0.096243290527937952 0.021549422038762381 0 0.118158237685422 0.011120547471588371 0 0.096641392955245917 0.003349163440841085 0 0.1072418335548978 -0.01145078783161547 0 0.118158237685422 0.011120547471588371 0 0.096243290527937952 0.021549422038762381 0 0.1060961700472477 0.099941805742306156 0 0.1006767545664369 0.086016593838840583 0 0.091739311421246153 0.1064154376080461 0 0.1060961700472477 0.099941805742306156 0 0.1205356643342923 0.096096991644787744 0 0.1006767545664369 0.086016593838840583 0 0.1060961700472477 0.099941805742306156 0 0.10632954928287799 0.1148825930322199 0 0.091739311421246153 0.1064154376080461 0 0.10632954928287799 0.1148825930322199 0 0.091739311421246153 0.1064154376080461 0 0.090257531110516681 0.12610301890441639 0 0.10632954928287799 0.1148825930322199 0 0.090257531110516681 0.12610301890441639 0 0.1092496551594897 0.1314970669482213 0 0.10632954928287799 0.1148825930322199 0 0.12229359514518159 0.1203339232866054 0 0.1092496551594897 0.1314970669482213 0 0.10632954928287799 0.1148825930322199 0 0.12229359514518159 0.1203339232866054 0 0.1205356643342923 0.096096991644787744 0 0.12229359514518159 0.1203339232866054 0 0.1205356643342923 0.096096991644787744 0 0.1060961700472477 0.099941805742306156 0 0.10632954928287799 0.1148825930322199 0 0.1205356643342923 0.096096991644787744 0 0.1205356643342923 0.096096991644787744 0 0.11877773352340019 0.071860060002970266 0 0.1006767545664369 0.086016593838840583 0 0.1205356643342923 0.096096991644787744 0 0.11877773352340019 0.071860060002970266 0 0.1205356643342923 0.096096991644787744 0 0.11877773352340019 0.071860060002970266 0 0.13365507086641121 0.087361626141413823 0 0.11877773352340019 0.071860060002970266 0 0.1004987881865877 0.071386635296406695 0 0.1006767545664369 0.086016593838840583 0 0.10014939978398971 0.054366734571334147 0 0.11877773352340019 0.071860060002970266 0 0.1004987881865877 0.071386635296406695 0 0.1004987881865877 0.071386635296406695 0 0.1006767545664369 0.086016593838840583 0 0.082391264872524128 0.073303152772481769 0 0.10014939978398971 0.054366734571334147 0 0.1004987881865877 0.071386635296406695 0 0.082391264872524128 0.073303152772481769 0 0.1006767545664369 0.086016593838840583 0 0.083802089644639394 0.090780540330797049 0 0.082391264872524128 0.073303152772481769 0 0.10014939978398971 0.054366734571334147 0 0.082391264872524128 0.073303152772481769 0 0.073395580733775556 0.059533756091528223 0 0.068571951349338078 0.072508264672045589 0 0.054829932225679091 0.071240573491783046 0 0.073395580733775556 0.059533756091528223 0 0.082391264872524128 0.073303152772481769 0 0.068571951349338078 0.072508264672045589 0 0.082391264872524128 0.073303152772481769 0 0.064633129961058536 0.092239570973629406 0 0.068571951349338078 0.072508264672045589 0 0.064633129961058536 0.092239570973629406 0 0.054829932225679091 0.071240573491783046 0 0.083802089644639394 0.090780540330797049 0 0.082391264872524128 0.073303152772481769 0 0.064633129961058536 0.092239570973629406 0 0.082391264872524128 0.073303152772481769 0 0.068571951349338078 0.072508264672045589 0 0.064633129961058536 0.092239570973629406 0 0.083802089644639394 0.090780540330797049 0 0.064633129961058536 0.092239570973629406 0 0.069819493885922568 0.1132733711576606 0 0.1006767545664369 0.086016593838840583 0 0.083802089644639394 0.090780540330797049 0 0.091739311421246153 0.1064154376080461 0 0.083802089644639394 0.090780540330797049 0 0.091739311421246153 0.1064154376080461 0 0.069819493885922568 0.1132733711576606 0 0.091739311421246153 0.1064154376080461 0 0.069819493885922568 0.1132733711576606 0 0.090257531110516681 0.12610301890441639 0 0.064633129961058536 0.092239570973629406 0 0.040165303939648428 0.1077263046432001 0 0.031743285923469818 0.084301655378828777 0 0.069819493885922568 0.1132733711576606 0 0.040165303939648428 0.1077263046432001 0 0.048587321955824533 0.13115095390757231 0 0.064633129961058536 0.092239570973629406 0 0.069819493885922568 0.1132733711576606 0 0.040165303939648428 0.1077263046432001 0 0.040165303939648428 0.1077263046432001 0 0.031743285923469818 0.084301655378828777 0 0.028015065977975089 0.1021219214600211 0 0.040165303939648428 0.1077263046432001 0 0.031743285923469818 0.084301655378828777 0 0.040165303939648428 0.1077263046432001 0 0.032875485823451421 0.11556135093854369 0 0.028015065977975089 0.1021219214600211 0 0.032875485823451421 0.11556135093854369 0 0.029796689225805709 0.1245659314575711 0 0.048587321955824533 0.13115095390757231 0 0.040165303939648428 0.1077263046432001 0 0.048587321955824533 0.13115095390757231 0 0.040165303939648428 0.1077263046432001 0 0.032875485823451421 0.11556135093854369 0 0.048587321955824533 0.13115095390757231 0 0.064633129961058536 0.092239570973629406 0 0.054829932225679091 0.071240573491783046 0 0.031743285923469818 0.084301655378828777 0 0.039522294805906077 0.061143765734462299 0 0.054829932225679091 0.071240573491783046 0 0.031743285923469818 0.084301655378828777 0 0.0233212679072912 0.060877006114457462 0 0.039522294805906077 0.061143765734462299 0 0.031743285923469818 0.084301655378828777 0 0.016854589515634049 0.063462475047618719 0 0.018809929140155141 0.089472593245151374 0 0.011719958679734511 0.073523137450992801 0 0.0233212679072912 0.060877006114457462 0 0.031743285923469818 0.084301655378828777 0 0.016854589515634049 0.063462475047618719 0 0.018809929140155141 0.089472593245151374 0 0.0233212679072912 0.060877006114457462 0 0.031743285923469818 0.084301655378828777 0 0.016854589515634049 0.063462475047618719 0 0.031743285923469818 0.084301655378828777 0 0.018809929140155141 0.089472593245151374 0 0.028015065977975089 0.1021219214600211 0 0.031743285923469818 0.084301655378828777 0 0.016854589515634049 0.063462475047618719 0 0.018809929140155141 0.089472593245151374 0 0.018809929140155141 0.089472593245151374 0 0.0093909524355818147 0.079262206344295399 0 0.011719958679734511 0.073523137450992801 0 0.018809929140155141 0.089472593245151374 0 0.0068211694354546821 0.092137179211978865 0 0.0070425932294348311 0.084881636998094645 0 -0.0031237589504393881 0.094663000115075446 0 0.0068211694354546821 0.092137179211978865 0 0.001417095723915271 0.08646179589862367 0 0.0068211694354546821 0.092137179211978865 0 0.001417095723915271 0.08646179589862367 0 0.0070425932294348311 0.084881636998094645 0 0.001417095723915271 0.08646179589862367 0 0.0070425932294348311 0.084881636998094645 0 0.003195514349617666 0.080119023603714257 0 0.0070425932294348311 0.084881636998094645 0 0.003195514349617666 0.080119023603714257 0 0.0093909524355818147 0.079262206344295399 0 0.018809929140155141 0.089472593245151374 0 0.0070425932294348311 0.084881636998094645 0 0.0093909524355818147 0.079262206344295399 0 -0.0052528425484590904 0.081103150315567085 0 0.0061068817910853689 0.056715647732188103 0 -0.0052528425484590904 0.081103150315567085 0 0.0061068817910853689 0.056715647732188103 0 0.005082778086746011 0.071307200242191712 0 0.0093909524355818147 0.079262206344295399 0 0.011719958679734511 0.073523137450992801 0 0.005082778086746011 0.071307200242191712 0 0.003195514349617666 0.080119023603714257 0 0.0093909524355818147 0.079262206344295399 0 0.005082778086746011 0.071307200242191712 0 -0.0052528425484590904 0.081103150315567085 0 0.003195514349617666 0.080119023603714257 0 0.005082778086746011 0.071307200242191712 0 0.0061068817910853689 0.056715647732188103 0 0.005082778086746011 0.071307200242191712 0 0.01040774367450875 0.064766607492450334 0 0.016854589515634049 0.063462475047618719 0 0.011719958679734511 0.073523137450992801 0 0.01040774367450875 0.064766607492450334 0 0.011719958679734511 0.073523137450992801 0 0.005082778086746011 0.071307200242191712 0 0.01040774367450875 0.064766607492450334 0 0.010962993916319349 0.059734039959327252 0 0.016854589515634049 0.063462475047618719 0 0.01040774367450875 0.064766607492450334 0 0.029796689225805709 0.1245659314575711 0 0.011006056495788209 0.1179809090075659 0 0.020765268764676239 0.115482711442684 0 0.029796689225805709 0.1245659314575711 0 0.011006056495788209 0.1179809090075659 0 0.032875485823451421 0.11556135093854369 0 0.020765268764676239 0.115482711442684 0 0.029796689225805709 0.1245659314575711 0 0.032875485823451421 0.11556135093854369 0 0.020765268764676239 0.115482711442684 0 0.028015065977975089 0.1021219214600211 0 0.018809929140155141 0.089472593245151374 0 0.020765268764676239 0.115482711442684 0 0.018809929140155141 0.089472593245151374 0 0.020765268764676239 0.115482711442684 0 0.028015065977975089 0.1021219214600211 0 0.018809929140155141 0.089472593245151374 0 0.020765268764676239 0.115482711442684 0 0.01259774569498571 0.099832720987026585 0 0.01074499777598753 0.1081647084429945 0 0.01259774569498571 0.099832720987026585 0 0.0027357799186256541 0.099922074134735195 0 0.020765268764676239 0.115482711442684 0 0.01074499777598753 0.1081647084429945 0 0.01259774569498571 0.099832720987026585 0 0.018809929140155141 0.089472593245151374 0 0.0068211694354546821 0.092137179211978865 0 0.01259774569498571 0.099832720987026585 0 0.0068211694354546821 0.092137179211978865 0 0.01259774569498571 0.099832720987026585 0 0.0027357799186256541 0.099922074134735195 0 -0.0031237589504393881 0.094663000115075446 0 0.0068211694354546821 0.092137179211978865 0 0.0027357799186256541 0.099922074134735195 0 0.01074499777598753 0.1081647084429945 0 0.0027357799186256541 0.099922074134735195 0 0.0031576338486196918 0.11015296213728849 0 -0.001359828334924402 0.1057874364935652 0 0.0027357799186256541 0.099922074134735195 0 0.0031576338486196918 0.11015296213728849 0 0.0031576338486196918 0.11015296213728849 0 0.011006056495788209 0.1179809090075659 0 0.00033808575315118699 0.11848126439970651 0 0.01074499777598753 0.1081647084429945 0 0.0031576338486196918 0.11015296213728849 0 0.011006056495788209 0.1179809090075659 0 0.020765268764676239 0.115482711442684 0 0.01074499777598753 0.1081647084429945 0 0.011006056495788209 0.1179809090075659 0 0.011006056495788209 0.1179809090075659 0 0.00033808575315118699 0.11848126439970651 0 0.0036478567994623992 0.12847529951267789 0 -0.0048243010661870034 0.1348067713644481 0 0.0036478567994623992 0.12847529951267789 0 0.0061350511215508222 0.14020462999964331 0 0.0061350511215508222 0.14020462999964331 0 0.01595925932263146 0.13279195870628119 0 0.017189973689802501 0.14709673923891581 0 0.0036478567994623992 0.12847529951267789 0 0.0061350511215508222 0.14020462999964331 0 0.01595925932263146 0.13279195870628119 0 0.011006056495788209 0.1179809090075659 0 0.0036478567994623992 0.12847529951267789 0 0.01595925932263146 0.13279195870628119 0 0.029796689225805709 0.1245659314575711 0 0.011006056495788209 0.1179809090075659 0 0.01595925932263146 0.13279195870628119 0 0.01595925932263146 0.13279195870628119 0 0.02867190772863408 0.13755821253387859 0 0.017189973689802501 0.14709673923891581 0 0.029796689225805709 0.1245659314575711 0 0.01595925932263146 0.13279195870628119 0 0.02867190772863408 0.13755821253387859 0 0.02867190772863408 0.13755821253387859 0 0.017189973689802501 0.14709673923891581 0 0.033472469694034147 0.15219381386238751 0 0.017189973689802501 0.14709673923891581 0 0.01481438411725529 0.16611829552620261 0 0.033472469694034147 0.15219381386238751 0 0.017189973689802501 0.14709673923891581 0 0.0040867701547092116 0.15371352480510181 0 0.01481438411725529 0.16611829552620261 0 0.0061350511215508222 0.14020462999964331 0 0.017189973689802501 0.14709673923891581 0 0.0040867701547092116 0.15371352480510181 0 -0.0051602800561790854 0.14571061063844051 0 0.0061350511215508222 0.14020462999964331 0 0.0040867701547092116 0.15371352480510181 0 -0.001861042967100371 0.1823134684705659 0 -0.001273520355644526 0.16634979465973401 0 0.01481438411725529 0.16611829552620261 0 -0.001273520355644526 0.16634979465973401 0 0.0040867701547092116 0.15371352480510181 0 0.01481438411725529 0.16611829552620261 0 -0.001861042967100371 0.1823134684705659 0 0.01481438411725529 0.16611829552620261 0 0.0192344308514657 0.18764965115158311 0 0.031647646381306883 0.1727959225510087 0 0.0192344308514657 0.18764965115158311 0 0.039138960176261117 0.19688713657786219 0 0.01481438411725529 0.16611829552620261 0 0.031647646381306883 0.1727959225510087 0 0.0192344308514657 0.18764965115158311 0 0.01481438411725529 0.16611829552620261 0 0.031647646381306883 0.1727959225510087 0 0.033472469694034147 0.15219381386238751 0 0.048282469779690779 0.16848147063044369 0 0.056721142336038172 0.1537740223004235 0 0.033472469694034147 0.15219381386238751 0 0.031647646381306883 0.1727959225510087 0 0.048282469779690779 0.16848147063044369 0 0.033472469694034147 0.15219381386238751 0 0.031647646381306883 0.1727959225510087 0 0.052318214738882943 0.18590804081856871 0 0.031647646381306883 0.1727959225510087 0 0.052318214738882943 0.18590804081856871 0 0.048282469779690779 0.16848147063044369 0 0.031647646381306883 0.1727959225510087 0 0.052318214738882943 0.18590804081856871 0 0.039138960176261117 0.19688713657786219 0 0.052318214738882943 0.18590804081856871 0 0.048282469779690779 0.16848147063044369 0 0.064854962716249284 0.1763970906932755 0 0.056721142336038172 0.1537740223004235 0 0.064854962716249284 0.1763970906932755 0 0.048282469779690779 0.16848147063044369 0 0.056721142336038172 0.1537740223004235 0 0.064854962716249284 0.1763970906932755 0 0.056721142336038172 0.1537740223004235 0 0.048587321955824533 0.13115095390757231 0 0.056721142336038172 0.1537740223004235 0 0.048587321955824533 0.13115095390757231 0 0.069551769168521724 0.13849777173596339 0 0.048587321955824533 0.13115095390757231 0 0.069551769168521724 0.13849777173596339 0 0.029796689225805709 0.1245659314575711 0 0.048587321955824533 0.13115095390757231 0 0.029796689225805709 0.1245659314575711 0 0.02867190772863408 0.13755821253387859 0 0.048587321955824533 0.13115095390757231 0 0.02867190772863408 0.13755821253387859 0 0.048587321955824533 0.13115095390757231 0 0.033472469694034147 0.15219381386238751 0 0.056721142336038172 0.1537740223004235 0 0.048587321955824533 0.13115095390757231 0 0.033472469694034147 0.15219381386238751 0 0.015987976037602471 0.23736262769122271 0 0.03872565379471489 0.23497687743671361 0 0.015987976037602471 0.23736262769122271 0 0.03872565379471489 0.23497687743671361 0 0.032595331706476757 0.25140160337769979 0 0.015987976037602471 0.23736262769122271 0 0.016055117902983571 0.25266819790005379 0 0.032595331706476757 0.25140160337769979 0 -0.0067497017195101566 0.2397483779457312 0 0.015987976037602471 0.23736262769122271 0 -0.0067497017195101566 0.2397483779457312 0 0.015987976037602471 0.23736262769122271 0 0.0046331383972979022 0.2492808563884113 0 0.015987976037602471 0.23736262769122271 0 0.0046331383972979022 0.2492808563884113 0 0.016055117902983571 0.25266819790005379 0 -0.0067497017195101566 0.2397483779457312 0 0.015987976037602471 0.23736262769122271 0 0.003621595421219188 0.2290483121386829 0 -0.0046241221650291653 0.2166360861439508 0 0.003621595421219188 0.2290483121386829 0 0.013541473711853351 0.21798036262453141 0 0.015987976037602471 0.23736262769122271 0 0.003621595421219188 0.2290483121386829 0 0.013541473711853351 0.21798036262453141 0 0.015987976037602471 0.23736262769122271 0 0.036555692852366137 0.2183351933567009 0 0.03872565379471489 0.23497687743671361 0 0.015987976037602471 0.23736262769122271 0 0.013541473711853351 0.21798036262453141 0 0.036555692852366137 0.2183351933567009 0 0.023909381644194951 0.20507118610621611 0 0.013541473711853351 0.21798036262453141 0 0.036555692852366137 0.2183351933567009 0 -0.0046241221650291653 0.2166360861439508 0 0.013541473711853351 0.21798036262453141 0 0.0057983184807665084 0.20142877031041501 0 0.023909381644194951 0.20507118610621611 0 0.013541473711853351 0.21798036262453141 0 0.0057983184807665084 0.20142877031041501 0 -0.001861042967100371 0.1823134684705659 0 0.0057983184807665084 0.20142877031041501 0 0.0192344308514657 0.18764965115158311 0 0.023909381644194951 0.20507118610621611 0 0.0057983184807665084 0.20142877031041501 0 0.0192344308514657 0.18764965115158311 0 0.023909381644194951 0.20507118610621611 0 0.0192344308514657 0.18764965115158311 0 0.039138960176261117 0.19688713657786219 0 0.052318214738882943 0.18590804081856871 0 0.056237125729000262 0.20054013225289091 0 0.072988783096459425 0.199020159086128 0 0.052318214738882943 0.18590804081856871 0 0.039138960176261117 0.19688713657786219 0 0.056237125729000262 0.20054013225289091 0 0.039138960176261117 0.19688713657786219 0 0.056237125729000262 0.20054013225289091 0 0.051312670616848292 0.21034232236006609 0 0.051312670616848292 0.21034232236006609 0 0.061463331551827212 0.23259112718220451 0 0.065086610965845351 0.2107716309505186 0 0.056237125729000262 0.20054013225289091 0 0.051312670616848292 0.21034232236006609 0 0.065086610965845351 0.2107716309505186 0 0.039138960176261117 0.19688713657786219 0 0.051312670616848292 0.21034232236006609 0 0.036555692852366137 0.2183351933567009 0 0.023909381644194951 0.20507118610621611 0 0.039138960176261117 0.19688713657786219 0 0.036555692852366137 0.2183351933567009 0 0.036555692852366137 0.2183351933567009 0 0.061463331551827212 0.23259112718220451 0 0.03872565379471489 0.23497687743671361 0 0.051312670616848292 0.21034232236006609 0 0.036555692852366137 0.2183351933567009 0 0.061463331551827212 0.23259112718220451 0 0.061463331551827212 0.23259112718220451 0 0.03872565379471489 0.23497687743671361 0 0.061463331551827212 0.23259112718220451 0 0.055174687904551233 0.24719935031237741 0 0.03872565379471489 0.23497687743671361 0 0.055174687904551233 0.24719935031237741 0 0.03872565379471489 0.23497687743671361 0 0.032595331706476757 0.25140160337769979 0 0.075821217643252226 0.24385340551760959 0 0.084201009308939589 0.23020537692769519 0 0.091416144528262286 0.25027325277205392 0 0.084201009308939589 0.23020537692769519 0 0.091416144528262286 0.25027325277205392 0 0.084201009308939589 0.23020537692769519 0 0.097007768937314123 0.2369318689179635 0 0.091416144528262286 0.25027325277205392 0 0.061463331551827212 0.23259112718220451 0 0.075821217643252226 0.24385340551760959 0 0.084201009308939589 0.23020537692769519 0 0.061463331551827212 0.23259112718220451 0 0.055174687904551233 0.24719935031237741 0 0.075821217643252226 0.24385340551760959 0 0.061463331551827212 0.23259112718220451 0 0.084201009308939589 0.23020537692769519 0 0.061463331551827212 0.23259112718220451 0 0.078594896202700409 0.2146127680069112 0 0.065086610965845351 0.2107716309505186 0 0.061463331551827212 0.23259112718220451 0 0.084201009308939589 0.23020537692769519 0 0.078594896202700409 0.2146127680069112 0 0.084201009308939589 0.23020537692769519 0 0.087312116120509986 0.2168806867985818 0 0.078594896202700409 0.2146127680069112 0 0.084201009308939589 0.23020537692769519 0 0.078594896202700409 0.2146127680069112 0 0.084201009308939589 0.23020537692769519 0 0.087312116120509986 0.2168806867985818 0 0.098650154966962306 0.2152981315662881 0 0.085819469031710616 0.20715914532620841 0 0.098650154966962306 0.2152981315662881 0 0.087312116120509986 0.2168806867985818 0 0.085819469031710616 0.20715914532620841 0 0.098650154966962306 0.2152981315662881 0 0.085819469031710616 0.20715914532620841 0 0.078594896202700409 0.2146127680069112 0 0.072988783096459425 0.199020159086128 0 0.087312116120509986 0.2168806867985818 0 0.085819469031710616 0.20715914532620841 0 0.078594896202700409 0.2146127680069112 0 0.056237125729000262 0.20054013225289091 0 0.065086610965845351 0.2107716309505186 0 0.072988783096459425 0.199020159086128 0 0.078594896202700409 0.2146127680069112 0 0.072988783096459425 0.199020159086128 0 0.078594896202700409 0.2146127680069112 0 0.065086610965845351 0.2107716309505186 0 0.072988783096459425 0.199020159086128 0 0.072988783096459425 0.199020159086128 0 0.064854962716249284 0.1763970906932755 0 0.052318214738882943 0.18590804081856871 0 0.072988783096459425 0.199020159086128 0 0.072988783096459425 0.199020159086128 0 0.085748512658724407 0.19521249395102741 0 0.079651337156246879 0.1846035031054514 0 0.085819469031710616 0.20715914532620841 0 0.072988783096459425 0.199020159086128 0 0.085748512658724407 0.19521249395102741 0 0.085819469031710616 0.20715914532620841 0 0.072988783096459425 0.199020159086128 0 0.085819469031710616 0.20715914532620841 0 0.085748512658724407 0.19521249395102741 0 0.1004487929042974 0.20037026470638311 0 0.085748512658724407 0.19521249395102741 0 0.1004487929042974 0.20037026470638311 0 0.093229338686255298 0.18515482992442389 0 0.085748512658724407 0.19521249395102741 0 0.079651337156246879 0.1846035031054514 0 0.093229338686255298 0.18515482992442389 0 0.1004487929042974 0.20037026470638311 0 0.11445878641889499 0.1907311019004824 0 0.093229338686255298 0.18515482992442389 0 0.1004487929042974 0.20037026470638311 0 0.11445878641889499 0.1907311019004824 0 0.11921374151865979 0.2027783697747382 0 0.11445878641889499 0.1907311019004824 0 0.11921374151865979 0.2027783697747382 0 0.13006358520957509 0.19838163976698539 0 0.1004487929042974 0.20037026470638311 0 0.11921374151865979 0.2027783697747382 0 0.1131117557843007 0.21439896697720989 0 0.11921374151865979 0.2027783697747382 0 0.1131117557843007 0.21439896697720989 0 0.13008638420016991 0.2135775564311222 0 0.1131117557843007 0.21439896697720989 0 0.1221320306176344 0.2266758406852992 0 0.13008638420016991 0.2135775564311222 0 0.1004487929042974 0.20037026470638311 0 0.1131117557843007 0.21439896697720989 0 0.098650154966962306 0.2152981315662881 0 0.085819469031710616 0.20715914532620841 0 0.1004487929042974 0.20037026470638311 0 0.098650154966962306 0.2152981315662881 0 0.084201009308939589 0.23020537692769519 0 0.1081394304980805 0.2276936386994291 0 0.084201009308939589 0.23020537692769519 0 0.098650154966962306 0.2152981315662881 0 0.1081394304980805 0.2276936386994291 0 0.1081394304980805 0.2276936386994291 0 0.1140612403565706 0.2369080242060406 0 0.097007768937314123 0.2369318689179635 0 0.084201009308939589 0.23020537692769519 0 0.1081394304980805 0.2276936386994291 0 0.097007768937314123 0.2369318689179635 0 0.1131117557843007 0.21439896697720989 0 0.098650154966962306 0.2152981315662881 0 0.1081394304980805 0.2276936386994291 0 0.1131117557843007 0.21439896697720989 0 0.1081394304980805 0.2276936386994291 0 0.1221320306176344 0.2266758406852992 0 0.1081394304980805 0.2276936386994291 0 0.1221320306176344 0.2266758406852992 0 0.1140612403565706 0.2369080242060406 0 0.1221320306176344 0.2266758406852992 0 0.1140612403565706 0.2369080242060406 0 0.1291262938889795 0.24484692917772291 0 0.1104005851082846 0.24926343572747581 0 0.1140612403565706 0.2369080242060406 0 0.1291262938889795 0.24484692917772291 0 0.1104005851082846 0.24926343572747581 0 0.1140612403565706 0.2369080242060406 0 0.097007768937314123 0.2369318689179635 0 0.1104005851082846 0.24926343572747581 0 0.097007768937314123 0.2369318689179635 0 0.091416144528262286 0.25027325277205392 0 0.090516216381220288 0.14584458956435059 0 0.069551769168521724 0.13849777173596339 0 0.090516216381220288 0.14584458956435059 0 0.090257531110516681 0.12610301890441639 0 0.069551769168521724 0.13849777173596339 0 0.069819493885922568 0.1132733711576606 0 0.090257531110516681 0.12610301890441639 0 0.069551769168521724 0.13849777173596339 0 0.069819493885922568 0.1132733711576606 0 0.048587321955824533 0.13115095390757231 0 0.069551769168521724 0.13849777173596339 0 0.090516216381220288 0.14584458956435059 0 0.069551769168521724 0.13849777173596339 0 0.073973898877654307 0.156447456190666 0 0.056721142336038172 0.1537740223004235 0 0.069551769168521724 0.13849777173596339 0 0.073973898877654307 0.156447456190666 0 0.073973898877654307 0.156447456190666 0 0.064854962716249284 0.1763970906932755 0 0.088225403786242093 0.1677238066593168 0 0.056721142336038172 0.1537740223004235 0 0.073973898877654307 0.156447456190666 0 0.064854962716249284 0.1763970906932755 0 0.052318214738882943 0.18590804081856871 0 0.072988783096459425 0.199020159086128 0 0.064854962716249284 0.1763970906932755 0 0.072988783096459425 0.199020159086128 0 0.064854962716249284 0.1763970906932755 0 0.079651337156246879 0.1846035031054514 0 0.064854962716249284 0.1763970906932755 0 0.079651337156246879 0.1846035031054514 0 0.088225403786242093 0.1677238066593168 0 0.079651337156246879 0.1846035031054514 0 0.093229338686255298 0.18515482992442389 0 0.088225403786242093 0.1677238066593168 0 0.090516216381220288 0.14584458956435059 0 0.073973898877654307 0.156447456190666 0 0.088225403786242093 0.1677238066593168 0 0.088225403786242093 0.1677238066593168 0 0.1070428754489185 0.17369443927805439 0 0.11148066359391889 0.15319140739273779 0 0.093229338686255298 0.18515482992442389 0 0.088225403786242093 0.1677238066593168 0 0.1070428754489185 0.17369443927805439 0 0.11445878641889499 0.1907311019004824 0 0.093229338686255298 0.18515482992442389 0 0.1070428754489185 0.17369443927805439 0 0.1070428754489185 0.17369443927805439 0 0.13501281698243961 0.18461261238133209 0 0.1070428754489185 0.17369443927805439 0 0.1253245662665767 0.16212250758260729 0 0.13501281698243961 0.18461261238133209 0 0.11445878641889499 0.1907311019004824 0 0.1070428754489185 0.17369443927805439 0 0.13501281698243961 0.18461261238133209 0 0.1070428754489185 0.17369443927805439 0 0.11148066359391889 0.15319140739273779 0 0.1253245662665767 0.16212250758260729 0 0.11148066359391889 0.15319140739273779 0 0.12380908070588061 0.1412282154346062 0 0.1092496551594897 0.1314970669482213 0 0.11148066359391889 0.15319140739273779 0 0.12380908070588061 0.1412282154346062 0 0.1253245662665767 0.16212250758260729 0 0.12380908070588061 0.1412282154346062 0 0.1253245662665767 0.16212250758260729 0 0.090516216381220288 0.14584458956435059 0 0.088225403786242093 0.1677238066593168 0 0.11148066359391889 0.15319140739273779 0 0.090516216381220288 0.14584458956435059 0 0.11148066359391889 0.15319140739273779 0 0.090516216381220288 0.14584458956435059 0 0.11148066359391889 0.15319140739273779 0 0.1092496551594897 0.1314970669482213 0 0.090516216381220288 0.14584458956435059 0 0.090257531110516681 0.12610301890441639 0 0.1092496551594897 0.1314970669482213 0 0.12229359514518159 0.1203339232866054 0 0.12380908070588061 0.1412282154346062 0 0.1092496551594897 0.1314970669482213 0 0.12229359514518159 0.1203339232866054 0 0.12380908070588061 0.1412282154346062 0 0.12229359514518159 0.1203339232866054 0 0.1092496551594897 0.1314970669482213 0 0.12380908070588061 0.1412282154346062 0 0.13314239884922019 0.1299219734873607 0 0.13693684001239351 0.14771322316046989 0 0.12229359514518159 0.1203339232866054 0 0.12380908070588061 0.1412282154346062 0 0.13314239884922019 0.1299219734873607 0 0.13314239884922019 0.1299219734873607 0 0.1488689564908898 0.1275962572713929 0 0.13693684001239351 0.14771322316046989 0 0.1488689564908898 0.1275962572713929 0 0.13693684001239351 0.14771322316046989 0 0.1503555122808686 0.15632985998513149 0 0.1488689564908898 0.1275962572713929 0 0.1503555122808686 0.15632985998513149 0 0.1488689564908898 0.1275962572713929 0 0.1503555122808686 0.15632985998513149 0 0.16235292796015921 0.1416052600825711 0 0.12380908070588061 0.1412282154346062 0 0.13693684001239351 0.14771322316046989 0 0.1253245662665767 0.16212250758260729 0 0.13693684001239351 0.14771322316046989 0 0.1401205254809251 0.16908052520172059 0 0.1253245662665767 0.16212250758260729 0 0.1401205254809251 0.16908052520172059 0 0.1253245662665767 0.16212250758260729 0 0.13501281698243961 0.18461261238133209 0 0.1401205254809251 0.16908052520172059 0 0.13501281698243961 0.18461261238133209 0 0.15184206807084741 0.18506346269887 0 0.15184206807084741 0.18506346269887 0 0.1503555122808686 0.15632985998513149 0 0.1624275027511155 0.16996106004666781 0 0.1401205254809251 0.16908052520172059 0 0.15184206807084741 0.18506346269887 0 0.1503555122808686 0.15632985998513149 0 0.13693684001239351 0.14771322316046989 0 0.1401205254809251 0.16908052520172059 0 0.1503555122808686 0.15632985998513149 0 0.15184206807084741 0.18506346269887 0 0.1503555122808686 0.15632985998513149 0 0.1503555122808686 0.15632985998513149 0 0.1671796818944824 0.156290809647291 0 0.1624275027511155 0.16996106004666781 0 0.1671796818944824 0.156290809647291 0 0.1624275027511155 0.16996106004666781 0 0.1756533850865814 0.1723080097837576 0 0.15184206807084741 0.18506346269887 0 0.1624275027511155 0.16996106004666781 0 0.16614258278714131 0.18250861383096559 0 0.1624275027511155 0.16996106004666781 0 0.16614258278714131 0.18250861383096559 0 0.1756533850865814 0.1723080097837576 0 0.1756533850865814 0.1723080097837576 0 0.17749665965500999 0.1876839729648119 0 0.19175187183588449 0.1816234971368394 0 0.16614258278714131 0.18250861383096559 0 0.1756533850865814 0.1723080097837576 0 0.17749665965500999 0.1876839729648119 0 0.1756533850865814 0.1723080097837576 0 0.18801474058477971 0.16017849060794359 0 0.19175187183588449 0.1816234971368394 0 0.1671796818944824 0.156290809647291 0 0.1756533850865814 0.1723080097837576 0 0.18801474058477971 0.16017849060794359 0 0.1782431685034416 0.14074585565395731 0 0.19238343757710399 0.14490831848196231 0 0.18801474058477971 0.16017849060794359 0 0.1671796818944824 0.156290809647291 0 0.1782431685034416 0.14074585565395731 0 0.18801474058477971 0.16017849060794359 0 0.1782431685034416 0.14074585565395731 0 0.1806318845392586 0.12549151950901821 0 0.19222897842909309 0.1315754149643063 0 0.1782431685034416 0.14074585565395731 0 0.1806318845392586 0.12549151950901821 0 0.1671173206311134 0.1270635178550828 0 0.1488689564908898 0.1275962572713929 0 0.1671173206311134 0.1270635178550828 0 0.16235292796015921 0.1416052600825711 0 0.1782431685034416 0.14074585565395731 0 0.1671173206311134 0.1270635178550828 0 0.16235292796015921 0.1416052600825711 0 0.1503555122808686 0.15632985998513149 0 0.1671796818944824 0.156290809647291 0 0.16235292796015921 0.1416052600825711 0 0.1671796818944824 0.156290809647291 0 0.1782431685034416 0.14074585565395731 0 0.16235292796015921 0.1416052600825711 0 0.14733953900838051 0.24210131479920241 0 0.15369734944959779 0.22495027378992441 0 0.1660369368703018 0.23633707866464321 0 0.14733953900838051 0.24210131479920241 0 0.15667921273925031 0.2491702646407091 0 0.14870354901320501 0.25104417079722569 0 0.14733953900838051 0.24210131479920241 0 0.14870354901320501 0.25104417079722569 0 0.14174150163666199 0.25241347825078791 0 0.14733953900838051 0.24210131479920241 0 0.1291262938889795 0.24484692917772291 0 0.1378647833867459 0.22938886775002129 0 0.1221320306176344 0.2266758406852992 0 0.1291262938889795 0.24484692917772291 0 0.14733953900838051 0.24210131479920241 0 0.1291262938889795 0.24484692917772291 0 0.14174150163666199 0.25241347825078791 0 0.1221320306176344 0.2266758406852992 0 0.1378647833867459 0.22938886775002129 0 0.13008638420016991 0.2135775564311222 0 0.1378647833867459 0.22938886775002129 0 0.1435800416421929 0.21662715374062211 0 0.13008638420016991 0.2135775564311222 0 0.1221320306176344 0.2266758406852992 0 0.1291262938889795 0.24484692917772291 0 0.1378647833867459 0.22938886775002129 0 0.1378647833867459 0.22938886775002129 0 0.15369734944959779 0.22495027378992441 0 0.1435800416421929 0.21662715374062211 0 0.14733953900838051 0.24210131479920241 0 0.1378647833867459 0.22938886775002129 0 0.15369734944959779 0.22495027378992441 0 0.15369734944959779 0.22495027378992441 0 0.1435800416421929 0.21662715374062211 0 0.15672630818026231 0.2100404617149946 0 0.1435800416421929 0.21662715374062211 0 0.14318667166423479 0.20311517160656059 0 0.15672630818026231 0.2100404617149946 0 0.1435800416421929 0.21662715374062211 0 0.13008638420016991 0.2135775564311222 0 0.14318667166423479 0.20311517160656059 0 0.11921374151865979 0.2027783697747382 0 0.13008638420016991 0.2135775564311222 0 0.13006358520957509 0.19838163976698539 0 0.13008638420016991 0.2135775564311222 0 0.13006358520957509 0.19838163976698539 0 0.14318667166423479 0.20311517160656059 0 0.11445878641889499 0.1907311019004824 0 0.13501281698243961 0.18461261238133209 0 0.13006358520957509 0.19838163976698539 0 0.13501281698243961 0.18461261238133209 0 0.13006358520957509 0.19838163976698539 0 0.14318667166423479 0.20311517160656059 0 0.13501281698243961 0.18461261238133209 0 0.14318667166423479 0.20311517160656059 0 0.1629827585159607 0.1955307854846097 0 0.14318667166423479 0.20311517160656059 0 0.1629827585159607 0.1955307854846097 0 0.15672630818026231 0.2100404617149946 0 0.13501281698243961 0.18461261238133209 0 0.1629827585159607 0.1955307854846097 0 0.13501281698243961 0.18461261238133209 0 0.15184206807084741 0.18506346269887 0 0.1629827585159607 0.1955307854846097 0 0.15184206807084741 0.18506346269887 0 0.16614258278714131 0.18250861383096559 0 0.1629827585159607 0.1955307854846097 0 0.16614258278714131 0.18250861383096559 0 0.1629827585159607 0.1955307854846097 0 0.17749665965500999 0.1876839729648119 0 0.17749665965500999 0.1876839729648119 0 0.190952700049482 0.2064489585878875 0 0.19175187183588449 0.1816234971368394 0 0.1629827585159607 0.1955307854846097 0 0.17749665965500999 0.1876839729648119 0 0.190952700049482 0.2064489585878875 0 0.1629827585159607 0.1955307854846097 0 0.190952700049482 0.2064489585878875 0 0.1629827585159607 0.1955307854846097 0 0.17125689833190949 0.21612727710390611 0 0.190952700049482 0.2064489585878875 0 0.15369734944959779 0.22495027378992441 0 0.17125689833190949 0.21612727710390611 0 0.15672630818026231 0.2100404617149946 0 0.1629827585159607 0.1955307854846097 0 0.17125689833190949 0.21612727710390611 0 0.15672630818026231 0.2100404617149946 0 0.17125689833190949 0.21612727710390611 0 0.19262018209226159 0.23858199679790029 0 0.190952700049482 0.2064489585878875 0 0.15369734944959779 0.22495027378992441 0 0.17125689833190949 0.21612727710390611 0 0.1660369368703018 0.23633707866464321 0 0.17125689833190949 0.21612727710390611 0 0.1660369368703018 0.23633707866464321 0 0.19262018209226159 0.23858199679790029 0 0.1660369368703018 0.23633707866464321 0 0.19262018209226159 0.23858199679790029 0 0.170216332229255 0.25254965236963028 0 0.19262018209226159 0.23858199679790029 0 0.170216332229255 0.25254965236963028 0 0.14733953900838051 0.24210131479920241 0 0.1660369368703018 0.23633707866464321 0 0.15667921273925031 0.2491702646407091 0 0.1660369368703018 0.23633707866464321 0 0.15667921273925031 0.2491702646407091 0 0.170216332229255 0.25254965236963028 0 0.19262018209226159 0.23858199679790029 0 0.21502403195526809 0.2246143412261703 0 0.190952700049482 0.2064489585878875 0 0.19262018209226159 0.23858199679790029 0 0.21502403195526809 0.2246143412261703 0 0.21288933004011751 0.25067315717036709 0 0.19262018209226159 0.23858199679790029 0 0.21502403195526809 0.2246143412261703 0 0.21502403195526809 0.2246143412261703 0 0.2182392345850204 0.20700785426274851 0 0.190952700049482 0.2064489585878875 0 0.190952700049482 0.2064489585878875 0 0.21186739192313939 0.19117864561666431 0 0.19175187183588449 0.1816234971368394 0 0.2182392345850204 0.20700785426274851 0 0.190952700049482 0.2064489585878875 0 0.21186739192313939 0.19117864561666431 0 0.2182392345850204 0.20700785426274851 0 0.21186739192313939 0.19117864561666431 0 0.23043819180014691 0.19703077674478869 0 0.21186739192313939 0.19117864561666431 0 0.23043819180014691 0.19703077674478869 0 0.22583635738481039 0.17658817385232081 0 0.2425316462941515 0.1886694261603834 0 0.24286712076993661 0.2033511279239589 0 0.25630196055905352 0.20271503626934881 0 0.23043819180014691 0.19703077674478869 0 0.2425316462941515 0.1886694261603834 0 0.24286712076993661 0.2033511279239589 0 0.23043819180014691 0.19703077674478869 0 0.23742788181827479 0.21064668565444031 0 0.24286712076993661 0.2033511279239589 0 0.24286712076993661 0.2033511279239589 0 0.24763592337805629 0.21769371479083319 0 0.25630196055905352 0.20271503626934881 0 0.23742788181827479 0.21064668565444031 0 0.24286712076993661 0.2033511279239589 0 0.24763592337805629 0.21769371479083319 0 0.23742788181827479 0.21064668565444031 0 0.24763592337805629 0.21769371479083319 0 0.2352560922867804 0.21691620962244171 0 0.21502403195526809 0.2246143412261703 0 0.23742788181827479 0.21064668565444031 0 0.21502403195526809 0.2246143412261703 0 0.2182392345850204 0.20700785426274851 0 0.23742788181827479 0.21064668565444031 0 0.2182392345850204 0.20700785426274851 0 0.23043819180014691 0.19703077674478869 0 0.23742788181827479 0.21064668565444031 0 0.21502403195526809 0.2246143412261703 0 0.23742788181827479 0.21064668565444031 0 0.2352560922867804 0.21691620962244171 0 0.2352560922867804 0.21691620962244171 0 0.23151539828368339 0.23964724469733789 0 0.21502403195526809 0.2246143412261703 0 0.2352560922867804 0.21691620962244171 0 0.23151539828368339 0.23964724469733789 0 0.2352560922867804 0.21691620962244171 0 0.24068122043044721 0.22948229457952271 0 0.23151539828368339 0.23964724469733789 0 0.24763592337805629 0.21769371479083319 0 0.2352560922867804 0.21691620962244171 0 0.24068122043044721 0.22948229457952271 0 0.24763592337805629 0.21769371479083319 0 0.24068122043044721 0.22948229457952271 0 0.25349266197124248 0.23462989467683851 0 0.23151539828368339 0.23964724469733789 0 0.25781508844958267 0.24996181240754781 0 0.25349266197124248 0.23462989467683851 0 0.24068122043044721 0.22948229457952271 0 0.23151539828368339 0.23964724469733789 0 0.25349266197124248 0.23462989467683851 0 0.21502403195526809 0.2246143412261703 0 0.23151539828368339 0.23964724469733789 0 0.21288933004011751 0.25067315717036709 0 0.20899287954604939 0.142077163232116 0 0.20055919828770399 0.14031657843675061 0 0.20212956763772769 0.15148426351204519 0 0.20899287954604939 0.142077163232116 0 0.21505766246791419 0.15282828982740879 0 0.20212956763772769 0.15148426351204519 0 0.20899287954604939 0.142077163232116 0 0.21505766246791419 0.15282828982740879 0 0.21763595137453051 0.14182713014378739 0 0.21763595137453051 0.14182713014378739 0 0.2141255885727939 0.13419774804980961 0 0.22010016257774459 0.13546538727367649 0 0.20899287954604939 0.142077163232116 0 0.21763595137453051 0.14182713014378739 0 0.2141255885727939 0.13419774804980961 0 0.2141255885727939 0.13419774804980961 0 0.2204913746638523 0.12957593895756661 0 0.22010016257774459 0.13546538727367649 0 0.2141255885727939 0.13419774804980961 0 0.21388858411972339 0.12529949138091631 0 0.204918064878819 0.1315430494761877 0 0.2141255885727939 0.13419774804980961 0 0.21388858411972339 0.12529949138091631 0 0.2204913746638523 0.12957593895756661 0 0.21388858411972339 0.12529949138091631 0 0.2204913746638523 0.12957593895756661 0 0.21992327667156111 0.1229502086940403 0 0.21388858411972339 0.12529949138091631 0 0.204918064878819 0.1315430494761877 0 0.20605061475065281 0.11838694324536821 0 0.20899287954604939 0.142077163232116 0 0.2141255885727939 0.13419774804980961 0 0.204918064878819 0.1315430494761877 0 0.20899287954604939 0.142077163232116 0 0.204918064878819 0.1315430494761877 0 0.20055919828770399 0.14031657843675061 0 0.204918064878819 0.1315430494761877 0 0.20055919828770399 0.14031657843675061 0 0.19222897842909309 0.1315754149643063 0 0.204918064878819 0.1315430494761877 0 0.19222897842909309 0.1315754149643063 0 0.199591847371033 0.12458260703259801 0 0.20055919828770399 0.14031657843675061 0 0.19222897842909309 0.1315754149643063 0 0.19238343757710399 0.14490831848196231 0 0.1782431685034416 0.14074585565395731 0 0.19222897842909309 0.1315754149643063 0 0.19238343757710399 0.14490831848196231 0 0.20055919828770399 0.14031657843675061 0 0.19238343757710399 0.14490831848196231 0 0.20212956763772769 0.15148426351204519 0 0.19238343757710399 0.14490831848196231 0 0.20212956763772769 0.15148426351204519 0 0.18801474058477971 0.16017849060794359 0 0.20212956763772769 0.15148426351204519 0 0.18801474058477971 0.16017849060794359 0 0.2066979556779516 0.16859939922752229 0 0.18801474058477971 0.16017849060794359 0 0.19175187183588449 0.1816234971368394 0 0.2066979556779516 0.16859939922752229 0 0.21186739192313939 0.19117864561666431 0 0.19175187183588449 0.1816234971368394 0 0.2066979556779516 0.16859939922752229 0 0.21186739192313939 0.19117864561666431 0 0.2066979556779516 0.16859939922752229 0 0.22583635738481039 0.17658817385232081 0 0.21505766246791419 0.15282828982740879 0 0.2066979556779516 0.16859939922752229 0 0.2203458051415178 0.16294108478057481 0 0.2066979556779516 0.16859939922752229 0 0.2203458051415178 0.16294108478057481 0 0.22583635738481039 0.17658817385232081 0 0.21505766246791419 0.15282828982740879 0 0.20212956763772769 0.15148426351204519 0 0.2066979556779516 0.16859939922752229 0 0.21505766246791419 0.15282828982740879 0 0.2203458051415178 0.16294108478057481 0 0.22640182268672279 0.1554283658421069 0 0.2203458051415178 0.16294108478057481 0 0.22853932323688911 0.16437121819353151 0 0.22640182268672279 0.1554283658421069 0 0.2203458051415178 0.16294108478057481 0 0.22853932323688911 0.16437121819353151 0 0.22583635738481039 0.17658817385232081 0 0.22853932323688911 0.16437121819353151 0 0.22583635738481039 0.17658817385232081 0 0.2394851641735242 0.16409072178120671 0 0.22853932323688911 0.16437121819353151 0 0.2394851641735242 0.16409072178120671 0 0.22640182268672279 0.1554283658421069 0 0.23043819180014691 0.19703077674478869 0 0.2425316462941515 0.1886694261603834 0 0.22583635738481039 0.17658817385232081 0 0.2425316462941515 0.1886694261603834 0 0.2394851641735242 0.16409072178120671 0 0.2425316462941515 0.1886694261603834 0 0.22583635738481039 0.17658817385232081 0 0.2394851641735242 0.16409072178120671 0 0.2425316462941515 0.1886694261603834 0 0.2488440827090605 0.17348447407728951 0 0.2394851641735242 0.16409072178120671 0 0.2488440827090605 0.17348447407728951 0 0.2394851641735242 0.16409072178120671 0 0.25349044024126549 0.1617557734929623 0 0.2394851641735242 0.16409072178120671 0 0.24449832544344341 0.15063045525003679 0 0.25349044024126549 0.1617557734929623 0 0.2394851641735242 0.16409072178120671 0 0.2360125154813468 0.14110028320335649 0 0.23643868205289689 0.13951201740203001 0 0.2394851641735242 0.16409072178120671 0 0.23643868205289689 0.13951201740203001 0 0.2394851641735242 0.16409072178120671 0 0.24449832544344341 0.15063045525003679 0 0.23643868205289689 0.13951201740203001 0 0.24449832544344341 0.15063045525003679 0 0.248579015306087 0.13716330832394841 0 0.25349044024126549 0.1617557734929623 0 0.2394851641735242 0.16409072178120671 0 0.2360125154813468 0.14110028320335649 0 0.23109375748349781 0.14834156372494589 0 0.24449832544344341 0.15063045525003679 0 0.23643868205289689 0.13951201740203001 0 0.248579015306087 0.13716330832394841 0 0.23109375748349781 0.14834156372494589 0 0.2237823721299245 0.14663629878644679 0 0.22640182268672279 0.1554283658421069 0 0.2394851641735242 0.16409072178120671 0 0.23109375748349781 0.14834156372494589 0 0.22640182268672279 0.1554283658421069 0 0.23109375748349781 0.14834156372494589 0 0.23254091717720149 0.14345879121398761 0 0.2286122448083277 0.14264466261317221 0 0.2360125154813468 0.14110028320335649 0 0.23109375748349781 0.14834156372494589 0 0.23254091717720149 0.14345879121398761 0 0.23254091717720149 0.14345879121398761 0 0.2286122448083277 0.14264466261317221 0 0.23204930749521779 0.13958918791048419 0 0.23254091717720149 0.14345879121398761 0 0.23204930749521779 0.13958918791048419 0 0.23436903446459259 0.139807993355028 0 0.2360125154813468 0.14110028320335649 0 0.23254091717720149 0.14345879121398761 0 0.23436903446459259 0.139807993355028 0 0.23109375748349781 0.14834156372494589 0 0.2286122448083277 0.14264466261317221 0 0.2237823721299245 0.14663629878644679 0 0.21505766246791419 0.15282828982740879 0 0.21763595137453051 0.14182713014378739 0 0.2237823721299245 0.14663629878644679 0 0.2286122448083277 0.14264466261317221 0 0.2237823721299245 0.14663629878644679 0 0.223757042952757 0.13975789369326699 0 0.21763595137453051 0.14182713014378739 0 0.2237823721299245 0.14663629878644679 0 0.223757042952757 0.13975789369326699 0 0.21505766246791419 0.15282828982740879 0 0.2237823721299245 0.14663629878644679 0 0.22640182268672279 0.1554283658421069 0 0.2321848143924764 0.13197769657779021 0 0.23643868205289689 0.13951201740203001 0 0.2336161178233436 0.1167398595351902 0 0.2204913746638523 0.12957593895756661 0 0.22610949529732949 0.13317041376245181 0 0.2268404165343075 0.1260503329383186 0 0.2204913746638523 0.12957593895756661 0 0.2268404165343075 0.1260503329383186 0 0.21992327667156111 0.1229502086940403 0 0.2204913746638523 0.12957593895756661 0 0.22010016257774459 0.13546538727367649 0 0.22610949529732949 0.13317041376245181 0 0.21763595137453051 0.14182713014378739 0 0.22010016257774459 0.13546538727367649 0 0.223757042952757 0.13975789369326699 0 0.223757042952757 0.13975789369326699 0 0.22610949529732949 0.13317041376245181 0 0.22845007161136749 0.1380842403499021 0 0.22010016257774459 0.13546538727367649 0 0.223757042952757 0.13975789369326699 0 0.22610949529732949 0.13317041376245181 0 0.22610949529732949 0.13317041376245181 0 0.22845007161136749 0.1380842403499021 0 0.23103955452802241 0.13571395300386241 0 0.22610949529732949 0.13317041376245181 0 0.23103955452802241 0.13571395300386241 0 0.2321848143924764 0.13197769657779021 0 0.2286122448083277 0.14264466261317221 0 0.22845007161136749 0.1380842403499021 0 0.23204930749521779 0.13958918791048419 0 0.2286122448083277 0.14264466261317221 0 0.223757042952757 0.13975789369326699 0 0.22845007161136749 0.1380842403499021 0 0.23204930749521779 0.13958918791048419 0 0.23321627858664121 0.13732016964983901 0 0.23103955452802241 0.13571395300386241 0 0.22845007161136749 0.1380842403499021 0 0.23204930749521779 0.13958918791048419 0 0.23103955452802241 0.13571395300386241 0 0.23204930749521779 0.13958918791048419 0 0.23321627858664121 0.13732016964983901 0 0.23436903446459259 0.139807993355028 0 0.23321627858664121 0.13732016964983901 0 0.23103955452802241 0.13571395300386241 0 0.2321848143924764 0.13197769657779021 0 0.23321627858664121 0.13732016964983901 0 0.2321848143924764 0.13197769657779021 0 0.23643868205289689 0.13951201740203001 0 0.22610949529732949 0.13317041376245181 0 0.2321848143924764 0.13197769657779021 0 0.2268404165343075 0.1260503329383186 0 0.23643868205289689 0.13951201740203001 0 0.248579015306087 0.13716330832394841 0 0.2436675903709076 0.1125708431549348 0 0.23643868205289689 0.13951201740203001 0 0.2336161178233436 0.1167398595351902 0 0.23643868205289689 0.13951201740203001 0 0.2436675903709076 0.1125708431549348 0 0.23321627858664121 0.13732016964983901 0 0.23436903446459259 0.139807993355028 0 0.23643868205289689 0.13951201740203001 0 0.2360125154813468 0.14110028320335649 0 0.23643868205289689 0.13951201740203001 0 0.2360125154813468 0.14110028320335649 0 0.23436903446459259 0.139807993355028 0 0.23643868205289689 0.13951201740203001 0 0.248579015306087 0.13716330832394841 0 0.2436675903709076 0.1125708431549348 0 0.23643868205289689 0.13951201740203001 0 0.2436675903709076 0.1125708431549348 0 0.2336161178233436 0.1167398595351902 0 0.2436675903709076 0.1125708431549348 0 0.24997695626685701 0.089056680502188207 0 0.25390394413965428 0.1074521262722964 0 0.2436675903709076 0.1125708431549348 0 0.24997695626685701 0.089056680502188207 0 0.23946842251352529 0.091544788469282351 0 0.2436675903709076 0.1125708431549348 0 0.23079355359379031 0.093967701668350473 0 0.2336161178233436 0.1167398595351902 0 0.2436675903709076 0.1125708431549348 0 0.24997695626685701 0.089056680502188207 0 0.2436675903709076 0.1125708431549348 0 0.23079355359379031 0.093967701668350473 0 0.23946842251352529 0.091544788469282351 0 0.2436675903709076 0.1125708431549348 0 0.23946842251352529 0.091544788469282351 0 0.23079355359379031 0.093967701668350473 0 0.2336161178233436 0.1167398595351902 0 0.23079355359379031 0.093967701668350473 0 0.22443900124428301 0.1063163405269076 0 0.2336161178233436 0.1167398595351902 0 0.22443900124428301 0.1063163405269076 0 0.2179339321018702 0.1103391741265182 0 0.2158429833472929 0.1019309747468336 0 0.23079355359379031 0.093967701668350473 0 0.22443900124428301 0.1063163405269076 0 0.2220518761641346 0.095885971367676737 0 0.22443900124428301 0.1063163405269076 0 0.2220518761641346 0.095885971367676737 0 0.2158429833472929 0.1019309747468336 0 0.2321848143924764 0.13197769657779021 0 0.2268404165343075 0.1260503329383186 0 0.2336161178233436 0.1167398595351902 0 0.2268404165343075 0.1260503329383186 0 0.2336161178233436 0.1167398595351902 0 0.2232066100544382 0.1166696774305513 0 0.22443900124428301 0.1063163405269076 0 0.2336161178233436 0.1167398595351902 0 0.2232066100544382 0.1166696774305513 0 0.22443900124428301 0.1063163405269076 0 0.2232066100544382 0.1166696774305513 0 0.2179339321018702 0.1103391741265182 0 0.2232066100544382 0.1166696774305513 0 0.2179339321018702 0.1103391741265182 0 0.21518939798548431 0.1171556027628488 0 0.2268404165343075 0.1260503329383186 0 0.2232066100544382 0.1166696774305513 0 0.21992327667156111 0.1229502086940403 0 0.2232066100544382 0.1166696774305513 0 0.21992327667156111 0.1229502086940403 0 0.21518939798548431 0.1171556027628488 0 0.21388858411972339 0.12529949138091631 0 0.21992327667156111 0.1229502086940403 0 0.21518939798548431 0.1171556027628488 0 0.21388858411972339 0.12529949138091631 0 0.20605061475065281 0.11838694324536821 0 0.21518939798548431 0.1171556027628488 0 0.204918064878819 0.1315430494761877 0 0.20605061475065281 0.11838694324536821 0 0.199591847371033 0.12458260703259801 0 0.20605061475065281 0.11838694324536821 0 0.21518939798548431 0.1171556027628488 0 0.21012722891594959 0.1089648179270527 0 0.20605061475065281 0.11838694324536821 0 0.21012722891594959 0.1089648179270527 0 0.20001253860560089 0.1073163973722935 0 0.2179339321018702 0.1103391741265182 0 0.21518939798548431 0.1171556027628488 0 0.21012722891594959 0.1089648179270527 0 0.2179339321018702 0.1103391741265182 0 0.2158429833472929 0.1019309747468336 0 0.21012722891594959 0.1089648179270527 0 0.2220518761641346 0.095885971367676737 0 0.2158429833472929 0.1019309747468336 0 0.21468050617237089 0.092080497742653575 0 0.2158429833472929 0.1019309747468336 0 0.20582535548514941 0.097999046790193001 0 0.21468050617237089 0.092080497742653575 0 0.2158429833472929 0.1019309747468336 0 0.20582535548514941 0.097999046790193001 0 0.21012722891594959 0.1089648179270527 0 0.20582535548514941 0.097999046790193001 0 0.21012722891594959 0.1089648179270527 0 0.20001253860560089 0.1073163973722935 0 0.20582535548514941 0.097999046790193001 0 0.20001253860560089 0.1073163973722935 0 0.1945945609055118 0.095334139100383908 0 0.1945945609055118 0.095334139100383908 0 0.1894602174167502 0.1057835961792771 0 0.18099917993331169 0.096149321388855305 0 0.20001253860560089 0.1073163973722935 0 0.1945945609055118 0.095334139100383908 0 0.1894602174167502 0.1057835961792771 0 0.20001253860560089 0.1073163973722935 0 0.1894602174167502 0.1057835961792771 0 0.19355778612991131 0.1174404130884304 0 0.19222897842909309 0.1315754149643063 0 0.19355778612991131 0.1174404130884304 0 0.199591847371033 0.12458260703259801 0 0.1806318845392586 0.12549151950901821 0 0.19222897842909309 0.1315754149643063 0 0.19355778612991131 0.1174404130884304 0 0.20605061475065281 0.11838694324536821 0 0.19355778612991131 0.1174404130884304 0 0.199591847371033 0.12458260703259801 0 0.20605061475065281 0.11838694324536821 0 0.20001253860560089 0.1073163973722935 0 0.19355778612991131 0.1174404130884304 0 0.18843378943217101 0.083067710978051046 0 0.20482344298523639 0.081444382282120101 0 0.19260256683507571 0.060162751651662537 0 0.1945945609055118 0.095334139100383908 0 0.18843378943217101 0.083067710978051046 0 0.20482344298523639 0.081444382282120101 0 0.20582535548514941 0.097999046790193001 0 0.1945945609055118 0.095334139100383908 0 0.20482344298523639 0.081444382282120101 0 0.1945945609055118 0.095334139100383908 0 0.18843378943217101 0.083067710978051046 0 0.18099917993331169 0.096149321388855305 0 0.20482344298523639 0.081444382282120101 0 0.21468050617237089 0.092080497742653575 0 0.223638897501033 0.084475884915241731 0 0.20582535548514941 0.097999046790193001 0 0.20482344298523639 0.081444382282120101 0 0.21468050617237089 0.092080497742653575 0 0.20482344298523639 0.081444382282120101 0 0.2170319976785593 0.063800119228456881 0 0.19260256683507571 0.060162751651662537 0 0.20482344298523639 0.081444382282120101 0 0.2170319976785593 0.063800119228456881 0 0.223638897501033 0.084475884915241731 0 0.2170319976785593 0.063800119228456881 0 0.223638897501033 0.084475884915241731 0 0.2352692546561421 0.070518733783630105 0 0.23079355359379031 0.093967701668350473 0 0.223638897501033 0.084475884915241731 0 0.23946842251352529 0.091544788469282351 0 0.223638897501033 0.084475884915241731 0 0.23946842251352529 0.091544788469282351 0 0.2352692546561421 0.070518733783630105 0 0.23079355359379031 0.093967701668350473 0 0.2220518761641346 0.095885971367676737 0 0.223638897501033 0.084475884915241731 0 0.2220518761641346 0.095885971367676737 0 0.21468050617237089 0.092080497742653575 0 0.223638897501033 0.084475884915241731 0 0.23946842251352529 0.091544788469282351 0 0.2352692546561421 0.070518733783630105 0 0.24574690701094981 0.075536290541234716 0 0.24997695626685701 0.089056680502188207 0 0.23946842251352529 0.091544788469282351 0 0.24574690701094981 0.075536290541234716 0 0.23946842251352529 0.091544788469282351 0 0.2352692546561421 0.070518733783630105 0 0.2352692546561421 0.070518733783630105 0 0.24574690701094981 0.075536290541234716 0 0.24526376771339589 0.06024893245831843 0 0.24574690701094981 0.075536290541234716 0 0.24526376771339589 0.06024893245831843 0 0.25628632216280722 0.065542517849441775 0 0.2352692546561421 0.070518733783630105 0 0.24526376771339589 0.06024893245831843 0 0.2310700867987589 0.04949267909797786 0 0.24526376771339589 0.06024893245831843 0 0.2440677562928506 0.046983779008447031 0 0.2310700867987589 0.04949267909797786 0 0.2440677562928506 0.046983779008447031 0 0.2450033316302721 0.031512306834020197 0 0.23561541466728619 0.038759183999475727 0 0.2440677562928506 0.046983779008447031 0 0.23561541466728619 0.038759183999475727 0 0.2310700867987589 0.04949267909797786 0 0.23561541466728619 0.038759183999475727 0 0.2310700867987589 0.04949267909797786 0 0.21521264990215611 0.04081280019866601 0 0.23561541466728619 0.038759183999475727 0 0.23782273296923639 0.021462848745669501 0 0.21521264990215611 0.04081280019866601 0 0.2170319976785593 0.063800119228456881 0 0.2310700867987589 0.04949267909797786 0 0.21521264990215611 0.04081280019866601 0 0.2170319976785593 0.063800119228456881 0 0.2352692546561421 0.070518733783630105 0 0.2310700867987589 0.04949267909797786 0 0.2352692546561421 0.070518733783630105 0 0.2310700867987589 0.04949267909797786 0 0.23993170804288261 0.0050449336296522693 0 0.23782273296923639 0.021462848745669501 0 0.26043281603631668 0.002112897292672999 0 0.23782273296923639 0.021462848745669501 0 0.26043281603631668 0.002112897292672999 0 0.23993170804288261 0.0050449336296522693 0 0.23782273296923639 0.021462848745669501 0 0.22750748133428281 0.01372210144688253 0 0.2450033316302721 0.031512306834020197 0 0.23561541466728619 0.038759183999475727 0 0.23782273296923639 0.021462848745669501 0 0.2450033316302721 0.031512306834020197 0 0.23782273296923639 0.021462848745669501 0 0.25305482568976151 0.02013209446819857 0 0.23782273296923639 0.021462848745669501 0 0.22750748133428281 0.01372210144688253 0 0.21827729119232631 0.023069352362133869 0 0.23782273296923639 0.021462848745669501 0 0.21521264990215611 0.04081280019866601 0 0.22750748133428281 0.01372210144688253 0 0.21051234954539819 0.010657545668979579 0 0.21827729119232631 0.023069352362133869 0 0.23782273296923639 0.021462848745669501 0 0.21827729119232631 0.023069352362133869 0 0.21521264990215611 0.04081280019866601 0 0.22750748133428281 0.01372210144688253 0 0.22839953870114971 0.0007346707372799427 0 0.21051234954539819 0.010657545668979579 0 0.23993170804288261 0.0050449336296522693 0 0.22750748133428281 0.01372210144688253 0 0.22839953870114971 0.0007346707372799427 0 0.22839953870114971 0.0007346707372799427 0 0.21051234954539819 0.010657545668979579 0 0.21379443551079011 -0.0044917321571892174 0 0.21827729119232631 0.023069352362133869 0 0.20023513576962501 0.02757594344969649 0 0.21521264990215611 0.04081280019866601 0 0.21051234954539819 0.010657545668979579 0 0.21827729119232631 0.023069352362133869 0 0.20023513576962501 0.02757594344969649 0 0.21051234954539819 0.010657545668979579 0 0.20023513576962501 0.02757594344969649 0 0.1944844161931773 0.01111527125611732 0 0.20023513576962501 0.02757594344969649 0 0.1860014755576998 0.040791005095044998 0 0.1796872799870215 0.020564621570813651 0 0.20023513576962501 0.02757594344969649 0 0.1944844161931773 0.01111527125611732 0 0.1796872799870215 0.020564621570813651 0 0.21051234954539819 0.010657545668979579 0 0.1944844161931773 0.01111527125611732 0 0.19860754386476789 -0.01137599832411872 0 0.1944844161931773 0.01111527125611732 0 0.18319044527574271 0.001983538708897655 0 0.19860754386476789 -0.01137599832411872 0 0.21521264990215611 0.04081280019866601 0 0.19260256683507571 0.060162751651662537 0 0.2170319976785593 0.063800119228456881 0 0.21521264990215611 0.04081280019866601 0 0.19260256683507571 0.060162751651662537 0 0.20023513576962501 0.02757594344969649 0 0.21521264990215611 0.04081280019866601 0 0.1860014755576998 0.040791005095044998 0 0.21521264990215611 0.04081280019866601 0 0.19260256683507571 0.060162751651662537 0 0.1860014755576998 0.040791005095044998 0 0.19260256683507571 0.060162751651662537 0 0.1860014755576998 0.040791005095044998 0 0.16447207573367559 0.057061609566643301 0 0.1860014755576998 0.040791005095044998 0 0.16379914511864521 0.038568304132788028 0 0.1796872799870215 0.020564621570813651 0 0.1860014755576998 0.040791005095044998 0 0.16379914511864521 0.038568304132788028 0 0.16447207573367559 0.057061609566643301 0 0.16379914511864521 0.038568304132788028 0 0.16447207573367559 0.057061609566643301 0 0.14850642503120751 0.044545242545805219 0 0.1944844161931773 0.01111527125611732 0 0.18319044527574271 0.001983538708897655 0 0.1796872799870215 0.020564621570813651 0 0.18319044527574271 0.001983538708897655 0 0.1796872799870215 0.020564621570813651 0 0.16900359446208199 0.0020174119125163691 0 0.16379914511864521 0.038568304132788028 0 0.1796872799870215 0.020564621570813651 0 0.1605668221852368 0.014658585988808251 0 0.1796872799870215 0.020564621570813651 0 0.1605668221852368 0.014658585988808251 0 0.16900359446208199 0.0020174119125163691 0 0.1605668221852368 0.014658585988808251 0 0.16900359446208199 0.0020174119125163691 0 0.15707395672645269 -0.0073986462847924961 0 0.1605668221852368 0.014658585988808251 0 0.14007318484290529 0.00069167290441296114 0 0.15707395672645269 -0.0073986462847924961 0 0.1605668221852368 0.014658585988808251 0 0.1422082646964527 0.02737412654419754 0 0.14007318484290529 0.00069167290441296114 0 0.1422082646964527 0.02737412654419754 0 0.14007318484290529 0.00069167290441296114 0 0.16379914511864521 0.038568304132788028 0 0.1605668221852368 0.014658585988808251 0 0.1422082646964527 0.02737412654419754 0 0.1179075346954552 0.035430316370186607 0 0.118158237685422 0.011120547471588371 0 0.1422082646964527 0.02737412654419754 0 0.118158237685422 0.011120547471588371 0 0.14007318484290529 0.00069167290441296114 0 0.1248276010241347 -0.0085433062776674694 0 0.118158237685422 0.011120547471588371 0 0.14007318484290529 0.00069167290441296114 0 0.118158237685422 0.011120547471588371 0 0.1422082646964527 0.02737412654419754 0 0.14007318484290529 0.00069167290441296114 0 0.14528890097461411 0.058397446442194863 0 0.14850642503120751 0.044545242545805219 0 0.12947630272360311 0.051288548756999598 0 0.16447207573367559 0.057061609566643301 0 0.14528890097461411 0.058397446442194863 0 0.14850642503120751 0.044545242545805219 0 0.16379914511864521 0.038568304132788028 0 0.1422082646964527 0.02737412654419754 0 0.14850642503120751 0.044545242545805219 0 0.1422082646964527 0.02737412654419754 0 0.14850642503120751 0.044545242545805219 0 0.12947630272360311 0.051288548756999598 0 0.1179075346954552 0.035430316370186607 0 0.1422082646964527 0.02737412654419754 0 0.12947630272360311 0.051288548756999598 0 0.14528890097461411 0.058397446442194863 0 0.12947630272360311 0.051288548756999598 0 0.13470673178515821 0.069507546368700629 0 0.11877773352340019 0.071860060002970266 0 0.13470673178515821 0.069507546368700629 0 0.13365507086641121 0.087361626141413823 0 0.11877773352340019 0.071860060002970266 0 0.12947630272360311 0.051288548756999598 0 0.13470673178515821 0.069507546368700629 0 0.16447207573367559 0.057061609566643301 0 0.14528890097461411 0.058397446442194863 0 0.14633565083776251 0.078630050499924581 0 0.14528890097461411 0.058397446442194863 0 0.14633565083776251 0.078630050499924581 0 0.14528890097461411 0.058397446442194863 0 0.13470673178515821 0.069507546368700629 0 0.14633565083776251 0.078630050499924581 0 0.14633565083776251 0.078630050499924581 0 0.14738240070091391 0.098862654557654209 0 0.14633565083776251 0.078630050499924581 0 0.14738240070091391 0.098862654557654209 0 0.16999248376799539 0.079512703104659049 0 0.14633565083776251 0.078630050499924581 0 0.13365507086641121 0.087361626141413823 0 0.14738240070091391 0.098862654557654209 0 0.13470673178515821 0.069507546368700629 0 0.14633565083776251 0.078630050499924581 0 0.13365507086641121 0.087361626141413823 0 0.1205356643342923 0.096096991644787744 0 0.13365507086641121 0.087361626141413823 0 0.13483799792304771 0.10959828892212981 0 0.13365507086641121 0.087361626141413823 0 0.13483799792304771 0.10959828892212981 0 0.14738240070091391 0.098862654557654209 0 0.12229359514518159 0.1203339232866054 0 0.1205356643342923 0.096096991644787744 0 0.13483799792304771 0.10959828892212981 0 0.13314239884922019 0.1299219734873607 0 0.1488689564908898 0.1275962572713929 0 0.13483799792304771 0.10959828892212981 0 0.12229359514518159 0.1203339232866054 0 0.13314239884922019 0.1299219734873607 0 0.13483799792304771 0.10959828892212981 0 0.12229359514518159 0.1203339232866054 0 0.13483799792304771 0.10959828892212981 0 0.1488689564908898 0.1275962572713929 0 0.13483799792304771 0.10959828892212981 0 0.14738240070091391 0.098862654557654209 0 0.1488689564908898 0.1275962572713929 0 0.14738240070091391 0.098862654557654209 0 0.1615695847215344 0.1129744804522695 0 0.1488689564908898 0.1275962572713929 0 0.14738240070091391 0.098862654557654209 0 0.13483799792304771 0.10959828892212981 0 0.14738240070091391 0.098862654557654209 0 0.14738240070091391 0.098862654557654209 0 0.16634222427534021 0.098672262630795565 0 0.1615695847215344 0.1129744804522695 0 0.16634222427534021 0.098672262630795565 0 0.1615695847215344 0.1129744804522695 0 0.17813702150941499 0.1126777099464223 0 0.1488689564908898 0.1275962572713929 0 0.1671173206311134 0.1270635178550828 0 0.1615695847215344 0.1129744804522695 0 0.1671173206311134 0.1270635178550828 0 0.1615695847215344 0.1129744804522695 0 0.17813702150941499 0.1126777099464223 0 0.1806318845392586 0.12549151950901821 0 0.1671173206311134 0.1270635178550828 0 0.17813702150941499 0.1126777099464223 0 0.1894602174167502 0.1057835961792771 0 0.19355778612991131 0.1174404130884304 0 0.17813702150941499 0.1126777099464223 0 0.1806318845392586 0.12549151950901821 0 0.19355778612991131 0.1174404130884304 0 0.17813702150941499 0.1126777099464223 0 0.1894602174167502 0.1057835961792771 0 0.17813702150941499 0.1126777099464223 0 0.18099917993331169 0.096149321388855305 0 0.16634222427534021 0.098672262630795565 0 0.17813702150941499 0.1126777099464223 0 0.18099917993331169 0.096149321388855305 0 0.16634222427534021 0.098672262630795565 0 0.18099917993331169 0.096149321388855305 0 0.16999248376799539 0.079512703104659049 0 0.18843378943217101 0.083067710978051046 0 0.18099917993331169 0.096149321388855305 0 0.16999248376799539 0.079512703104659049 0 0.19260256683507571 0.060162751651662537 0 0.16447207573367559 0.057061609566643301 0 0.16999248376799539 0.079512703104659049 0 0.18843378943217101 0.083067710978051046 0 0.19260256683507571 0.060162751651662537 0 0.16999248376799539 0.079512703104659049 0 0.19260256683507571 0.060162751651662537 0 0.16999248376799539 0.079512703104659049 0 0.16447207573367559 0.057061609566643301 0 0.14633565083776251 0.078630050499924581 0 0.16999248376799539 0.079512703104659049 0 0.14738240070091391 0.098862654557654209 0 0.16634222427534021 0.098672262630795565 0 0.16999248376799539 0.079512703104659049 0 0.14738240070091391 0.098862654557654209 0 0.16999248376799539 0.079512703104659049 0 0.105783348285633 0.4755365431220101 0 0.092416929845789531 0.46552560618734867 0 0.083056536835784761 0.48110818036662018 0 0.105783348285633 0.4755365431220101 0 0.1128399266134129 0.5 0 0.090052554716665623 0.49999999999999939 0 0.105783348285633 0.4755365431220101 0 0.090052554716665623 0.49999999999999939 0 0.1128399266134129 0.5 0 0.12280933736848509 0.48481740457808858 0 0.13562729851016 0.5 0 0.105783348285633 0.4755365431220101 0 0.1128399266134129 0.5 0 0.12280933736848509 0.48481740457808858 0 0.105783348285633 0.4755365431220101 0 0.12280933736848509 0.48481740457808858 0 0.12579316984133629 0.4686265269696353 0 0.105783348285633 0.4755365431220101 0 0.1215141418546011 0.45107308624402132 0 0.12579316984133629 0.4686265269696353 0 0.1215141418546011 0.45107308624402132 0 0.12579316984133629 0.4686265269696353 0 0.105783348285633 0.4755365431220101 0 0.1215141418546011 0.45107308624402132 0 0.105783348285633 0.4755365431220101 0 0.1215141418546011 0.45107308624402132 0 0.1028847966504596 0.45624341186099671 0 0.1215141418546011 0.45107308624402132 0 0.11572440573029009 0.42732241431803042 0 0.1215141418546011 0.45107308624402132 0 0.10518413334310291 0.44139226858665892 0 0.1028847966504596 0.45624341186099671 0 0.1215141418546011 0.45107308624402132 0 0.10518413334310291 0.44139226858665892 0 0.11572440573029009 0.42732241431803042 0 0.1215141418546011 0.45107308624402132 0 0.11572440573029009 0.42732241431803042 0 0.12756942803528881 0.44165631831583613 0 0.1215141418546011 0.45107308624402132 0 0.12756942803528881 0.44165631831583613 0 0.10518413334310291 0.44139226858665892 0 0.1028847966504596 0.45624341186099671 0 0.08866908561294129 0.44683595435382972 0 0.105783348285633 0.4755365431220101 0 0.1028847966504596 0.45624341186099671 0 0.092416929845789531 0.46552560618734867 0 0.1028847966504596 0.45624341186099671 0 0.092416929845789531 0.46552560618734867 0 0.08866908561294129 0.44683595435382972 0 0.092416929845789531 0.46552560618734867 0 0.08866908561294129 0.44683595435382972 0 0.074223559458922131 0.4604605421603698 0 0.08866908561294129 0.44683595435382972 0 0.074223559458922131 0.4604605421603698 0 0.072770898124527389 0.43530622103692862 0 0.074223559458922131 0.4604605421603698 0 0.052902152570612093 0.45010739632157942 0 0.072770898124527389 0.43530622103692862 0 0.074223559458922131 0.4604605421603698 0 0.083056536835784761 0.48110818036662018 0 0.05466940945364758 0.48302629388479801 0 0.092416929845789531 0.46552560618734867 0 0.074223559458922131 0.4604605421603698 0 0.083056536835784761 0.48110818036662018 0 0.083056536835784761 0.48110818036662018 0 0.078268606983736777 0.49999999999998679 0 0.090052554716665623 0.49999999999999939 0 0.105783348285633 0.4755365431220101 0 0.083056536835784761 0.48110818036662018 0 0.090052554716665623 0.49999999999999939 0 0.078268606983736777 0.49999999999998679 0 0.05466940945364758 0.48302629388479801 0 0.083056536835784761 0.48110818036662018 0 0.078268606983736777 0.49999999999998679 0 0.05466940945364758 0.48302629388479801 0 0.078268606983736777 0.49999999999998679 0 0.048340102812228392 0.5 0 0.05466940945364758 0.48302629388479801 0 0.05466940945364758 0.48302629388479801 0 0.031070211923552121 0.46605258776961778 0 0.05466940945364758 0.48302629388479801 0 0.031447107481355853 0.4853920634975748 0 0.031070211923552121 0.46605258776961778 0 0.048340102812228392 0.5 0 0.05466940945364758 0.48302629388479801 0 0.031447107481355853 0.4853920634975748 0 0.048340102812228392 0.5 0 0.031447107481355853 0.4853920634975748 0 0.01841159864072001 0.5 0 0.031447107481355853 0.4853920634975748 0 0.01841159864072001 0.5 0 0.0047442145766311422 0.47788143583345832 0 0.031447107481355853 0.4853920634975748 0 0.0047442145766311422 0.47788143583345832 0 0.031070211923552121 0.46605258776961778 0 -0.011516905530788209 0.5 0 0.01841159864072001 0.5 0 0.0047442145766311422 0.47788143583345832 0 0.0047442145766311422 0.47788143583345832 0 0.0074710143934566403 0.44907888165443771 0 0.031070211923552121 0.46605258776961778 0 0.0074710143934566403 0.44907888165443771 0 0.031070211923552121 0.46605258776961778 0 0.0074710143934566403 0.44907888165443771 0 0.031070211923552121 0.46605258776961778 0 0.032089498144401943 0.43734297217630541 0 0.031070211923552121 0.46605258776961778 0 0.052902152570612093 0.45010739632157942 0 0.032089498144401943 0.43734297217630541 0 0.05466940945364758 0.48302629388479801 0 0.031070211923552121 0.46605258776961778 0 0.052902152570612093 0.45010739632157942 0 0.074223559458922131 0.4604605421603698 0 0.05466940945364758 0.48302629388479801 0 0.052902152570612093 0.45010739632157942 0 0.052902152570612093 0.45010739632157942 0 0.053671500808003612 0.42469676933962208 0 0.072770898124527389 0.43530622103692862 0 0.053671500808003612 0.42469676933962208 0 0.050706818014054383 0.40586566947263858 0 0.071960799239574019 0.40571463719798501 0 0.053671500808003612 0.42469676933962208 0 0.037429004527389821 0.41773342635039551 0 0.050706818014054383 0.40586566947263858 0 0.037429004527389821 0.41773342635039551 0 0.032692176435504247 0.40070787817598119 0 0.050706818014054383 0.40586566947263858 0 0.053671500808003612 0.42469676933962208 0 0.037429004527389821 0.41773342635039551 0 0.032089498144401943 0.43734297217630541 0 0.052902152570612093 0.45010739632157942 0 0.053671500808003612 0.42469676933962208 0 0.032089498144401943 0.43734297217630541 0 0.037429004527389821 0.41773342635039551 0 0.032089498144401943 0.43734297217630541 0 0.0099931046433973467 0.4163887716221798 0 -0.016128183136638701 0.43210517553925759 0 0.0074710143934566403 0.44907888165443771 0 0.0099931046433973467 0.4163887716221798 0 0.0074710143934566403 0.44907888165443771 0 0.032089498144401943 0.43734297217630541 0 0.0099931046433973467 0.4163887716221798 0 0.037429004527389821 0.41773342635039551 0 0.0099931046433973467 0.4163887716221798 0 0.032692176435504247 0.40070787817598119 0 -0.0025797780880571219 0.37543989063062583 0 0.01505619917372355 0.38807388440330348 0 0.019212138403950332 0.36788062739350891 0 -0.0054410299765013138 0.39673920570106452 0 -0.0025797780880571219 0.37543989063062583 0 0.01505619917372355 0.38807388440330348 0 -0.0025797780880571219 0.37543989063062583 0 0.01505619917372355 0.38807388440330348 0 -0.0054410299765013138 0.39673920570106452 0 0.0099931046433973467 0.4163887716221798 0 0.01505619917372355 0.38807388440330348 0 0.0099931046433973467 0.4163887716221798 0 0.01505619917372355 0.38807388440330348 0 0.032692176435504247 0.40070787817598119 0 0.01505619917372355 0.38807388440330348 0 0.032692176435504247 0.40070787817598119 0 0.01505619917372355 0.38807388440330348 0 0.031359447530504451 0.38249814471913868 0 0.032692176435504247 0.40070787817598119 0 0.01505619917372355 0.38807388440330348 0 0.031359447530504451 0.38249814471913868 0 0.019212138403950332 0.36788062739350891 0 0.031359447530504451 0.38249814471913868 0 0.047143072478264228 0.38770934556271153 0 0.042693651161079892 0.36811898806018878 0 0.031359447530504451 0.38249814471913868 0 0.032692176435504247 0.40070787817598119 0 0.047143072478264228 0.38770934556271153 0 0.032692176435504247 0.40070787817598119 0 0.050706818014054383 0.40586566947263858 0 0.047143072478264228 0.38770934556271153 0 0.050706818014054383 0.40586566947263858 0 0.061895832942518693 0.39118115819247129 0 0.071960799239574019 0.40571463719798501 0 0.050706818014054383 0.40586566947263858 0 0.061895832942518693 0.39118115819247129 0 0.047143072478264228 0.38770934556271153 0 0.047143072478264228 0.38770934556271153 0 0.061825598233676921 0.37716931364991602 0 0.042693651161079892 0.36811898806018878 0 0.061895832942518693 0.39118115819247129 0 0.047143072478264228 0.38770934556271153 0 0.061825598233676921 0.37716931364991602 0 0.061895832942518693 0.39118115819247129 0 0.061825598233676921 0.37716931364991602 0 0.077842876747023823 0.37944682507910549 0 0.077842876747023823 0.37944682507910549 0 0.090250097671144378 0.38673250505634771 0 0.093793899272120368 0.3702902352272468 0 0.077842876747023823 0.37944682507910549 0 0.090250097671144378 0.38673250505634771 0 0.071960799239574019 0.40571463719798501 0 0.090250097671144378 0.38673250505634771 0 0.071960799239574019 0.40571463719798501 0 0.090250097671144378 0.38673250505634771 0 0.091810931883494512 0.40447089407953712 0 0.071960799239574019 0.40571463719798501 0 0.061895832942518693 0.39118115819247129 0 0.077842876747023823 0.37944682507910549 0 0.071960799239574019 0.40571463719798501 0 0.053671500808003612 0.42469676933962208 0 0.071960799239574019 0.40571463719798501 0 0.053671500808003612 0.42469676933962208 0 0.071960799239574019 0.40571463719798501 0 0.072770898124527389 0.43530622103692862 0 0.08866908561294129 0.44683595435382972 0 0.072770898124527389 0.43530622103692862 0 0.093129823097027317 0.42277553081410618 0 0.091810931883494512 0.40447089407953712 0 0.071960799239574019 0.40571463719798501 0 0.093129823097027317 0.42277553081410618 0 0.071960799239574019 0.40571463719798501 0 0.072770898124527389 0.43530622103692862 0 0.093129823097027317 0.42277553081410618 0 0.091810931883494512 0.40447089407953712 0 0.093129823097027317 0.42277553081410618 0 0.1099346696059782 0.40357174239203969 0 0.093129823097027317 0.42277553081410618 0 0.11572440573029009 0.42732241431803042 0 0.1099346696059782 0.40357174239203969 0 0.10518413334310291 0.44139226858665892 0 0.08866908561294129 0.44683595435382972 0 0.093129823097027317 0.42277553081410618 0 0.10518413334310291 0.44139226858665892 0 0.093129823097027317 0.42277553081410618 0 0.11572440573029009 0.42732241431803042 0 0.11572440573029009 0.42732241431803042 0 0.1099346696059782 0.40357174239203969 0 0.12702845542110669 0.41033837140729401 0 0.11572440573029009 0.42732241431803042 0 0.1099346696059782 0.40357174239203969 0 0.1099346696059782 0.40357174239203969 0 0.1204604825047406 0.37892564166567672 0 0.12754315784636661 0.39588676990331523 0 0.1099346696059782 0.40357174239203969 0 0.12754315784636661 0.39588676990331523 0 0.12702845542110669 0.41033837140729401 0 0.1099346696059782 0.40357174239203969 0 0.1204604825047406 0.37892564166567672 0 0.1041449334816663 0.37982107046604913 0 0.1204604825047406 0.37892564166567672 0 0.1041449334816663 0.37982107046604913 0 0.1085393961027146 0.36775037291471058 0 0.090250097671144378 0.38673250505634771 0 0.1041449334816663 0.37982107046604913 0 0.1085393961027146 0.36775037291471058 0 0.090250097671144378 0.38673250505634771 0 0.1099346696059782 0.40357174239203969 0 0.1041449334816663 0.37982107046604913 0 0.090250097671144378 0.38673250505634771 0 0.1085393961027146 0.36775037291471058 0 0.090250097671144378 0.38673250505634771 0 0.091810931883494512 0.40447089407953712 0 0.1099346696059782 0.40357174239203969 0 0.1099346696059782 0.40357174239203969 0 0.1041449334816663 0.37982107046604913 0 0.1008747293741956 0.35584703018256092 0 0.1014074254065277 0.33769573427156702 0 0.085141682516099715 0.34940856279574239 0 0.090250097671144378 0.38673250505634771 0 0.093793899272120368 0.3702902352272468 0 0.1085393961027146 0.36775037291471058 0 0.1008747293741956 0.35584703018256092 0 0.093793899272120368 0.3702902352272468 0 0.1085393961027146 0.36775037291471058 0 0.1204604825047406 0.37892564166567672 0 0.1085393961027146 0.36775037291471058 0 0.1268286945342782 0.34876824077306712 0 0.1008747293741956 0.35584703018256092 0 0.1085393961027146 0.36775037291471058 0 0.1268286945342782 0.34876824077306712 0 0.1008747293741956 0.35584703018256092 0 0.1014074254065277 0.33769573427156702 0 0.1268286945342782 0.34876824077306712 0 0.1085393961027146 0.36775037291471058 0 0.1268286945342782 0.34876824077306712 0 0.11742955627204429 0.32262587005418342 0 0.1014074254065277 0.33769573427156702 0 0.1268286945342782 0.34876824077306712 0 0.11742955627204429 0.32262587005418342 0 0.1268286945342782 0.34876824077306712 0 0.11742955627204429 0.32262587005418342 0 0.096401213543366851 0.31385639999668541 0 0.1014074254065277 0.33769573427156702 0 0.1014074254065277 0.33769573427156702 0 0.081061117313629708 0.33023852514946439 0 0.085141682516099715 0.34940856279574239 0 0.096401213543366851 0.31385639999668541 0 0.081061117313629708 0.33023852514946439 0 0.077707554588060987 0.30888588074748591 0 0.096401213543366851 0.31385639999668541 0 0.1014074254065277 0.33769573427156702 0 0.081061117313629708 0.33023852514946439 0 0.081061117313629708 0.33023852514946439 0 0.057068511748758953 0.32319371772198818 0 0.077707554588060987 0.30888588074748591 0 0.081061117313629708 0.33023852514946439 0 0.067330627371442964 0.34662889655169421 0 0.057068511748758953 0.32319371772198818 0 0.081061117313629708 0.33023852514946439 0 0.067330627371442964 0.34662889655169421 0 0.085141682516099715 0.34940856279574239 0 0.067330627371442964 0.34662889655169421 0 0.072555667784044584 0.36361106693758749 0 0.057255003418201111 0.35991564836484019 0 0.067330627371442964 0.34662889655169421 0 0.085141682516099715 0.34940856279574239 0 0.072555667784044584 0.36361106693758749 0 0.1008747293741956 0.35584703018256092 0 0.085141682516099715 0.34940856279574239 0 0.08646754961236075 0.36349736826850232 0 0.085141682516099715 0.34940856279574239 0 0.08646754961236075 0.36349736826850232 0 0.072555667784044584 0.36361106693758749 0 0.077842876747023823 0.37944682507910549 0 0.093793899272120368 0.3702902352272468 0 0.08646754961236075 0.36349736826850232 0 0.077842876747023823 0.37944682507910549 0 0.08646754961236075 0.36349736826850232 0 0.072555667784044584 0.36361106693758749 0 0.1008747293741956 0.35584703018256092 0 0.093793899272120368 0.3702902352272468 0 0.08646754961236075 0.36349736826850232 0 0.061825598233676921 0.37716931364991602 0 0.077842876747023823 0.37944682507910549 0 0.072555667784044584 0.36361106693758749 0 0.061825598233676921 0.37716931364991602 0 0.072555667784044584 0.36361106693758749 0 0.057255003418201111 0.35991564836484019 0 0.061825598233676921 0.37716931364991602 0 0.057255003418201111 0.35991564836484019 0 0.042693651161079892 0.36811898806018878 0 0.067330627371442964 0.34662889655169421 0 0.057255003418201111 0.35991564836484019 0 0.042090027205151953 0.3417167320765957 0 0.057255003418201111 0.35991564836484019 0 0.042693651161079892 0.36811898806018878 0 0.042090027205151953 0.3417167320765957 0 0.042693651161079892 0.36811898806018878 0 0.03061106429017111 0.35592358166635418 0 0.042090027205151953 0.3417167320765957 0 0.042693651161079892 0.36811898806018878 0 0.019212138403950332 0.36788062739350891 0 0.03061106429017111 0.35592358166635418 0 0.031359447530504451 0.38249814471913868 0 0.042693651161079892 0.36811898806018878 0 0.019212138403950332 0.36788062739350891 0 0.03061106429017111 0.35592358166635418 0 0.01576885959242524 0.34705835845987998 0 0.042090027205151953 0.3417167320765957 0 0.019212138403950332 0.36788062739350891 0 0.03061106429017111 0.35592358166635418 0 0.01576885959242524 0.34705835845987998 0 0.019212138403950332 0.36788062739350891 0 0.01576885959242524 0.34705835845987998 0 0.00010098149986300999 0.35959132194679128 0 -0.01357146079415167 0.34498746752273712 0 0.01576885959242524 0.34705835845987998 0 0.00010098149986300999 0.35959132194679128 0 -0.0025797780880571219 0.37543989063062583 0 0.019212138403950332 0.36788062739350891 0 0.00010098149986300999 0.35959132194679128 0 -0.0069271662384688534 0.32716903818752691 0 0.0137752909369222 0.32368727540849629 0 0.0024190994722557819 0.31945267763882002 0 0.0137752909369222 0.32368727540849629 0 0.0024190994722557819 0.31945267763882002 0 0.01058843593493302 0.31125572211224212 0 0.0024190994722557819 0.31945267763882002 0 0.00040687792626042772 0.30750086324505738 0 0.01058843593493302 0.31125572211224212 0 -0.0069271662384688534 0.32716903818752691 0 0.01576885959242524 0.34705835845987998 0 -0.0069271662384688534 0.32716903818752691 0 0.01576885959242524 0.34705835845987998 0 0.0137752909369222 0.32368727540849629 0 0.01576885959242524 0.34705835845987998 0 0.032173658674877453 0.32510589848809879 0 0.042090027205151953 0.3417167320765957 0 0.01576885959242524 0.34705835845987998 0 0.0137752909369222 0.32368727540849629 0 0.032173658674877453 0.32510589848809879 0 0.0137752909369222 0.32368727540849629 0 0.032173658674877453 0.32510589848809879 0 0.023557618561838481 0.30618962391541749 0 0.0137752909369222 0.32368727540849629 0 0.023557618561838481 0.30618962391541749 0 0.01058843593493302 0.31125572211224212 0 0.032173658674877453 0.32510589848809879 0 0.057068511748758953 0.32319371772198818 0 0.040781644004167943 0.30878968334621509 0 0.032173658674877453 0.32510589848809879 0 0.040781644004167943 0.30878968334621509 0 0.023557618561838481 0.30618962391541749 0 0.032173658674877453 0.32510589848809879 0 0.042090027205151953 0.3417167320765957 0 0.057068511748758953 0.32319371772198818 0 0.067330627371442964 0.34662889655169421 0 0.042090027205151953 0.3417167320765957 0 0.057068511748758953 0.32319371772198818 0 0.057068511748758953 0.32319371772198818 0 0.057048205294079501 0.29686310636433738 0 0.040781644004167943 0.30878968334621509 0 0.057048205294079501 0.29686310636433738 0 0.047464349953929903 0.27729368470984078 0 0.063357245380388019 0.27723151661587719 0 0.057048205294079501 0.29686310636433738 0 0.037186906265879761 0.28963558251086219 0 0.047464349953929903 0.27729368470984078 0 0.057048205294079501 0.29686310636433738 0 0.037186906265879761 0.28963558251086219 0 0.040781644004167943 0.30878968334621509 0 0.037186906265879761 0.28963558251086219 0 0.040781644004167943 0.30878968334621509 0 0.023557618561838481 0.30618962391541749 0 0.023557618561838481 0.30618962391541749 0 0.01058843593493302 0.31125572211224212 0 0.012783292777388201 0.29944817035341897 0 0.037186906265879761 0.28963558251086219 0 0.023557618561838481 0.30618962391541749 0 0.020591429537694331 0.28430710090209932 0 0.023557618561838481 0.30618962391541749 0 0.020591429537694331 0.28430710090209932 0 0.012783292777388201 0.29944817035341897 0 0.037186906265879761 0.28963558251086219 0 0.020591429537694331 0.28430710090209932 0 0.034784514445689807 0.27162365012845252 0 0.0077409220909879853 0.28783268830258729 0 0.00023828875049646691 0.29068609127308842 0 0.00040687792626042772 0.30750086324505738 0 0.020591429537694331 0.28430710090209932 0 0.0077409220909879853 0.28783268830258729 0 0.012783292777388201 0.29944817035341897 0 0.020591429537694331 0.28430710090209932 0 0.0077409220909879853 0.28783268830258729 0 0.0097884825013868724 0.27483819167124618 0 0.0077409220909879853 0.28783268830258729 0 0.00023828875049646691 0.29068609127308842 0 0.002887592750890238 0.28068936214897089 0 0.0077409220909879853 0.28783268830258729 0 0.00040687792626042772 0.30750086324505738 0 0.0077409220909879853 0.28783268830258729 0 0.00040687792626042772 0.30750086324505738 0 0.012783292777388201 0.29944817035341897 0 0.00040687792626042772 0.30750086324505738 0 0.01058843593493302 0.31125572211224212 0 0.012783292777388201 0.29944817035341897 0 0.0064432837103905929 0.2604142078277335 0 0.020615859663150129 0.26488169421520202 0 0.016055117902983571 0.25266819790005379 0 0.0046331383972979022 0.2492808563884113 0 0.0064432837103905929 0.2604142078277335 0 0.016055117902983571 0.25266819790005379 0 -0.0082229864918420149 0.25576800303731828 0 0.0046331383972979022 0.2492808563884113 0 0.0064432837103905929 0.2604142078277335 0 -0.00336591907935764 0.2747325252685191 0 -0.0021114681099658771 0.26598803976022878 0 0.0097884825013868724 0.27483819167124618 0 -0.0021114681099658771 0.26598803976022878 0 0.0064432837103905929 0.2604142078277335 0 0.0097884825013868724 0.27483819167124618 0 0.0077409220909879853 0.28783268830258729 0 0.002887592750890238 0.28068936214897089 0 0.0097884825013868724 0.27483819167124618 0 -0.00336591907935764 0.2747325252685191 0 0.002887592750890238 0.28068936214897089 0 0.0097884825013868724 0.27483819167124618 0 0.0064432837103905929 0.2604142078277335 0 0.0097884825013868724 0.27483819167124618 0 0.020615859663150129 0.26488169421520202 0 0.020591429537694331 0.28430710090209932 0 0.0097884825013868724 0.27483819167124618 0 0.020615859663150129 0.26488169421520202 0 0.020591429537694331 0.28430710090209932 0 0.020615859663150129 0.26488169421520202 0 0.034784514445689807 0.27162365012845252 0 0.020615859663150129 0.26488169421520202 0 0.032595331706476757 0.25140160337769979 0 0.034784514445689807 0.27162365012845252 0 0.020615859663150129 0.26488169421520202 0 0.016055117902983571 0.25266819790005379 0 0.032595331706476757 0.25140160337769979 0 0.032595331706476757 0.25140160337769979 0 0.034784514445689807 0.27162365012845252 0 0.050253209547008001 0.26222223505501091 0 0.055174687904551233 0.24719935031237741 0 0.032595331706476757 0.25140160337769979 0 0.050253209547008001 0.26222223505501091 0 0.037186906265879761 0.28963558251086219 0 0.034784514445689807 0.27162365012845252 0 0.047464349953929903 0.27729368470984078 0 0.034784514445689807 0.27162365012845252 0 0.047464349953929903 0.27729368470984078 0 0.050253209547008001 0.26222223505501091 0 0.047464349953929903 0.27729368470984078 0 0.050253209547008001 0.26222223505501091 0 0.063357245380388019 0.27723151661587719 0 0.050253209547008001 0.26222223505501091 0 0.069962495914500086 0.2590389612873818 0 0.063357245380388019 0.27723151661587719 0 0.055174687904551233 0.24719935031237741 0 0.050253209547008001 0.26222223505501091 0 0.069962495914500086 0.2590389612873818 0 0.055174687904551233 0.24719935031237741 0 0.075821217643252226 0.24385340551760959 0 0.069962495914500086 0.2590389612873818 0 0.069962495914500086 0.2590389612873818 0 0.091416144528262286 0.25027325277205392 0 0.080994262563986563 0.27378632261614488 0 0.075821217643252226 0.24385340551760959 0 0.069962495914500086 0.2590389612873818 0 0.091416144528262286 0.25027325277205392 0 0.091416144528262286 0.25027325277205392 0 0.080994262563986563 0.27378632261614488 0 0.098631279747585177 0.27034112861641268 0 0.080994262563986563 0.27378632261614488 0 0.089356737325356775 0.29202472911086991 0 0.098631279747585177 0.27034112861641268 0 0.080994262563986563 0.27378632261614488 0 0.098631279747585177 0.27034112861641268 0 0.080994262563986563 0.27378632261614488 0 0.063357245380388019 0.27723151661587719 0 0.069962495914500086 0.2590389612873818 0 0.080994262563986563 0.27378632261614488 0 0.063357245380388019 0.27723151661587719 0 0.080994262563986563 0.27378632261614488 0 0.063357245380388019 0.27723151661587719 0 0.074375695499327862 0.28879514335319179 0 0.057048205294079501 0.29686310636433738 0 0.063357245380388019 0.27723151661587719 0 0.074375695499327862 0.28879514335319179 0 0.057048205294079501 0.29686310636433738 0 0.074375695499327862 0.28879514335319179 0 0.077707554588060987 0.30888588074748591 0 0.057068511748758953 0.32319371772198818 0 0.057048205294079501 0.29686310636433738 0 0.077707554588060987 0.30888588074748591 0 0.096401213543366851 0.31385639999668541 0 0.077707554588060987 0.30888588074748591 0 0.089356737325356775 0.29202472911086991 0 0.074375695499327862 0.28879514335319179 0 0.077707554588060987 0.30888588074748591 0 0.089356737325356775 0.29202472911086991 0 0.080994262563986563 0.27378632261614488 0 0.074375695499327862 0.28879514335319179 0 0.089356737325356775 0.29202472911086991 0 0.10803041800981419 0.29648349933529822 0 0.098631279747585177 0.27034112861641268 0 0.089356737325356775 0.29202472911086991 0 0.10803041800981419 0.29648349933529822 0 0.098631279747585177 0.27034112861641268 0 0.10803041800981419 0.29648349933529822 0 0.1162774091329136 0.28128722317357019 0 0.098631279747585177 0.27034112861641268 0 0.096401213543366851 0.31385639999668541 0 0.089356737325356775 0.29202472911086991 0 0.10803041800981419 0.29648349933529822 0 0.11742955627204429 0.32262587005418342 0 0.096401213543366851 0.31385639999668541 0 0.10803041800981419 0.29648349933529822 0 0.11742955627204429 0.32262587005418342 0 0.10803041800981419 0.29648349933529822 0 0.1287119592331265 0.29594507888656651 0 0.11742955627204429 0.32262587005418342 0 0.10803041800981419 0.29648349933529822 0 0.1162774091329136 0.28128722317357019 0 0.1286374702200879 0.27698683588629341 0 0.1287119592331265 0.29594507888656651 0 0.10803041800981419 0.29648349933529822 0 0.1162774091329136 0.28128722317357019 0 0.1287119592331265 0.29594507888656651 0 0.1162774091329136 0.28128722317357019 0 0.1173759184539549 0.26667957314328011 0 0.1286374702200879 0.27698683588629341 0 0.1162774091329136 0.28128722317357019 0 0.1173759184539549 0.26667957314328011 0 0.098631279747585177 0.27034112861641268 0 0.1104005851082846 0.24926343572747581 0 0.1291262938889795 0.24484692917772291 0 0.1238044069681619 0.25619403221051668 0 0.1104005851082846 0.24926343572747581 0 0.1173759184539549 0.26667957314328011 0 0.1238044069681619 0.25619403221051668 0 0.1104005851082846 0.24926343572747581 0 0.091416144528262286 0.25027325277205392 0 0.098631279747585177 0.27034112861641268 0 0.1104005851082846 0.24926343572747581 0 0.1173759184539549 0.26667957314328011 0 0.098631279747585177 0.27034112861641268 0 0.091416144528262286 0.25027325277205392 0 0.098631279747585177 0.27034112861641268 0 0.1173759184539549 0.26667957314328011 0 0.098631279747585177 0.27034112861641268 0 0.14773601738300879 0.27380442830076579 0 0.13612055716032451 0.26301801767014671 0 0.14330784982474001 0.28169059631915178 0 0.14781248236624839 0.26651730794136019 0 0.14773601738300879 0.27380442830076579 0 0.13612055716032451 0.26301801767014671 0 0.14773601738300879 0.27380442830076579 0 0.15576025291564741 0.27697356522727451 0 0.14330784982474001 0.28169059631915178 0 0.14773601738300879 0.27380442830076579 0 0.15576025291564741 0.27697356522727451 0 0.15752601746040901 0.26793750895174712 0 0.14781248236624839 0.26651730794136019 0 0.14773601738300879 0.27380442830076579 0 0.15752601746040901 0.26793750895174712 0 0.14781248236624839 0.26651730794136019 0 0.14905394266852701 0.26049162549820359 0 0.170216332229255 0.25254965236963028 0 0.15667921273925031 0.2491702646407091 0 0.14905394266852701 0.26049162549820359 0 0.14870354901320501 0.25104417079722569 0 0.14905394266852701 0.26049162549820359 0 0.14870354901320501 0.25104417079722569 0 0.14174150163666199 0.25241347825078791 0 0.14781248236624839 0.26651730794136019 0 0.14905394266852701 0.26049162549820359 0 0.13612055716032451 0.26301801767014671 0 0.14905394266852701 0.26049162549820359 0 0.13612055716032451 0.26301801767014671 0 0.14905394266852701 0.26049162549820359 0 0.14174150163666199 0.25241347825078791 0 0.13612055716032451 0.26301801767014671 0 0.1173759184539549 0.26667957314328011 0 0.13612055716032451 0.26301801767014671 0 0.1291262938889795 0.24484692917772291 0 0.13612055716032451 0.26301801767014671 0 0.1291262938889795 0.24484692917772291 0 0.1238044069681619 0.25619403221051668 0 0.13612055716032451 0.26301801767014671 0 0.1173759184539549 0.26667957314328011 0 0.1238044069681619 0.25619403221051668 0 0.13612055716032451 0.26301801767014671 0 0.1291262938889795 0.24484692917772291 0 0.14174150163666199 0.25241347825078791 0 0.13612055716032451 0.26301801767014671 0 0.13612055716032451 0.26301801767014671 0 0.14330784982474001 0.28169059631915178 0 0.1173759184539549 0.26667957314328011 0 0.13612055716032451 0.26301801767014671 0 0.1286374702200879 0.27698683588629341 0 0.13612055716032451 0.26301801767014671 0 0.1286374702200879 0.27698683588629341 0 0.14330784982474001 0.28169059631915178 0 0.1286374702200879 0.27698683588629341 0 0.1287119592331265 0.29594507888656651 0 0.14330784982474001 0.28169059631915178 0 0.11742955627204429 0.32262587005418342 0 0.1287119592331265 0.29594507888656651 0 0.13831001242192059 0.31249120282671899 0 0.1287119592331265 0.29594507888656651 0 0.13831001242192059 0.31249120282671899 0 0.1504951424891553 0.3003631749681569 0 0.13831001242192059 0.31249120282671899 0 0.1504951424891553 0.3003631749681569 0 0.15410294796675161 0.32362998968838469 0 0.1287119592331265 0.29594507888656651 0 0.1504951424891553 0.3003631749681569 0 0.14330784982474001 0.28169059631915178 0 0.1504951424891553 0.3003631749681569 0 0.14330784982474001 0.28169059631915178 0 0.15782329514863189 0.28823705333451038 0 0.1504951424891553 0.3003631749681569 0 0.14330784982474001 0.28169059631915178 0 0.15576025291564741 0.27697356522727451 0 0.14330784982474001 0.28169059631915178 0 0.15782329514863189 0.28823705333451038 0 0.15782329514863189 0.28823705333451038 0 0.16737840267072249 0.29781330857866389 0 0.16793909993840719 0.2807477903756686 0 0.1504951424891553 0.3003631749681569 0 0.15782329514863189 0.28823705333451038 0 0.16737840267072249 0.29781330857866389 0 0.15576025291564741 0.27697356522727451 0 0.15782329514863189 0.28823705333451038 0 0.16793909993840719 0.2807477903756686 0 0.16737840267072249 0.29781330857866389 0 0.1764708392495821 0.28923262322416621 0 0.16793909993840719 0.2807477903756686 0 0.1504951424891553 0.3003631749681569 0 0.16477088325705061 0.31171196458532369 0 0.15410294796675161 0.32362998968838469 0 0.1504951424891553 0.3003631749681569 0 0.16737840267072249 0.29781330857866389 0 0.16477088325705061 0.31171196458532369 0 0.16737840267072249 0.29781330857866389 0 0.16477088325705061 0.31171196458532369 0 0.17871106552661351 0.3109079043486998 0 0.18611204654760621 0.29740105962672819 0 0.17871106552661351 0.3109079043486998 0 0.19493791649216591 0.30978448066289721 0 0.16737840267072249 0.29781330857866389 0 0.18611204654760621 0.29740105962672819 0 0.17871106552661351 0.3109079043486998 0 0.1764708392495821 0.28923262322416621 0 0.1844538078415926 0.28096833431560408 0 0.16793909993840719 0.2807477903756686 0 0.16737840267072249 0.29781330857866389 0 0.18611204654760621 0.29740105962672819 0 0.1764708392495821 0.28923262322416621 0 0.18611204654760621 0.29740105962672819 0 0.1764708392495821 0.28923262322416621 0 0.1844538078415926 0.28096833431560408 0 0.1844538078415926 0.28096833431560408 0 0.1804175356010769 0.26588735699496358 0 0.16793909993840719 0.2807477903756686 0 0.1844538078415926 0.28096833431560408 0 0.1804175356010769 0.26588735699496358 0 0.19750820831335031 0.26721440010111958 0 0.1804175356010769 0.26588735699496358 0 0.16793909993840719 0.2807477903756686 0 0.16623500471731109 0.26893569724049959 0 0.15576025291564741 0.27697356522727451 0 0.16623500471731109 0.26893569724049959 0 0.15752601746040901 0.26793750895174712 0 0.15576025291564741 0.27697356522727451 0 0.16793909993840719 0.2807477903756686 0 0.16623500471731109 0.26893569724049959 0 0.16623500471731109 0.26893569724049959 0 0.15752601746040901 0.26793750895174712 0 0.170216332229255 0.25254965236963028 0 0.14781248236624839 0.26651730794136019 0 0.15752601746040901 0.26793750895174712 0 0.170216332229255 0.25254965236963028 0 0.15667921273925031 0.2491702646407091 0 0.14905394266852701 0.26049162549820359 0 0.170216332229255 0.25254965236963028 0 0.14781248236624839 0.26651730794136019 0 0.170216332229255 0.25254965236963028 0 0.19262018209226159 0.23858199679790029 0 0.1804175356010769 0.26588735699496358 0 0.170216332229255 0.25254965236963028 0 0.1804175356010769 0.26588735699496358 0 0.16623500471731109 0.26893569724049959 0 0.170216332229255 0.25254965236963028 0 0.19262018209226159 0.23858199679790029 0 0.1804175356010769 0.26588735699496358 0 0.19750820831335031 0.26721440010111958 0 0.19262018209226159 0.23858199679790029 0 0.19750820831335031 0.26721440010111958 0 0.21288933004011751 0.25067315717036709 0 0.1844538078415926 0.28096833431560408 0 0.19750820831335031 0.26721440010111958 0 0.20718504583883121 0.29400990176276282 0 0.19750820831335031 0.26721440010111958 0 0.21387825975007499 0.27187701073072279 0 0.20718504583883121 0.29400990176276282 0 0.19750820831335031 0.26721440010111958 0 0.21387825975007499 0.27187701073072279 0 0.21288933004011751 0.25067315717036709 0 0.21387825975007499 0.27187701073072279 0 0.21288933004011751 0.25067315717036709 0 0.22777470428058641 0.26237827977223421 0 0.23151539828368339 0.23964724469733789 0 0.21288933004011751 0.25067315717036709 0 0.22777470428058641 0.26237827977223421 0 0.23151539828368339 0.23964724469733789 0 0.22777470428058641 0.26237827977223421 0 0.21387825975007499 0.27187701073072279 0 0.22777470428058641 0.26237827977223421 0 0.2240340102774894 0.28510931484713042 0 0.22777470428058641 0.26237827977223421 0 0.2394430232313354 0.27878320156261033 0 0.2240340102774894 0.28510931484713042 0 0.22777470428058641 0.26237827977223421 0 0.2240340102774894 0.28510931484713042 0 0.22777470428058641 0.26237827977223421 0 0.2394430232313354 0.27878320156261033 0 0.24577325359629021 0.26337587950370012 0 0.2394430232313354 0.27878320156261033 0 0.24577325359629021 0.26337587950370012 0 0.25679894473159648 0.28317100711588039 0 0.23151539828368339 0.23964724469733789 0 0.22777470428058641 0.26237827977223421 0 0.24577325359629021 0.26337587950370012 0 0.23151539828368339 0.23964724469733789 0 0.24577325359629021 0.26337587950370012 0 0.25781508844958267 0.24996181240754781 0 0.2394430232313354 0.27878320156261033 0 0.24099756625931831 0.30060543002137002 0 0.25679894473159648 0.28317100711588039 0 0.2394430232313354 0.27878320156261033 0 0.24099756625931831 0.30060543002137002 0 0.2240340102774894 0.28510931484713042 0 0.2240340102774894 0.28510931484713042 0 0.2202933162743925 0.30784034992202658 0 0.24099756625931831 0.30060543002137002 0 0.2240340102774894 0.28510931484713042 0 0.2202933162743925 0.30784034992202658 0 0.24099756625931831 0.30060543002137002 0 0.2202933162743925 0.30784034992202658 0 0.2306058070493921 0.31874431137540749 0 0.2202933162743925 0.30784034992202658 0 0.2088249947528435 0.31197904183405689 0 0.20718504583883121 0.29400990176276282 0 0.2088249947528435 0.31197904183405689 0 0.20718504583883121 0.29400990176276282 0 0.19493791649216591 0.30978448066289721 0 0.21387825975007499 0.27187701073072279 0 0.2240340102774894 0.28510931484713042 0 0.20718504583883121 0.29400990176276282 0 0.2240340102774894 0.28510931484713042 0 0.2202933162743925 0.30784034992202658 0 0.20718504583883121 0.29400990176276282 0 0.18611204654760621 0.29740105962672819 0 0.1844538078415926 0.28096833431560408 0 0.20718504583883121 0.29400990176276282 0 0.18611204654760621 0.29740105962672819 0 0.20718504583883121 0.29400990176276282 0 0.19493791649216591 0.30978448066289721 0 0.19493791649216591 0.30978448066289721 0 0.19966599285406009 0.319781817265826 0 0.18733384557831251 0.32377181461202698 0 0.19966599285406009 0.319781817265826 0 0.19535084087276949 0.33103506824915119 0 0.21124831491565491 0.32280786962984093 0 0.19966599285406009 0.319781817265826 0 0.19535084087276949 0.33103506824915119 0 0.18733384557831251 0.32377181461202698 0 0.2088249947528435 0.31197904183405689 0 0.19493791649216591 0.30978448066289721 0 0.19966599285406009 0.319781817265826 0 0.19535084087276949 0.33103506824915119 0 0.19734744892265049 0.34933497598353491 0 0.1808188272862139 0.33741707266078169 0 0.19535084087276949 0.33103506824915119 0 0.21124831491565491 0.32280786962984093 0 0.19734744892265049 0.34933497598353491 0 0.19535084087276949 0.33103506824915119 0 0.1808188272862139 0.33741707266078169 0 0.18733384557831251 0.32377181461202698 0 0.21124831491565491 0.32280786962984093 0 0.21921462589760829 0.34300104014029431 0 0.19734744892265049 0.34933497598353491 0 0.21124831491565491 0.32280786962984093 0 0.21980714712978919 0.32748064380644609 0 0.21921462589760829 0.34300104014029431 0 0.21124831491565491 0.32280786962984093 0 0.19734744892265049 0.34933497598353491 0 0.2088249947528435 0.31197904183405689 0 0.19966599285406009 0.319781817265826 0 0.21124831491565491 0.32280786962984093 0 0.21124831491565491 0.32280786962984093 0 0.21815591602441439 0.31777044331355558 0 0.21980714712978919 0.32748064380644609 0 0.2202933162743925 0.30784034992202658 0 0.2088249947528435 0.31197904183405689 0 0.21815591602441439 0.31777044331355558 0 0.2088249947528435 0.31197904183405689 0 0.21124831491565491 0.32280786962984093 0 0.21815591602441439 0.31777044331355558 0 0.2306058070493921 0.31874431137540749 0 0.21980714712978919 0.32748064380644609 0 0.23773367206368501 0.33438341600633181 0 0.2202933162743925 0.30784034992202658 0 0.21815591602441439 0.31777044331355558 0 0.2306058070493921 0.31874431137540749 0 0.21815591602441439 0.31777044331355558 0 0.2306058070493921 0.31874431137540749 0 0.21980714712978919 0.32748064380644609 0 0.21980714712978919 0.32748064380644609 0 0.23773367206368501 0.33438341600633181 0 0.23922371798326161 0.34991401697808022 0 0.21980714712978919 0.32748064380644609 0 0.21921462589760829 0.34300104014029431 0 0.23213441296463699 0.34726174380789521 0 0.21980714712978919 0.32748064380644609 0 0.23922371798326161 0.34991401697808022 0 0.23213441296463699 0.34726174380789521 0 0.21980714712978919 0.32748064380644609 0 0.23922371798326161 0.34991401697808022 0 0.23773367206368501 0.33438341600633181 0 0.2439767593245171 0.34238161516990812 0 0.23922371798326161 0.34991401697808022 0 0.23773367206368501 0.33438341600633181 0 0.2439767593245171 0.34238161516990812 0 0.25139693232689619 0.33891402848063062 0 0.2439767593245171 0.34238161516990812 0 0.24755271492422551 0.34631499921458991 0 0.25139693232689619 0.33891402848063062 0 0.23773367206368501 0.33438341600633181 0 0.24576530084150769 0.32350391423014963 0 0.25139693232689619 0.33891402848063062 0 0.2306058070493921 0.31874431137540749 0 0.23773367206368501 0.33438341600633181 0 0.24576530084150769 0.32350391423014963 0 0.24099756625931831 0.30060543002137002 0 0.2306058070493921 0.31874431137540749 0 0.24576530084150769 0.32350391423014963 0 0.2382378271114686 0.37209770748928639 0 0.23343432111844559 0.36119176301544098 0 0.2485964831112592 0.38058814829064991 0 0.23989421465196009 0.36332211484924132 0 0.23343432111844559 0.36119176301544098 0 0.2485964831112592 0.38058814829064991 0 0.2463530594528098 0.3662415019669058 0 0.23922371798326161 0.34991401697808022 0 0.25864028883673479 0.37234739014971369 0 0.23989421465196009 0.36332211484924132 0 0.2463530594528098 0.3662415019669058 0 0.2485964831112592 0.38058814829064991 0 0.23989421465196009 0.36332211484924132 0 0.2463530594528098 0.3662415019669058 0 0.23922371798326161 0.34991401697808022 0 0.23989421465196009 0.36332211484924132 0 0.2485964831112592 0.38058814829064991 0 0.23343432111844559 0.36119176301544098 0 0.2485964831112592 0.38058814829064991 0 0.23922371798326161 0.34991401697808022 0 0.25864028883673479 0.37234739014971369 0 0.2382378271114686 0.37209770748928639 0 0.23343432111844559 0.36119176301544098 0 0.23156836015915999 0.3690041756726537 0 0.2382378271114686 0.37209770748928639 0 0.23415396269127539 0.37399708864914599 0 0.23156836015915999 0.3690041756726537 0 0.2382378271114686 0.37209770748928639 0 0.23415396269127539 0.37399708864914599 0 0.2378642500211838 0.37523058915309881 0 0.2382378271114686 0.37209770748928639 0 0.24177581161690209 0.37731624950319431 0 0.2378642500211838 0.37523058915309881 0 0.23989421465196009 0.36332211484924132 0 0.23922371798326161 0.34991401697808022 0 0.23213441296463699 0.34726174380789521 0 0.24755271492422551 0.34631499921458991 0 0.23922371798326161 0.34991401697808022 0 0.25663739802913282 0.35446151746193483 0 0.23989421465196009 0.36332211484924132 0 0.23213441296463699 0.34726174380789521 0 0.23989421465196009 0.36332211484924132 0 0.23213441296463699 0.34726174380789521 0 0.23343432111844559 0.36119176301544098 0 0.2439767593245171 0.34238161516990812 0 0.24755271492422551 0.34631499921458991 0 0.23922371798326161 0.34991401697808022 0 0.21921462589760829 0.34300104014029431 0 0.2217697715805195 0.35578108987909812 0 0.23343432111844559 0.36119176301544098 0 0.21921462589760829 0.34300104014029431 0 0.23213441296463699 0.34726174380789521 0 0.23343432111844559 0.36119176301544098 0 0.21921462589760829 0.34300104014029431 0 0.23343432111844559 0.36119176301544098 0 0.2217697715805195 0.35578108987909812 0 0.22562243329422141 0.36345679807121911 0 0.21845436622931719 0.36251691949376791 0 0.22562243329422141 0.36345679807121911 0 0.22280275708478309 0.36888096731161008 0 0.21845436622931719 0.36251691949376791 0 0.2217697715805195 0.35578108987909812 0 0.22562243329422141 0.36345679807121911 0 0.23343432111844559 0.36119176301544098 0 0.22562243329422141 0.36345679807121911 0 0.23156836015915999 0.3690041756726537 0 0.22280275708478309 0.36888096731161008 0 0.22562243329422141 0.36345679807121911 0 0.23343432111844559 0.36119176301544098 0 0.23156836015915999 0.3690041756726537 0 0.23156836015915999 0.3690041756726537 0 0.22801284547932321 0.37474014890232349 0 0.22280275708478309 0.36888096731161008 0 0.23415396269127539 0.37399708864914599 0 0.23156836015915999 0.3690041756726537 0 0.22801284547932321 0.37474014890232349 0 0.22801284547932321 0.37474014890232349 0 0.22280275708478309 0.36888096731161008 0 0.22009498976043909 0.37784820593301949 0 0.2121733818441435 0.36838087284269377 0 0.20177889676646171 0.37084711764169342 0 0.2096106718464916 0.38453756288780871 0 0.22280275708478309 0.36888096731161008 0 0.2121733818441435 0.36838087284269377 0 0.22009498976043909 0.37784820593301949 0 0.22280275708478309 0.36888096731161008 0 0.2121733818441435 0.36838087284269377 0 0.21845436622931719 0.36251691949376791 0 0.2121733818441435 0.36838087284269377 0 0.21845436622931719 0.36251691949376791 0 0.2099034873429183 0.35608486936421818 0 0.2121733818441435 0.36838087284269377 0 0.2099034873429183 0.35608486936421818 0 0.20177889676646171 0.37084711764169342 0 0.21921462589760829 0.34300104014029431 0 0.2099034873429183 0.35608486936421818 0 0.19734744892265049 0.34933497598353491 0 0.21921462589760829 0.34300104014029431 0 0.2217697715805195 0.35578108987909812 0 0.2099034873429183 0.35608486936421818 0 0.2217697715805195 0.35578108987909812 0 0.21845436622931719 0.36251691949376791 0 0.2099034873429183 0.35608486936421818 0 0.2099034873429183 0.35608486936421818 0 0.19734744892265049 0.34933497598353491 0 0.20177889676646171 0.37084711764169342 0 0.19734744892265049 0.34933497598353491 0 0.18344658292964611 0.37586208233722879 0 0.19734744892265049 0.34933497598353491 0 0.20177889676646171 0.37084711764169342 0 0.18344658292964611 0.37586208233722879 0 0.19734744892265049 0.34933497598353491 0 0.17136295939728879 0.3563111339367232 0 0.18344658292964611 0.37586208233722879 0 0.17136295939728879 0.3563111339367232 0 0.14624526928210091 0.35321473163440742 0 0.15858948317248511 0.37907885053621709 0 0.17136295939728879 0.3563111339367232 0 0.15858948317248511 0.37907885053621709 0 0.18344658292964611 0.37586208233722879 0 0.17136295939728879 0.3563111339367232 0 0.1623706343692532 0.3392043276346966 0 0.14624526928210091 0.35321473163440742 0 0.17136295939728879 0.3563111339367232 0 0.1808188272862139 0.33741707266078169 0 0.1623706343692532 0.3392043276346966 0 0.19734744892265049 0.34933497598353491 0 0.17136295939728879 0.3563111339367232 0 0.1808188272862139 0.33741707266078169 0 0.1808188272862139 0.33741707266078169 0 0.18733384557831251 0.32377181461202698 0 0.17173329861382311 0.3249647980265587 0 0.17871106552661351 0.3109079043486998 0 0.19493791649216591 0.30978448066289721 0 0.18733384557831251 0.32377181461202698 0 0.17871106552661351 0.3109079043486998 0 0.18733384557831251 0.32377181461202698 0 0.17173329861382311 0.3249647980265587 0 0.16477088325705061 0.31171196458532369 0 0.17173329861382311 0.3249647980265587 0 0.15410294796675161 0.32362998968838469 0 0.16477088325705061 0.31171196458532369 0 0.17871106552661351 0.3109079043486998 0 0.17173329861382311 0.3249647980265587 0 0.1808188272862139 0.33741707266078169 0 0.17173329861382311 0.3249647980265587 0 0.1623706343692532 0.3392043276346966 0 0.17173329861382311 0.3249647980265587 0 0.1623706343692532 0.3392043276346966 0 0.15410294796675161 0.32362998968838469 0 0.14947527932452909 0.33619991938588578 0 0.1398201214730847 0.34126397633373928 0 0.14624526928210091 0.35321473163440742 0 0.1623706343692532 0.3392043276346966 0 0.14947527932452909 0.33619991938588578 0 0.14624526928210091 0.35321473163440742 0 0.1623706343692532 0.3392043276346966 0 0.14947527932452909 0.33619991938588578 0 0.15410294796675161 0.32362998968838469 0 0.14947527932452909 0.33619991938588578 0 0.15410294796675161 0.32362998968838469 0 0.14018417775410319 0.32852067141194768 0 0.14947527932452909 0.33619991938588578 0 0.1398201214730847 0.34126397633373928 0 0.14018417775410319 0.32852067141194768 0 0.13831001242192059 0.31249120282671899 0 0.15410294796675161 0.32362998968838469 0 0.14018417775410319 0.32852067141194768 0 0.11742955627204429 0.32262587005418342 0 0.13831001242192059 0.31249120282671899 0 0.14018417775410319 0.32852067141194768 0 0.11742955627204429 0.32262587005418342 0 0.13119799746699809 0.33515731563547041 0 0.1268286945342782 0.34876824077306712 0 0.11742955627204429 0.32262587005418342 0 0.14018417775410319 0.32852067141194768 0 0.13119799746699809 0.33515731563547041 0 0.1398201214730847 0.34126397633373928 0 0.14018417775410319 0.32852067141194768 0 0.13119799746699809 0.33515731563547041 0 0.1398201214730847 0.34126397633373928 0 0.13119799746699809 0.33515731563547041 0 0.1268286945342782 0.34876824077306712 0 0.1268286945342782 0.34876824077306712 0 0.14624526928210091 0.35321473163440742 0 0.13643408000406271 0.37548425886358461 0 0.1398201214730847 0.34126397633373928 0 0.1268286945342782 0.34876824077306712 0 0.14624526928210091 0.35321473163440742 0 0.1204604825047406 0.37892564166567672 0 0.1268286945342782 0.34876824077306712 0 0.13643408000406271 0.37548425886358461 0 0.1268286945342782 0.34876824077306712 0 0.13643408000406271 0.37548425886358461 0 0.14624526928210091 0.35321473163440742 0 0.13643408000406271 0.37548425886358461 0 0.15858948317248511 0.37907885053621709 0 0.14603946547385099 0.40220027695410082 0 0.13643408000406271 0.37548425886358461 0 0.15858948317248511 0.37907885053621709 0 0.14603946547385099 0.40220027695410082 0 0.13643408000406271 0.37548425886358461 0 0.1204604825047406 0.37892564166567672 0 0.13643408000406271 0.37548425886358461 0 0.12754315784636661 0.39588676990331523 0 0.14603946547385099 0.40220027695410082 0 0.13643408000406271 0.37548425886358461 0 0.12754315784636661 0.39588676990331523 0 0.14603946547385099 0.40220027695410082 0 0.12754315784636661 0.39588676990331523 0 0.12702845542110669 0.41033837140729401 0 0.14603946547385099 0.40220027695410082 0 0.12702845542110669 0.41033837140729401 0 0.13590057844904749 0.42271065346898401 0 0.11572440573029009 0.42732241431803042 0 0.12702845542110669 0.41033837140729401 0 0.13590057844904749 0.42271065346898401 0 0.13590057844904749 0.42271065346898401 0 0.13920187430045111 0.43546696136870272 0 0.12756942803528881 0.44165631831583613 0 0.11572440573029009 0.42732241431803042 0 0.13590057844904749 0.42271065346898401 0 0.12756942803528881 0.44165631831583613 0 0.13590057844904749 0.42271065346898401 0 0.13920187430045111 0.43546696136870272 0 0.155644850943638 0.42891629504461731 0 0.13920187430045111 0.43546696136870272 0 0.155644850943638 0.42891629504461731 0 0.14644358948523961 0.44647511774083531 0 0.14603946547385099 0.40220027695410082 0 0.155644850943638 0.42891629504461731 0 0.14603946547385099 0.40220027695410082 0 0.13590057844904749 0.42271065346898401 0 0.155644850943638 0.42891629504461731 0 0.14603946547385099 0.40220027695410082 0 0.155644850943638 0.42891629504461731 0 0.16954571693664161 0.40238918869092288 0 0.155644850943638 0.42891629504461731 0 0.17581623204115959 0.4217968993709445 0 0.16954571693664161 0.40238918869092288 0 0.155644850943638 0.42891629504461731 0 0.16954571693664161 0.40238918869092288 0 0.155644850943638 0.42891629504461731 0 0.17581623204115959 0.4217968993709445 0 0.17887612964645169 0.44000130186789782 0 0.17581623204115959 0.4217968993709445 0 0.18961406947226511 0.41700605628756099 0 0.19173270349682919 0.43082387691323049 0 0.17581623204115959 0.4217968993709445 0 0.19173270349682919 0.43082387691323049 0 0.17887612964645169 0.44000130186789782 0 0.17581623204115959 0.4217968993709445 0 0.18619779790396901 0.40253874412579999 0 0.18961406947226511 0.41700605628756099 0 0.17581623204115959 0.4217968993709445 0 0.18619779790396901 0.40253874412579999 0 0.16954571693664161 0.40238918869092288 0 0.18619779790396901 0.40253874412579999 0 0.16954571693664161 0.40238918869092288 0 0.18344658292964611 0.37586208233722879 0 0.14603946547385099 0.40220027695410082 0 0.16954571693664161 0.40238918869092288 0 0.15858948317248511 0.37907885053621709 0 0.16954571693664161 0.40238918869092288 0 0.15858948317248511 0.37907885053621709 0 0.18344658292964611 0.37586208233722879 0 0.16954571693664161 0.40238918869092288 0 0.18344658292964611 0.37586208233722879 0 0.20177889676646171 0.37084711764169342 0 0.18344658292964611 0.37586208233722879 0 0.19819180771292011 0.3908823424346764 0 0.18619779790396901 0.40253874412579999 0 0.18344658292964611 0.37586208233722879 0 0.19819180771292011 0.3908823424346764 0 0.18619779790396901 0.40253874412579999 0 0.19819180771292011 0.3908823424346764 0 0.20057237833118149 0.40729589563346669 0 0.19819180771292011 0.3908823424346764 0 0.21141023626740529 0.39863449455113492 0 0.20057237833118149 0.40729589563346669 0 0.21141023626740529 0.39863449455113492 0 0.21462980950134761 0.41264493725718487 0 0.20057237833118149 0.40729589563346669 0 0.19819180771292011 0.3908823424346764 0 0.21141023626740529 0.39863449455113492 0 0.2096106718464916 0.38453756288780871 0 0.21141023626740529 0.39863449455113492 0 0.2096106718464916 0.38453756288780871 0 0.22216851300655879 0.38959875900724639 0 0.21141023626740529 0.39863449455113492 0 0.22297248647770421 0.40470373497904932 0 0.21462980950134761 0.41264493725718487 0 0.2121733818441435 0.36838087284269377 0 0.2096106718464916 0.38453756288780871 0 0.22009498976043909 0.37784820593301949 0 0.20177889676646171 0.37084711764169342 0 0.19819180771292011 0.3908823424346764 0 0.2096106718464916 0.38453756288780871 0 0.2096106718464916 0.38453756288780871 0 0.22009498976043909 0.37784820593301949 0 0.22216851300655879 0.38959875900724639 0 0.22801284547932321 0.37474014890232349 0 0.22009498976043909 0.37784820593301949 0 0.2275285553099434 0.38101903078854371 0 0.22801284547932321 0.37474014890232349 0 0.2275285553099434 0.38101903078854371 0 0.23192844787033859 0.37769142505896852 0 0.2331382311729325 0.38123336351882808 0 0.23192844787033859 0.37769142505896852 0 0.23664332144819891 0.37806219732681978 0 0.2275285553099434 0.38101903078854371 0 0.2331382311729325 0.38123336351882808 0 0.23192844787033859 0.37769142505896852 0 0.23415396269127539 0.37399708864914599 0 0.22801284547932321 0.37474014890232349 0 0.23192844787033859 0.37769142505896852 0 0.23415396269127539 0.37399708864914599 0 0.23192844787033859 0.37769142505896852 0 0.23664332144819891 0.37806219732681978 0 0.2331382311729325 0.38123336351882808 0 0.23071016583262549 0.38652386676462791 0 0.23919395384963429 0.38216977851332568 0 0.23071016583262549 0.38652386676462791 0 0.22890453396246699 0.39678953054623323 0 0.23919395384963429 0.38216977851332568 0 0.2275285553099434 0.38101903078854371 0 0.23071016583262549 0.38652386676462791 0 0.22216851300655879 0.38959875900724639 0 0.2275285553099434 0.38101903078854371 0 0.2331382311729325 0.38123336351882808 0 0.23071016583262549 0.38652386676462791 0 0.22009498976043909 0.37784820593301949 0 0.2275285553099434 0.38101903078854371 0 0.22216851300655879 0.38959875900724639 0 0.21141023626740529 0.39863449455113492 0 0.22216851300655879 0.38959875900724639 0 0.22297248647770421 0.40470373497904932 0 0.22216851300655879 0.38959875900724639 0 0.22297248647770421 0.40470373497904932 0 0.22890453396246699 0.39678953054623323 0 0.22216851300655879 0.38959875900724639 0 0.22890453396246699 0.39678953054623323 0 0.22890453396246699 0.39678953054623323 0 0.2376555389012924 0.4061313181777646 0 0.22297248647770421 0.40470373497904932 0 0.22890453396246699 0.39678953054623323 0 0.2376555389012924 0.4061313181777646 0 0.23071016583262549 0.38652386676462791 0 0.22216851300655879 0.38959875900724639 0 0.22890453396246699 0.39678953054623323 0 0.22890453396246699 0.39678953054623323 0 0.24451533073398329 0.39853631532711598 0 0.2485964831112592 0.38058814829064991 0 0.22890453396246699 0.39678953054623323 0 0.2376555389012924 0.4061313181777646 0 0.24451533073398329 0.39853631532711598 0 0.2376555389012924 0.4061313181777646 0 0.24451533073398329 0.39853631532711598 0 0.25126076339721398 0.40920509452976223 0 0.22890453396246699 0.39678953054623323 0 0.2485964831112592 0.38058814829064991 0 0.23919395384963429 0.38216977851332568 0 0.22890453396246699 0.39678953054623323 0 0.2485964831112592 0.38058814829064991 0 0.2382378271114686 0.37209770748928639 0 0.2485964831112592 0.38058814829064991 0 0.24177581161690209 0.37731624950319431 0 0.2485964831112592 0.38058814829064991 0 0.23919395384963429 0.38216977851332568 0 0.24177581161690209 0.37731624950319431 0 0.23919395384963429 0.38216977851332568 0 0.24177581161690209 0.37731624950319431 0 0.23664332144819891 0.37806219732681978 0 0.24177581161690209 0.37731624950319431 0 0.2378642500211838 0.37523058915309881 0 0.23664332144819891 0.37806219732681978 0 0.23415396269127539 0.37399708864914599 0 0.2378642500211838 0.37523058915309881 0 0.23664332144819891 0.37806219732681978 0 0.2331382311729325 0.38123336351882808 0 0.23919395384963429 0.38216977851332568 0 0.23664332144819891 0.37806219732681978 0 0.23980642581219111 0.4246731417171169 0 0.24159842515089189 0.43725389397571562 0 0.2302903564510638 0.4345070107161913 0 0.24159842515089189 0.43725389397571562 0 0.24788409416887561 0.43036526359733113 0 0.2505757375784512 0.43994256467354842 0 0.23980642581219111 0.4246731417171169 0 0.24159842515089189 0.43725389397571562 0 0.24788409416887561 0.43036526359733113 0 0.23980642581219111 0.4246731417171169 0 0.24788409416887561 0.43036526359733113 0 0.25314256479602593 0.42266387734828281 0 0.2376555389012924 0.4061313181777646 0 0.23980642581219111 0.4246731417171169 0 0.25314256479602593 0.42266387734828281 0 0.2376555389012924 0.4061313181777646 0 0.25126076339721398 0.40920509452976223 0 0.25314256479602593 0.42266387734828281 0 0.2376555389012924 0.4061313181777646 0 0.25314256479602593 0.42266387734828281 0 0.2376555389012924 0.4061313181777646 0 0.23980642581219111 0.4246731417171169 0 0.22826757540499701 0.41711748648741642 0 0.22297248647770421 0.40470373497904932 0 0.2376555389012924 0.4061313181777646 0 0.22826757540499701 0.41711748648741642 0 0.22297248647770421 0.40470373497904932 0 0.22826757540499701 0.41711748648741642 0 0.21462980950134761 0.41264493725718487 0 0.22826757540499701 0.41711748648741642 0 0.2172792612256722 0.4265761614502066 0 0.21462980950134761 0.41264493725718487 0 0.22826757540499701 0.41711748648741642 0 0.2302903564510638 0.4345070107161913 0 0.2172792612256722 0.4265761614502066 0 0.23980642581219111 0.4246731417171169 0 0.22826757540499701 0.41711748648741642 0 0.2302903564510638 0.4345070107161913 0 0.2302903564510638 0.4345070107161913 0 0.2172792612256722 0.4265761614502066 0 0.21812250663711311 0.44001958165563049 0 0.2172792612256722 0.4265761614502066 0 0.20605395221291831 0.43629265299924708 0 0.21812250663711311 0.44001958165563049 0 0.2172792612256722 0.4265761614502066 0 0.20444962928901581 0.42254195615441198 0 0.20605395221291831 0.43629265299924708 0 0.2172792612256722 0.4265761614502066 0 0.20444962928901581 0.42254195615441198 0 0.21462980950134761 0.41264493725718487 0 0.20444962928901581 0.42254195615441198 0 0.21462980950134761 0.41264493725718487 0 0.20057237833118149 0.40729589563346669 0 0.20444962928901581 0.42254195615441198 0 0.20057237833118149 0.40729589563346669 0 0.18961406947226511 0.41700605628756099 0 0.18619779790396901 0.40253874412579999 0 0.20057237833118149 0.40729589563346669 0 0.18961406947226511 0.41700605628756099 0 0.20444962928901581 0.42254195615441198 0 0.20605395221291831 0.43629265299924708 0 0.19173270349682919 0.43082387691323049 0 0.20444962928901581 0.42254195615441198 0 0.18961406947226511 0.41700605628756099 0 0.19173270349682919 0.43082387691323049 0 0.19173270349682919 0.43082387691323049 0 0.19558620831916451 0.44730439479932071 0 0.17887612964645169 0.44000130186789782 0 0.20605395221291831 0.43629265299924708 0 0.19173270349682919 0.43082387691323049 0 0.19558620831916451 0.44730439479932071 0 0.19558620831916451 0.44730439479932071 0 0.2009113439235713 0.46603024926122222 0 0.1834455020141301 0.45993967805174019 0 0.19558620831916451 0.44730439479932071 0 0.2009113439235713 0.46603024926122222 0 0.21105475241604549 0.45145410491468818 0 0.2009113439235713 0.46603024926122222 0 0.21105475241604549 0.45145410491468818 0 0.21931230794296411 0.4672767473251247 0 0.20605395221291831 0.43629265299924708 0 0.19558620831916451 0.44730439479932071 0 0.21105475241604549 0.45145410491468818 0 0.21105475241604549 0.45145410491468818 0 0.21812250663711311 0.44001958165563049 0 0.2259342108798659 0.45126797819781911 0 0.20605395221291831 0.43629265299924708 0 0.21105475241604549 0.45145410491468818 0 0.21812250663711311 0.44001958165563049 0 0.2302903564510638 0.4345070107161913 0 0.21812250663711311 0.44001958165563049 0 0.2259342108798659 0.45126797819781911 0 0.2302903564510638 0.4345070107161913 0 0.2259342108798659 0.45126797819781911 0 0.23737578125281181 0.44686060635512792 0 0.2259342108798659 0.45126797819781911 0 0.23852092211183831 0.46818348066902948 0 0.23737578125281181 0.44686060635512792 0 0.2259342108798659 0.45126797819781911 0 0.21931230794296411 0.4672767473251247 0 0.23852092211183831 0.46818348066902948 0 0.21105475241604549 0.45145410491468818 0 0.2259342108798659 0.45126797819781911 0 0.21931230794296411 0.4672767473251247 0 0.23852092211183831 0.46818348066902948 0 0.25170497661580887 0.45227522100354411 0 0.25182557673059258 0.46217835624629761 0 0.23852092211183831 0.46818348066902948 0 0.24766609723765129 0.44891706962075939 0 0.23737578125281181 0.44686060635512792 0 0.23852092211183831 0.46818348066902948 0 0.25170497661580887 0.45227522100354411 0 0.23852092211183831 0.46818348066902948 0 0.24766609723765129 0.44891706962075939 0 0.25170497661580887 0.45227522100354411 0 0.23852092211183831 0.46818348066902948 0 0.25747138267712821 0.47039553490259312 0 0.25182557673059258 0.46217835624629761 0 0.24766609723765129 0.44891706962075939 0 0.24334726593765471 0.44375399010913752 0 0.23737578125281181 0.44686060635512792 0 0.24766609723765129 0.44891706962075939 0 0.24334726593765471 0.44375399010913752 0 0.2505757375784512 0.43994256467354842 0 0.24159842515089189 0.43725389397571562 0 0.24334726593765471 0.44375399010913752 0 0.2505757375784512 0.43994256467354842 0 0.24159842515089189 0.43725389397571562 0 0.2302903564510638 0.4345070107161913 0 0.23737578125281181 0.44686060635512792 0 0.24159842515089189 0.43725389397571562 0 0.24334726593765471 0.44375399010913752 0 0.23737578125281181 0.44686060635512792 0 0.23765943192868991 0.5 0 0.24628242704836131 0.48431356041809132 0 0.2253368676078677 0.48409174033451507 0 0.23765943192868991 0.5 0 0.24628242704836131 0.48431356041809132 0 0.26316605075348282 0.5 0 0.23852092211183831 0.46818348066902948 0 0.24628242704836131 0.48431356041809132 0 0.25747138267712821 0.47039553490259312 0 0.23852092211183831 0.46818348066902948 0 0.24628242704836131 0.48431356041809132 0 0.2253368676078677 0.48409174033451507 0 0.23852092211183831 0.46818348066902948 0 0.2253368676078677 0.48409174033451507 0 0.21931230794296411 0.4672767473251247 0 0.23852092211183831 0.46818348066902948 0 0.2253368676078677 0.48409174033451507 0 0.23765943192868991 0.5 0 0.2253368676078677 0.48409174033451507 0 0.21215281310389689 0.50000000000000044 0 0.2253368676078677 0.48409174033451507 0 0.21215281310389689 0.50000000000000044 0 0.20728720134766709 0.48393896311413659 0 0.21215281310389689 0.50000000000000044 0 0.20728720134766709 0.48393896311413659 0 0.19667742770377561 0.5 0 0.2253368676078677 0.48409174033451507 0 0.21215281310389689 0.50000000000000044 0 0.21931230794296411 0.4672767473251247 0 0.2253368676078677 0.48409174033451507 0 0.20728720134766709 0.48393896311413659 0 0.2009113439235713 0.46603024926122222 0 0.21931230794296411 0.4672767473251247 0 0.20728720134766709 0.48393896311413659 0 0.2009113439235713 0.46603024926122222 0 0.20728720134766709 0.48393896311413659 0 0.18992912152474589 0.48241424701269819 0 0.2009113439235713 0.46603024926122222 0 0.18992912152474589 0.48241424701269819 0 0.1834455020141301 0.45993967805174019 0 0.20728720134766709 0.48393896311413659 0 0.18992912152474589 0.48241424701269819 0 0.19667742770377561 0.5 0 0.18992912152474589 0.48241424701269819 0 0.19667742770377561 0.5 0 0.18120204230365419 0.49999999999998862 0 0.18120204230365419 0.49999999999998862 0 0.17268297851698511 0.4763054316815305 0 0.18992912152474589 0.48241424701269819 0 0.18120204230365419 0.49999999999998862 0 0.17268297851698511 0.4763054316815305 0 0.18120204230365419 0.49999999999998862 0 0.1584146704069071 0.5 0 0.17268297851698511 0.4763054316815305 0 0.1584146704069071 0.5 0 0.17268297851698511 0.4763054316815305 0 0.1516921137926279 0.48566856430326633 0 0.17268297851698511 0.4763054316815305 0 0.1516921137926279 0.48566856430326633 0 0.1541519838880806 0.47251093780474851 0 0.18992912152474589 0.48241424701269819 0 0.17268297851698511 0.4763054316815305 0 0.1834455020141301 0.45993967805174019 0 0.17268297851698511 0.4763054316815305 0 0.1834455020141301 0.45993967805174019 0 0.16416391473031219 0.45261086336307371 0 0.1834455020141301 0.45993967805174019 0 0.17887612964645169 0.44000130186789782 0 0.16416391473031219 0.45261086336307371 0 0.19558620831916451 0.44730439479932071 0 0.1834455020141301 0.45993967805174019 0 0.17887612964645169 0.44000130186789782 0 0.155644850943638 0.42891629504461731 0 0.16416391473031219 0.45261086336307371 0 0.155644850943638 0.42891629504461731 0 0.17887612964645169 0.44000130186789782 0 0.16416391473031219 0.45261086336307371 0 0.17268297851698511 0.4763054316815305 0 0.16416391473031219 0.45261086336307371 0 0.1541519838880806 0.47251093780474851 0 0.16416391473031219 0.45261086336307371 0 0.15050045403261861 0.45890771483642773 0 0.1541519838880806 0.47251093780474851 0 0.17268297851698511 0.4763054316815305 0 0.16416391473031219 0.45261086336307371 0 0.15050045403261861 0.45890771483642773 0 0.14644358948523961 0.44647511774083531 0 0.13724232802684211 0.46403394043705359 0 0.14644358948523961 0.44647511774083531 0 0.13724232802684211 0.46403394043705359 0 0.15050045403261861 0.45890771483642773 0 0.13724232802684211 0.46403394043705359 0 0.1541519838880806 0.47251093780474851 0 0.155644850943638 0.42891629504461731 0 0.16416391473031219 0.45261086336307371 0 0.14644358948523961 0.44647511774083531 0 0.155644850943638 0.42891629504461731 0 0.14644358948523961 0.44647511774083531 0 0.16416391473031219 0.45261086336307371 0 0.15050045403261861 0.45890771483642773 0 0.14644358948523961 0.44647511774083531 0 0.13920187430045111 0.43546696136870272 0 0.13361122775462389 0.45101052112035123 0 0.12756942803528881 0.44165631831583613 0 0.13920187430045111 0.43546696136870272 0 0.14644358948523961 0.44647511774083531 0 0.13361122775462389 0.45101052112035123 0 0.1215141418546011 0.45107308624402132 0 0.13361122775462389 0.45101052112035123 0 0.12756942803528881 0.44165631831583613 0 0.14644358948523961 0.44647511774083531 0 0.13361122775462389 0.45101052112035123 0 0.13724232802684211 0.46403394043705359 0 0.1215141418546011 0.45107308624402132 0 0.12954021686935091 0.45868601869276537 0 0.12579316984133629 0.4686265269696353 0 0.13361122775462389 0.45101052112035123 0 0.13724232802684211 0.46403394043705359 0 0.12954021686935091 0.45868601869276537 0 0.1215141418546011 0.45107308624402132 0 0.13361122775462389 0.45101052112035123 0 0.12954021686935091 0.45868601869276537 0 0.13724232802684211 0.46403394043705359 0 0.12954021686935091 0.45868601869276537 0 0.12579316984133629 0.4686265269696353 0 0.12280933736848509 0.48481740457808858 0 0.12579316984133629 0.4686265269696353 0 0.1375836376410069 0.47952645203005262 0 0.13724232802684211 0.46403394043705359 0 0.12579316984133629 0.4686265269696353 0 0.1375836376410069 0.47952645203005262 0 0.12280933736848509 0.48481740457808858 0 0.1375836376410069 0.47952645203005262 0 0.13562729851016 0.5 0 0.1584146704069071 0.5 0 0.13562729851016 0.5 0 0.1516921137926279 0.48566856430326633 0 0.1375836376410069 0.47952645203005262 0 0.13562729851016 0.5 0 0.1516921137926279 0.48566856430326633 0 0.1375836376410069 0.47952645203005262 0 0.1516921137926279 0.48566856430326633 0 0.1541519838880806 0.47251093780474851 0 0.13724232802684211 0.46403394043705359 0 0.1375836376410069 0.47952645203005262 0 0.1541519838880806 0.47251093780474851 0 0.35065354729445869 0.47255671549311418 0 0.3497510989982705 0.48842216074809919 0 0.37069425845755027 0.4829101038082208 0 0.35065354729445869 0.47255671549311418 0 0.3497510989982705 0.48842216074809919 0 0.33241641784876341 0.48627835774655592 0 0.3497510989982705 0.48842216074809919 0 0.3601047269946841 0.5 0 0.33714200769887642 0.5 0 0.3601047269946841 0.5 0 0.37069425845755027 0.4829101038082208 0 0.38306744629049172 0.5 0 0.3497510989982705 0.48842216074809919 0 0.3601047269946841 0.5 0 0.37069425845755027 0.4829101038082208 0 0.35065354729445869 0.47255671549311418 0 0.37069425845755027 0.4829101038082208 0 0.36889067674015441 0.45883507323967299 0 0.35065354729445869 0.47255671549311418 0 0.36889067674015441 0.45883507323967299 0 0.37367472443959121 0.4552355489148302 0 0.36889067674015441 0.45883507323967299 0 0.37367472443959121 0.4552355489148302 0 0.36889067674015441 0.45883507323967299 0 0.36639296943466942 0.45053647818356651 0 0.36889067674015441 0.45883507323967299 0 0.35434095663300091 0.44996880060097277 0 0.37367472443959121 0.4552355489148302 0 0.36769927260408858 0.44196916858727558 0 0.36639296943466942 0.45053647818356651 0 0.37367472443959121 0.4552355489148302 0 0.36769927260408858 0.44196916858727558 0 0.38144121119396152 0.44370339639388101 0 0.36889067674015441 0.45883507323967299 0 0.36639296943466942 0.45053647818356651 0 0.35434095663300091 0.44996880060097277 0 0.36769927260408858 0.44196916858727558 0 0.36639296943466942 0.45053647818356651 0 0.35434095663300091 0.44996880060097277 0 0.35434095663300091 0.44996880060097277 0 0.33979123652584747 0.44110252796227228 0 0.35551905225617669 0.43678294590042749 0 0.36769927260408858 0.44196916858727558 0 0.35434095663300091 0.44996880060097277 0 0.35551905225617669 0.43678294590042749 0 0.35434095663300091 0.44996880060097277 0 0.33979123652584747 0.44110252796227228 0 0.35065354729445869 0.47255671549311418 0 0.35434095663300091 0.44996880060097277 0 0.33407438144041762 0.46050322700716029 0 0.35065354729445869 0.47255671549311418 0 0.36889067674015441 0.45883507323967299 0 0.35434095663300091 0.44996880060097277 0 0.35434095663300091 0.44996880060097277 0 0.33407438144041762 0.46050322700716029 0 0.33979123652584747 0.44110252796227228 0 0.33407438144041762 0.46050322700716029 0 0.33979123652584747 0.44110252796227228 0 0.32776940634544199 0.44857699294039538 0 0.33979123652584747 0.44110252796227228 0 0.32776940634544199 0.44857699294039538 0 0.3242008402885746 0.43618657980586989 0 0.32776940634544199 0.44857699294039538 0 0.31931246298184962 0.4440312152174043 0 0.3242008402885746 0.43618657980586989 0 0.32776940634544199 0.44857699294039538 0 0.31931246298184962 0.4440312152174043 0 0.31495671814132742 0.45323555487434941 0 0.31931246298184962 0.4440312152174043 0 0.31495671814132742 0.45323555487434941 0 0.31032288715205469 0.43812573324900278 0 0.31931246298184962 0.4440312152174043 0 0.31032288715205469 0.43812573324900278 0 0.3242008402885746 0.43618657980586989 0 0.33407438144041762 0.46050322700716029 0 0.32776940634544199 0.44857699294039538 0 0.31495671814132742 0.45323555487434941 0 0.33407438144041762 0.46050322700716029 0 0.31495671814132742 0.45323555487434941 0 0.31963515687283711 0.46929222740576371 0 0.31495671814132742 0.45323555487434941 0 0.31963515687283711 0.46929222740576371 0 0.30580876340544633 0.4619199942252829 0 0.31963515687283711 0.46929222740576371 0 0.33241641784876341 0.48627835774655592 0 0.30640117238520043 0.47951798783355393 0 0.35065354729445869 0.47255671549311418 0 0.33407438144041762 0.46050322700716029 0 0.33241641784876341 0.48627835774655592 0 0.33407438144041762 0.46050322700716029 0 0.31963515687283711 0.46929222740576371 0 0.33241641784876341 0.48627835774655592 0 0.35065354729445869 0.47255671549311418 0 0.33241641784876341 0.48627835774655592 0 0.3497510989982705 0.48842216074809919 0 0.33241641784876341 0.48627835774655592 0 0.33714200769887642 0.5 0 0.33241641784876341 0.48627835774655592 0 0.31417928840306869 0.49999999999999861 0 0.33241641784876341 0.48627835774655592 0 0.33714200769887642 0.5 0 0.31417928840306869 0.49999999999999861 0 0.33241641784876341 0.48627835774655592 0 0.31417928840306869 0.49999999999999861 0 0.30640117238520043 0.47951798783355393 0 0.31417928840306869 0.49999999999999861 0 0.30640117238520043 0.47951798783355393 0 0.28867266957827581 0.5 0 0.31963515687283711 0.46929222740576371 0 0.30640117238520043 0.47951798783355393 0 0.30580876340544633 0.4619199942252829 0 0.30640117238520043 0.47951798783355393 0 0.28751538153798001 0.45935721217617748 0 0.30640117238520043 0.47951798783355393 0 0.27624265502562051 0.47879528071885569 0 0.28751538153798001 0.45935721217617748 0 0.30640117238520043 0.47951798783355393 0 0.28867266957827581 0.5 0 0.27624265502562051 0.47879528071885569 0 0.28867266957827581 0.5 0 0.27624265502562051 0.47879528071885569 0 0.26316605075348282 0.5 0 0.27624265502562051 0.47879528071885569 0 0.26079062887614818 0.48337609400988502 0 0.26316605075348282 0.5 0 0.27624265502562051 0.47879528071885569 0 0.25747138267712821 0.47039553490259312 0 0.26867998693986822 0.45844876600523948 0 0.27624265502562051 0.47879528071885569 0 0.26079062887614818 0.48337609400988502 0 0.25747138267712821 0.47039553490259312 0 0.24628242704836131 0.48431356041809132 0 0.26079062887614818 0.48337609400988502 0 0.25747138267712821 0.47039553490259312 0 0.24628242704836131 0.48431356041809132 0 0.26079062887614818 0.48337609400988502 0 0.26316605075348282 0.5 0 0.24766609723765129 0.44891706962075939 0 0.26862959069076081 0.43919643651879992 0 0.24766609723765129 0.44891706962075939 0 0.26237221486343648 0.44858912218741909 0 0.26862959069076081 0.43919643651879992 0 0.24766609723765129 0.44891706962075939 0 0.2505757375784512 0.43994256467354842 0 0.26862959069076081 0.43919643651879992 0 0.2505757375784512 0.43994256467354842 0 0.26862959069076081 0.43919643651879992 0 0.25492123793835558 0.43450661773074473 0 0.26237221486343648 0.44858912218741909 0 0.25681347284495493 0.4521137825192999 0 0.25960502551759501 0.45785918841002388 0 0.24766609723765129 0.44891706962075939 0 0.26237221486343648 0.44858912218741909 0 0.25681347284495493 0.4521137825192999 0 0.24766609723765129 0.44891706962075939 0 0.25170497661580887 0.45227522100354411 0 0.25681347284495493 0.4521137825192999 0 0.25170497661580887 0.45227522100354411 0 0.25681347284495493 0.4521137825192999 0 0.25960502551759501 0.45785918841002388 0 0.25170497661580887 0.45227522100354411 0 0.25182557673059258 0.46217835624629761 0 0.25960502551759501 0.45785918841002388 0 0.25747138267712821 0.47039553490259312 0 0.25182557673059258 0.46217835624629761 0 0.25960502551759501 0.45785918841002388 0 0.25747138267712821 0.47039553490259312 0 0.25960502551759501 0.45785918841002388 0 0.26867998693986822 0.45844876600523948 0 0.26237221486343648 0.44858912218741909 0 0.25960502551759501 0.45785918841002388 0 0.26867998693986822 0.45844876600523948 0 0.27624265502562051 0.47879528071885569 0 0.26867998693986822 0.45844876600523948 0 0.28751538153798001 0.45935721217617748 0 0.26237221486343648 0.44858912218741909 0 0.26867998693986822 0.45844876600523948 0 0.26862959069076081 0.43919643651879992 0 0.26862959069076081 0.43919643651879992 0 0.28751538153798001 0.45935721217617748 0 0.26862959069076081 0.43919643651879992 0 0.27820713129258989 0.4426179115356314 0 0.28751538153798001 0.45935721217617748 0 0.26867998693986822 0.45844876600523948 0 0.26862959069076081 0.43919643651879992 0 0.28751538153798001 0.45935721217617748 0 0.26862959069076081 0.43919643651879992 0 0.27510356536302999 0.43619449733144611 0 0.27820713129258989 0.4426179115356314 0 0.28810422923086798 0.44164546698047458 0 0.27510356536302999 0.43619449733144611 0 0.27820713129258989 0.4426179115356314 0 0.27510356536302999 0.43619449733144611 0 0.26862959069076081 0.43919643651879992 0 0.27820713129258989 0.4426179115356314 0 0.27510356536302999 0.43619449733144611 0 0.27820713129258989 0.4426179115356314 0 0.28810422923086798 0.44164546698047458 0 0.28751538153798001 0.45935721217617748 0 0.28810422923086798 0.44164546698047458 0 0.28751538153798001 0.45935721217617748 0 0.30053538808988672 0.44819698883656972 0 0.28810422923086798 0.44164546698047458 0 0.30053538808988672 0.44819698883656972 0 0.29831721104813241 0.43373066363625018 0 0.28751538153798001 0.45935721217617748 0 0.30580876340544633 0.4619199942252829 0 0.30053538808988672 0.44819698883656972 0 0.30640117238520043 0.47951798783355393 0 0.28751538153798001 0.45935721217617748 0 0.30580876340544633 0.4619199942252829 0 0.31495671814132742 0.45323555487434941 0 0.30580876340544633 0.4619199942252829 0 0.30053538808988672 0.44819698883656972 0 0.30053538808988672 0.44819698883656972 0 0.31032288715205469 0.43812573324900278 0 0.29831721104813241 0.43373066363625018 0 0.31495671814132742 0.45323555487434941 0 0.30053538808988672 0.44819698883656972 0 0.31032288715205469 0.43812573324900278 0 0.31032288715205469 0.43812573324900278 0 0.30601443332629552 0.42708217674212512 0 0.29831721104813241 0.43373066363625018 0 0.31032288715205469 0.43812573324900278 0 0.30601443332629552 0.42708217674212512 0 0.31660247276365738 0.42891940203125689 0 0.30601443332629552 0.42708217674212512 0 0.30278983074414478 0.42335655940209421 0 0.29831721104813241 0.43373066363625018 0 0.30601443332629552 0.42708217674212512 0 0.30278983074414478 0.42335655940209421 0 0.30836236240908432 0.41130974414492089 0 0.3078343897635844 0.39804701019287209 0 0.32115765636364579 0.4148395202870524 0 0.30278983074414478 0.42335655940209421 0 0.30836236240908432 0.41130974414492089 0 0.32115765636364579 0.4148395202870524 0 0.30601443332629552 0.42708217674212512 0 0.30278983074414478 0.42335655940209421 0 0.32115765636364579 0.4148395202870524 0 0.30278983074414478 0.42335655940209421 0 0.30836236240908432 0.41130974414492089 0 0.2880733167750073 0.40635350298463468 0 0.30278983074414478 0.42335655940209421 0 0.32115765636364579 0.4148395202870524 0 0.2880733167750073 0.40635350298463468 0 0.28894669805358791 0.42977552836677108 0 0.27865294321929668 0.41670116558094861 0 0.30278983074414478 0.42335655940209421 0 0.2880733167750073 0.40635350298463468 0 0.30278983074414478 0.42335655940209421 0 0.2880733167750073 0.40635350298463468 0 0.28894669805358791 0.42977552836677108 0 0.28810422923086798 0.44164546698047458 0 0.29831721104813241 0.43373066363625018 0 0.28894669805358791 0.42977552836677108 0 0.30278983074414478 0.42335655940209421 0 0.29831721104813241 0.43373066363625018 0 0.28894669805358791 0.42977552836677108 0 0.30278983074414478 0.42335655940209421 0 0.28894669805358791 0.42977552836677108 0 0.28810422923086798 0.44164546698047458 0 0.28894669805358791 0.42977552836677108 0 0.27510356536302999 0.43619449733144611 0 0.28894669805358791 0.42977552836677108 0 0.27510356536302999 0.43619449733144611 0 0.26862959069076081 0.43919643651879992 0 0.27510356536302999 0.43619449733144611 0 0.26618195360039482 0.4177295415286657 0 0.27510356536302999 0.43619449733144611 0 0.26618195360039482 0.4177295415286657 0 0.28894669805358791 0.42977552836677108 0 0.27510356536302999 0.43619449733144611 0 0.27865294321929668 0.41670116558094861 0 0.27510356536302999 0.43619449733144611 0 0.27865294321929668 0.41670116558094861 0 0.26618195360039482 0.4177295415286657 0 0.2880733167750073 0.40635350298463468 0 0.27865294321929668 0.41670116558094861 0 0.2693156208450157 0.40709336425156661 0 0.27865294321929668 0.41670116558094861 0 0.2693156208450157 0.40709336425156661 0 0.26618195360039482 0.4177295415286657 0 0.26618195360039482 0.4177295415286657 0 0.25726034183775942 0.39926458572588541 0 0.26618195360039482 0.4177295415286657 0 0.25126076339721398 0.40920509452976223 0 0.25726034183775942 0.39926458572588541 0 0.2693156208450157 0.40709336425156661 0 0.26618195360039482 0.4177295415286657 0 0.25726034183775942 0.39926458572588541 0 0.26618195360039482 0.4177295415286657 0 0.25126076339721398 0.40920509452976223 0 0.25314256479602593 0.42266387734828281 0 0.26862959069076081 0.43919643651879992 0 0.25314256479602593 0.42266387734828281 0 0.26862959069076081 0.43919643651879992 0 0.26618195360039482 0.4177295415286657 0 0.25314256479602593 0.42266387734828281 0 0.24788409416887561 0.43036526359733113 0 0.25314256479602593 0.42266387734828281 0 0.25492123793835558 0.43450661773074473 0 0.26862959069076081 0.43919643651879992 0 0.25314256479602593 0.42266387734828281 0 0.25492123793835558 0.43450661773074473 0 0.24788409416887561 0.43036526359733113 0 0.2505757375784512 0.43994256467354842 0 0.25492123793835558 0.43450661773074473 0 0.26388295897459252 0.38769473735984122 0 0.27335680280587071 0.38935044656717449 0 0.25864028883673479 0.37234739014971369 0 0.2485964831112592 0.38058814829064991 0 0.25726034183775942 0.39926458572588541 0 0.26388295897459252 0.38769473735984122 0 0.25784762980254478 0.38382429307813348 0 0.25895605197813831 0.39384075627110748 0 0.26388295897459252 0.38769473735984122 0 0.25784762980254478 0.38382429307813348 0 0.25864028883673479 0.37234739014971369 0 0.2485964831112592 0.38058814829064991 0 0.25864028883673479 0.37234739014971369 0 0.2485964831112592 0.38058814829064991 0 0.25784762980254478 0.38382429307813348 0 0.25864028883673479 0.37234739014971369 0 0.2485964831112592 0.38058814829064991 0 0.25895605197813831 0.39384075627110748 0 0.2485964831112592 0.38058814829064991 0 0.25784762980254478 0.38382429307813348 0 0.25895605197813831 0.39384075627110748 0 0.24451533073398329 0.39853631532711598 0 0.2485964831112592 0.38058814829064991 0 0.25726034183775942 0.39926458572588541 0 0.2485964831112592 0.38058814829064991 0 0.25726034183775942 0.39926458572588541 0 0.25895605197813831 0.39384075627110748 0 0.24451533073398329 0.39853631532711598 0 0.25126076339721398 0.40920509452976223 0 0.25726034183775942 0.39926458572588541 0 0.2693156208450157 0.40709336425156661 0 0.25895605197813831 0.39384075627110748 0 0.2693156208450157 0.40709336425156661 0 0.25895605197813831 0.39384075627110748 0 0.26798454883076472 0.39745852025063338 0 0.2693156208450157 0.40709336425156661 0 0.25726034183775942 0.39926458572588541 0 0.25895605197813831 0.39384075627110748 0 0.26388295897459252 0.38769473735984122 0 0.25895605197813831 0.39384075627110748 0 0.26798454883076472 0.39745852025063338 0 0.2880733167750073 0.40635350298463468 0 0.26798454883076472 0.39745852025063338 0 0.27335680280587071 0.38935044656717449 0 0.2880733167750073 0.40635350298463468 0 0.27335680280587071 0.38935044656717449 0 0.26388295897459252 0.38769473735984122 0 0.26798454883076472 0.39745852025063338 0 0.27335680280587071 0.38935044656717449 0 0.2880733167750073 0.40635350298463468 0 0.2693156208450157 0.40709336425156661 0 0.26798454883076472 0.39745852025063338 0 0.27335680280587071 0.38935044656717449 0 0.25864028883673479 0.37234739014971369 0 0.27335680280587071 0.38935044656717449 0 0.28941653209307072 0.37506711654740599 0 0.27362439066488919 0.37430196789006709 0 0.27335680280587071 0.38935044656717449 0 0.27362439066488919 0.37430196789006709 0 0.25864028883673479 0.37234739014971369 0 0.27335680280587071 0.38935044656717449 0 0.28941653209307072 0.37506711654740599 0 0.2932205510200287 0.39093977234231952 0 0.2880733167750073 0.40635350298463468 0 0.27335680280587071 0.38935044656717449 0 0.2932205510200287 0.39093977234231952 0 0.2880733167750073 0.40635350298463468 0 0.2932205510200287 0.39093977234231952 0 0.3078343897635844 0.39804701019287209 0 0.30836236240908432 0.41130974414492089 0 0.2880733167750073 0.40635350298463468 0 0.3078343897635844 0.39804701019287209 0 0.2932205510200287 0.39093977234231952 0 0.3078343897635844 0.39804701019287209 0 0.31177338224689471 0.3767846526439132 0 0.28941653209307072 0.37506711654740599 0 0.2932205510200287 0.39093977234231952 0 0.31177338224689471 0.3767846526439132 0 0.3078343897635844 0.39804701019287209 0 0.31177338224689471 0.3767846526439132 0 0.32735162397687639 0.39458072267866678 0 0.31177338224689471 0.3767846526439132 0 0.33949730912465659 0.37888958070960072 0 0.32735162397687639 0.39458072267866678 0 0.33949730912465659 0.37888958070960072 0 0.32735162397687639 0.39458072267866678 0 0.34432152437933061 0.39260109106655172 0 0.32735162397687639 0.39458072267866678 0 0.32115765636364579 0.4148395202870524 0 0.33952548198314703 0.40632248117201092 0 0.32735162397687639 0.39458072267866678 0 0.33952548198314703 0.40632248117201092 0 0.34432152437933061 0.39260109106655172 0 0.3078343897635844 0.39804701019287209 0 0.32735162397687639 0.39458072267866678 0 0.32115765636364579 0.4148395202870524 0 0.31032288715205469 0.43812573324900278 0 0.31660247276365738 0.42891940203125689 0 0.3242008402885746 0.43618657980586989 0 0.30601443332629552 0.42708217674212512 0 0.32115765636364579 0.4148395202870524 0 0.31660247276365738 0.42891940203125689 0 0.32453835163376682 0.42631757640045681 0 0.3242008402885746 0.43618657980586989 0 0.33466443813404462 0.42499822881549598 0 0.32115765636364579 0.4148395202870524 0 0.31660247276365738 0.42891940203125689 0 0.32453835163376682 0.42631757640045681 0 0.32115765636364579 0.4148395202870524 0 0.32453835163376682 0.42631757640045681 0 0.33466443813404462 0.42499822881549598 0 0.31660247276365738 0.42891940203125689 0 0.32453835163376682 0.42631757640045681 0 0.3242008402885746 0.43618657980586989 0 0.33979123652584747 0.44110252796227228 0 0.33466443813404462 0.42499822881549598 0 0.35156594755360437 0.42121290594606298 0 0.33979123652584747 0.44110252796227228 0 0.3242008402885746 0.43618657980586989 0 0.33466443813404462 0.42499822881549598 0 0.33466443813404462 0.42499822881549598 0 0.33952548198314703 0.40632248117201092 0 0.35156594755360437 0.42121290594606298 0 0.32115765636364579 0.4148395202870524 0 0.33466443813404462 0.42499822881549598 0 0.33952548198314703 0.40632248117201092 0 0.32115765636364579 0.4148395202870524 0 0.33952548198314703 0.40632248117201092 0 0.33952548198314703 0.40632248117201092 0 0.35156594755360437 0.42121290594606298 0 0.3578933076026482 0.39780544205696938 0 0.35156594755360437 0.42121290594606298 0 0.36741971183607891 0.41273989063734579 0 0.3578933076026482 0.39780544205696938 0 0.33979123652584747 0.44110252796227228 0 0.35156594755360437 0.42121290594606298 0 0.35551905225617669 0.43678294590042749 0 0.35156594755360437 0.42121290594606298 0 0.35551905225617669 0.43678294590042749 0 0.36474199690678882 0.42730301812784027 0 0.36769927260408858 0.44196916858727558 0 0.38150600028399539 0.42381017956808997 0 0.36769927260408858 0.44196916858727558 0 0.36474199690678882 0.42730301812784027 0 0.38150600028399539 0.42381017956808997 0 0.36769927260408858 0.44196916858727558 0 0.35551905225617669 0.43678294590042749 0 0.36474199690678882 0.42730301812784027 0 0.35156594755360437 0.42121290594606298 0 0.36474199690678882 0.42730301812784027 0 0.36741971183607891 0.41273989063734579 0 0.36474199690678882 0.42730301812784027 0 0.36741971183607891 0.41273989063734579 0 0.38150600028399539 0.42381017956808997 0 0.36529847972842272 0.38391073167513989 0 0.3578933076026482 0.39780544205696938 0 0.37741435868979162 0.39785871654857041 0 0.36741971183607891 0.41273989063734579 0 0.3578933076026482 0.39780544205696938 0 0.37741435868979162 0.39785871654857041 0 0.36529847972842272 0.38391073167513989 0 0.37750179591751032 0.37827956406138702 0 0.37741435868979162 0.39785871654857041 0 0.36529847972842272 0.38391073167513989 0 0.36195419196984457 0.36962286769202379 0 0.37750179591751032 0.37827956406138702 0 0.36529847972842272 0.38391073167513989 0 0.35262208248433058 0.37979327040075922 0 0.36195419196984457 0.36962286769202379 0 0.36529847972842272 0.38391073167513989 0 0.35262208248433058 0.37979327040075922 0 0.3578933076026482 0.39780544205696938 0 0.35262208248433058 0.37979327040075922 0 0.34432152437933061 0.39260109106655172 0 0.3578933076026482 0.39780544205696938 0 0.33949730912465659 0.37888958070960072 0 0.35262208248433058 0.37979327040075922 0 0.34432152437933061 0.39260109106655172 0 0.33952548198314703 0.40632248117201092 0 0.34432152437933061 0.39260109106655172 0 0.3578933076026482 0.39780544205696938 0 0.33952548198314703 0.40632248117201092 0 0.3578933076026482 0.39780544205696938 0 0.35636270244073648 0.35005413133347041 0 0.34595776880133911 0.36358982345163499 0 0.33282715645527228 0.34238697682171187 0 0.35636270244073648 0.35005413133347041 0 0.33282715645527228 0.34238697682171187 0 0.35262208248433058 0.37979327040075922 0 0.34595776880133911 0.36358982345163499 0 0.36195419196984457 0.36962286769202379 0 0.35636270244073648 0.35005413133347041 0 0.34595776880133911 0.36358982345163499 0 0.36195419196984457 0.36962286769202379 0 0.33949730912465659 0.37888958070960072 0 0.35262208248433058 0.37979327040075922 0 0.34595776880133911 0.36358982345163499 0 0.35636270244073648 0.35005413133347041 0 0.36195419196984457 0.36962286769202379 0 0.37300213681342781 0.36514424334188028 0 0.36195419196984457 0.36962286769202379 0 0.37300213681342781 0.36514424334188028 0 0.37750179591751032 0.37827956406138702 0 0.35636270244073648 0.35005413133347041 0 0.37134382499714702 0.33612011012821158 0 0.37989824842620068 0.35772128584522878 0 0.35636270244073648 0.35005413133347041 0 0.37989824842620068 0.35772128584522878 0 0.35636270244073648 0.35005413133347041 0 0.37300213681342781 0.36514424334188028 0 0.37989824842620068 0.35772128584522878 0 0.37134382499714702 0.33612011012821158 0 0.35341701309212392 0.33547542866548419 0 0.35721471201479332 0.32837136023746122 0 0.35636270244073648 0.35005413133347041 0 0.37134382499714702 0.33612011012821158 0 0.35341701309212392 0.33547542866548419 0 0.37134382499714702 0.33612011012821158 0 0.36242663026820299 0.31360288359152177 0 0.37836658210359958 0.32260988947355668 0 0.37134382499714702 0.33612011012821158 0 0.36242663026820299 0.31360288359152177 0 0.37134382499714702 0.33612011012821158 0 0.35675740383864529 0.31628364550411509 0 0.35721471201479332 0.32837136023746122 0 0.37134382499714702 0.33612011012821158 0 0.35675740383864529 0.31628364550411509 0 0.37134382499714702 0.33612011012821158 0 0.36242663026820299 0.31360288359152177 0 0.35675740383864529 0.31628364550411509 0 0.35675740383864529 0.31628364550411509 0 0.34891942957910649 0.31380534613200672 0 0.35554177717977781 0.31231309481106961 0 0.36242663026820299 0.31360288359152177 0 0.35675740383864529 0.31628364550411509 0 0.35554177717977781 0.31231309481106961 0 0.35675740383864529 0.31628364550411509 0 0.347340606131257 0.32560625665203352 0 0.35721471201479332 0.32837136023746122 0 0.35675740383864529 0.31628364550411509 0 0.347340606131257 0.32560625665203352 0 0.34891942957910649 0.31380534613200672 0 0.347340606131257 0.32560625665203352 0 0.34891942957910649 0.31380534613200672 0 0.33630169571969892 0.32035044456818201 0 0.347340606131257 0.32560625665203352 0 0.35341701309212392 0.33547542866548419 0 0.33282715645527228 0.34238697682171187 0 0.35636270244073648 0.35005413133347041 0 0.35341701309212392 0.33547542866548419 0 0.33282715645527228 0.34238697682171187 0 0.347340606131257 0.32560625665203352 0 0.35341701309212392 0.33547542866548419 0 0.35721471201479332 0.32837136023746122 0 0.347340606131257 0.32560625665203352 0 0.33282715645527228 0.34238697682171187 0 0.33630169571969892 0.32035044456818201 0 0.33282715645527228 0.34238697682171187 0 0.33630169571969892 0.32035044456818201 0 0.31743211085153028 0.32658159718746332 0 0.34891942957910649 0.31380534613200672 0 0.33630169571969892 0.32035044456818201 0 0.34160475994601452 0.30462110249553748 0 0.31743211085153028 0.32658159718746332 0 0.31006174914389989 0.30315987145864159 0 0.32739230476825748 0.30855763866962621 0 0.33630169571969892 0.32035044456818201 0 0.31743211085153028 0.32658159718746332 0 0.32739230476825748 0.30855763866962621 0 0.33282715645527228 0.34238697682171187 0 0.31743211085153028 0.32658159718746332 0 0.314317320474154 0.35223102869136957 0 0.33282715645527228 0.34238697682171187 0 0.314317320474154 0.35223102869136957 0 0.3291262119618355 0.36286928417326147 0 0.34595776880133911 0.36358982345163499 0 0.33282715645527228 0.34238697682171187 0 0.3291262119618355 0.36286928417326147 0 0.33949730912465659 0.37888958070960072 0 0.34595776880133911 0.36358982345163499 0 0.3291262119618355 0.36286928417326147 0 0.31177338224689471 0.3767846526439132 0 0.33949730912465659 0.37888958070960072 0 0.3291262119618355 0.36286928417326147 0 0.31177338224689471 0.3767846526439132 0 0.314317320474154 0.35223102869136957 0 0.3291262119618355 0.36286928417326147 0 0.31177338224689471 0.3767846526439132 0 0.314317320474154 0.35223102869136957 0 0.29772079294110981 0.36067856437811591 0 0.28941653209307072 0.37506711654740599 0 0.31177338224689471 0.3767846526439132 0 0.29772079294110981 0.36067856437811591 0 0.314317320474154 0.35223102869136957 0 0.29772079294110981 0.36067856437811591 0 0.30222417350814362 0.33883564576544711 0 0.29772079294110981 0.36067856437811591 0 0.28893484808885822 0.34749126064993768 0 0.30222417350814362 0.33883564576544711 0 0.29772079294110981 0.36067856437811591 0 0.28893484808885822 0.34749126064993768 0 0.2737875684627965 0.35991932539982568 0 0.28893484808885822 0.34749126064993768 0 0.2737875684627965 0.35991932539982568 0 0.28941653209307072 0.37506711654740599 0 0.29772079294110981 0.36067856437811591 0 0.2737875684627965 0.35991932539982568 0 0.28941653209307072 0.37506711654740599 0 0.27362439066488919 0.37430196789006709 0 0.2737875684627965 0.35991932539982568 0 0.27362439066488919 0.37430196789006709 0 0.2737875684627965 0.35991932539982568 0 0.25864028883673479 0.37234739014971369 0 0.2737875684627965 0.35991932539982568 0 0.25864028883673479 0.37234739014971369 0 0.2737875684627965 0.35991932539982568 0 0.26899609376803579 0.34558168035990572 0 0.25663739802913282 0.35446151746193483 0 0.28893484808885822 0.34749126064993768 0 0.2737875684627965 0.35991932539982568 0 0.26899609376803579 0.34558168035990572 0 0.26899609376803579 0.34558168035990572 0 0.25663739802913282 0.35446151746193483 0 0.25139693232689619 0.33891402848063062 0 0.23922371798326161 0.34991401697808022 0 0.25663739802913282 0.35446151746193483 0 0.25864028883673479 0.37234739014971369 0 0.24755271492422551 0.34631499921458991 0 0.25663739802913282 0.35446151746193483 0 0.25139693232689619 0.33891402848063062 0 0.2737875684627965 0.35991932539982568 0 0.25663739802913282 0.35446151746193483 0 0.25864028883673479 0.37234739014971369 0 0.2463530594528098 0.3662415019669058 0 0.2485964831112592 0.38058814829064991 0 0.25864028883673479 0.37234739014971369 0 0.24576530084150769 0.32350391423014963 0 0.26546037491338348 0.33048697731367749 0 0.26901804144428931 0.30788307587279928 0 0.24576530084150769 0.32350391423014963 0 0.26901804144428931 0.30788307587279928 0 0.26899609376803579 0.34558168035990572 0 0.26546037491338348 0.33048697731367749 0 0.25139693232689619 0.33891402848063062 0 0.24576530084150769 0.32350391423014963 0 0.26546037491338348 0.33048697731367749 0 0.25139693232689619 0.33891402848063062 0 0.28893484808885822 0.34749126064993768 0 0.26899609376803579 0.34558168035990572 0 0.28296142363539728 0.32880654964265782 0 0.26899609376803579 0.34558168035990572 0 0.26546037491338348 0.33048697731367749 0 0.28296142363539728 0.32880654964265782 0 0.28296142363539728 0.32880654964265782 0 0.28962569923860482 0.31013546840034939 0 0.26901804144428931 0.30788307587279928 0 0.26546037491338348 0.33048697731367749 0 0.28296142363539728 0.32880654964265782 0 0.26901804144428931 0.30788307587279928 0 0.28296142363539728 0.32880654964265782 0 0.30011923182737288 0.32133471647737122 0 0.28962569923860482 0.31013546840034939 0 0.28893484808885822 0.34749126064993768 0 0.28296142363539728 0.32880654964265782 0 0.30222417350814362 0.33883564576544711 0 0.28296142363539728 0.32880654964265782 0 0.30222417350814362 0.33883564576544711 0 0.30011923182737288 0.32133471647737122 0 0.31743211085153028 0.32658159718746332 0 0.30222417350814362 0.33883564576544711 0 0.30011923182737288 0.32133471647737122 0 0.31743211085153028 0.32658159718746332 0 0.314317320474154 0.35223102869136957 0 0.30222417350814362 0.33883564576544711 0 0.31743211085153028 0.32658159718746332 0 0.30011923182737288 0.32133471647737122 0 0.31006174914389989 0.30315987145864159 0 0.31006174914389989 0.30315987145864159 0 0.29227078204707091 0.29226223751544889 0 0.28962569923860482 0.31013546840034939 0 0.30011923182737288 0.32133471647737122 0 0.31006174914389989 0.30315987145864159 0 0.28962569923860482 0.31013546840034939 0 0.31006174914389989 0.30315987145864159 0 0.29227078204707091 0.29226223751544889 0 0.31552352264985262 0.27664139915809849 0 0.29227078204707091 0.29226223751544889 0 0.31552352264985262 0.27664139915809849 0 0.29227078204707091 0.29226223751544889 0 0.27494975211905143 0.28357017197852191 0 0.28738484321751429 0.26971941342330757 0 0.29227078204707091 0.29226223751544889 0 0.28962569923860482 0.31013546840034939 0 0.26901804144428931 0.30788307587279928 0 0.29227078204707091 0.29226223751544889 0 0.26901804144428931 0.30788307587279928 0 0.29227078204707091 0.29226223751544889 0 0.26901804144428931 0.30788307587279928 0 0.27494975211905143 0.28357017197852191 0 0.26901804144428931 0.30788307587279928 0 0.27494975211905143 0.28357017197852191 0 0.25679894473159648 0.28317100711588039 0 0.24099756625931831 0.30060543002137002 0 0.26901804144428931 0.30788307587279928 0 0.25679894473159648 0.28317100711588039 0 0.24099756625931831 0.30060543002137002 0 0.24576530084150769 0.32350391423014963 0 0.26901804144428931 0.30788307587279928 0 0.24577325359629021 0.26337587950370012 0 0.26927614915478598 0.26481512596517348 0 0.25781508844958267 0.24996181240754781 0 0.24577325359629021 0.26337587950370012 0 0.25679894473159648 0.28317100711588039 0 0.26927614915478598 0.26481512596517348 0 0.27494975211905143 0.28357017197852191 0 0.26927614915478598 0.26481512596517348 0 0.28738484321751429 0.26971941342330757 0 0.27494975211905143 0.28357017197852191 0 0.25679894473159648 0.28317100711588039 0 0.26927614915478598 0.26481512596517348 0 0.26927614915478598 0.26481512596517348 0 0.25781508844958267 0.24996181240754781 0 0.28467400578051488 0.24090957926220921 0 0.26927614915478598 0.26481512596517348 0 0.28738484321751429 0.26971941342330757 0 0.28467400578051488 0.24090957926220921 0 0.28738484321751429 0.26971941342330757 0 0.30439688362099332 0.26121798474317659 0 0.28467400578051488 0.24090957926220921 0 0.28738484321751429 0.26971941342330757 0 0.28467400578051488 0.24090957926220921 0 0.29227078204707091 0.29226223751544889 0 0.28738484321751429 0.26971941342330757 0 0.31552352264985262 0.27664139915809849 0 0.28738484321751429 0.26971941342330757 0 0.30439688362099332 0.26121798474317659 0 0.31552352264985262 0.27664139915809849 0 0.30439688362099332 0.26121798474317659 0 0.32460529077723999 0.2609888572585331 0 0.3097505299711748 0.24468805882267189 0 0.34459224081031542 0.26856843051814211 0 0.3356750460813715 0.24605120398145239 0 0.34856610204602417 0.25706137280202118 0 0.34459224081031542 0.26856843051814211 0 0.3356750460813715 0.24605120398145239 0 0.32460529077723999 0.2609888572585331 0 0.34459224081031542 0.26856843051814211 0 0.3356750460813715 0.24605120398145239 0 0.32460529077723999 0.2609888572585331 0 0.33121995857711373 0.28799059728471932 0 0.34459224081031542 0.26856843051814211 0 0.32460529077723999 0.2609888572585331 0 0.31552352264985262 0.27664139915809849 0 0.33121995857711373 0.28799059728471932 0 0.30439688362099332 0.26121798474317659 0 0.32460529077723999 0.2609888572585331 0 0.31552352264985262 0.27664139915809849 0 0.31006174914389989 0.30315987145864159 0 0.31552352264985262 0.27664139915809849 0 0.33121995857711373 0.28799059728471932 0 0.31006174914389989 0.30315987145864159 0 0.32739230476825748 0.30855763866962621 0 0.33121995857711373 0.28799059728471932 0 0.33630169571969892 0.32035044456818201 0 0.32739230476825748 0.30855763866962621 0 0.34160475994601452 0.30462110249553748 0 0.32739230476825748 0.30855763866962621 0 0.34160475994601452 0.30462110249553748 0 0.33121995857711373 0.28799059728471932 0 0.34160475994601452 0.30462110249553748 0 0.33121995857711373 0.28799059728471932 0 0.35350943553925918 0.29108565705483191 0 0.33121995857711373 0.28799059728471932 0 0.35350943553925918 0.29108565705483191 0 0.34459224081031542 0.26856843051814211 0 0.35350943553925918 0.29108565705483191 0 0.36543841163358259 0.29895717982996978 0 0.35251024116356561 0.27530447018638288 0 0.36543841163358259 0.29895717982996978 0 0.35251024116356561 0.27530447018638288 0 0.36242663026820299 0.31360288359152177 0 0.35350943553925918 0.29108565705483191 0 0.36242663026820299 0.31360288359152177 0 0.35350943553925918 0.29108565705483191 0 0.35406364503315629 0.30556050401663498 0 0.34891942957910649 0.31380534613200672 0 0.34160475994601452 0.30462110249553748 0 0.35406364503315629 0.30556050401663498 0 0.34160475994601452 0.30462110249553748 0 0.35350943553925918 0.29108565705483191 0 0.35406364503315629 0.30556050401663498 0 0.36242663026820299 0.31360288359152177 0 0.35406364503315629 0.30556050401663498 0 0.35554177717977781 0.31231309481106961 0 0.34891942957910649 0.31380534613200672 0 0.35406364503315629 0.30556050401663498 0 0.35554177717977781 0.31231309481106961 0 0.36242663026820299 0.31360288359152177 0 0.36543841163358259 0.29895717982996978 0 0.37836658210359958 0.32260988947355668 0 0.36543841163358259 0.29895717982996978 0 0.37836658210359958 0.32260988947355668 0 0.36242663026820299 0.31360288359152177 0 0.35350943553925918 0.29108565705483191 0 0.36543841163358259 0.29895717982996978 0 0.36543841163358259 0.29895717982996978 0 0.36850119265158587 0.27725852457877442 0 0.37849626367444611 0.29220633576509197 0 0.36543841163358259 0.29895717982996978 0 0.36850119265158587 0.27725852457877442 0 0.35251024116356561 0.27530447018638288 0 0.36850119265158587 0.27725852457877442 0 0.36089844697392959 0.26886093643781522 0 0.35251024116356561 0.27530447018638288 0 0.36850119265158587 0.27725852457877442 0 0.36089844697392959 0.26886093643781522 0 0.37203876368952632 0.26176247942277642 0 0.36850119265158587 0.27725852457877442 0 0.37203876368952632 0.26176247942277642 0 0.38382190630243063 0.26932258226590672 0 0.37203876368952632 0.26176247942277642 0 0.36535144901666577 0.24868912292977891 0 0.38037131449300632 0.24745659047848151 0 0.37203876368952632 0.26176247942277642 0 0.35839785662077128 0.25921490162054861 0 0.36535144901666577 0.24868912292977891 0 0.36089844697392959 0.26886093643781522 0 0.37203876368952632 0.26176247942277642 0 0.35839785662077128 0.25921490162054861 0 0.36089844697392959 0.26886093643781522 0 0.35839785662077128 0.25921490162054861 0 0.3528289088536406 0.26602731824511022 0 0.35839785662077128 0.25921490162054861 0 0.34856610204602417 0.25706137280202118 0 0.3528289088536406 0.26602731824511022 0 0.35839785662077128 0.25921490162054861 0 0.34856610204602417 0.25706137280202118 0 0.35133645786402262 0.2454450096448528 0 0.35839785662077128 0.25921490162054861 0 0.36535144901666577 0.24868912292977891 0 0.35133645786402262 0.2454450096448528 0 0.34856610204602417 0.25706137280202118 0 0.34459224081031542 0.26856843051814211 0 0.3528289088536406 0.26602731824511022 0 0.35350943553925918 0.29108565705483191 0 0.34459224081031542 0.26856843051814211 0 0.35251024116356561 0.27530447018638288 0 0.35350943553925918 0.29108565705483191 0 0.34459224081031542 0.26856843051814211 0 0.34459224081031542 0.26856843051814211 0 0.35251024116356561 0.27530447018638288 0 0.3528289088536406 0.26602731824511022 0 0.36089844697392959 0.26886093643781522 0 0.35251024116356561 0.27530447018638288 0 0.3528289088536406 0.26602731824511022 0 0.40081814743324989 0.26662229247369651 0 0.38979436612794782 0.28280238571952221 0 0.41108753960430972 0.28834624686026999 0 0.40081814743324989 0.26662229247369651 0 0.38382190630243063 0.26932258226590672 0 0.38979436612794782 0.28280238571952221 0 0.40081814743324989 0.26662229247369651 0 0.41095036499976129 0.25194624223085671 0 0.39513079281551999 0.24598282632620591 0 0.40081814743324989 0.26662229247369651 0 0.38795706160984289 0.25816722913476409 0 0.38382190630243063 0.26932258226590672 0 0.40081814743324989 0.26662229247369651 0 0.38795706160984289 0.25816722913476409 0 0.39513079281551999 0.24598282632620591 0 0.37203876368952632 0.26176247942277642 0 0.38795706160984289 0.25816722913476409 0 0.38037131449300632 0.24745659047848151 0 0.37203876368952632 0.26176247942277642 0 0.38795706160984289 0.25816722913476409 0 0.38382190630243063 0.26932258226590672 0 0.38795706160984289 0.25816722913476409 0 0.39513079281551999 0.24598282632620591 0 0.38037131449300632 0.24745659047848151 0 0.36850119265158587 0.27725852457877442 0 0.38979436612794782 0.28280238571952221 0 0.36850119265158587 0.27725852457877442 0 0.38382190630243063 0.26932258226590672 0 0.38979436612794782 0.28280238571952221 0 0.36850119265158587 0.27725852457877442 0 0.37849626367444611 0.29220633576509197 0 0.38979436612794782 0.28280238571952221 0 0.37849626367444611 0.29220633576509197 0 0.38979436612794782 0.28280238571952221 0 0.39466360376596987 0.30329540398890309 0 0.36543841163358259 0.29895717982996978 0 0.38136843408445192 0.30689836535971748 0 0.37836658210359958 0.32260988947355668 0 0.37849626367444611 0.29220633576509197 0 0.38136843408445192 0.30689836535971748 0 0.39466360376596987 0.30329540398890309 0 0.36543841163358259 0.29895717982996978 0 0.37849626367444611 0.29220633576509197 0 0.38136843408445192 0.30689836535971748 0 0.38136843408445192 0.30689836535971748 0 0.39466360376596987 0.30329540398890309 0 0.38995681253985692 0.31635889778179171 0 0.39466360376596987 0.30329540398890309 0 0.41247149237061198 0.30887500926159461 0 0.40149433200482648 0.31956587396720842 0 0.39466360376596987 0.30329540398890309 0 0.41108753960430972 0.28834624686026999 0 0.41247149237061198 0.30887500926159461 0 0.38979436612794782 0.28280238571952221 0 0.41108753960430972 0.28834624686026999 0 0.38979436612794782 0.28280238571952221 0 0.39466360376596987 0.30329540398890309 0 0.41108753960430972 0.28834624686026999 0 0.41108753960430972 0.28834624686026999 0 0.43238071308067161 0.29389010800101778 0 0.41108753960430972 0.28834624686026999 0 0.43238071308067161 0.29389010800101778 0 0.41981193735902028 0.27042707425552892 0 0.41108753960430972 0.28834624686026999 0 0.41247149237061198 0.30887500926159461 0 0.43238071308067161 0.29389010800101778 0 0.41247149237061198 0.30887500926159461 0 0.43238071308067161 0.29389010800101778 0 0.42592387661538389 0.32090313252268521 0 0.43238071308067161 0.29389010800101778 0 0.42592387661538389 0.32090313252268521 0 0.43238071308067161 0.29389010800101778 0 0.43912383842291902 0.30543712386247363 0 0.42592387661538389 0.32090313252268521 0 0.43238071308067161 0.29389010800101778 0 0.41981193735902028 0.27042707425552892 0 0.43914569790812569 0.26558790428013418 0 0.43238071308067161 0.29389010800101778 0 0.43914569790812569 0.26558790428013418 0 0.40081814743324989 0.26662229247369651 0 0.41108753960430972 0.28834624686026999 0 0.41981193735902028 0.27042707425552892 0 0.40081814743324989 0.26662229247369651 0 0.41981193735902028 0.27042707425552892 0 0.41095036499976129 0.25194624223085671 0 0.41981193735902028 0.27042707425552892 0 0.41095036499976129 0.25194624223085671 0 0.4258525799108791 0.25178309221925232 0 0.41981193735902028 0.27042707425552892 0 0.4258525799108791 0.25178309221925232 0 0.43914569790812569 0.26558790428013418 0 0.4258525799108791 0.25178309221925232 0 0.43809249381103949 0.25346742362620411 0 0.43914569790812569 0.26558790428013418 0 0.43914569790812569 0.26558790428013418 0 0.45068737645250012 0.25222827691578109 0 0.46352745751647378 0.27849112929454861 0 0.43809249381103949 0.25346742362620411 0 0.43914569790812569 0.26558790428013418 0 0.45068737645250012 0.25222827691578109 0 0.43914569790812569 0.26558790428013418 0 0.46352745751647378 0.27849112929454861 0 0.44635165040224151 0.28413460495160398 0 0.43238071308067161 0.29389010800101778 0 0.43914569790812569 0.26558790428013418 0 0.44635165040224151 0.28413460495160398 0 0.45068737645250012 0.25222827691578109 0 0.46352745751647378 0.27849112929454861 0 0.45068737645250012 0.25222827691578109 0 0.46352745751647378 0.27849112929454861 0 0.47262645521089469 0.25523395331798399 0 0.46352745751647378 0.27849112929454861 0 0.47262645521089469 0.25523395331798399 0 0.48282054252552781 0.27778384850148158 0 0.48282054252552781 0.27778384850148158 0 0.5 0.26144370046739279 0 0.500000000000004 0.29005965327141769 0 0.47262645521089469 0.25523395331798399 0 0.5 0.26144370046739279 0 0.48503608191265851 0.24259697126995569 0 0.47262645521089469 0.25523395331798399 0 0.48282054252552781 0.27778384850148158 0 0.5 0.26144370046739279 0 0.49999999999999539 0.3114953718445328 0 0.48416237656336197 0.30737191015247489 0 0.49999999999999539 0.3114953718445328 0 0.48416237656336669 0.29665405086591767 0 0.48416237656336197 0.30737191015247489 0 0.49999999999999539 0.3114953718445328 0 0.500000000000004 0.29005965327141769 0 0.48416237656336669 0.29665405086591767 0 0.500000000000004 0.29005965327141769 0 0.48416237656336669 0.29665405086591767 0 0.48282054252552781 0.27778384850148158 0 0.500000000000004 0.29005965327141769 0 0.48416237656336669 0.29665405086591767 0 0.46352745751647378 0.27849112929454861 0 0.48282054252552781 0.27778384850148158 0 0.46983757256715952 0.2909493510706162 0 0.48282054252552781 0.27778384850148158 0 0.48416237656336669 0.29665405086591767 0 0.46983757256715952 0.2909493510706162 0 0.48416237656336669 0.29665405086591767 0 0.46983757256715952 0.2909493510706162 0 0.46832475312672878 0.30324844846041599 0 0.48416237656336197 0.30737191015247489 0 0.46832475312672878 0.30324844846041599 0 0.47375064368431841 0.31834654922949579 0 0.48416237656336669 0.29665405086591767 0 0.46832475312672878 0.30324844846041599 0 0.48416237656336669 0.29665405086591767 0 0.48416237656336197 0.30737191015247489 0 0.46832475312672878 0.30324844846041599 0 0.48416237656336197 0.30737191015247489 0 0.46832475312672878 0.30324844846041599 0 0.46983757256715952 0.2909493510706162 0 0.46832475312672878 0.30324844846041599 0 0.45035273310370022 0.29856927823071677 0 0.46832475312672878 0.30324844846041599 0 0.45035273310370022 0.29856927823071677 0 0.46832475312672878 0.30324844846041599 0 0.44712431487105653 0.3120757904915511 0 0.46832475312672878 0.30324844846041599 0 0.44712431487105653 0.3120757904915511 0 0.45035273310370022 0.29856927823071677 0 0.46352745751647378 0.27849112929454861 0 0.44635165040224151 0.28413460495160398 0 0.45035273310370022 0.29856927823071677 0 0.46352745751647378 0.27849112929454861 0 0.46983757256715952 0.2909493510706162 0 0.45035273310370022 0.29856927823071677 0 0.43238071308067161 0.29389010800101778 0 0.44635165040224151 0.28413460495160398 0 0.45035273310370022 0.29856927823071677 0 0.43238071308067161 0.29389010800101778 0 0.45035273310370022 0.29856927823071677 0 0.43238071308067161 0.29389010800101778 0 0.45035273310370022 0.29856927823071677 0 0.43912383842291902 0.30543712386247363 0 0.44712431487105653 0.3120757904915511 0 0.45035273310370022 0.29856927823071677 0 0.43912383842291902 0.30543712386247363 0 0.44712431487105653 0.3120757904915511 0 0.43818163509446728 0.32239390992261929 0 0.446820269620819 0.32187873428605562 0 0.43818163509446728 0.32239390992261929 0 0.446820269620819 0.32187873428605562 0 0.44473717888622472 0.329378652725351 0 0.446820269620819 0.32187873428605562 0 0.44473717888622472 0.329378652725351 0 0.45853128246278502 0.32250440417281862 0 0.44712431487105653 0.3120757904915511 0 0.446820269620819 0.32187873428605562 0 0.45853128246278502 0.32250440417281862 0 0.44516376546860598 0.34008573118518082 0 0.45853128246278502 0.32250440417281862 0 0.44516376546860598 0.34008573118518082 0 0.44473717888622472 0.329378652725351 0 0.45853128246278502 0.32250440417281862 0 0.43818163509446728 0.32239390992261929 0 0.44473717888622472 0.329378652725351 0 0.4349889417844458 0.34003048406008057 0 0.44516376546860598 0.34008573118518082 0 0.44473717888622472 0.329378652725351 0 0.4349889417844458 0.34003048406008057 0 0.44516376546860598 0.34008573118518082 0 0.45789460636888679 0.33599934505066292 0 0.45438827783220209 0.34712783618335319 0 0.44516376546860598 0.34008573118518082 0 0.45789460636888679 0.33599934505066292 0 0.45853128246278502 0.32250440417281862 0 0.45789460636888679 0.33599934505066292 0 0.46397515164282349 0.34058759752634332 0 0.45438827783220209 0.34712783618335319 0 0.45789460636888679 0.33599934505066292 0 0.46835019410331441 0.33147145560788788 0 0.45853128246278502 0.32250440417281862 0 0.45789460636888679 0.33599934505066292 0 0.46835019410331441 0.33147145560788788 0 0.46397515164282349 0.34058759752634332 0 0.46832475312672878 0.30324844846041599 0 0.44712431487105653 0.3120757904915511 0 0.45853128246278502 0.32250440417281862 0 0.46832475312672878 0.30324844846041599 0 0.45853128246278502 0.32250440417281862 0 0.47375064368431841 0.31834654922949579 0 0.46835019410331441 0.33147145560788788 0 0.45853128246278502 0.32250440417281862 0 0.47375064368431841 0.31834654922949579 0 0.48416237656336197 0.30737191015247489 0 0.47375064368431841 0.31834654922949579 0 0.48777323095086511 0.31889298331489763 0 0.47375064368431841 0.31834654922949579 0 0.4809531345066449 0.33060800474093371 0 0.48777323095086511 0.31889298331489763 0 0.46835019410331441 0.33147145560788788 0 0.47375064368431841 0.31834654922949579 0 0.4809531345066449 0.33060800474093371 0 0.46835019410331441 0.33147145560788788 0 0.4749963459544278 0.34078283292707368 0 0.4809531345066449 0.33060800474093371 0 0.4749963459544278 0.34078283292707368 0 0.4809531345066449 0.33060800474093371 0 0.48253569746655262 0.35001025535840691 0 0.46835019410331441 0.33147145560788788 0 0.46397515164282349 0.34058759752634332 0 0.4749963459544278 0.34078283292707368 0 0.50000000000000067 0.32664308060705077 0 0.5 0.35004429701957152 0 0.48253569746655262 0.35001025535840691 0 0.4809531345066449 0.33060800474093371 0 0.50000000000000067 0.32664308060705077 0 0.48253569746655262 0.35001025535840691 0 0.50000000000000067 0.32664308060705077 0 0.48253569746655262 0.35001025535840691 0 0.4809531345066449 0.33060800474093371 0 0.50000000000000067 0.32664308060705077 0 0.48777323095086511 0.31889298331489763 0 0.49999999999999539 0.3114953718445328 0 0.48416237656336197 0.30737191015247489 0 0.48777323095086511 0.31889298331489763 0 0.49999999999999539 0.3114953718445328 0 0.50000000000000067 0.32664308060705077 0 0.48777323095086511 0.31889298331489763 0 0.5 0.37344551343209231 0 0.49137919438799421 0.36009248337962713 0 0.5 0.35004429701957152 0 0.5 0.37344551343209231 0 0.4829810800854244 0.36686986770843771 0 0.47711504446498798 0.37740662204562941 0 0.5 0.37344551343209231 0 0.49137919438799421 0.36009248337962713 0 0.4829810800854244 0.36686986770843771 0 0.49137919438799421 0.36009248337962713 0 0.48253569746655262 0.35001025535840691 0 0.4829810800854244 0.36686986770843771 0 0.49137919438799421 0.36009248337962713 0 0.5 0.35004429701957152 0 0.48253569746655262 0.35001025535840691 0 0.46397515164282349 0.34058759752634332 0 0.4749963459544278 0.34078283292707368 0 0.46943064387695349 0.35859753156573571 0 0.4749963459544278 0.34078283292707368 0 0.48253569746655262 0.35001025535840691 0 0.46943064387695349 0.35859753156573571 0 0.48253569746655262 0.35001025535840691 0 0.46507139493310429 0.37337743010976249 0 0.4829810800854244 0.36686986770843771 0 0.46507139493310429 0.37337743010976249 0 0.47711504446498798 0.37740662204562941 0 0.48253569746655262 0.35001025535840691 0 0.4829810800854244 0.36686986770843771 0 0.46507139493310429 0.37337743010976249 0 0.48253569746655262 0.35001025535840691 0 0.46943064387695349 0.35859753156573571 0 0.46507139493310429 0.37337743010976249 0 0.46943064387695349 0.35859753156573571 0 0.46507139493310429 0.37337743010976249 0 0.45834849820427331 0.38327795603703191 0 0.46943064387695349 0.35859753156573571 0 0.45834849820427331 0.38327795603703191 0 0.46943064387695349 0.35859753156573571 0 0.45304346944730739 0.36901749591891292 0 0.45834849820427331 0.38327795603703191 0 0.46943064387695349 0.35859753156573571 0 0.45280257570101351 0.35853442359304383 0 0.45304346944730739 0.36901749591891292 0 0.46943064387695349 0.35859753156573571 0 0.45438827783220209 0.34712783618335319 0 0.45280257570101351 0.35853442359304383 0 0.46397515164282349 0.34058759752634332 0 0.46943064387695349 0.35859753156573571 0 0.45438827783220209 0.34712783618335319 0 0.44516376546860598 0.34008573118518082 0 0.44518548229181071 0.35375574010810862 0 0.43179624847442588 0.35766705819754208 0 0.44516376546860598 0.34008573118518082 0 0.43179624847442588 0.35766705819754208 0 0.44516376546860598 0.34008573118518082 0 0.45438827783220209 0.34712783618335319 0 0.44518548229181071 0.35375574010810862 0 0.45280257570101351 0.35853442359304383 0 0.44518548229181071 0.35375574010810862 0 0.44177654398280491 0.36536365138142218 0 0.45438827783220209 0.34712783618335319 0 0.45280257570101351 0.35853442359304383 0 0.44518548229181071 0.35375574010810862 0 0.44518548229181071 0.35375574010810862 0 0.44177654398280491 0.36536365138142218 0 0.43179624847442588 0.35766705819754208 0 0.45304346944730739 0.36901749591891292 0 0.44177654398280491 0.36536365138142218 0 0.44362266907064868 0.37848073538402588 0 0.45280257570101351 0.35853442359304383 0 0.45304346944730739 0.36901749591891292 0 0.44177654398280491 0.36536365138142218 0 0.44177654398280491 0.36536365138142218 0 0.42889683993702421 0.37368351473101957 0 0.44362266907064868 0.37848073538402588 0 0.44177654398280491 0.36536365138142218 0 0.42889683993702421 0.37368351473101957 0 0.43179624847442588 0.35766705819754208 0 0.42149369373673851 0.37126145295054158 0 0.41514553476156058 0.3659957431789449 0 0.43179624847442588 0.35766705819754208 0 0.42889683993702421 0.37368351473101957 0 0.43179624847442588 0.35766705819754208 0 0.42889683993702421 0.37368351473101957 0 0.42149369373673851 0.37126145295054158 0 0.43179624847442588 0.35766705819754208 0 0.42149369373673851 0.37126145295054158 0 0.43179624847442588 0.35766705819754208 0 0.42889683993702421 0.37368351473101957 0 0.42149369373673851 0.37126145295054158 0 0.42831594672437651 0.3768923936354196 0 0.42889683993702421 0.37368351473101957 0 0.42149369373673851 0.37126145295054158 0 0.42149369373673851 0.37126145295054158 0 0.42831594672437651 0.3768923936354196 0 0.42149369373673851 0.37126145295054158 0 0.41799472642704188 0.37581920062527019 0 0.42149369373673851 0.37126145295054158 0 0.41704110286109708 0.37143094257206422 0 0.41799472642704188 0.37581920062527019 0 0.42149369373673851 0.37126145295054158 0 0.41799472642704188 0.37581920062527019 0 0.42369404668154748 0.37703916363575829 0 0.41704110286109708 0.37143094257206422 0 0.41443412742037811 0.36897200935133723 0 0.41799472642704188 0.37581920062527019 0 0.42149369373673851 0.37126145295054158 0 0.41443412742037811 0.36897200935133723 0 0.41514553476156058 0.3659957431789449 0 0.42149369373673851 0.37126145295054158 0 0.41443412742037811 0.36897200935133723 0 0.42149369373673851 0.37126145295054158 0 0.41704110286109708 0.37143094257206422 0 0.41443412742037811 0.36897200935133723 0 0.41443412742037811 0.36897200935133723 0 0.41514553476156058 0.3659957431789449 0 0.42149369373673851 0.37126145295054158 0 0.41514553476156058 0.3659957431789449 0 0.41514553476156058 0.3659957431789449 0 0.40860322958291218 0.36707248279309601 0 0.40322014366758852 0.35612917114804438 0 0.41514553476156058 0.3659957431789449 0 0.40322014366758852 0.35612917114804438 0 0.40860322958291218 0.36707248279309601 0 0.40876138542500068 0.37614015016893187 0 0.41799472642704188 0.37581920062527019 0 0.41443412742037811 0.36897200935133723 0 0.40860322958291218 0.36707248279309601 0 0.41799472642704188 0.37581920062527019 0 0.40860322958291218 0.36707248279309601 0 0.41799472642704188 0.37581920062527019 0 0.41443412742037811 0.36897200935133723 0 0.40860322958291218 0.36707248279309601 0 0.41443412742037811 0.36897200935133723 0 0.41514553476156058 0.3659957431789449 0 0.40860322958291218 0.36707248279309601 0 0.41514553476156058 0.3659957431789449 0 0.42053470568847251 0.34344943785081511 0 0.41514553476156058 0.3659957431789449 0 0.41065668548842821 0.35078238510556697 0 0.42053470568847251 0.34344943785081511 0 0.41065668548842821 0.35078238510556697 0 0.40689235701158721 0.3408029994323033 0 0.40500564494617403 0.34946124854364452 0 0.41065668548842821 0.35078238510556697 0 0.42053470568847251 0.34344943785081511 0 0.40689235701158721 0.3408029994323033 0 0.41514553476156058 0.3659957431789449 0 0.41065668548842821 0.35078238510556697 0 0.40322014366758852 0.35612917114804438 0 0.41065668548842821 0.35078238510556697 0 0.40322014366758852 0.35612917114804438 0 0.40500564494617403 0.34946124854364452 0 0.43179624847442588 0.35766705819754208 0 0.4349889417844458 0.34003048406008057 0 0.42053470568847251 0.34344943785081511 0 0.43179624847442588 0.35766705819754208 0 0.4349889417844458 0.34003048406008057 0 0.41514553476156058 0.3659957431789449 0 0.43179624847442588 0.35766705819754208 0 0.42053470568847251 0.34344943785081511 0 0.44516376546860598 0.34008573118518082 0 0.43179624847442588 0.35766705819754208 0 0.4349889417844458 0.34003048406008057 0 0.43818163509446728 0.32239390992261929 0 0.4349889417844458 0.34003048406008057 0 0.43818163509446728 0.32239390992261929 0 0.4349889417844458 0.34003048406008057 0 0.42990728979569198 0.33169424108904988 0 0.42990728979569198 0.33169424108904988 0 0.42592387661538389 0.32090313252268521 0 0.42053470568847251 0.34344943785081511 0 0.42592387661538389 0.32090313252268521 0 0.42053470568847251 0.34344943785081511 0 0.4349889417844458 0.34003048406008057 0 0.42990728979569198 0.33169424108904988 0 0.42053470568847251 0.34344943785081511 0 0.44712431487105653 0.3120757904915511 0 0.43912383842291902 0.30543712386247363 0 0.42592387661538389 0.32090313252268521 0 0.44712431487105653 0.3120757904915511 0 0.43818163509446728 0.32239390992261929 0 0.42592387661538389 0.32090313252268521 0 0.44712431487105653 0.3120757904915511 0 0.42592387661538389 0.32090313252268521 0 0.43818163509446728 0.32239390992261929 0 0.42990728979569198 0.33169424108904988 0 0.42592387661538389 0.32090313252268521 0 0.41247149237061198 0.30887500926159461 0 0.42592387661538389 0.32090313252268521 0 0.41153083830163673 0.32689604033574421 0 0.41247149237061198 0.30887500926159461 0 0.41153083830163673 0.32689604033574421 0 0.40149433200482648 0.31956587396720842 0 0.42592387661538389 0.32090313252268521 0 0.41153083830163673 0.32689604033574421 0 0.41153083830163673 0.32689604033574421 0 0.42053470568847251 0.34344943785081511 0 0.40689235701158721 0.3408029994323033 0 0.42592387661538389 0.32090313252268521 0 0.41153083830163673 0.32689604033574421 0 0.42053470568847251 0.34344943785081511 0 0.41153083830163673 0.32689604033574421 0 0.40689235701158721 0.3408029994323033 0 0.40243939807560608 0.33124901672152968 0 0.40689235701158721 0.3408029994323033 0 0.3986738359761326 0.33869037150521902 0 0.4001107700096066 0.34602956122831968 0 0.3986738359761326 0.33869037150521902 0 0.39357625307005162 0.32935738594445663 0 0.39129475257361668 0.34626259911714341 0 0.40689235701158721 0.3408029994323033 0 0.3986738359761326 0.33869037150521902 0 0.40243939807560608 0.33124901672152968 0 0.3986738359761326 0.33869037150521902 0 0.40243939807560608 0.33124901672152968 0 0.39357625307005162 0.32935738594445663 0 0.3986738359761326 0.33869037150521902 0 0.4001107700096066 0.34602956122831968 0 0.39129475257361668 0.34626259911714341 0 0.39466360376596987 0.30329540398890309 0 0.40149433200482648 0.31956587396720842 0 0.38995681253985692 0.31635889778179171 0 0.41153083830163673 0.32689604033574421 0 0.40243939807560608 0.33124901672152968 0 0.40149433200482648 0.31956587396720842 0 0.40243939807560608 0.33124901672152968 0 0.39357625307005162 0.32935738594445663 0 0.40149433200482648 0.31956587396720842 0 0.39357625307005162 0.32935738594445663 0 0.40149433200482648 0.31956587396720842 0 0.38995681253985692 0.31635889778179171 0 0.38136843408445192 0.30689836535971748 0 0.38995681253985692 0.31635889778179171 0 0.37836658210359958 0.32260988947355668 0 0.39357625307005162 0.32935738594445663 0 0.38995681253985692 0.31635889778179171 0 0.37836658210359958 0.32260988947355668 0 0.39357625307005162 0.32935738594445663 0 0.37836658210359958 0.32260988947355668 0 0.39129475257361668 0.34626259911714341 0 0.37836658210359958 0.32260988947355668 0 0.37670010390319247 0.33418759451245328 0 0.39129475257361668 0.34626259911714341 0 0.37836658210359958 0.32260988947355668 0 0.39129475257361668 0.34626259911714341 0 0.37670010390319247 0.33418759451245328 0 0.39129475257361668 0.34626259911714341 0 0.37134382499714702 0.33612011012821158 0 0.37836658210359958 0.32260988947355668 0 0.37670010390319247 0.33418759451245328 0 0.37134382499714702 0.33612011012821158 0 0.3804403147229114 0.34849067002688888 0 0.37134382499714702 0.33612011012821158 0 0.37670010390319247 0.33418759451245328 0 0.3804403147229114 0.34849067002688888 0 0.37670010390319247 0.33418759451245328 0 0.3804403147229114 0.34849067002688888 0 0.39129475257361668 0.34626259911714341 0 0.37134382499714702 0.33612011012821158 0 0.37989824842620068 0.35772128584522878 0 0.37134382499714702 0.33612011012821158 0 0.3804403147229114 0.34849067002688888 0 0.37989824842620068 0.35772128584522878 0 0.3804403147229114 0.34849067002688888 0 0.39054625669990861 0.35025522252754709 0 0.39129475257361668 0.34626259911714341 0 0.3804403147229114 0.34849067002688888 0 0.37989824842620068 0.35772128584522878 0 0.38953680444867589 0.36086122992556618 0 0.37989824842620068 0.35772128584522878 0 0.38953680444867589 0.36086122992556618 0 0.3804403147229114 0.34849067002688888 0 0.38953680444867589 0.36086122992556618 0 0.3804403147229114 0.34849067002688888 0 0.39054625669990861 0.35025522252754709 0 0.38953680444867589 0.36086122992556618 0 0.37300213681342781 0.36514424334188028 0 0.37989824842620068 0.35772128584522878 0 0.37882747863530919 0.36317057831505872 0 0.37300213681342781 0.36514424334188028 0 0.37882747863530919 0.36317057831505872 0 0.38235308739048968 0.36841380124629652 0 0.37882747863530919 0.36317057831505872 0 0.38259555512134791 0.36277268177712291 0 0.38235308739048968 0.36841380124629652 0 0.37989824842620068 0.35772128584522878 0 0.37882747863530919 0.36317057831505872 0 0.38259555512134791 0.36277268177712291 0 0.37300213681342781 0.36514424334188028 0 0.38235308739048968 0.36841380124629652 0 0.37750179591751032 0.37827956406138702 0 0.38235308739048968 0.36841380124629652 0 0.38865386389068662 0.37468672734925679 0 0.38953680444867589 0.36086122992556618 0 0.38235308739048968 0.36841380124629652 0 0.38865386389068662 0.37468672734925679 0 0.37750179591751032 0.37827956406138702 0 0.37989824842620068 0.35772128584522878 0 0.38259555512134791 0.36277268177712291 0 0.38953680444867589 0.36086122992556618 0 0.38259555512134791 0.36277268177712291 0 0.38235308739048968 0.36841380124629652 0 0.38953680444867589 0.36086122992556618 0 0.40860322958291218 0.36707248279309601 0 0.38953680444867589 0.36086122992556618 0 0.40860322958291218 0.36707248279309601 0 0.38953680444867589 0.36086122992556618 0 0.3993281300462419 0.37417671572764227 0 0.40860322958291218 0.36707248279309601 0 0.38953680444867589 0.36086122992556618 0 0.39564073478974182 0.35499993607997782 0 0.38953680444867589 0.36086122992556618 0 0.3993281300462419 0.37417671572764227 0 0.38865386389068662 0.37468672734925679 0 0.38953680444867589 0.36086122992556618 0 0.3993281300462419 0.37417671572764227 0 0.40860322958291218 0.36707248279309601 0 0.3993281300462419 0.37417671572764227 0 0.40876138542500068 0.37614015016893187 0 0.40860322958291218 0.36707248279309601 0 0.40322014366758852 0.35612917114804438 0 0.39564073478974182 0.35499993607997782 0 0.40860322958291218 0.36707248279309601 0 0.39564073478974182 0.35499993607997782 0 0.40322014366758852 0.35612917114804438 0 0.4001107700096066 0.34602956122831968 0 0.40500564494617403 0.34946124854364452 0 0.40689235701158721 0.3408029994323033 0 0.4001107700096066 0.34602956122831968 0 0.40500564494617403 0.34946124854364452 0 0.39054625669990861 0.35025522252754709 0 0.39129475257361668 0.34626259911714341 0 0.39564073478974182 0.35499993607997782 0 0.40322014366758852 0.35612917114804438 0 0.39129475257361668 0.34626259911714341 0 0.39129475257361668 0.34626259911714341 0 0.39564073478974182 0.35499993607997782 0 0.40322014366758852 0.35612917114804438 0 0.4001107700096066 0.34602956122831968 0 0.39129475257361668 0.34626259911714341 0 0.39054625669990861 0.35025522252754709 0 0.39564073478974182 0.35499993607997782 0 0.39054625669990861 0.35025522252754709 0 0.38953680444867589 0.36086122992556618 0 0.39564073478974182 0.35499993607997782 0 0.40322014366758852 0.35612917114804438 0 0.39129475257361668 0.34626259911714341 0 0.39564073478974182 0.35499993607997782 0 0.39531272796390221 0.40565119054890442 0 0.39133339248254462 0.38653687521676799 0 0.40911945564380819 0.38749220152971819 0 0.39531272796390221 0.40565119054890442 0 0.40911945564380819 0.38749220152971819 0 0.3993281300462419 0.37417671572764227 0 0.39133339248254462 0.38653687521676799 0 0.40911945564380819 0.38749220152971819 0 0.3993281300462419 0.37417671572764227 0 0.40876138542500068 0.37614015016893187 0 0.40911945564380819 0.38749220152971819 0 0.3993281300462419 0.37417671572764227 0 0.40911945564380819 0.38749220152971819 0 0.38865386389068662 0.37468672734925679 0 0.3993281300462419 0.37417671572764227 0 0.39133339248254462 0.38653687521676799 0 0.39133339248254462 0.38653687521676799 0 0.37750179591751032 0.37827956406138702 0 0.37741435868979162 0.39785871654857041 0 0.38865386389068662 0.37468672734925679 0 0.39133339248254462 0.38653687521676799 0 0.37750179591751032 0.37827956406138702 0 0.39531272796390221 0.40565119054890442 0 0.39133339248254462 0.38653687521676799 0 0.37741435868979162 0.39785871654857041 0 0.36741971183607891 0.41273989063734579 0 0.37741435868979162 0.39785871654857041 0 0.38150600028399539 0.42381017956808997 0 0.39531272796390221 0.40565119054890442 0 0.37741435868979162 0.39785871654857041 0 0.38150600028399539 0.42381017956808997 0 0.39531272796390221 0.40565119054890442 0 0.38150600028399539 0.42381017956808997 0 0.38150600028399539 0.42381017956808997 0 0.3963807431566706 0.44101543553264821 0 0.38144121119396152 0.44370339639388101 0 0.36769927260408858 0.44196916858727558 0 0.38150600028399539 0.42381017956808997 0 0.38144121119396152 0.44370339639388101 0 0.40168643995031111 0.42368317461277799 0 0.41833986844436788 0.43200067592305619 0 0.3963807431566706 0.44101543553264821 0 0.38150600028399539 0.42381017956808997 0 0.40168643995031111 0.42368317461277799 0 0.3963807431566706 0.44101543553264821 0 0.39531272796390221 0.40565119054890442 0 0.38150600028399539 0.42381017956808997 0 0.40168643995031111 0.42368317461277799 0 0.39531272796390221 0.40565119054890442 0 0.40168643995031111 0.42368317461277799 0 0.42298390243874312 0.40634683388894771 0 0.41833986844436788 0.43200067592305619 0 0.42298390243874312 0.40634683388894771 0 0.40168643995031111 0.42368317461277799 0 0.41833986844436788 0.43200067592305619 0 0.42298390243874312 0.40634683388894771 0 0.41833986844436788 0.43200067592305619 0 0.42760932494393589 0.42639912851080491 0 0.42713374831222778 0.44155952345343391 0 0.43648218011755763 0.43197520546364032 0 0.43310692540678553 0.42011340382494677 0 0.44255921634550183 0.41844137924775948 0 0.42760932494393589 0.42639912851080491 0 0.43648218011755763 0.43197520546364032 0 0.43310692540678553 0.42011340382494677 0 0.42760932494393589 0.42639912851080491 0 0.43648218011755763 0.43197520546364032 0 0.42713374831222778 0.44155952345343391 0 0.41833986844436788 0.43200067592305619 0 0.42760932494393589 0.42639912851080491 0 0.42298390243874312 0.40634683388894771 0 0.42760932494393589 0.42639912851080491 0 0.42298390243874312 0.40634683388894771 0 0.43310692540678553 0.42011340382494677 0 0.42298390243874312 0.40634683388894771 0 0.43310692540678553 0.42011340382494677 0 0.43310692540678553 0.42011340382494677 0 0.43554336167088797 0.41269221164965358 0 0.44255921634550183 0.41844137924775948 0 0.42298390243874312 0.40634683388894771 0 0.43310692540678553 0.42011340382494677 0 0.43554336167088797 0.41269221164965358 0 0.42298390243874312 0.40634683388894771 0 0.43554336167088797 0.41269221164965358 0 0.43582944136053409 0.40481412221130719 0 0.42298390243874312 0.40634683388894771 0 0.426993110859893 0.38419979542137611 0 0.43582944136053409 0.40481412221130719 0 0.426993110859893 0.38419979542137611 0 0.44881056272991759 0.40451935666825029 0 0.42298390243874312 0.40634683388894771 0 0.43582944136053409 0.40481412221130719 0 0.426993110859893 0.38419979542137611 0 0.39531272796390221 0.40565119054890442 0 0.42298390243874312 0.40634683388894771 0 0.40911945564380819 0.38749220152971819 0 0.42298390243874312 0.40634683388894771 0 0.40911945564380819 0.38749220152971819 0 0.42298390243874312 0.40634683388894771 0 0.40911945564380819 0.38749220152971819 0 0.426993110859893 0.38419979542137611 0 0.40911945564380819 0.38749220152971819 0 0.41799472642704188 0.37581920062527019 0 0.426993110859893 0.38419979542137611 0 0.40911945564380819 0.38749220152971819 0 0.41799472642704188 0.37581920062527019 0 0.40876138542500068 0.37614015016893187 0 0.40911945564380819 0.38749220152971819 0 0.41799472642704188 0.37581920062527019 0 0.42149369373673851 0.37126145295054158 0 0.42369404668154748 0.37703916363575829 0 0.42831594672437651 0.3768923936354196 0 0.41799472642704188 0.37581920062527019 0 0.426993110859893 0.38419979542137611 0 0.41799472642704188 0.37581920062527019 0 0.42369404668154748 0.37703916363575829 0 0.426993110859893 0.38419979542137611 0 0.42831594672437651 0.3768923936354196 0 0.426993110859893 0.38419979542137611 0 0.42369404668154748 0.37703916363575829 0 0.42831594672437651 0.3768923936354196 0 0.426993110859893 0.38419979542137611 0 0.42889683993702421 0.37368351473101957 0 0.42831594672437651 0.3768923936354196 0 0.42831594672437651 0.3768923936354196 0 0.426993110859893 0.38419979542137611 0 0.44031000750434113 0.38681578010518142 0 0.42831594672437651 0.3768923936354196 0 0.44031000750434113 0.38681578010518142 0 0.42889683993702421 0.37368351473101957 0 0.42831594672437651 0.3768923936354196 0 0.44362266907064868 0.37848073538402588 0 0.42889683993702421 0.37368351473101957 0 0.44362266907064868 0.37848073538402588 0 0.42831594672437651 0.3768923936354196 0 0.44362266907064868 0.37848073538402588 0 0.44031000750434113 0.38681578010518142 0 0.44362266907064868 0.37848073538402588 0 0.44031000750434113 0.38681578010518142 0 0.44915170540911942 0.38587763775568329 0 0.44031000750434113 0.38681578010518142 0 0.44915170540911942 0.38587763775568329 0 0.45230406828430642 0.39673916657494251 0 0.44362266907064868 0.37848073538402588 0 0.45834849820427331 0.38327795603703191 0 0.45304346944730739 0.36901749591891292 0 0.44362266907064868 0.37848073538402588 0 0.45834849820427331 0.38327795603703191 0 0.44362266907064868 0.37848073538402588 0 0.44915170540911942 0.38587763775568329 0 0.45834849820427331 0.38327795603703191 0 0.426993110859893 0.38419979542137611 0 0.44031000750434113 0.38681578010518142 0 0.44881056272991759 0.40451935666825029 0 0.44031000750434113 0.38681578010518142 0 0.45230406828430642 0.39673916657494251 0 0.44881056272991759 0.40451935666825029 0 0.426993110859893 0.38419979542137611 0 0.44881056272991759 0.40451935666825029 0 0.44031000750434113 0.38681578010518142 0 0.45230406828430642 0.39673916657494251 0 0.45230406828430642 0.39673916657494251 0 0.44881056272991759 0.40451935666825029 0 0.45230406828430642 0.39673916657494251 0 0.44881056272991759 0.40451935666825029 0 0.46072912083633127 0.40370970424650848 0 0.45230406828430642 0.39673916657494251 0 0.46072912083633127 0.40370970424650848 0 0.45230406828430642 0.39673916657494251 0 0.46072912083633127 0.40370970424650848 0 0.46374483551703088 0.3942870029353237 0 0.45230406828430642 0.39673916657494251 0 0.46374483551703088 0.3942870029353237 0 0.45834849820427331 0.38327795603703191 0 0.46072912083633127 0.40370970424650848 0 0.46374483551703088 0.3942870029353237 0 0.47055996239922038 0.39937110305939788 0 0.46507139493310429 0.37337743010976249 0 0.45834849820427331 0.38327795603703191 0 0.47711504446498798 0.37740662204562941 0 0.46374483551703088 0.3942870029353237 0 0.45834849820427331 0.38327795603703191 0 0.47917424910213818 0.3900623429408222 0 0.44915170540911942 0.38587763775568329 0 0.45230406828430642 0.39673916657494251 0 0.45834849820427331 0.38327795603703191 0 0.45230406828430642 0.39673916657494251 0 0.45834849820427331 0.38327795603703191 0 0.45834849820427331 0.38327795603703191 0 0.47917424910213818 0.3900623429408222 0 0.45834849820427331 0.38327795603703191 0 0.47711504446498798 0.37740662204562941 0 0.47917424910213818 0.3900623429408222 0 0.46374483551703088 0.3942870029353237 0 0.47917424910213818 0.3900623429408222 0 0.47055996239922038 0.39937110305939788 0 0.47917424910213818 0.3900623429408222 0 0.47055996239922038 0.39937110305939788 0 0.47591153823225107 0.40581327841065712 0 0.46072912083633127 0.40370970424650848 0 0.47055996239922038 0.39937110305939788 0 0.47591153823225107 0.40581327841065712 0 0.47917424910213818 0.3900623429408222 0 0.47591153823225107 0.40581327841065712 0 0.50000000000000311 0.396846729844613 0 0.47917424910213818 0.3900623429408222 0 0.50000000000000311 0.396846729844613 0 0.5 0.37344551343209231 0 0.47917424910213818 0.3900623429408222 0 0.50000000000000311 0.396846729844613 0 0.5 0.37344551343209231 0 0.47711504446498798 0.37740662204562941 0 0.47917424910213818 0.3900623429408222 0 0.50000000000000311 0.396846729844613 0 0.5 0.45643134158594872 0 0.47952694912383431 0.43906710137262472 0 0.50000000000000311 0.396846729844613 0 0.47678091202007372 0.41811136700570678 0 0.47952694912383431 0.43906710137262472 0 0.47591153823225107 0.40581327841065712 0 0.50000000000000311 0.396846729844613 0 0.47678091202007372 0.41811136700570678 0 0.47591153823225107 0.40581327841065712 0 0.47678091202007372 0.41811136700570678 0 0.46310403704542102 0.41783150368316008 0 0.47678091202007372 0.41811136700570678 0 0.46536203569886148 0.43099822171747948 0 0.47952694912383431 0.43906710137262472 0 0.46536203569886148 0.43099822171747948 0 0.45328497523228278 0.43340835092405222 0 0.454328040934671 0.44802320708181848 0 0.47678091202007372 0.41811136700570678 0 0.46536203569886148 0.43099822171747948 0 0.46310403704542102 0.41783150368316008 0 0.46536203569886148 0.43099822171747948 0 0.45393676907958319 0.42385787989434071 0 0.46310403704542102 0.41783150368316008 0 0.46536203569886148 0.43099822171747948 0 0.45393676907958319 0.42385787989434071 0 0.45328497523228278 0.43340835092405222 0 0.46072912083633127 0.40370970424650848 0 0.47591153823225107 0.40581327841065712 0 0.46310403704542102 0.41783150368316008 0 0.45393676907958319 0.42385787989434071 0 0.46310403704542102 0.41783150368316008 0 0.45107583950138652 0.41742909132529687 0 0.44881056272991759 0.40451935666825029 0 0.46310403704542102 0.41783150368316008 0 0.45107583950138652 0.41742909132529687 0 0.44881056272991759 0.40451935666825029 0 0.46310403704542102 0.41783150368316008 0 0.44881056272991759 0.40451935666825029 0 0.46072912083633127 0.40370970424650848 0 0.46310403704542102 0.41783150368316008 0 0.44881056272991759 0.40451935666825029 0 0.45107583950138652 0.41742909132529687 0 0.44255921634550183 0.41844137924775948 0 0.44881056272991759 0.40451935666825029 0 0.44255921634550183 0.41844137924775948 0 0.45107583950138652 0.41742909132529687 0 0.44255921634550183 0.41844137924775948 0 0.44834738856140671 0.42221002268455898 0 0.45393676907958319 0.42385787989434071 0 0.45107583950138652 0.41742909132529687 0 0.44834738856140671 0.42221002268455898 0 0.43554336167088797 0.41269221164965358 0 0.44255921634550183 0.41844137924775948 0 0.44323732280287798 0.41374531907530698 0 0.44255921634550183 0.41844137924775948 0 0.44323732280287798 0.41374531907530698 0 0.43554336167088797 0.41269221164965358 0 0.43582944136053409 0.40481412221130719 0 0.44323732280287798 0.41374531907530698 0 0.44881056272991759 0.40451935666825029 0 0.44255921634550183 0.41844137924775948 0 0.44323732280287798 0.41374531907530698 0 0.43582944136053409 0.40481412221130719 0 0.44881056272991759 0.40451935666825029 0 0.44323732280287798 0.41374531907530698 0 0.44255921634550183 0.41844137924775948 0 0.4458177293191552 0.42911174027083882 0 0.43876322221649772 0.44472960678216472 0 0.43648218011755763 0.43197520546364032 0 0.44255921634550183 0.41844137924775948 0 0.43876322221649772 0.44472960678216472 0 0.44255921634550183 0.41844137924775948 0 0.43876322221649772 0.44472960678216472 0 0.45328497523228278 0.43340835092405222 0 0.4458177293191552 0.42911174027083882 0 0.44804849192565172 0.4388182262647185 0 0.45393676907958319 0.42385787989434071 0 0.4458177293191552 0.42911174027083882 0 0.44834738856140671 0.42221002268455898 0 0.45393676907958319 0.42385787989434071 0 0.45328497523228278 0.43340835092405222 0 0.4458177293191552 0.42911174027083882 0 0.44255921634550183 0.41844137924775948 0 0.4458177293191552 0.42911174027083882 0 0.44834738856140671 0.42221002268455898 0 0.43648218011755763 0.43197520546364032 0 0.44255921634550183 0.41844137924775948 0 0.4458177293191552 0.42911174027083882 0 0.43876322221649772 0.44472960678216472 0 0.44804849192565172 0.4388182262647185 0 0.43876322221649772 0.44472960678216472 0 0.44804849192565172 0.4388182262647185 0 0.454328040934671 0.44802320708181848 0 0.45328497523228278 0.43340835092405222 0 0.44804849192565172 0.4388182262647185 0 0.454328040934671 0.44802320708181848 0 0.43876322221649772 0.44472960678216472 0 0.454328040934671 0.44802320708181848 0 0.43496722808749438 0.47101783431657002 0 0.46600341857239957 0.46403109784294932 0 0.454328040934671 0.44802320708181848 0 0.43496722808749438 0.47101783431657002 0 0.46536203569886148 0.43099822171747948 0 0.454328040934671 0.44802320708181848 0 0.47952694912383431 0.43906710137262472 0 0.46600341857239957 0.46403109784294932 0 0.454328040934671 0.44802320708181848 0 0.47952694912383431 0.43906710137262472 0 0.46600341857239957 0.46403109784294932 0 0.5 0.45643134158594872 0 0.47896090253936119 0.48199552412540198 0 0.46600341857239957 0.46403109784294932 0 0.5 0.45643134158594872 0 0.47952694912383431 0.43906710137262472 0 0.5 0.5 0 0.47896090253936119 0.48199552412540198 0 0.46085089641172777 0.5 0 0.5 0.45643134158594872 0 0.5 0.5 0 0.47896090253936119 0.48199552412540198 0 0.47896090253936119 0.48199552412540198 0 0.46085089641172777 0.5 0 0.4497836249496584 0.48498268806519601 0 0.46600341857239957 0.46403109784294932 0 0.47896090253936119 0.48199552412540198 0 0.4497836249496584 0.48498268806519601 0 0.46600341857239957 0.46403109784294932 0 0.4497836249496584 0.48498268806519601 0 0.43496722808749438 0.47101783431657002 0 0.46085089641172777 0.5 0 0.4497836249496584 0.48498268806519601 0 0.43117123395849111 0.49730606185097542 0 0.4497836249496584 0.48498268806519601 0 0.43117123395849111 0.49730606185097542 0 0.43496722808749438 0.47101783431657002 0 0.46085089641172777 0.5 0 0.43117123395849111 0.49730606185097542 0 0.40603016558629951 0.50000000000000011 0 0.43117123395849111 0.49730606185097542 0 0.42358570556831648 0.48541916332377211 0 0.43496722808749438 0.47101783431657002 0 0.4090518004556209 0.48330835999127397 0 0.40603016558629951 0.50000000000000011 0 0.42358570556831648 0.48541916332377211 0 0.4090518004556209 0.48330835999127397 0 0.40603016558629951 0.50000000000000011 0 0.43117123395849111 0.49730606185097542 0 0.42358570556831648 0.48541916332377211 0 0.40603016558629951 0.50000000000000011 0 0.4090518004556209 0.48330835999127397 0 0.41369583444999503 0.45765451795716522 0 0.4090518004556209 0.48330835999127397 0 0.41958036662967341 0.47189896149314858 0 0.41369583444999503 0.45765451795716522 0 0.42358570556831648 0.48541916332377211 0 0.41545378949143918 0.48106681275478741 0 0.41958036662967341 0.47189896149314858 0 0.4090518004556209 0.48330835999127397 0 0.41545378949143918 0.48106681275478741 0 0.41958036662967341 0.47189896149314858 0 0.42358570556831648 0.48541916332377211 0 0.4090518004556209 0.48330835999127397 0 0.41545378949143918 0.48106681275478741 0 0.43117123395849111 0.49730606185097542 0 0.43496722808749438 0.47101783431657002 0 0.42358570556831648 0.48541916332377211 0 0.41958036662967341 0.47189896149314858 0 0.43496722808749438 0.47101783431657002 0 0.43876322221649772 0.44472960678216472 0 0.43496722808749438 0.47101783431657002 0 0.42719598653590291 0.45665158499630198 0 0.43876322221649772 0.44472960678216472 0 0.43496722808749438 0.47101783431657002 0 0.41958036662967341 0.47189896149314858 0 0.43496722808749438 0.47101783431657002 0 0.42719598653590291 0.45665158499630198 0 0.42719598653590291 0.45665158499630198 0 0.42713374831222778 0.44155952345343391 0 0.41369583444999503 0.45765451795716522 0 0.43648218011755763 0.43197520546364032 0 0.43876322221649772 0.44472960678216472 0 0.42713374831222778 0.44155952345343391 0 0.43876322221649772 0.44472960678216472 0 0.42719598653590291 0.45665158499630198 0 0.42713374831222778 0.44155952345343391 0 0.41833986844436788 0.43200067592305619 0 0.41369583444999503 0.45765451795716522 0 0.3963807431566706 0.44101543553264821 0 0.41833986844436788 0.43200067592305619 0 0.42713374831222778 0.44155952345343391 0 0.41369583444999503 0.45765451795716522 0 0.41833986844436788 0.43200067592305619 0 0.41369583444999503 0.45765451795716522 0 0.41958036662967341 0.47189896149314858 0 0.42719598653590291 0.45665158499630198 0 0.41369583444999503 0.45765451795716522 0 0.41369583444999503 0.45765451795716522 0 0.39000776897271838 0.45452198773530289 0 0.38897123859788751 0.47107171661547381 0 0.41369583444999503 0.45765451795716522 0 0.3963807431566706 0.44101543553264821 0 0.39000776897271838 0.45452198773530289 0 0.37367472443959121 0.4552355489148302 0 0.38144121119396152 0.44370339639388101 0 0.39000776897271838 0.45452198773530289 0 0.3963807431566706 0.44101543553264821 0 0.38144121119396152 0.44370339639388101 0 0.39000776897271838 0.45452198773530289 0 0.37367472443959121 0.4552355489148302 0 0.39000776897271838 0.45452198773530289 0 0.38897123859788751 0.47107171661547381 0 0.36889067674015441 0.45883507323967299 0 0.38897123859788751 0.47107171661547381 0 0.37367472443959121 0.4552355489148302 0 0.36889067674015441 0.45883507323967299 0 0.38897123859788751 0.47107171661547381 0 0.37069425845755027 0.4829101038082208 0 0.38897123859788751 0.47107171661547381 0 0.39241607446637722 0.48798495354924781 0 0.37069425845755027 0.4829101038082208 0 0.36889067674015441 0.45883507323967299 0 0.38897123859788751 0.47107171661547381 0 0.37069425845755027 0.4829101038082208 0 0.38306744629049172 0.5 0 0.39241607446637722 0.48798495354924781 0 0.4090518004556209 0.48330835999127397 0 0.39241607446637722 0.48798495354924781 0 0.40603016558629951 0.50000000000000011 0 0.38306744629049172 0.5 0 0.39241607446637722 0.48798495354924781 0 0.40603016558629951 0.50000000000000011 0 0.4090518004556209 0.48330835999127397 0 0.38897123859788751 0.47107171661547381 0 0.4090518004556209 0.48330835999127397 0 0.41369583444999503 0.45765451795716522 0 0.38897123859788751 0.47107171661547381 0 0.4090518004556209 0.48330835999127397 0 0.38897123859788751 0.47107171661547381 0 0.39241607446637722 0.48798495354924781 0 0.32862643596017399 0.090257756324488875 0 0.342004249009209 0.085798665348525344 0 0.33107418954414508 0.072047683595330314 0 0.32862643596017399 0.090257756324488875 0 0.342004249009209 0.085798665348525344 0 0.34064529080871703 0.1002313314727791 0 0.33107418954414508 0.072047683595330314 0 0.3447473336761438 0.06843434326871968 0 0.33319293369904363 0.055336798605847858 0 0.342004249009209 0.085798665348525344 0 0.33107418954414508 0.072047683595330314 0 0.3447473336761438 0.06843434326871968 0 0.33107418954414508 0.072047683595330314 0 0.31467967364339899 0.080281808003757393 0 0.31966479483361893 0.059192873933104989 0 0.32862643596017399 0.090257756324488875 0 0.33107418954414508 0.072047683595330314 0 0.31467967364339899 0.080281808003757393 0 0.32862643596017399 0.090257756324488875 0 0.31467967364339899 0.080281808003757393 0 0.31406084704073112 0.099156341182611199 0 0.32862643596017399 0.090257756324488875 0 0.31406084704073112 0.099156341182611199 0 0.32797468069845692 0.11015719442355069 0 0.31406084704073112 0.099156341182611199 0 0.32797468069845692 0.11015719442355069 0 0.31599931923042529 0.120691658077727 0 0.32797468069845692 0.11015719442355069 0 0.31599931923042529 0.120691658077727 0 0.32972048034964041 0.12829485873905469 0 0.32797468069845692 0.11015719442355069 0 0.34587198693742272 0.1155257417923284 0 0.32972048034964041 0.12829485873905469 0 0.32862643596017399 0.090257756324488875 0 0.32797468069845692 0.11015719442355069 0 0.34064529080871703 0.1002313314727791 0 0.32797468069845692 0.11015719442355069 0 0.34064529080871703 0.1002313314727791 0 0.34587198693742272 0.1155257417923284 0 0.35614910474767231 0.096793626074908948 0 0.34587198693742272 0.1155257417923284 0 0.36358015859235288 0.1125818755100494 0 0.342004249009209 0.085798665348525344 0 0.34064529080871703 0.1002313314727791 0 0.35614910474767231 0.096793626074908948 0 0.34064529080871703 0.1002313314727791 0 0.35614910474767231 0.096793626074908948 0 0.34587198693742272 0.1155257417923284 0 0.34587198693742272 0.1155257417923284 0 0.35620214281923068 0.12301362156117331 0 0.36358015859235288 0.1125818755100494 0 0.34587198693742272 0.1155257417923284 0 0.35620214281923068 0.12301362156117331 0 0.34663583692599731 0.13425997461262851 0 0.35620214281923068 0.12301362156117331 0 0.36358015859235288 0.1125818755100494 0 0.37021816979410699 0.12066725950022569 0 0.36358015859235288 0.1125818755100494 0 0.3729139536393189 0.1148717765819883 0 0.37215556766429531 0.1056519333336858 0 0.36358015859235288 0.1125818755100494 0 0.3729139536393189 0.1148717765819883 0 0.37021816979410699 0.12066725950022569 0 0.37021816979410699 0.12066725950022569 0 0.37881313378546061 0.12681443569261941 0 0.37570366440312652 0.1193239374167802 0 0.3729139536393189 0.1148717765819883 0 0.37021816979410699 0.12066725950022569 0 0.37570366440312652 0.1193239374167802 0 0.35614910474767231 0.096793626074908948 0 0.37215556766429531 0.1056519333336858 0 0.37563139057415817 0.093480026526337953 0 0.35614910474767231 0.096793626074908948 0 0.36358015859235288 0.1125818755100494 0 0.37215556766429531 0.1056519333336858 0 0.35614910474767231 0.096793626074908948 0 0.37563139057415817 0.093480026526337953 0 0.36427354058441341 0.085631408129106468 0 0.37073876304164372 0.073432946516532233 0 0.37563139057415817 0.093480026526337953 0 0.35614910474767231 0.096793626074908948 0 0.36427354058441341 0.085631408129106468 0 0.37563139057415817 0.093480026526337953 0 0.36427354058441341 0.085631408129106468 0 0.35442923074289451 0.077623062424711717 0 0.37073876304164372 0.073432946516532233 0 0.37073876304164372 0.073432946516532233 0 0.37563139057415817 0.093480026526337953 0 0.35614910474767231 0.096793626074908948 0 0.36427354058441341 0.085631408129106468 0 0.35442923074289451 0.077623062424711717 0 0.342004249009209 0.085798665348525344 0 0.35614910474767231 0.096793626074908948 0 0.35442923074289451 0.077623062424711717 0 0.342004249009209 0.085798665348525344 0 0.3447473336761438 0.06843434326871968 0 0.35442923074289451 0.077623062424711717 0 0.3447473336761438 0.06843434326871968 0 0.35442923074289451 0.077623062424711717 0 0.35758167683624609 0.065007268471068122 0 0.37073876304164372 0.073432946516532233 0 0.36584613550912681 0.053385866506726998 0 0.35442923074289451 0.077623062424711717 0 0.35758167683624609 0.065007268471068122 0 0.37073876304164372 0.073432946516532233 0 0.37073876304164372 0.073432946516532233 0 0.36584613550912681 0.053385866506726998 0 0.38319464881742688 0.062472210300798303 0 0.35758167683624609 0.065007268471068122 0 0.37073876304164372 0.073432946516532233 0 0.36584613550912681 0.053385866506726998 0 0.37311813140155647 0.032146761747755243 0 0.36095350797660969 0.033338786496921818 0 0.37868158739053198 0.048147393706875138 0 0.36584613550912681 0.053385866506726998 0 0.36095350797660969 0.033338786496921818 0 0.37868158739053198 0.048147393706875138 0 0.36584613550912681 0.053385866506726998 0 0.36095350797660969 0.033338786496921818 0 0.36095350797660969 0.033338786496921818 0 0.37868158739053198 0.048147393706875138 0 0.36584613550912681 0.053385866506726998 0 0.36095350797660969 0.033338786496921818 0 0.34965501417921979 0.050735939458143482 0 0.36095350797660969 0.033338786496921818 0 0.34494610305499401 0.033945145004942043 0 0.34965501417921979 0.050735939458143482 0 0.35758167683624609 0.065007268471068122 0 0.36584613550912681 0.053385866506726998 0 0.34965501417921979 0.050735939458143482 0 0.3447473336761438 0.06843434326871968 0 0.35758167683624609 0.065007268471068122 0 0.34965501417921979 0.050735939458143482 0 0.36283209574480563 0.0070609828039151961 0 0.37418196128054781 0.0024073980133558171 0 0.38156276894105018 0.0033068909555581368 0 0.37290115725549111 0.018348375239662401 0 0.35635231842522352 0.013113329888357809 0 0.38156276894105018 0.0033068909555581368 0 0.36283209574480563 0.0070609828039151961 0 0.35635231842522352 0.013113329888357809 0 0.38156276894105018 0.0033068909555581368 0 0.35635231842522352 0.013113329888357809 0 0.38156276894105018 0.0033068909555581368 0 0.36075474383835382 0.0022760831476610361 0 0.3639604146988461 0.003311550106090111 0 0.36501738548894458 -0.00077198007564498812 0 0.36075474383835382 0.0022760831476610361 0 0.36170365995638071 0.004511987588186793 0 0.3639604146988461 0.003311550106090111 0 0.36075474383835382 0.0022760831476610361 0 0.36170365995638071 0.004511987588186793 0 0.35926738554351723 0.0053993342950808283 0 0.36283209574480563 0.0070609828039151961 0 0.36170365995638071 0.004511987588186793 0 0.35926738554351723 0.0053993342950808283 0 0.36283209574480563 0.0070609828039151961 0 0.35936258115123659 0.0079796858235515536 0 0.35926738554351723 0.0053993342950808283 0 0.36283209574480563 0.0070609828039151961 0 0.36170365995638071 0.004511987588186793 0 0.3639604146988461 0.003311550106090111 0 0.36283209574480563 0.0070609828039151961 0 0.3639604146988461 0.003311550106090111 0 0.36724891236202678 0.002076647110145572 0 0.3639604146988461 0.003311550106090111 0 0.36724891236202678 0.002076647110145572 0 0.36501738548894458 -0.00077198007564498812 0 0.36724891236202678 0.002076647110145572 0 0.37418196128054781 0.0024073980133558171 0 0.36960909592710051 -0.0015044636085615719 0 0.36283209574480563 0.0070609828039151961 0 0.36724891236202678 0.002076647110145572 0 0.37418196128054781 0.0024073980133558171 0 0.36283209574480563 0.0070609828039151961 0 0.35635231842522352 0.013113329888357809 0 0.35936258115123659 0.0079796858235515536 0 0.36095350797660969 0.033338786496921818 0 0.37290115725549111 0.018348375239662401 0 0.35635231842522352 0.013113329888357809 0 0.37311813140155647 0.032146761747755243 0 0.36095350797660969 0.033338786496921818 0 0.37290115725549111 0.018348375239662401 0 0.36095350797660969 0.033338786496921818 0 0.34912659009546648 0.014281724894536231 0 0.33940282874204331 0.015337087810838789 0 0.36095350797660969 0.033338786496921818 0 0.34494610305499401 0.033945145004942043 0 0.33940282874204331 0.015337087810838789 0 0.36095350797660969 0.033338786496921818 0 0.33940282874204331 0.015337087810838789 0 0.36095350797660969 0.033338786496921818 0 0.35635231842522352 0.013113329888357809 0 0.34912659009546648 0.014281724894536231 0 0.36095350797660969 0.033338786496921818 0 0.35635231842522352 0.013113329888357809 0 0.35635231842522352 0.013113329888357809 0 0.35548005979191472 0.002718705057778954 0 0.35116293522280723 -0.0067771622510393306 0 0.35635231842522352 0.013113329888357809 0 0.35025976684750842 0.0065314406490940696 0 0.35116293522280723 -0.0067771622510393306 0 0.35635231842522352 0.013113329888357809 0 0.35116293522280723 -0.0067771622510393306 0 0.35635231842522352 0.013113329888357809 0 0.35742868854277737 0.008863792229047162 0 0.35548005979191472 0.002718705057778954 0 0.35635231842522352 0.013113329888357809 0 0.35742868854277737 0.008863792229047162 0 0.35936258115123659 0.0079796858235515536 0 0.35635231842522352 0.013113329888357809 0 0.34912659009546648 0.014281724894536231 0 0.35025976684750842 0.0065314406490940696 0 0.34912659009546648 0.014281724894536231 0 0.34469132047205148 0.0053403878299381488 0 0.35025976684750842 0.0065314406490940696 0 0.34912659009546648 0.014281724894536231 0 0.34469132047205148 0.0053403878299381488 0 0.33940282874204331 0.015337087810838789 0 0.34469132047205148 0.0053403878299381488 0 0.35025976684750842 0.0065314406490940696 0 0.35116293522280723 -0.0067771622510393306 0 0.35742868854277737 0.008863792229047162 0 0.35926738554351723 0.0053993342950808283 0 0.35548005979191472 0.002718705057778954 0 0.35742868854277737 0.008863792229047162 0 0.35936258115123659 0.0079796858235515536 0 0.35926738554351723 0.0053993342950808283 0 0.36075474383835382 0.0022760831476610361 0 0.35548005979191472 0.002718705057778954 0 0.35785446704027168 -0.00063597510139421431 0 0.36075474383835382 0.0022760831476610361 0 0.35926738554351723 0.0053993342950808283 0 0.35548005979191472 0.002718705057778954 0 0.33940282874204331 0.015337087810838789 0 0.31785214950747692 -0.0026646108752444819 0 0.33518692879436152 0.0047534368290651956 0 0.33940282874204331 0.015337087810838789 0 0.31785214950747692 -0.0026646108752444819 0 0.34469132047205148 0.0053403878299381488 0 0.33518692879436152 0.0047534368290651956 0 0.34104095214448082 -0.0026718332580633452 0 0.34469132047205148 0.0053403878299381488 0 0.33518692879436152 0.0047534368290651956 0 0.33940282874204331 0.015337087810838789 0 0.34494610305499401 0.033945145004942043 0 0.33940282874204331 0.015337087810838789 0 0.33354191201429789 0.026301007223654301 0 0.33940282874204331 0.015337087810838789 0 0.33354191201429789 0.026301007223654301 0 0.3252499454756213 0.01369231933837615 0 0.3232587515454346 0.028558958653518991 0 0.31398559502318663 0.01855056124752838 0 0.31019074780760841 0.030904449286704511 0 0.3232587515454346 0.028558958653518991 0 0.31398559502318663 0.01855056124752838 0 0.3252499454756213 0.01369231933837615 0 0.33354191201429789 0.026301007223654301 0 0.3232587515454346 0.028558958653518991 0 0.3252499454756213 0.01369231933837615 0 0.3252499454756213 0.01369231933837615 0 0.31215458004749119 0.0027295904063807052 0 0.3100166638724271 -0.011030683608632611 0 0.3252499454756213 0.01369231933837615 0 0.3100166638724271 -0.011030683608632611 0 0.33940282874204331 0.015337087810838789 0 0.3252499454756213 0.01369231933837615 0 0.31785214950747692 -0.0026646108752444819 0 0.31398559502318663 0.01855056124752838 0 0.3252499454756213 0.01369231933837615 0 0.31477940809777588 0.011059783480594989 0 0.3252499454756213 0.01369231933837615 0 0.31477940809777588 0.011059783480594989 0 0.31215458004749119 0.0027295904063807052 0 0.34965501417921979 0.050735939458143482 0 0.33319293369904363 0.055336798605847858 0 0.33485193125339657 0.039971525310595571 0 0.3447473336761438 0.06843434326871968 0 0.34965501417921979 0.050735939458143482 0 0.33319293369904363 0.055336798605847858 0 0.34494610305499401 0.033945145004942043 0 0.34965501417921979 0.050735939458143482 0 0.33485193125339657 0.039971525310595571 0 0.33319293369904363 0.055336798605847858 0 0.33485193125339657 0.039971525310595571 0 0.31916433870773708 0.041638426069193171 0 0.34494610305499401 0.033945145004942043 0 0.33354191201429789 0.026301007223654301 0 0.33485193125339657 0.039971525310595571 0 0.33354191201429789 0.026301007223654301 0 0.3232587515454346 0.028558958653518991 0 0.33485193125339657 0.039971525310595571 0 0.3232587515454346 0.028558958653518991 0 0.33485193125339657 0.039971525310595571 0 0.31916433870773708 0.041638426069193171 0 0.3232587515454346 0.028558958653518991 0 0.31916433870773708 0.041638426069193171 0 0.31019074780760841 0.030904449286704511 0 0.33319293369904363 0.055336798605847858 0 0.31916433870773708 0.041638426069193171 0 0.31966479483361893 0.059192873933104989 0 0.31916433870773708 0.041638426069193171 0 0.31966479483361893 0.059192873933104989 0 0.30656112003131691 0.047912771602538262 0 0.33107418954414508 0.072047683595330314 0 0.33319293369904363 0.055336798605847858 0 0.31966479483361893 0.059192873933104989 0 0.31966479483361893 0.059192873933104989 0 0.30656112003131691 0.047912771602538262 0 0.29800714777032639 0.065239734023121734 0 0.30656112003131691 0.047912771602538262 0 0.29032933557553681 0.048008981033395737 0 0.29800714777032639 0.065239734023121734 0 0.31916433870773708 0.041638426069193171 0 0.30656112003131691 0.047912771602538262 0 0.31019074780760841 0.030904449286704511 0 0.30656112003131691 0.047912771602538262 0 0.29717950565445111 0.034041122174833141 0 0.31019074780760841 0.030904449286704511 0 0.30656112003131691 0.047912771602538262 0 0.29717950565445111 0.034041122174833141 0 0.29032933557553681 0.048008981033395737 0 0.2835019452891665 0.032803412869168658 0 0.29032933557553681 0.048008981033395737 0 0.27423768256883779 0.043221042443360468 0 0.29717950565445111 0.034041122174833141 0 0.2835019452891665 0.032803412869168658 0 0.29032933557553681 0.048008981033395737 0 0.29032933557553681 0.048008981033395737 0 0.28084442485127431 0.056755704659557107 0 0.27423768256883779 0.043221042443360468 0 0.29032933557553681 0.048008981033395737 0 0.28084442485127431 0.056755704659557107 0 0.29800714777032639 0.065239734023121734 0 0.29788919067626368 0.006619281720157342 0 0.30289238242431621 0.0019409988452290621 0 0.29812996111648332 -0.0026127160514706569 0 0.29788919067626368 0.006619281720157342 0 0.30289238242431621 0.0019409988452290621 0 0.30741273658962109 0.0081685767472518944 0 0.30289238242431621 0.0019409988452290621 0 0.30720426612093682 0.00051080036662477779 0 0.30741273658962109 0.0081685767472518944 0 0.31477940809777588 0.011059783480594989 0 0.31215458004749119 0.0027295904063807052 0 0.30741273658962109 0.0081685767472518944 0 0.30720426612093682 0.00051080036662477779 0 0.31215458004749119 0.0027295904063807052 0 0.30741273658962109 0.0081685767472518944 0 0.31398559502318663 0.01855056124752838 0 0.30741273658962109 0.0081685767472518944 0 0.30235586773445389 0.018704164984377211 0 0.31398559502318663 0.01855056124752838 0 0.31477940809777588 0.011059783480594989 0 0.30741273658962109 0.0081685767472518944 0 0.29788919067626368 0.006619281720157342 0 0.30741273658962109 0.0081685767472518944 0 0.30235586773445389 0.018704164984377211 0 0.31398559502318663 0.01855056124752838 0 0.30235586773445389 0.018704164984377211 0 0.31019074780760841 0.030904449286704511 0 0.29717950565445111 0.034041122174833141 0 0.30235586773445389 0.018704164984377211 0 0.31019074780760841 0.030904449286704511 0 0.29717950565445111 0.034041122174833141 0 0.2835019452891665 0.032803412869168658 0 0.28934685350897199 0.018730843516379742 0 0.29717950565445111 0.034041122174833141 0 0.30235586773445389 0.018704164984377211 0 0.28934685350897199 0.018730843516379742 0 0.2835019452891665 0.032803412869168658 0 0.28934685350897199 0.018730843516379742 0 0.27732369012323371 0.0216579452409323 0 0.29788919067626368 0.006619281720157342 0 0.30235586773445389 0.018704164984377211 0 0.28934685350897199 0.018730843516379742 0 0.29788919067626368 0.006619281720157342 0 0.28934685350897199 0.018730843516379742 0 0.28867607649698429 0.0059818804495349164 0 0.28934685350897199 0.018730843516379742 0 0.28867607649698429 0.0059818804495349164 0 0.27630711572782019 0.0091837288070893627 0 0.28867607649698429 0.0059818804495349164 0 0.27630711572782019 0.0091837288070893627 0 0.28398377808604358 -0.0059592079478637938 0 0.29788919067626368 0.006619281720157342 0 0.28867607649698429 0.0059818804495349164 0 0.29812996111648332 -0.0026127160514706569 0 0.27630711572782019 0.0091837288070893627 0 0.26043281603631668 0.002112897292672999 0 0.26834637846271508 -0.011154355926822601 0 0.27630711572782019 0.0091837288070893627 0 0.26592738789721798 0.018354251093623861 0 0.26043281603631668 0.002112897292672999 0 0.26592738789721798 0.018354251093623861 0 0.27732369012323371 0.0216579452409323 0 0.26933160087970121 0.02982580334648284 0 0.27630711572782019 0.0091837288070893627 0 0.26592738789721798 0.018354251093623861 0 0.27732369012323371 0.0216579452409323 0 0.28934685350897199 0.018730843516379742 0 0.27630711572782019 0.0091837288070893627 0 0.27732369012323371 0.0216579452409323 0 0.2835019452891665 0.032803412869168658 0 0.27732369012323371 0.0216579452409323 0 0.26933160087970121 0.02982580334648284 0 0.26592738789721798 0.018354251093623861 0 0.26933160087970121 0.02982580334648284 0 0.25801250526982938 0.027517194120408591 0 0.2450033316302721 0.031512306834020197 0 0.25801250526982938 0.027517194120408591 0 0.25305482568976151 0.02013209446819857 0 0.26592738789721798 0.018354251093623861 0 0.25801250526982938 0.027517194120408591 0 0.25305482568976151 0.02013209446819857 0 0.26592738789721798 0.018354251093623861 0 0.25305482568976151 0.02013209446819857 0 0.26043281603631668 0.002112897292672999 0 0.23782273296923639 0.021462848745669501 0 0.25305482568976151 0.02013209446819857 0 0.26043281603631668 0.002112897292672999 0 0.28084442485127431 0.056755704659557107 0 0.26221709665731419 0.052940357543975948 0 0.27943086168435632 0.074368408253931637 0 0.28084442485127431 0.056755704659557107 0 0.27423768256883779 0.043221042443360468 0 0.26221709665731419 0.052940357543975948 0 0.27423768256883779 0.043221042443360468 0 0.26129970708572448 0.037303363645371998 0 0.26221709665731419 0.052940357543975948 0 0.2835019452891665 0.032803412869168658 0 0.26933160087970121 0.02982580334648284 0 0.27423768256883779 0.043221042443360468 0 0.26933160087970121 0.02982580334648284 0 0.27423768256883779 0.043221042443360468 0 0.26129970708572448 0.037303363645371998 0 0.2450033316302721 0.031512306834020197 0 0.26221709665731419 0.052940357543975948 0 0.2450033316302721 0.031512306834020197 0 0.25801250526982938 0.027517194120408591 0 0.26129970708572448 0.037303363645371998 0 0.2450033316302721 0.031512306834020197 0 0.26129970708572448 0.037303363645371998 0 0.26221709665731419 0.052940357543975948 0 0.2440677562928506 0.046983779008447031 0 0.2450033316302721 0.031512306834020197 0 0.26221709665731419 0.052940357543975948 0 0.26933160087970121 0.02982580334648284 0 0.25801250526982938 0.027517194120408591 0 0.26129970708572448 0.037303363645371998 0 0.24526376771339589 0.06024893245831843 0 0.2440677562928506 0.046983779008447031 0 0.26221709665731419 0.052940357543975948 0 0.24526376771339589 0.06024893245831843 0 0.26221709665731419 0.052940357543975948 0 0.25628632216280722 0.065542517849441775 0 0.24997695626685701 0.089056680502188207 0 0.24574690701094981 0.075536290541234716 0 0.25628632216280722 0.065542517849441775 0 0.24997695626685701 0.089056680502188207 0 0.25628632216280722 0.065542517849441775 0 0.24997695626685701 0.089056680502188207 0 0.25628632216280722 0.065542517849441775 0 0.2619405925189584 0.079086769961664499 0 0.24997695626685701 0.089056680502188207 0 0.2619405925189584 0.079086769961664499 0 0.26784263596545971 0.088006529560793356 0 0.2619405925189584 0.079086769961664499 0 0.26784263596545971 0.088006529560793356 0 0.27943086168435632 0.074368408253931637 0 0.26784263596545971 0.088006529560793356 0 0.27943086168435632 0.074368408253931637 0 0.27921513600951908 0.1017874978432048 0 0.26221709665731419 0.052940357543975948 0 0.25628632216280722 0.065542517849441775 0 0.27943086168435632 0.074368408253931637 0 0.25628632216280722 0.065542517849441775 0 0.2619405925189584 0.079086769961664499 0 0.27943086168435632 0.074368408253931637 0 0.26221709665731419 0.052940357543975948 0 0.27943086168435632 0.074368408253931637 0 0.28084442485127431 0.056755704659557107 0 0.27943086168435632 0.074368408253931637 0 0.29800714777032639 0.065239734023121734 0 0.27943086168435632 0.074368408253931637 0 0.29800714777032639 0.065239734023121734 0 0.29664462671139841 0.095796458963887304 0 0.27943086168435632 0.074368408253931637 0 0.29664462671139841 0.095796458963887304 0 0.27943086168435632 0.074368408253931637 0 0.29664462671139841 0.095796458963887304 0 0.27921513600951908 0.1017874978432048 0 0.31467967364339899 0.080281808003757393 0 0.29800714777032639 0.065239734023121734 0 0.29664462671139841 0.095796458963887304 0 0.31467967364339899 0.080281808003757393 0 0.31406084704073112 0.099156341182611199 0 0.29664462671139841 0.095796458963887304 0 0.31467967364339899 0.080281808003757393 0 0.31966479483361893 0.059192873933104989 0 0.29800714777032639 0.065239734023121734 0 0.31406084704073112 0.099156341182611199 0 0.31599931923042529 0.120691658077727 0 0.29828852952200691 0.11704853794631551 0 0.31599931923042529 0.120691658077727 0 0.29828852952200691 0.11704853794631551 0 0.30942546324348752 0.13522330025038551 0 0.31406084704073112 0.099156341182611199 0 0.29828852952200691 0.11704853794631551 0 0.29664462671139841 0.095796458963887304 0 0.29828852952200691 0.11704853794631551 0 0.29664462671139841 0.095796458963887304 0 0.27921513600951908 0.1017874978432048 0 0.29828852952200691 0.11704853794631551 0 0.27535794520068507 0.12008859075949491 0 0.27921513600951908 0.1017874978432048 0 0.29828852952200691 0.11704853794631551 0 0.27535794520068507 0.12008859075949491 0 0.28803933382265218 0.13639258039449209 0 0.27535794520068507 0.12008859075949491 0 0.26409473247434362 0.1056611666389754 0 0.25787649744650909 0.12251981479308729 0 0.26784263596545971 0.088006529560793356 0 0.27921513600951908 0.1017874978432048 0 0.26409473247434362 0.1056611666389754 0 0.27535794520068507 0.12008859075949491 0 0.27921513600951908 0.1017874978432048 0 0.26409473247434362 0.1056611666389754 0 0.24997695626685701 0.089056680502188207 0 0.26784263596545971 0.088006529560793356 0 0.26409473247434362 0.1056611666389754 0 0.24997695626685701 0.089056680502188207 0 0.26409473247434362 0.1056611666389754 0 0.25390394413965428 0.1074521262722964 0 0.26409473247434362 0.1056611666389754 0 0.25390394413965428 0.1074521262722964 0 0.25787649744650909 0.12251981479308729 0 0.248579015306087 0.13716330832394841 0 0.2436675903709076 0.1125708431549348 0 0.25787649744650909 0.12251981479308729 0 0.2436675903709076 0.1125708431549348 0 0.25390394413965428 0.1074521262722964 0 0.25787649744650909 0.12251981479308729 0 0.248579015306087 0.13716330832394841 0 0.26724767036663899 0.13638558359376751 0 0.261464654845877 0.147446185547398 0 0.248579015306087 0.13716330832394841 0 0.25787649744650909 0.12251981479308729 0 0.26724767036663899 0.13638558359376751 0 0.27535794520068507 0.12008859075949491 0 0.25787649744650909 0.12251981479308729 0 0.26724767036663899 0.13638558359376751 0 0.27535794520068507 0.12008859075949491 0 0.26724767036663899 0.13638558359376751 0 0.28803933382265218 0.13639258039449209 0 0.26724767036663899 0.13638558359376751 0 0.27654149346951679 0.15448007677891379 0 0.28803933382265218 0.13639258039449209 0 0.26724767036663899 0.13638558359376751 0 0.27654149346951679 0.15448007677891379 0 0.261464654845877 0.147446185547398 0 0.248579015306087 0.13716330832394841 0 0.25349044024126549 0.1617557734929623 0 0.27654149346951679 0.15448007677891379 0 0.261464654845877 0.147446185547398 0 0.25349044024126549 0.1617557734929623 0 0.248579015306087 0.13716330832394841 0 0.261464654845877 0.147446185547398 0 0.25349044024126549 0.1617557734929623 0 0.2488440827090605 0.17348447407728951 0 0.25349044024126549 0.1617557734929623 0 0.25986908012730092 0.17942197487460579 0 0.27654149346951679 0.15448007677891379 0 0.25349044024126549 0.1617557734929623 0 0.25986908012730092 0.17942197487460579 0 0.2425316462941515 0.1886694261603834 0 0.2488440827090605 0.17348447407728951 0 0.25986908012730092 0.17942197487460579 0 0.27654149346951679 0.15448007677891379 0 0.25986908012730092 0.17942197487460579 0 0.27925233090651608 0.18328991094001229 0 0.27654149346951679 0.15448007677891379 0 0.27925233090651608 0.18328991094001229 0 0.27654149346951679 0.15448007677891379 0 0.27925233090651608 0.18328991094001229 0 0.30080615495748292 0.1585880953503532 0 0.27925233090651608 0.18328991094001229 0 0.30858950368972582 0.17922303804594489 0 0.30080615495748292 0.1585880953503532 0 0.27925233090651608 0.18328991094001229 0 0.30858950368972582 0.17922303804594489 0 0.30455750713700419 0.19975426538375901 0 0.30858950368972582 0.17922303804594489 0 0.30080615495748292 0.1585880953503532 0 0.32574981510846751 0.16754368779941781 0 0.30080615495748292 0.1585880953503532 0 0.30942546324348752 0.13522330025038551 0 0.28803933382265218 0.13639258039449209 0 0.30080615495748292 0.1585880953503532 0 0.30942546324348752 0.13522330025038551 0 0.31589089767348377 0.151475280221711 0 0.29828852952200691 0.11704853794631551 0 0.30942546324348752 0.13522330025038551 0 0.28803933382265218 0.13639258039449209 0 0.27654149346951679 0.15448007677891379 0 0.30080615495748292 0.1585880953503532 0 0.28803933382265218 0.13639258039449209 0 0.25781508844958267 0.24996181240754781 0 0.2693801022931121 0.23295734673089541 0 0.28467400578051488 0.24090957926220921 0 0.25781508844958267 0.24996181240754781 0 0.25349266197124248 0.23462989467683851 0 0.2693801022931121 0.23295734673089541 0 0.25349266197124248 0.23462989467683851 0 0.2617921763507039 0.22045705655687289 0 0.2693801022931121 0.23295734673089541 0 0.24763592337805629 0.21769371479083319 0 0.25349266197124248 0.23462989467683851 0 0.2617921763507039 0.22045705655687289 0 0.2693801022931121 0.23295734673089541 0 0.28196316834351548 0.2120997451011109 0 0.28467400578051488 0.24090957926220921 0 0.2617921763507039 0.22045705655687289 0 0.2693801022931121 0.23295734673089541 0 0.28196316834351548 0.2120997451011109 0 0.2617921763507039 0.22045705655687289 0 0.25630196055905352 0.20271503626934881 0 0.28196316834351548 0.2120997451011109 0 0.24763592337805629 0.21769371479083319 0 0.2617921763507039 0.22045705655687289 0 0.25630196055905352 0.20271503626934881 0 0.2425316462941515 0.1886694261603834 0 0.25986908012730092 0.17942197487460579 0 0.25630196055905352 0.20271503626934881 0 0.25986908012730092 0.17942197487460579 0 0.27925233090651608 0.18328991094001229 0 0.25630196055905352 0.20271503626934881 0 0.27925233090651608 0.18328991094001229 0 0.28196316834351548 0.2120997451011109 0 0.27925233090651608 0.18328991094001229 0 0.25630196055905352 0.20271503626934881 0 0.28196316834351548 0.2120997451011109 0 0.27925233090651608 0.18328991094001229 0 0.30455750713700419 0.19975426538375901 0 0.28196316834351548 0.2120997451011109 0 0.30455750713700419 0.19975426538375901 0 0.28196316834351548 0.2120997451011109 0 0.30590180684093499 0.223739960796527 0 0.30455750713700419 0.19975426538375901 0 0.30590180684093499 0.223739960796527 0 0.31945289667575322 0.20944174103842289 0 0.28196316834351548 0.2120997451011109 0 0.28467400578051488 0.24090957926220921 0 0.28196316834351548 0.2120997451011109 0 0.30590180684093499 0.223739960796527 0 0.28467400578051488 0.24090957926220921 0 0.30590180684093499 0.223739960796527 0 0.3097505299711748 0.24468805882267189 0 0.28467400578051488 0.24090957926220921 0 0.30590180684093499 0.223739960796527 0 0.3097505299711748 0.24468805882267189 0 0.32105108395088328 0.23704141358569811 0 0.30439688362099332 0.26121798474317659 0 0.3097505299711748 0.24468805882267189 0 0.28467400578051488 0.24090957926220921 0 0.3356750460813715 0.24605120398145239 0 0.32675785135242769 0.22353397744476261 0 0.3356750460813715 0.24605120398145239 0 0.33888731832468533 0.23175479927278511 0 0.35133645786402262 0.2454450096448528 0 0.32460529077723999 0.2609888572585331 0 0.3097505299711748 0.24468805882267189 0 0.32105108395088328 0.23704141358569811 0 0.32460529077723999 0.2609888572585331 0 0.3356750460813715 0.24605120398145239 0 0.32105108395088328 0.23704141358569811 0 0.3356750460813715 0.24605120398145239 0 0.32105108395088328 0.23704141358569811 0 0.32675785135242769 0.22353397744476261 0 0.32105108395088328 0.23704141358569811 0 0.31782089644238087 0.22162126569619811 0 0.32675785135242769 0.22353397744476261 0 0.30590180684093499 0.223739960796527 0 0.32105108395088328 0.23704141358569811 0 0.31782089644238087 0.22162126569619811 0 0.32675785135242769 0.22353397744476261 0 0.33254073546411889 0.2185477266768939 0 0.32500290099972629 0.21565212411934201 0 0.31782089644238087 0.22162126569619811 0 0.32675785135242769 0.22353397744476261 0 0.32500290099972629 0.21565212411934201 0 0.32675785135242769 0.22353397744476261 0 0.33888731832468533 0.23175479927278511 0 0.33254073546411889 0.2185477266768939 0 0.3356750460813715 0.24605120398145239 0 0.32675785135242769 0.22353397744476261 0 0.33888731832468533 0.23175479927278511 0 0.33888731832468533 0.23175479927278511 0 0.33254073546411889 0.2185477266768939 0 0.34755206660999971 0.21887071207933481 0 0.33254073546411889 0.2185477266768939 0 0.34983969210530741 0.20412217699218149 0 0.3324220692127966 0.20534978277496119 0 0.33254073546411889 0.2185477266768939 0 0.34983969210530741 0.20412217699218149 0 0.33254073546411889 0.2185477266768939 0 0.34983969210530741 0.20412217699218149 0 0.34755206660999971 0.21887071207933481 0 0.3324220692127966 0.20534978277496119 0 0.33254073546411889 0.2185477266768939 0 0.32500290099972629 0.21565212411934201 0 0.31782089644238087 0.22162126569619811 0 0.32500290099972629 0.21565212411934201 0 0.31945289667575322 0.20944174103842289 0 0.30590180684093499 0.223739960796527 0 0.31782089644238087 0.22162126569619811 0 0.31945289667575322 0.20944174103842289 0 0.3324220692127966 0.20534978277496119 0 0.32500290099972629 0.21565212411934201 0 0.31945289667575322 0.20944174103842289 0 0.30455750713700419 0.19975426538375901 0 0.31945289667575322 0.20944174103842289 0 0.32933540927220267 0.19091390960607441 0 0.30858950368972582 0.17922303804594489 0 0.30455750713700419 0.19975426538375901 0 0.32933540927220267 0.19091390960607441 0 0.3324220692127966 0.20534978277496119 0 0.31945289667575322 0.20944174103842289 0 0.32933540927220267 0.19091390960607441 0 0.32933540927220267 0.19091390960607441 0 0.34983969210530741 0.20412217699218149 0 0.34861187493138879 0.18269862393126321 0 0.3324220692127966 0.20534978277496119 0 0.32933540927220267 0.19091390960607441 0 0.34983969210530741 0.20412217699218149 0 0.36713864874649582 0.1896966273074692 0 0.34983969210530741 0.20412217699218149 0 0.36713864874649582 0.1896966273074692 0 0.34983969210530741 0.20412217699218149 0 0.34861187493138879 0.18269862393126321 0 0.36713864874649582 0.1896966273074692 0 0.36206394191772578 0.21312470210438009 0 0.34983969210530741 0.20412217699218149 0 0.36713864874649582 0.1896966273074692 0 0.36206394191772578 0.21312470210438009 0 0.37577733571391531 0.2046761537122341 0 0.36713864874649582 0.1896966273074692 0 0.37577733571391531 0.2046761537122341 0 0.38094730655254638 0.19264719772539379 0 0.37404215418375142 0.21839390254607119 0 0.36206394191772578 0.21312470210438009 0 0.37577733571391531 0.2046761537122341 0 0.36206394191772578 0.21312470210438009 0 0.34983969210530741 0.20412217699218149 0 0.34755206660999971 0.21887071207933481 0 0.36206394191772578 0.21312470210438009 0 0.34755206660999971 0.21887071207933481 0 0.35401366430310982 0.22926956015169511 0 0.33888731832468533 0.23175479927278511 0 0.34755206660999971 0.21887071207933481 0 0.35401366430310982 0.22926956015169511 0 0.36206394191772578 0.21312470210438009 0 0.35401366430310982 0.22926956015169511 0 0.36704451955545431 0.2267200693169468 0 0.37404215418375142 0.21839390254607119 0 0.36704451955545431 0.2267200693169468 0 0.38131447045172751 0.22567826217473549 0 0.37404215418375142 0.21839390254607119 0 0.36206394191772578 0.21312470210438009 0 0.36704451955545431 0.2267200693169468 0 0.36704451955545431 0.2267200693169468 0 0.37381291341104678 0.23546932060313419 0 0.38131447045172751 0.22567826217473549 0 0.36704451955545431 0.2267200693169468 0 0.36211970327126919 0.23714335905422709 0 0.37381291341104678 0.23546932060313419 0 0.35401366430310982 0.22926956015169511 0 0.36704451955545431 0.2267200693169468 0 0.36211970327126919 0.23714335905422709 0 0.36211970327126919 0.23714335905422709 0 0.37381291341104678 0.23546932060313419 0 0.36535144901666577 0.24868912292977891 0 0.37381291341104678 0.23546932060313419 0 0.36535144901666577 0.24868912292977891 0 0.38037131449300632 0.24745659047848151 0 0.36211970327126919 0.23714335905422709 0 0.36535144901666577 0.24868912292977891 0 0.35133645786402262 0.2454450096448528 0 0.33888731832468533 0.23175479927278511 0 0.35401366430310982 0.22926956015169511 0 0.35133645786402262 0.2454450096448528 0 0.35401366430310982 0.22926956015169511 0 0.36211970327126919 0.23714335905422709 0 0.35133645786402262 0.2454450096448528 0 0.34856610204602417 0.25706137280202118 0 0.3356750460813715 0.24605120398145239 0 0.35133645786402262 0.2454450096448528 0 0.33133198720553519 0.14675679865931221 0 0.34759576782078361 0.1627326994993574 0 0.34870529674298512 0.14798677488186121 0 0.33133198720553519 0.14675679865931221 0 0.34870529674298512 0.14798677488186121 0 0.34663583692599731 0.13425997461262851 0 0.34587198693742272 0.1155257417923284 0 0.32972048034964041 0.12829485873905469 0 0.34663583692599731 0.13425997461262851 0 0.33133198720553519 0.14675679865931221 0 0.32972048034964041 0.12829485873905469 0 0.34663583692599731 0.13425997461262851 0 0.31599931923042529 0.120691658077727 0 0.30942546324348752 0.13522330025038551 0 0.32972048034964041 0.12829485873905469 0 0.30942546324348752 0.13522330025038551 0 0.33133198720553519 0.14675679865931221 0 0.32972048034964041 0.12829485873905469 0 0.30942546324348752 0.13522330025038551 0 0.33133198720553519 0.14675679865931221 0 0.31589089767348377 0.151475280221711 0 0.33133198720553519 0.14675679865931221 0 0.31589089767348377 0.151475280221711 0 0.32574981510846751 0.16754368779941781 0 0.30080615495748292 0.1585880953503532 0 0.31589089767348377 0.151475280221711 0 0.32574981510846751 0.16754368779941781 0 0.30858950368972582 0.17922303804594489 0 0.32933540927220267 0.19091390960607441 0 0.32574981510846751 0.16754368779941781 0 0.32933540927220267 0.19091390960607441 0 0.32574981510846751 0.16754368779941781 0 0.34861187493138879 0.18269862393126321 0 0.32574981510846751 0.16754368779941781 0 0.34759576782078361 0.1627326994993574 0 0.34861187493138879 0.18269862393126321 0 0.33133198720553519 0.14675679865931221 0 0.32574981510846751 0.16754368779941781 0 0.34759576782078361 0.1627326994993574 0 0.34759576782078361 0.1627326994993574 0 0.35676754674955441 0.1743050623032199 0 0.36198443376808342 0.16411669625110209 0 0.34759576782078361 0.1627326994993574 0 0.36198443376808342 0.16411669625110209 0 0.35845803762291473 0.1536091693414392 0 0.34759576782078361 0.1627326994993574 0 0.34861187493138879 0.18269862393126321 0 0.35676754674955441 0.1743050623032199 0 0.36713864874649582 0.1896966273074692 0 0.34861187493138879 0.18269862393126321 0 0.35676754674955441 0.1743050623032199 0 0.36713864874649582 0.1896966273074692 0 0.36738699068879932 0.17639716159737959 0 0.3844376053876844 0.17527107762275701 0 0.36713864874649582 0.1896966273074692 0 0.35676754674955441 0.1743050623032199 0 0.36738699068879932 0.17639716159737959 0 0.36198443376808342 0.16411669625110209 0 0.3687379268784815 0.15303922209189891 0 0.35845803762291473 0.1536091693414392 0 0.35676754674955441 0.1743050623032199 0 0.36738699068879932 0.17639716159737959 0 0.36198443376808342 0.16411669625110209 0 0.36738699068879932 0.17639716159737959 0 0.36198443376808342 0.16411669625110209 0 0.37622746802658452 0.16325967298450611 0 0.3687379268784815 0.15303922209189891 0 0.3775667442513142 0.1526351559988377 0 0.37622746802658452 0.16325967298450611 0 0.36198443376808342 0.16411669625110209 0 0.3687379268784815 0.15303922209189891 0 0.37622746802658452 0.16325967298450611 0 0.3687379268784815 0.15303922209189891 0 0.37299738365643381 0.1427231901336474 0 0.3775667442513142 0.1526351559988377 0 0.3687379268784815 0.15303922209189891 0 0.37299738365643381 0.1427231901336474 0 0.35950485413969452 0.1425752322965686 0 0.3687379268784815 0.15303922209189891 0 0.35950485413969452 0.1425752322965686 0 0.35845803762291473 0.1536091693414392 0 0.34759576782078361 0.1627326994993574 0 0.35845803762291473 0.1536091693414392 0 0.34870529674298512 0.14798677488186121 0 0.35950485413969452 0.1425752322965686 0 0.35845803762291473 0.1536091693414392 0 0.34870529674298512 0.14798677488186121 0 0.35950485413969452 0.1425752322965686 0 0.34870529674298512 0.14798677488186121 0 0.34663583692599731 0.13425997461262851 0 0.35950485413969452 0.1425752322965686 0 0.34663583692599731 0.13425997461262851 0 0.35758913940207038 0.13281929040478979 0 0.35620214281923068 0.12301362156117331 0 0.34663583692599731 0.13425997461262851 0 0.35758913940207038 0.13281929040478979 0 0.35620214281923068 0.12301362156117331 0 0.35758913940207038 0.13281929040478979 0 0.36801372372335878 0.13142833314878891 0 0.35620214281923068 0.12301362156117331 0 0.37021816979410699 0.12066725950022569 0 0.36801372372335878 0.13142833314878891 0 0.37299738365643381 0.1427231901336474 0 0.35950485413969452 0.1425752322965686 0 0.36801372372335878 0.13142833314878891 0 0.35950485413969452 0.1425752322965686 0 0.35758913940207038 0.13281929040478979 0 0.36801372372335878 0.13142833314878891 0 0.37299738365643381 0.1427231901336474 0 0.36801372372335878 0.13142833314878891 0 0.37811079854326818 0.1356046231054559 0 0.37021816979410699 0.12066725950022569 0 0.36801372372335878 0.13142833314878891 0 0.37881313378546061 0.12681443569261941 0 0.36801372372335878 0.13142833314878891 0 0.37881313378546061 0.12681443569261941 0 0.37811079854326818 0.1356046231054559 0 0.37881313378546061 0.12681443569261941 0 0.38610741021307871 0.13640452925823759 0 0.38086940039361961 0.1149422778922875 0 0.3947391268135127 0.13779281394648299 0 0.38470610526770099 0.11727146657664669 0 0.38610741021307871 0.13640452925823759 0 0.38086940039361961 0.1149422778922875 0 0.38610741021307871 0.13640452925823759 0 0.3947391268135127 0.13779281394648299 0 0.38476329687956767 0.11934500154016039 0 0.37811079854326818 0.1356046231054559 0 0.38610741021307871 0.13640452925823759 0 0.38248101594990508 0.14557848860755979 0 0.37881313378546061 0.12681443569261941 0 0.37811079854326818 0.1356046231054559 0 0.38610741021307871 0.13640452925823759 0 0.38610741021307871 0.13640452925823759 0 0.3947391268135127 0.13779281394648299 0 0.3897416985449475 0.14585491271722881 0 0.3947391268135127 0.13779281394648299 0 0.39300939897090859 0.1236435143738399 0 0.39797543711056871 0.1241839849779425 0 0.3947391268135127 0.13779281394648299 0 0.38470610526770099 0.11727146657664669 0 0.39300939897090859 0.1236435143738399 0 0.3947391268135127 0.13779281394648299 0 0.40333223515697258 0.13354396122744269 0 0.40764003884026689 0.14503513648698771 0 0.3947391268135127 0.13779281394648299 0 0.40333223515697258 0.13354396122744269 0 0.39797543711056871 0.1241839849779425 0 0.3947391268135127 0.13779281394648299 0 0.4047721483593254 0.1583141613163189 0 0.3947391268135127 0.13779281394648299 0 0.39509647502287371 0.1537618881099482 0 0.3897416985449475 0.14585491271722881 0 0.3947391268135127 0.13779281394648299 0 0.4047721483593254 0.1583141613163189 0 0.40764003884026689 0.14503513648698771 0 0.3947391268135127 0.13779281394648299 0 0.39509647502287371 0.1537618881099482 0 0.4047721483593254 0.1583141613163189 0 0.38531781335188731 0.15619658029493269 0 0.3897416985449475 0.14585491271722881 0 0.38248101594990508 0.14557848860755979 0 0.39509647502287371 0.1537618881099482 0 0.38531781335188731 0.15619658029493269 0 0.3897416985449475 0.14585491271722881 0 0.38610741021307871 0.13640452925823759 0 0.3897416985449475 0.14585491271722881 0 0.38248101594990508 0.14557848860755979 0 0.37299738365643381 0.1427231901336474 0 0.37811079854326818 0.1356046231054559 0 0.38248101594990508 0.14557848860755979 0 0.37299738365643381 0.1427231901336474 0 0.38248101594990508 0.14557848860755979 0 0.3775667442513142 0.1526351559988377 0 0.38531781335188731 0.15619658029493269 0 0.38248101594990508 0.14557848860755979 0 0.3775667442513142 0.1526351559988377 0 0.38531781335188731 0.15619658029493269 0 0.3775667442513142 0.1526351559988377 0 0.37622746802658452 0.16325967298450611 0 0.36738699068879932 0.17639716159737959 0 0.37622746802658452 0.16325967298450611 0 0.3844376053876844 0.17527107762275701 0 0.38531781335188731 0.15619658029493269 0 0.37622746802658452 0.16325967298450611 0 0.3844376053876844 0.17527107762275701 0 0.39509647502287371 0.1537618881099482 0 0.38531781335188731 0.15619658029493269 0 0.3844376053876844 0.17527107762275701 0 0.36713864874649582 0.1896966273074692 0 0.3844376053876844 0.17527107762275701 0 0.38094730655254638 0.19264719772539379 0 0.36713864874649582 0.1896966273074692 0 0.3844376053876844 0.17527107762275701 0 0.36738699068879932 0.17639716159737959 0 0.3844376053876844 0.17527107762275701 0 0.3844376053876844 0.17527107762275701 0 0.38094730655254638 0.19264719772539379 0 0.39244181822426127 0.19068449884696209 0 0.3844376053876844 0.17527107762275701 0 0.40085501481344021 0.18296133210444479 0 0.41216713326057852 0.173439719779479 0 0.3844376053876844 0.17527107762275701 0 0.40085501481344021 0.18296133210444479 0 0.39244181822426127 0.19068449884696209 0 0.3844376053876844 0.17527107762275701 0 0.41216713326057852 0.173439719779479 0 0.3844376053876844 0.17527107762275701 0 0.4047721483593254 0.1583141613163189 0 0.41216713326057852 0.173439719779479 0 0.3844376053876844 0.17527107762275701 0 0.4047721483593254 0.1583141613163189 0 0.39509647502287371 0.1537618881099482 0 0.3844376053876844 0.17527107762275701 0 0.4047721483593254 0.1583141613163189 0 0.41489981004292659 0.16310726068588319 0 0.4254431164139349 0.17256292606028931 0 0.4191738075885526 0.15331133406827299 0 0.4047721483593254 0.1583141613163189 0 0.41489981004292659 0.16310726068588319 0 0.41091841636006732 0.15318880628715201 0 0.4047721483593254 0.1583141613163189 0 0.41216713326057852 0.173439719779479 0 0.4047721483593254 0.1583141613163189 0 0.41489981004292659 0.16310726068588319 0 0.41216713326057852 0.173439719779479 0 0.41489981004292659 0.16310726068588319 0 0.41216713326057852 0.173439719779479 0 0.4254431164139349 0.17256292606028931 0 0.41489981004292659 0.16310726068588319 0 0.41091841636006732 0.15318880628715201 0 0.4191738075885526 0.15331133406827299 0 0.41216713326057852 0.173439719779479 0 0.41106944737938839 0.1893238305601479 0 0.42500721432455257 0.1997025721582463 0 0.40085501481344021 0.18296133210444479 0 0.41216713326057852 0.173439719779479 0 0.41106944737938839 0.1893238305601479 0 0.41216713326057852 0.173439719779479 0 0.42500721432455257 0.1997025721582463 0 0.41216713326057852 0.173439719779479 0 0.4254431164139349 0.17256292606028931 0 0.4254431164139349 0.17256292606028931 0 0.4318606422782213 0.19226965817041869 0 0.4254431164139349 0.17256292606028931 0 0.4318606422782213 0.19226965817041869 0 0.43766586776800492 0.18069921899702751 0 0.41216713326057852 0.173439719779479 0 0.4254431164139349 0.17256292606028931 0 0.4318606422782213 0.19226965817041869 0 0.4254431164139349 0.17256292606028931 0 0.43249277767344291 0.15962262915158501 0 0.4191738075885526 0.15331133406827299 0 0.4254431164139349 0.17256292606028931 0 0.4191738075885526 0.15331133406827299 0 0.43249277767344291 0.15962262915158501 0 0.43027741226749278 0.14703876993416129 0 0.44226477189284702 0.15139058643938741 0 0.43249277767344291 0.15962262915158501 0 0.43027741226749278 0.14703876993416129 0 0.4191738075885526 0.15331133406827299 0 0.422034863129851 0.1423784278050052 0 0.43027741226749278 0.14703876993416129 0 0.4191738075885526 0.15331133406827299 0 0.422034863129851 0.1423784278050052 0 0.43027741226749278 0.14703876993416129 0 0.42578373390018792 0.13510386514132991 0 0.43027741226749278 0.14703876993416129 0 0.43898974989815281 0.13895641099801101 0 0.44226477189284702 0.15139058643938741 0 0.43027741226749278 0.14703876993416129 0 0.42578373390018792 0.13510386514132991 0 0.43898974989815281 0.13895641099801101 0 0.42578373390018792 0.13510386514132991 0 0.44590358512456651 0.12624754832034379 0 0.43898974989815281 0.13895641099801101 0 0.422034863129851 0.1423784278050052 0 0.42578373390018792 0.13510386514132991 0 0.41290449876317081 0.13405974207625651 0 0.40333223515697258 0.13354396122744269 0 0.41290449876317081 0.13405974207625651 0 0.40663518993778908 0.1148081500842401 0 0.42578373390018792 0.13510386514132991 0 0.41290449876317081 0.13405974207625651 0 0.41878170944599308 0.1196397886690151 0 0.40333223515697258 0.13354396122744269 0 0.41290449876317081 0.13405974207625651 0 0.40764003884026689 0.14503513648698771 0 0.41290449876317081 0.13405974207625651 0 0.40764003884026689 0.14503513648698771 0 0.4191738075885526 0.15331133406827299 0 0.422034863129851 0.1423784278050052 0 0.41290449876317081 0.13405974207625651 0 0.4191738075885526 0.15331133406827299 0 0.41290449876317081 0.13405974207625651 0 0.4191738075885526 0.15331133406827299 0 0.4047721483593254 0.1583141613163189 0 0.40764003884026689 0.14503513648698771 0 0.41091841636006732 0.15318880628715201 0 0.40764003884026689 0.14503513648698771 0 0.41091841636006732 0.15318880628715201 0 0.4191738075885526 0.15331133406827299 0 0.4047721483593254 0.1583141613163189 0 0.41091841636006732 0.15318880628715201 0 0.41095036499976129 0.25194624223085671 0 0.40497460735855678 0.23881925901770931 0 0.39513079281551999 0.24598282632620591 0 0.40497460735855678 0.23881925901770931 0 0.39513079281551999 0.24598282632620591 0 0.39089313328666653 0.23405676425433691 0 0.37381291341104678 0.23546932060313419 0 0.38037131449300632 0.24745659047848151 0 0.39089313328666653 0.23405676425433691 0 0.39513079281551999 0.24598282632620591 0 0.38037131449300632 0.24745659047848151 0 0.39089313328666653 0.23405676425433691 0 0.37381291341104678 0.23546932060313419 0 0.38131447045172751 0.22567826217473549 0 0.39089313328666653 0.23405676425433691 0 0.38131447045172751 0.22567826217473549 0 0.3941813405259183 0.22153800223404241 0 0.39089313328666653 0.23405676425433691 0 0.37404215418375142 0.21839390254607119 0 0.38131447045172751 0.22567826217473549 0 0.3854205279008841 0.21484606069160339 0 0.38131447045172751 0.22567826217473549 0 0.3941813405259183 0.22153800223404241 0 0.3854205279008841 0.21484606069160339 0 0.3941813405259183 0.22153800223404241 0 0.39089313328666653 0.23405676425433691 0 0.4037276834652157 0.22712283296881081 0 0.40497460735855678 0.23881925901770931 0 0.39089313328666653 0.23405676425433691 0 0.4037276834652157 0.22712283296881081 0 0.3941813405259183 0.22153800223404241 0 0.4037276834652157 0.22712283296881081 0 0.40581689221382788 0.21486777771943449 0 0.3941813405259183 0.22153800223404241 0 0.40581689221382788 0.21486777771943449 0 0.39581007425762238 0.21130833023602569 0 0.40581689221382788 0.21486777771943449 0 0.39581007425762238 0.21130833023602569 0 0.40173697142163689 0.20259286391907519 0 0.39581007425762238 0.21130833023602569 0 0.38909227348901537 0.20392232496890961 0 0.40173697142163689 0.20259286391907519 0 0.3941813405259183 0.22153800223404241 0 0.39581007425762238 0.21130833023602569 0 0.3854205279008841 0.21484606069160339 0 0.37404215418375142 0.21839390254607119 0 0.3854205279008841 0.21484606069160339 0 0.37577733571391531 0.2046761537122341 0 0.3854205279008841 0.21484606069160339 0 0.37577733571391531 0.2046761537122341 0 0.38909227348901537 0.20392232496890961 0 0.39581007425762238 0.21130833023602569 0 0.3854205279008841 0.21484606069160339 0 0.38909227348901537 0.20392232496890961 0 0.38909227348901537 0.20392232496890961 0 0.38094730655254638 0.19264719772539379 0 0.39244181822426127 0.19068449884696209 0 0.37577733571391531 0.2046761537122341 0 0.38909227348901537 0.20392232496890961 0 0.38094730655254638 0.19264719772539379 0 0.38909227348901537 0.20392232496890961 0 0.39244181822426127 0.19068449884696209 0 0.40173697142163689 0.20259286391907519 0 0.39244181822426127 0.19068449884696209 0 0.40173697142163689 0.20259286391907519 0 0.40508521319194851 0.19199135875333909 0 0.40085501481344021 0.18296133210444479 0 0.39244181822426127 0.19068449884696209 0 0.40508521319194851 0.19199135875333909 0 0.40085501481344021 0.18296133210444479 0 0.40508521319194851 0.19199135875333909 0 0.41106944737938839 0.1893238305601479 0 0.40508521319194851 0.19199135875333909 0 0.41106944737938839 0.1893238305601479 0 0.41223266130642222 0.19852417000523009 0 0.40173697142163689 0.20259286391907519 0 0.41223266130642222 0.19852417000523009 0 0.41149971624860182 0.20711201655144201 0 0.40173697142163689 0.20259286391907519 0 0.40508521319194851 0.19199135875333909 0 0.41223266130642222 0.19852417000523009 0 0.41106944737938839 0.1893238305601479 0 0.41223266130642222 0.19852417000523009 0 0.42500721432455257 0.1997025721582463 0 0.41223266130642222 0.19852417000523009 0 0.42500721432455257 0.1997025721582463 0 0.41766845966857907 0.2069795605057293 0 0.41216713326057852 0.173439719779479 0 0.4318606422782213 0.19226965817041869 0 0.42500721432455257 0.1997025721582463 0 0.4318606422782213 0.19226965817041869 0 0.4382781681425082 0.21197639028054779 0 0.4318606422782213 0.19226965817041869 0 0.42500721432455257 0.1997025721582463 0 0.4382781681425082 0.21197639028054779 0 0.42500721432455257 0.1997025721582463 0 0.4240765918034482 0.2153247261539466 0 0.41766845966857907 0.2069795605057293 0 0.42500721432455257 0.1997025721582463 0 0.4240765918034482 0.2153247261539466 0 0.43784729538852629 0.22596542453701371 0 0.42500721432455257 0.1997025721582463 0 0.43784729538852629 0.22596542453701371 0 0.4382781681425082 0.21197639028054779 0 0.42500721432455257 0.1997025721582463 0 0.43784729538852629 0.22596542453701371 0 0.4240765918034482 0.2153247261539466 0 0.41540144695487341 0.21429443897230421 0 0.41924471941941288 0.22098816873874649 0 0.4240765918034482 0.2153247261539466 0 0.41540144695487341 0.21429443897230421 0 0.41766845966857907 0.2069795605057293 0 0.41540144695487341 0.21429443897230421 0 0.41766845966857907 0.2069795605057293 0 0.41149971624860182 0.20711201655144201 0 0.41223266130642222 0.19852417000523009 0 0.41766845966857907 0.2069795605057293 0 0.41149971624860182 0.20711201655144201 0 0.40581689221382788 0.21486777771943449 0 0.40173697142163689 0.20259286391907519 0 0.41149971624860182 0.20711201655144201 0 0.40581689221382788 0.21486777771943449 0 0.41540144695487341 0.21429443897230421 0 0.41149971624860182 0.20711201655144201 0 0.40581689221382788 0.21486777771943449 0 0.41540144695487341 0.21429443897230421 0 0.41192978438251993 0.22170176349514609 0 0.4037276834652157 0.22712283296881081 0 0.41192978438251993 0.22170176349514609 0 0.41491325885331259 0.23039700043776359 0 0.4037276834652157 0.22712283296881081 0 0.40581689221382788 0.21486777771943449 0 0.41192978438251993 0.22170176349514609 0 0.40497460735855678 0.23881925901770931 0 0.4037276834652157 0.22712283296881081 0 0.41491325885331259 0.23039700043776359 0 0.41491325885331259 0.23039700043776359 0 0.42573613848963809 0.22599861023320381 0 0.42323173117241031 0.23679374050640459 0 0.41491325885331259 0.23039700043776359 0 0.41924471941941288 0.22098816873874649 0 0.42573613848963809 0.22599861023320381 0 0.41192978438251993 0.22170176349514609 0 0.41491325885331259 0.23039700043776359 0 0.41924471941941288 0.22098816873874649 0 0.41540144695487341 0.21429443897230421 0 0.41192978438251993 0.22170176349514609 0 0.41924471941941288 0.22098816873874649 0 0.4240765918034482 0.2153247261539466 0 0.41924471941941288 0.22098816873874649 0 0.42573613848963809 0.22599861023320381 0 0.4240765918034482 0.2153247261539466 0 0.42573613848963809 0.22599861023320381 0 0.43784729538852629 0.22596542453701371 0 0.43039957914946608 0.232689706725452 0 0.43478315154729003 0.24200105162518609 0 0.43784729538852629 0.22596542453701371 0 0.42573613848963809 0.22599861023320381 0 0.43039957914946608 0.232689706725452 0 0.43784729538852629 0.22596542453701371 0 0.42573613848963809 0.22599861023320381 0 0.43039957914946608 0.232689706725452 0 0.42323173117241031 0.23679374050640459 0 0.43039957914946608 0.232689706725452 0 0.42323173117241031 0.23679374050640459 0 0.43478315154729003 0.24200105162518609 0 0.4258525799108791 0.25178309221925232 0 0.43809249381103949 0.25346742362620411 0 0.43478315154729003 0.24200105162518609 0 0.4258525799108791 0.25178309221925232 0 0.42323173117241031 0.23679374050640459 0 0.43478315154729003 0.24200105162518609 0 0.4258525799108791 0.25178309221925232 0 0.42323173117241031 0.23679374050640459 0 0.41468015255766971 0.2419328980207065 0 0.41095036499976129 0.25194624223085671 0 0.4258525799108791 0.25178309221925232 0 0.41468015255766971 0.2419328980207065 0 0.41491325885331259 0.23039700043776359 0 0.42323173117241031 0.23679374050640459 0 0.41468015255766971 0.2419328980207065 0 0.40497460735855678 0.23881925901770931 0 0.41491325885331259 0.23039700043776359 0 0.41468015255766971 0.2419328980207065 0 0.41095036499976129 0.25194624223085671 0 0.40497460735855678 0.23881925901770931 0 0.41468015255766971 0.2419328980207065 0 0.45068737645250012 0.25222827691578109 0 0.47262645521089469 0.25523395331798399 0 0.45761099325859189 0.24033480947715979 0 0.47262645521089469 0.25523395331798399 0 0.45761099325859189 0.24033480947715979 0 0.46967093590917569 0.23488028546933989 0 0.43809249381103949 0.25346742362620411 0 0.45068737645250012 0.25222827691578109 0 0.43478315154729003 0.24200105162518609 0 0.45068737645250012 0.25222827691578109 0 0.43784729538852629 0.22596542453701371 0 0.45068737645250012 0.25222827691578109 0 0.44469569400679521 0.23168312239067679 0 0.43784729538852629 0.22596542453701371 0 0.45068737645250012 0.25222827691578109 0 0.45761099325859189 0.24033480947715979 0 0.44469569400679521 0.23168312239067679 0 0.45068737645250012 0.25222827691578109 0 0.43478315154729003 0.24200105162518609 0 0.43784729538852629 0.22596542453701371 0 0.44469569400679521 0.23168312239067679 0 0.4508897419200672 0.21883064734300231 0 0.4382781681425082 0.21197639028054779 0 0.44469569400679521 0.23168312239067679 0 0.43784729538852629 0.22596542453701371 0 0.4382781681425082 0.21197639028054779 0 0.44469569400679521 0.23168312239067679 0 0.4382781681425082 0.21197639028054779 0 0.44469569400679521 0.23168312239067679 0 0.4508897419200672 0.21883064734300231 0 0.45810993283723001 0.22779002575557941 0 0.45810993283723001 0.22779002575557941 0 0.46768229909152031 0.21322126409771841 0 0.46967093590917569 0.23488028546933989 0 0.4508897419200672 0.21883064734300231 0 0.45810993283723001 0.22779002575557941 0 0.46768229909152031 0.21322126409771841 0 0.45761099325859189 0.24033480947715979 0 0.44469569400679521 0.23168312239067679 0 0.45810993283723001 0.22779002575557941 0 0.45761099325859189 0.24033480947715979 0 0.45810993283723001 0.22779002575557941 0 0.46967093590917569 0.23488028546933989 0 0.4508897419200672 0.21883064734300231 0 0.46768229909152031 0.21322126409771841 0 0.45135241752188893 0.20743932929937381 0 0.46768229909152031 0.21322126409771841 0 0.45135241752188893 0.20743932929937381 0 0.45609646432575451 0.19452112870478341 0 0.4508897419200672 0.21883064734300231 0 0.4382781681425082 0.21197639028054779 0 0.45135241752188893 0.20743932929937381 0 0.4382781681425082 0.21197639028054779 0 0.45135241752188893 0.20743932929937381 0 0.44381541412959402 0.19864721607081751 0 0.4318606422782213 0.19226965817041869 0 0.4382781681425082 0.21197639028054779 0 0.44381541412959402 0.19864721607081751 0 0.45135241752188893 0.20743932929937381 0 0.44381541412959402 0.19864721607081751 0 0.45609646432575451 0.19452112870478341 0 0.4318606422782213 0.19226965817041869 0 0.44381541412959402 0.19864721607081751 0 0.44417753518866171 0.18734903885424309 0 0.44381541412959402 0.19864721607081751 0 0.45609646432575451 0.19452112870478341 0 0.44417753518866171 0.18734903885424309 0 0.46768229909152031 0.21322126409771841 0 0.45609646432575451 0.19452112870478341 0 0.47661088365097948 0.18656625262957929 0 0.46768229909152031 0.21322126409771841 0 0.5 0.20421179485934271 0 0.48371080114853959 0.22568277165941009 0 0.46768229909152031 0.21322126409771841 0 0.5 0.20421179485934271 0 0.47661088365097948 0.18656625262957929 0 0.5 0.20421179485934271 0 0.47661088365097948 0.18656625262957929 0 0.5 0.1755958420553175 0 0.46768229909152031 0.21322126409771841 0 0.48371080114853959 0.22568277165941009 0 0.46967093590917569 0.23488028546933989 0 0.5 0.20421179485934271 0 0.48371080114853959 0.22568277165941009 0 0.5 0.232827747663368 0 0.48371080114853959 0.22568277165941009 0 0.5 0.232827747663368 0 0.48503608191265851 0.24259697126995569 0 0.5 0.26144370046739279 0 0.5 0.232827747663368 0 0.48503608191265851 0.24259697126995569 0 0.47262645521089469 0.25523395331798399 0 0.48503608191265851 0.24259697126995569 0 0.46967093590917569 0.23488028546933989 0 0.48371080114853959 0.22568277165941009 0 0.48503608191265851 0.24259697126995569 0 0.46967093590917569 0.23488028546933989 0 0.4565600486024215 0.14749790988645001 0 0.46419055993892772 0.1324916400417443 0 0.47578770841363122 0.1553256818471879 0 0.4565600486024215 0.14749790988645001 0 0.46419055993892772 0.1324916400417443 0 0.44590358512456651 0.12624754832034379 0 0.4565600486024215 0.14749790988645001 0 0.44590358512456651 0.12624754832034379 0 0.43898974989815281 0.13895641099801101 0 0.4565600486024215 0.14749790988645001 0 0.43898974989815281 0.13895641099801101 0 0.44226477189284702 0.15139058643938741 0 0.43249277767344291 0.15962262915158501 0 0.44226477189284702 0.15139058643938741 0 0.45522780452595402 0.17059583803651779 0 0.4565600486024215 0.14749790988645001 0 0.44226477189284702 0.15139058643938741 0 0.45522780452595402 0.17059583803651779 0 0.4254431164139349 0.17256292606028931 0 0.43249277767344291 0.15962262915158501 0 0.45522780452595402 0.17059583803651779 0 0.4254431164139349 0.17256292606028931 0 0.45522780452595402 0.17059583803651779 0 0.45609646432575451 0.19452112870478341 0 0.44417753518866171 0.18734903885424309 0 0.45522780452595402 0.17059583803651779 0 0.4254431164139349 0.17256292606028931 0 0.43766586776800492 0.18069921899702751 0 0.45522780452595402 0.17059583803651779 0 0.44417753518866171 0.18734903885424309 0 0.43766586776800492 0.18069921899702751 0 0.45522780452595402 0.17059583803651779 0 0.4318606422782213 0.19226965817041869 0 0.44417753518866171 0.18734903885424309 0 0.43766586776800492 0.18069921899702751 0 0.45609646432575451 0.19452112870478341 0 0.45522780452595402 0.17059583803651779 0 0.47661088365097948 0.18656625262957929 0 0.4565600486024215 0.14749790988645001 0 0.45522780452595402 0.17059583803651779 0 0.47578770841363122 0.1553256818471879 0 0.45522780452595402 0.17059583803651779 0 0.47661088365097948 0.18656625262957929 0 0.47578770841363122 0.1553256818471879 0 0.47661088365097948 0.18656625262957929 0 0.5 0.1755958420553175 0 0.47578770841363122 0.1553256818471879 0 0.5 0.1755958420553175 0 0.5 0.14697988925129241 0 0.47578770841363122 0.1553256818471879 0 0.5 0.14697988925129241 0 0.47578770841363122 0.1553256818471879 0 0.48361660417345509 0.134181244078692 0 0.46419055993892772 0.1324916400417443 0 0.47578770841363122 0.1553256818471879 0 0.48361660417345509 0.134181244078692 0 0.46419055993892772 0.1324916400417443 0 0.48361660417345509 0.134181244078692 0 0.47810475251471679 0.1177450728059683 0 0.5 0.14697988925129241 0 0.48361660417345509 0.134181244078692 0 0.5 0.1183639364472671 0 0.5 0.1183639364472671 0 0.48553759866509349 0.1008115484702172 0 0.47810475251471679 0.1177450728059683 0 0.48361660417345509 0.134181244078692 0 0.5 0.1183639364472671 0 0.47810475251471679 0.1177450728059683 0 0.5 0.1183639364472671 0 0.48553759866509349 0.1008115484702172 0 0.5 0.08974798364324188 0 0.48553759866509349 0.1008115484702172 0 0.47810475251471679 0.1177450728059683 0 0.46778415696126502 0.098018380315300357 0 0.47810475251471679 0.1177450728059683 0 0.46119959555871137 0.1150766756792156 0 0.46778415696126502 0.098018380315300357 0 0.48179908384948561 0.080182369139308263 0 0.47517774809242508 0.05276963590830841 0 0.5 0.0611320308392167 0 0.5 0.08974798364324188 0 0.48179908384948561 0.080182369139308263 0 0.5 0.0611320308392167 0 0.48553759866509349 0.1008115484702172 0 0.5 0.08974798364324188 0 0.48179908384948561 0.080182369139308263 0 0.48179908384948561 0.080182369139308263 0 0.46092206626604521 0.077406210004798276 0 0.46778415696126502 0.098018380315300357 0 0.48553759866509349 0.1008115484702172 0 0.48179908384948561 0.080182369139308263 0 0.46778415696126502 0.098018380315300357 0 0.48179908384948561 0.080182369139308263 0 0.46092206626604521 0.077406210004798276 0 0.47517774809242508 0.05276963590830841 0 0.46092206626604521 0.077406210004798276 0 0.44785244957303899 0.059003574272031831 0 0.47517774809242508 0.05276963590830841 0 0.46092206626604521 0.077406210004798276 0 0.45456927987236961 0.089433430084520732 0 0.46778415696126502 0.098018380315300357 0 0.45456927987236961 0.089433430084520732 0 0.44049621101542191 0.084370337895131237 0 0.45001492325408071 0.1008807369127214 0 0.46092206626604521 0.077406210004798276 0 0.45456927987236961 0.089433430084520732 0 0.44049621101542191 0.084370337895131237 0 0.44049621101542191 0.084370337895131237 0 0.43472907566329611 0.06842520468596798 0 0.44785244957303899 0.059003574272031831 0 0.44049621101542191 0.084370337895131237 0 0.44785244957303899 0.059003574272031831 0 0.46092206626604521 0.077406210004798276 0 0.44049621101542191 0.084370337895131237 0 0.44785244957303899 0.059003574272031831 0 0.46419055993892772 0.1324916400417443 0 0.47810475251471679 0.1177450728059683 0 0.46119959555871137 0.1150766756792156 0 0.46419055993892772 0.1324916400417443 0 0.44590358512456651 0.12624754832034379 0 0.46119959555871137 0.1150766756792156 0 0.45456927987236961 0.089433430084520732 0 0.46778415696126502 0.098018380315300357 0 0.45001492325408071 0.1008807369127214 0 0.46119959555871137 0.1150766756792156 0 0.46778415696126502 0.098018380315300357 0 0.45001492325408071 0.1008807369127214 0 0.44049621101542191 0.084370337895131237 0 0.45001492325408071 0.1008807369127214 0 0.43313997245780489 0.1097371015182306 0 0.44590358512456651 0.12624754832034379 0 0.46119959555871137 0.1150766756792156 0 0.45001492325408071 0.1008807369127214 0 0.44590358512456651 0.12624754832034379 0 0.45001492325408071 0.1008807369127214 0 0.43313997245780489 0.1097371015182306 0 0.42578373390018792 0.13510386514132991 0 0.43313997245780489 0.1097371015182306 0 0.41878170944599308 0.1196397886690151 0 0.42578373390018792 0.13510386514132991 0 0.44590358512456651 0.12624754832034379 0 0.43313997245780489 0.1097371015182306 0 0.42578373390018792 0.13510386514132991 0 0.43313997245780489 0.1097371015182306 0 0.43313997245780489 0.1097371015182306 0 0.41878170944599308 0.1196397886690151 0 0.41544515217101258 0.1044900845250186 0 0.41290449876317081 0.13405974207625651 0 0.41878170944599308 0.1196397886690151 0 0.40663518993778908 0.1148081500842401 0 0.41290449876317081 0.13405974207625651 0 0.40663518993778908 0.1148081500842401 0 0.41878170944599308 0.1196397886690151 0 0.40663518993778908 0.1148081500842401 0 0.41544515217101258 0.1044900845250186 0 0.41544515217101258 0.1044900845250186 0 0.42056198591362848 0.092768962687593354 0 0.40459523426722621 0.088553778126073429 0 0.41544515217101258 0.1044900845250186 0 0.42575733217022649 0.098611325804945346 0 0.42056198591362848 0.092768962687593354 0 0.44049621101542191 0.084370337895131237 0 0.43313997245780489 0.1097371015182306 0 0.42575733217022649 0.098611325804945346 0 0.42683813900405582 0.09174745744279679 0 0.42056198591362848 0.092768962687593354 0 0.43313997245780489 0.1097371015182306 0 0.41544515217101258 0.1044900845250186 0 0.42575733217022649 0.098611325804945346 0 0.44049621101542191 0.084370337895131237 0 0.43313997245780489 0.1097371015182306 0 0.4316779309893653 0.092779892833355609 0 0.43313997245780489 0.1097371015182306 0 0.42575733217022649 0.098611325804945346 0 0.4316779309893653 0.092779892833355609 0 0.42575733217022649 0.098611325804945346 0 0.4316779309893653 0.092779892833355609 0 0.42683813900405582 0.09174745744279679 0 0.44049621101542191 0.084370337895131237 0 0.43345303415534342 0.083645565941237607 0 0.43472907566329611 0.06842520468596798 0 0.4316779309893653 0.092779892833355609 0 0.43345303415534342 0.083645565941237607 0 0.42856646947593352 0.088061918643053155 0 0.43345303415534342 0.083645565941237607 0 0.4251798797788362 0.085052686278728057 0 0.43472907566329611 0.06842520468596798 0 0.44049621101542191 0.084370337895131237 0 0.4316779309893653 0.092779892833355609 0 0.43345303415534342 0.083645565941237607 0 0.43345303415534342 0.083645565941237607 0 0.4251798797788362 0.085052686278728057 0 0.42856646947593352 0.088061918643053155 0 0.43345303415534342 0.083645565941237607 0 0.4251798797788362 0.085052686278728057 0 0.4251798797788362 0.085052686278728057 0 0.42568336345206642 0.087083990719147658 0 0.42056198591362848 0.092768962687593354 0 0.4251798797788362 0.085052686278728057 0 0.42568336345206642 0.087083990719147658 0 0.42568336345206642 0.087083990719147658 0 0.42683813900405582 0.09174745744279679 0 0.42056198591362848 0.092768962687593354 0 0.4316779309893653 0.092779892833355609 0 0.42683813900405582 0.09174745744279679 0 0.42856646947593352 0.088061918643053155 0 0.42568336345206642 0.087083990719147658 0 0.42683813900405582 0.09174745744279679 0 0.42856646947593352 0.088061918643053155 0 0.4251798797788362 0.085052686278728057 0 0.42568336345206642 0.087083990719147658 0 0.42856646947593352 0.088061918643053155 0 0.4251798797788362 0.085052686278728057 0 0.43472907566329611 0.06842520468596798 0 0.42016338130618741 0.064813627567084989 0 0.4251798797788362 0.085052686278728057 0 0.42016338130618741 0.064813627567084989 0 0.42016338130618741 0.064813627567084989 0 0.41027592261628948 0.068240291064784672 0 0.40236979374121218 0.055074439293699602 0 0.4251798797788362 0.085052686278728057 0 0.42016338130618741 0.064813627567084989 0 0.41787785409582268 0.070646506471096729 0 0.42016338130618741 0.064813627567084989 0 0.41787785409582268 0.070646506471096729 0 0.41027592261628948 0.068240291064784672 0 0.42016338130618741 0.064813627567084989 0 0.41787785409582268 0.070646506471096729 0 0.4251798797788362 0.085052686278728057 0 0.41787785409582268 0.070646506471096729 0 0.41090921279887183 0.077771921189508625 0 0.41090921279887183 0.077771921189508625 0 0.41027592261628948 0.068240291064784672 0 0.40096521269282109 0.071981438906657452 0 0.41787785409582268 0.070646506471096729 0 0.41090921279887183 0.077771921189508625 0 0.41027592261628948 0.068240291064784672 0 0.4251798797788362 0.085052686278728057 0 0.41090921279887183 0.077771921189508625 0 0.40459523426722621 0.088553778126073429 0 0.4251798797788362 0.085052686278728057 0 0.40459523426722621 0.088553778126073429 0 0.4251798797788362 0.085052686278728057 0 0.42056198591362848 0.092768962687593354 0 0.40459523426722621 0.088553778126073429 0 0.40459523426722621 0.088553778126073429 0 0.38401058875561622 0.092054869973418579 0 0.41090921279887183 0.077771921189508625 0 0.40459523426722621 0.088553778126073429 0 0.40096521269282109 0.071981438906657452 0 0.40459523426722621 0.088553778126073429 0 0.40096521269282109 0.071981438906657452 0 0.38401058875561622 0.092054869973418579 0 0.40096521269282109 0.071981438906657452 0 0.38319464881742688 0.062472210300798303 0 0.40236979374121218 0.055074439293699602 0 0.41027592261628948 0.068240291064784672 0 0.40096521269282109 0.071981438906657452 0 0.40236979374121218 0.055074439293699602 0 0.38401058875561622 0.092054869973418579 0 0.38319464881742688 0.062472210300798303 0 0.40096521269282109 0.071981438906657452 0 0.38401058875561622 0.092054869973418579 0 0.38319464881742688 0.062472210300798303 0 0.37073876304164372 0.073432946516532233 0 0.38401058875561622 0.092054869973418579 0 0.38319464881742688 0.062472210300798303 0 0.37073876304164372 0.073432946516532233 0 0.38401058875561622 0.092054869973418579 0 0.37563139057415817 0.093480026526337953 0 0.38401058875561622 0.092054869973418579 0 0.37563139057415817 0.093480026526337953 0 0.38401058875561622 0.092054869973418579 0 0.38053852070948979 0.108747170080154 0 0.38470610526770099 0.11727146657664669 0 0.37563139057415817 0.093480026526337953 0 0.38086940039361961 0.1149422778922875 0 0.38401058875561622 0.092054869973418579 0 0.38470610526770099 0.11727146657664669 0 0.39436170479363752 0.1043872586975771 0 0.38401058875561622 0.092054869973418579 0 0.37563139057415817 0.093480026526337953 0 0.38053852070948979 0.108747170080154 0 0.37215556766429531 0.1056519333336858 0 0.37563139057415817 0.093480026526337953 0 0.38086940039361961 0.1149422778922875 0 0.38401058875561622 0.092054869973418579 0 0.38470610526770099 0.11727146657664669 0 0.37563139057415817 0.093480026526337953 0 0.38053852070948979 0.108747170080154 0 0.38086940039361961 0.1149422778922875 0 0.38053852070948979 0.108747170080154 0 0.38086940039361961 0.1149422778922875 0 0.38470610526770099 0.11727146657664669 0 0.3729139536393189 0.1148717765819883 0 0.38086940039361961 0.1149422778922875 0 0.37570366440312652 0.1193239374167802 0 0.38610741021307871 0.13640452925823759 0 0.38086940039361961 0.1149422778922875 0 0.38476329687956767 0.11934500154016039 0 0.3729139536393189 0.1148717765819883 0 0.37215556766429531 0.1056519333336858 0 0.38086940039361961 0.1149422778922875 0 0.38053852070948979 0.108747170080154 0 0.38470610526770099 0.11727146657664669 0 0.3947391268135127 0.13779281394648299 0 0.38476329687956767 0.11934500154016039 0 0.38470610526770099 0.11727146657664669 0 0.37881313378546061 0.12681443569261941 0 0.38086940039361961 0.1149422778922875 0 0.37570366440312652 0.1193239374167802 0 0.38476329687956767 0.11934500154016039 0 0.38470610526770099 0.11727146657664669 0 0.38086940039361961 0.1149422778922875 0 0.38476329687956767 0.11934500154016039 0 0.38470610526770099 0.11727146657664669 0 0.38470610526770099 0.11727146657664669 0 0.39461692669185189 0.1153257919942875 0 0.39436170479363752 0.1043872586975771 0 0.40333223515697258 0.13354396122744269 0 0.40663518993778908 0.1148081500842401 0 0.39797543711056871 0.1241839849779425 0 0.38470610526770099 0.11727146657664669 0 0.39461692669185189 0.1153257919942875 0 0.39300939897090859 0.1236435143738399 0 0.39461692669185189 0.1153257919942875 0 0.39300939897090859 0.1236435143738399 0 0.39797543711056871 0.1241839849779425 0 0.40663518993778908 0.1148081500842401 0 0.39461692669185189 0.1153257919942875 0 0.39797543711056871 0.1241839849779425 0 0.40663518993778908 0.1148081500842401 0 0.39461692669185189 0.1153257919942875 0 0.39436170479363752 0.1043872586975771 0 0.40459523426722621 0.088553778126073429 0 0.38401058875561622 0.092054869973418579 0 0.39436170479363752 0.1043872586975771 0 0.40663518993778908 0.1148081500842401 0 0.41544515217101258 0.1044900845250186 0 0.39436170479363752 0.1043872586975771 0 0.41544515217101258 0.1044900845250186 0 0.40459523426722621 0.088553778126073429 0 0.39436170479363752 0.1043872586975771 0 0.39427296096869913 0.020797021934130529 0 0.40001674588777558 0.018441011298301609 0 0.38835389083176702 0.01384415519187932 0 0.39427296096869913 0.020797021934130529 0 0.39095567224105099 0.026117583796402111 0 0.38835389083176702 0.01384415519187932 0 0.39427296096869913 0.020797021934130529 0 0.39901499260620282 0.024855607755643438 0 0.40001674588777558 0.018441011298301609 0 0.39095567224105099 0.026117583796402111 0 0.39901499260620282 0.024855607755643438 0 0.39108318752663901 0.038219883030956192 0 0.39427296096869913 0.020797021934130529 0 0.39095567224105099 0.026117583796402111 0 0.39901499260620282 0.024855607755643438 0 0.39901499260620282 0.024855607755643438 0 0.40694679768576791 0.01149133248033146 0 0.39901499260620282 0.024855607755643438 0 0.40001674588777558 0.018441011298301609 0 0.40694679768576791 0.01149133248033146 0 0.39901691628783492 0.0066102239848465187 0 0.40694679768576791 0.01149133248033146 0 0.40286440319057443 -0.0049790845491525237 0 0.40001674588777558 0.018441011298301609 0 0.39901691628783492 0.0066102239848465187 0 0.38623971838722038 0.0014876367099055561 0 0.39901691628783492 0.0066102239848465187 0 0.38623971838722038 0.0014876367099055561 0 0.40286440319057443 -0.0049790845491525237 0 0.40001674588777558 0.018441011298301609 0 0.39901691628783492 0.0066102239848465187 0 0.40694679768576791 0.01149133248033146 0 0.40001674588777558 0.018441011298301609 0 0.38835389083176702 0.01384415519187932 0 0.38623971838722038 0.0014876367099055561 0 0.40694679768576791 0.01149133248033146 0 0.40286440319057443 -0.0049790845491525237 0 0.40001674588777558 0.018441011298301609 0 0.38623971838722038 0.0014876367099055561 0 0.38835389083176702 0.01384415519187932 0 0.38623971838722038 0.0014876367099055561 0 0.38156276894105018 0.0033068909555581368 0 0.38623971838722038 0.0014876367099055561 0 0.38156276894105018 0.0033068909555581368 0 0.38623971838722038 0.0014876367099055561 0 0.38150196621569082 0.001102431721108015 0 0.38156276894105018 0.0033068909555581368 0 0.37418196128054781 0.0024073980133558171 0 0.38150196621569082 0.001102431721108015 0 0.38156276894105018 0.0033068909555581368 0 0.38150196621569082 0.001102431721108015 0 0.38156276894105018 0.0033068909555581368 0 0.37418196128054781 0.0024073980133558171 0 0.38150196621569082 0.001102431721108015 0 0.37525963238515048 -0.0032303164562747649 0 0.37290115725549111 0.018348375239662401 0 0.38156276894105018 0.0033068909555581368 0 0.38237870887923892 0.032889550628178263 0 0.39095567224105099 0.026117583796402111 0 0.38835389083176702 0.01384415519187932 0 0.38237870887923892 0.032889550628178263 0 0.38835389083176702 0.01384415519187932 0 0.38156276894105018 0.0033068909555581368 0 0.38237870887923892 0.032889550628178263 0 0.38156276894105018 0.0033068909555581368 0 0.38237870887923892 0.032889550628178263 0 0.37311813140155647 0.032146761747755243 0 0.37290115725549111 0.018348375239662401 0 0.38237870887923892 0.032889550628178263 0 0.37311813140155647 0.032146761747755243 0 0.38237870887923892 0.032889550628178263 0 0.37868158739053198 0.048147393706875138 0 0.38237870887923892 0.032889550628178263 0 0.38319464881742688 0.062472210300798303 0 0.39108318752663901 0.038219883030956192 0 0.39095567224105099 0.026117583796402111 0 0.38237870887923892 0.032889550628178263 0 0.39108318752663901 0.038219883030956192 0 0.38237870887923892 0.032889550628178263 0 0.37868158739053198 0.048147393706875138 0 0.38319464881742688 0.062472210300798303 0 0.36584613550912681 0.053385866506726998 0 0.37868158739053198 0.048147393706875138 0 0.38319464881742688 0.062472210300798303 0 0.38237870887923892 0.032889550628178263 0 0.38319464881742688 0.062472210300798303 0 0.38319464881742688 0.062472210300798303 0 0.39108318752663901 0.038219883030956192 0 0.39824884935658389 0.046071604146431459 0 0.38319464881742688 0.062472210300798303 0 0.40236979374121218 0.055074439293699602 0 0.39824884935658389 0.046071604146431459 0 0.40236979374121218 0.055074439293699602 0 0.39824884935658389 0.046071604146431459 0 0.4135550894959773 0.038152480023708288 0 0.39901499260620282 0.024855607755643438 0 0.39108318752663901 0.038219883030956192 0 0.40104152720166442 0.036439008082994932 0 0.39901499260620282 0.024855607755643438 0 0.39108318752663901 0.038219883030956192 0 0.39108318752663901 0.038219883030956192 0 0.39824884935658389 0.046071604146431459 0 0.40104152720166442 0.036439008082994932 0 0.39824884935658389 0.046071604146431459 0 0.40104152720166442 0.036439008082994932 0 0.4135550894959773 0.038152480023708288 0 0.39901499260620282 0.024855607755643438 0 0.40104152720166442 0.036439008082994932 0 0.4135550894959773 0.038152480023708288 0 0.42016338130618741 0.064813627567084989 0 0.4135550894959773 0.038152480023708288 0 0.43096370088131308 0.037250203285558857 0 0.42016338130618741 0.064813627567084989 0 0.40236979374121218 0.055074439293699602 0 0.4135550894959773 0.038152480023708288 0 0.42016338130618741 0.064813627567084989 0 0.4135550894959773 0.038152480023708288 0 0.42016338130618741 0.064813627567084989 0 0.43096370088131308 0.037250203285558857 0 0.43472907566329611 0.06842520468596798 0 0.42016338130618741 0.064813627567084989 0 0.43096370088131308 0.037250203285558857 0 0.4135550894959773 0.038152480023708288 0 0.43096370088131308 0.037250203285558857 0 0.42319826383916948 0.020316752046227501 0 0.43096370088131308 0.037250203285558857 0 0.42319826383916948 0.020316752046227501 0 0.44176402045643748 0.0096867790040321075 0 0.43096370088131308 0.037250203285558857 0 0.44176402045643748 0.0096867790040321075 0 0.39901499260620282 0.024855607755643438 0 0.4135550894959773 0.038152480023708288 0 0.40694679768576791 0.01149133248033146 0 0.4135550894959773 0.038152480023708288 0 0.42319826383916948 0.020316752046227501 0 0.40694679768576791 0.01149133248033146 0 0.4135550894959773 0.038152480023708288 0 0.40694679768576791 0.01149133248033146 0 0.40694679768576791 0.01149133248033146 0 0.42321604131814933 0.003316656543007588 0 0.42088167259752768 -0.011987497669902441 0 0.42319826383916948 0.020316752046227501 0 0.40694679768576791 0.01149133248033146 0 0.42321604131814933 0.003316656543007588 0 0.42319826383916948 0.020316752046227501 0 0.42321604131814933 0.003316656543007588 0 0.44176402045643748 0.0096867790040321075 0 0.44176402045643748 0.0096867790040321075 0 0.45728927964736721 0.028688007447172179 0 0.45694890230957108 0.002685871043444569 0 0.43096370088131308 0.037250203285558857 0 0.44176402045643748 0.0096867790040321075 0 0.45728927964736721 0.028688007447172179 0 0.44176402045643748 0.0096867790040321075 0 0.45728927964736721 0.028688007447172179 0 0.45728927964736721 0.028688007447172179 0 0.45694890230957108 0.002685871043444569 0 0.47274525973742659 0.0075993044149848931 0 0.43472907566329611 0.06842520468596798 0 0.43096370088131308 0.037250203285558857 0 0.44785244957303899 0.059003574272031831 0 0.43096370088131308 0.037250203285558857 0 0.45728927964736721 0.028688007447172179 0 0.44785244957303899 0.059003574272031831 0 0.45728927964736721 0.028688007447172179 0 0.44785244957303899 0.059003574272031831 0 0.47517774809242508 0.05276963590830841 0 0.45728927964736721 0.028688007447172179 0 0.47517774809242508 0.05276963590830841 0 0.48048021312596972 0.025297549366149259 0 0.47517774809242508 0.05276963590830841 0 0.5 0.032516078035191409 0 0.48048021312596972 0.025297549366149259 0 0.47517774809242508 0.05276963590830841 0 0.5 0.032516078035191409 0 0.5 0.0611320308392167 0 0.45728927964736721 0.028688007447172179 0 0.47274525973742659 0.0075993044149848931 0 0.48048021312596972 0.025297549366149259 0 0.5 0.032516078035191409 0 0.48048021312596972 0.025297549366149259 0 0.5 0.0039001252311662289 0 0.47274525973742659 0.0075993044149848931 0 0.48048021312596972 0.025297549366149259 0 0.5 0.0039001252311662289 0 0.5 0.0039001252311662289 0 0.47392878810162259 -0.01356227486761793 0 0.5 -0.02471582757285895 0 0.47274525973742659 0.0075993044149848931 0 0.5 0.0039001252311662289 0 0.47392878810162259 -0.01356227486761793 0 0.47392878810162259 -0.01356227486761793 0 0.48096303378283928 -0.040537089350756998 0 0.45950252205820352 -0.035583533820248613 0 0.47392878810162259 -0.01356227486761793 0 0.5 -0.02471582757285895 0 0.48096303378283928 -0.040537089350756998 0 0.5 -0.02471582757285895 0 0.5 -0.053331780376883957 0 0.48096303378283928 -0.040537089350756998 0 0.5 -0.053331780376883957 0 0.48397511967812351 -0.057810429234543707 0 0.49147255308714571 -0.067720986762792409 0 0.5 -0.053331780376883957 0 0.48397511967812351 -0.057810429234543707 0 0.48096303378283928 -0.040537089350756998 0 0.48397511967812351 -0.057810429234543707 0 0.48096303378283928 -0.040537089350756998 0 0.46837177285908682 -0.058218690232388841 0 0.48397511967812351 -0.057810429234543707 0 0.46837177285908682 -0.058218690232388841 0 0.48046208694309289 -0.069248145298267158 0 0.48096303378283928 -0.040537089350756998 0 0.45950252205820352 -0.035583533820248613 0 0.46837177285908682 -0.058218690232388841 0 0.46837177285908682 -0.058218690232388841 0 0.44961089679234051 -0.053709758781943083 0 0.45704821989467109 -0.065199847113540405 0 0.45950252205820352 -0.035583533820248613 0 0.46837177285908682 -0.058218690232388841 0 0.45950252205820352 -0.035583533820248613 0 0.46837177285908682 -0.058218690232388841 0 0.44961089679234051 -0.053709758781943083 0 0.44961089679234051 -0.053709758781943083 0 0.45704821989467109 -0.065199847113540405 0 0.44641725446810621 -0.068165759155516176 0 0.44961089679234051 -0.053709758781943083 0 0.44493576278549168 -0.040368977751005071 0 0.4340812650744148 -0.047789466840097418 0 0.44961089679234051 -0.053709758781943083 0 0.43671212101785739 -0.061747668144515072 0 0.4340812650744148 -0.047789466840097418 0 0.44961089679234051 -0.053709758781943083 0 0.44641725446810621 -0.068165759155516176 0 0.43671212101785739 -0.061747668144515072 0 0.45950252205820352 -0.035583533820248613 0 0.44961089679234051 -0.053709758781943083 0 0.44493576278549168 -0.040368977751005071 0 0.45950252205820352 -0.035583533820248613 0 0.44493576278549168 -0.040368977751005071 0 0.44498081292362751 -0.029087788794311249 0 0.44493576278549168 -0.040368977751005071 0 0.43409626980257571 -0.034252734010069827 0 0.4340812650744148 -0.047789466840097418 0 0.44493576278549168 -0.040368977751005071 0 0.44498081292362751 -0.029087788794311249 0 0.43409626980257571 -0.034252734010069827 0 0.44498081292362751 -0.029087788794311249 0 0.43858896474907688 -0.018875334880128401 0 0.43409626980257571 -0.034252734010069827 0 0.44498081292362751 -0.029087788794311249 0 0.43858896474907688 -0.018875334880128401 0 0.45063327125732011 -0.012948377408108461 0 0.45950252205820352 -0.035583533820248613 0 0.44498081292362751 -0.029087788794311249 0 0.45063327125732011 -0.012948377408108461 0 0.44176402045643748 0.0096867790040321075 0 0.45063327125732011 -0.012948377408108461 0 0.44176402045643748 0.0096867790040321075 0 0.43858896474907688 -0.018875334880128401 0 0.45063327125732011 -0.012948377408108461 0 0.44176402045643748 0.0096867790040321075 0 0.45694890230957108 0.002685871043444569 0 0.45063327125732011 -0.012948377408108461 0 0.45694890230957108 0.002685871043444569 0 0.47392878810162259 -0.01356227486761793 0 0.45063327125732011 -0.012948377408108461 0 0.45694890230957108 0.002685871043444569 0 0.47274525973742659 0.0075993044149848931 0 0.47392878810162259 -0.01356227486761793 0 0.47392878810162259 -0.01356227486761793 0 0.45950252205820352 -0.035583533820248613 0 0.45063327125732011 -0.012948377408108461 0 0.45950252205820352 -0.035583533820248613 0 0.45063327125732011 -0.012948377408108461 0 0.48031382702910391 -0.1170739912930928 0 0.5 -0.110563685984934 0 0.5 -0.13917963878895909 0 0.48031382702910391 -0.1170739912930928 0 0.5 -0.110563685984934 0 0.49070770708839861 -0.099092014282855301 0 0.5 -0.110563685984934 0 0.49070770708839861 -0.099092014282855301 0 0.5 -0.081947733180909033 0 0.48031382702910391 -0.1170739912930928 0 0.48040110837754452 -0.088918677988652356 0 0.48031382702910391 -0.1170739912930928 0 0.49070770708839861 -0.099092014282855301 0 0.48040110837754452 -0.088918677988652356 0 0.48031382702910391 -0.1170739912930928 0 0.48040110837754452 -0.088918677988652356 0 0.4652741951084351 -0.09936498101091723 0 0.47724102365996812 -0.080853846644529923 0 0.48040110837754452 -0.088918677988652356 0 0.4652741951084351 -0.09936498101091723 0 0.47724102365996812 -0.080853846644529923 0 0.46426157281383812 -0.085877640540269806 0 0.4652741951084351 -0.09936498101091723 0 0.47724102365996812 -0.080853846644529923 0 0.4652741951084351 -0.09936498101091723 0 0.48376045811255802 -0.082421286265606297 0 0.48040110837754452 -0.088918677988652356 0 0.48044145632832719 -0.075903191681981341 0 0.47724102365996812 -0.080853846644529923 0 0.48040110837754452 -0.088918677988652356 0 0.48040110837754452 -0.088918677988652356 0 0.48044145632832719 -0.075903191681981341 0 0.47724102365996812 -0.080853846644529923 0 0.48040110837754452 -0.088918677988652356 0 0.48044145632832719 -0.075903191681981341 0 0.47724102365996812 -0.080853846644529923 0 0.48044145632832719 -0.075903191681981341 0 0.48376045811255802 -0.082421286265606297 0 0.48040110837754452 -0.088918677988652356 0 0.48753525390155272 -0.086681890677541132 0 0.49070770708839861 -0.099092014282855301 0 0.48753525390155272 -0.086681890677541132 0 0.5 -0.081947733180909033 0 0.49070770708839861 -0.099092014282855301 0 0.48040110837754452 -0.088918677988652356 0 0.48753525390155272 -0.086681890677541132 0 0.48376045811255802 -0.082421286265606297 0 0.48753525390155272 -0.086681890677541132 0 0.4888139185574894 -0.076003887353329108 0 0.48753525390155272 -0.086681890677541132 0 0.5 -0.081947733180909033 0 0.4888139185574894 -0.076003887353329108 0 0.48376045811255802 -0.082421286265606297 0 0.48458672933760127 -0.07550197496579826 0 0.4888139185574894 -0.076003887353329108 0 0.5 -0.053331780376883957 0 0.5 -0.081947733180909033 0 0.49147255308714571 -0.067720986762792409 0 0.4888139185574894 -0.076003887353329108 0 0.49147255308714571 -0.067720986762792409 0 0.48457372720011538 -0.069511103668296256 0 0.48458672933760127 -0.07550197496579826 0 0.4888139185574894 -0.076003887353329108 0 0.48457372720011538 -0.069511103668296256 0 0.5 -0.081947733180909033 0 0.4888139185574894 -0.076003887353329108 0 0.49147255308714571 -0.067720986762792409 0 0.48397511967812351 -0.057810429234543707 0 0.49147255308714571 -0.067720986762792409 0 0.48457372720011538 -0.069511103668296256 0 0.48397511967812351 -0.057810429234543707 0 0.48457372720011538 -0.069511103668296256 0 0.48046208694309289 -0.069248145298267158 0 0.46837177285908682 -0.058218690232388841 0 0.47724102365996812 -0.080853846644529923 0 0.46837177285908682 -0.058218690232388841 0 0.47724102365996812 -0.080853846644529923 0 0.48046208694309289 -0.069248145298267158 0 0.46837177285908682 -0.058218690232388841 0 0.47724102365996812 -0.080853846644529923 0 0.46461537630780692 -0.072943151012057936 0 0.48457372720011538 -0.069511103668296256 0 0.48046208694309289 -0.069248145298267158 0 0.48044145632832719 -0.075903191681981341 0 0.47724102365996812 -0.080853846644529923 0 0.48046208694309289 -0.069248145298267158 0 0.48044145632832719 -0.075903191681981341 0 0.48458672933760127 -0.07550197496579826 0 0.48457372720011538 -0.069511103668296256 0 0.48044145632832719 -0.075903191681981341 0 0.48457372720011538 -0.069511103668296256 0 0.48044145632832719 -0.075903191681981341 0 0.48376045811255802 -0.082421286265606297 0 0.48458672933760127 -0.07550197496579826 0 0.48044145632832719 -0.075903191681981341 0 0.48046208694309289 -0.069248145298267158 0 0.48044145632832719 -0.075903191681981341 0 0.46837177285908682 -0.058218690232388841 0 0.46461537630780692 -0.072943151012057936 0 0.45704821989467109 -0.065199847113540405 0 0.46461537630780692 -0.072943151012057936 0 0.45608278557693188 -0.07616958467332971 0 0.45704821989467109 -0.065199847113540405 0 0.45608278557693188 -0.07616958467332971 0 0.45704821989467109 -0.065199847113540405 0 0.44641725446810621 -0.068165759155516176 0 0.44641725446810621 -0.068165759155516176 0 0.43479317914959698 -0.075501180375418836 0 0.43671212101785739 -0.061747668144515072 0 0.44641725446810621 -0.068165759155516176 0 0.44634389211748587 -0.078261772213826741 0 0.43479317914959698 -0.075501180375418836 0 0.45608278557693188 -0.07616958467332971 0 0.44641725446810621 -0.068165759155516176 0 0.44634389211748587 -0.078261772213826741 0 0.45608278557693188 -0.07616958467332971 0 0.44634389211748587 -0.078261772213826741 0 0.45290692192089421 -0.084784003242381167 0 0.44634389211748587 -0.078261772213826741 0 0.45290692192089421 -0.084784003242381167 0 0.44576315014617263 -0.088698249239417493 0 0.44634389211748587 -0.078261772213826741 0 0.44576315014617263 -0.088698249239417493 0 0.43447822392250568 -0.087636335892106648 0 0.44634389211748587 -0.078261772213826741 0 0.43447822392250568 -0.087636335892106648 0 0.43479317914959698 -0.075501180375418836 0 0.44576315014617263 -0.088698249239417493 0 0.44189890115256081 -0.09675843186049668 0 0.43447822392250568 -0.087636335892106648 0 0.45290692192089421 -0.084784003242381167 0 0.44576315014617263 -0.088698249239417493 0 0.45236578111154258 -0.094554403229841572 0 0.44576315014617263 -0.088698249239417493 0 0.45236578111154258 -0.094554403229841572 0 0.44189890115256081 -0.09675843186049668 0 0.46426157281383812 -0.085877640540269806 0 0.4652741951084351 -0.09936498101091723 0 0.45236578111154258 -0.094554403229841572 0 0.45290692192089421 -0.084784003242381167 0 0.46426157281383812 -0.085877640540269806 0 0.45236578111154258 -0.094554403229841572 0 0.45608278557693188 -0.07616958467332971 0 0.45290692192089421 -0.084784003242381167 0 0.46426157281383812 -0.085877640540269806 0 0.47724102365996812 -0.080853846644529923 0 0.46461537630780692 -0.072943151012057936 0 0.46426157281383812 -0.085877640540269806 0 0.46461537630780692 -0.072943151012057936 0 0.45608278557693188 -0.07616958467332971 0 0.46426157281383812 -0.085877640540269806 0 0.4652741951084351 -0.09936498101091723 0 0.44890768785206209 -0.10573311115758401 0 0.45330736655690551 -0.1178761153773067 0 0.4652741951084351 -0.09936498101091723 0 0.45236578111154258 -0.094554403229841572 0 0.44890768785206209 -0.10573311115758401 0 0.4652741951084351 -0.09936498101091723 0 0.45330736655690551 -0.1178761153773067 0 0.45236578111154258 -0.094554403229841572 0 0.44189890115256081 -0.09675843186049668 0 0.44890768785206209 -0.10573311115758401 0 0.44189890115256081 -0.09675843186049668 0 0.43950185705977468 -0.1057006687578451 0 0.43210708194818448 -0.1001479515351225 0 0.44189890115256081 -0.09675843186049668 0 0.43950185705977468 -0.1057006687578451 0 0.44890768785206209 -0.10573311115758401 0 0.44138059828465431 -0.119785700393876 0 0.45330736655690551 -0.1178761153773067 0 0.44134053800537593 -0.1363872497436962 0 0.44890768785206209 -0.10573311115758401 0 0.44138059828465431 -0.119785700393876 0 0.45330736655690551 -0.1178761153773067 0 0.43950185705977468 -0.1057006687578451 0 0.44890768785206209 -0.10573311115758401 0 0.44138059828465431 -0.119785700393876 0 0.43950185705977468 -0.1057006687578451 0 0.44138059828465431 -0.119785700393876 0 0.43327104173066522 -0.1106264355168167 0 0.48031382702910391 -0.1170739912930928 0 0.4652741951084351 -0.09936498101091723 0 0.45330736655690551 -0.1178761153773067 0 0.48031382702910391 -0.1170739912930928 0 0.45330736655690551 -0.1178761153773067 0 0.46750053011296538 -0.13140197376231769 0 0.40684717720228192 -0.1181427399224577 0 0.41016301943140338 -0.10491180985860479 0 0.42435809633964311 -0.12576726477584271 0 0.4208942496521183 -0.11286629785578089 0 0.41016301943140338 -0.10491180985860479 0 0.42435809633964311 -0.12576726477584271 0 0.41016301943140338 -0.10491180985860479 0 0.42435809633964311 -0.12576726477584271 0 0.4208942496521183 -0.11286629785578089 0 0.42620751010234131 -0.11958038593226181 0 0.42435809633964311 -0.12576726477584271 0 0.42620751010234131 -0.11958038593226181 0 0.42971069401940459 -0.12290141071342971 0 0.42973396825136279 -0.11612081146522581 0 0.42971069401940459 -0.12290141071342971 0 0.42435809633964311 -0.12576726477584271 0 0.42620751010234131 -0.11958038593226181 0 0.42971069401940459 -0.12290141071342971 0 0.42435809633964311 -0.12576726477584271 0 0.44138059828465431 -0.119785700393876 0 0.42971069401940459 -0.12290141071342971 0 0.43573830460367602 -0.12712454920683239 0 0.44138059828465431 -0.119785700393876 0 0.42971069401940459 -0.12290141071342971 0 0.42973396825136279 -0.11612081146522581 0 0.44138059828465431 -0.119785700393876 0 0.43327104173066522 -0.1106264355168167 0 0.42973396825136279 -0.11612081146522581 0 0.43327104173066522 -0.1106264355168167 0 0.42973396825136279 -0.11612081146522581 0 0.4268410448899953 -0.1076478038532737 0 0.4208942496521183 -0.11286629785578089 0 0.42973396825136279 -0.11612081146522581 0 0.4268410448899953 -0.1076478038532737 0 0.4208942496521183 -0.11286629785578089 0 0.42620751010234131 -0.11958038593226181 0 0.42973396825136279 -0.11612081146522581 0 0.4268410448899953 -0.1076478038532737 0 0.43210708194818448 -0.1001479515351225 0 0.4214033356841882 -0.10096361975512699 0 0.4208942496521183 -0.11286629785578089 0 0.4268410448899953 -0.1076478038532737 0 0.4214033356841882 -0.10096361975512699 0 0.43950185705977468 -0.1057006687578451 0 0.43327104173066522 -0.1106264355168167 0 0.43210708194818448 -0.1001479515351225 0 0.43327104173066522 -0.1106264355168167 0 0.4268410448899953 -0.1076478038532737 0 0.43210708194818448 -0.1001479515351225 0 0.44189890115256081 -0.09675843186049668 0 0.43210708194818448 -0.1001479515351225 0 0.43447822392250568 -0.087636335892106648 0 0.43210708194818448 -0.1001479515351225 0 0.4214033356841882 -0.10096361975512699 0 0.42416349186439628 -0.091472627180490318 0 0.41016301943140338 -0.10491180985860479 0 0.40890166659946731 -0.087055110635062563 0 0.41607357638608938 -0.093453803433290572 0 0.4214033356841882 -0.10096361975512699 0 0.41607357638608938 -0.093453803433290572 0 0.42416349186439628 -0.091472627180490318 0 0.4214033356841882 -0.10096361975512699 0 0.41016301943140338 -0.10491180985860479 0 0.41607357638608938 -0.093453803433290572 0 0.4208942496521183 -0.11286629785578089 0 0.4214033356841882 -0.10096361975512699 0 0.41016301943140338 -0.10491180985860479 0 0.40890166659946731 -0.087055110635062563 0 0.41772944009956992 -0.083783223794156744 0 0.4085604980542662 -0.070905109261871088 0 0.40890166659946731 -0.087055110635062563 0 0.41772944009956992 -0.083783223794156744 0 0.41607357638608938 -0.093453803433290572 0 0.41772944009956992 -0.083783223794156744 0 0.41607357638608938 -0.093453803433290572 0 0.42416349186439628 -0.091472627180490318 0 0.42416349186439628 -0.091472627180490318 0 0.43447822392250568 -0.087636335892106648 0 0.42680413279673879 -0.08184760270082013 0 0.43210708194818448 -0.1001479515351225 0 0.42416349186439628 -0.091472627180490318 0 0.43447822392250568 -0.087636335892106648 0 0.43447822392250568 -0.087636335892106648 0 0.42680413279673879 -0.08184760270082013 0 0.43479317914959698 -0.075501180375418836 0 0.41772944009956992 -0.083783223794156744 0 0.42680413279673879 -0.08184760270082013 0 0.42285632894762509 -0.070844646261928088 0 0.41772944009956992 -0.083783223794156744 0 0.42416349186439628 -0.091472627180490318 0 0.42680413279673879 -0.08184760270082013 0 0.42680413279673879 -0.08184760270082013 0 0.42285632894762509 -0.070844646261928088 0 0.43479317914959698 -0.075501180375418836 0 0.42285632894762509 -0.070844646261928088 0 0.43479317914959698 -0.075501180375418836 0 0.43671212101785739 -0.061747668144515072 0 0.42285632894762509 -0.070844646261928088 0 0.43671212101785739 -0.061747668144515072 0 0.42635173074215982 -0.057770152560993437 0 0.42285632894762509 -0.070844646261928088 0 0.4085604980542662 -0.070905109261871088 0 0.41510525745641402 -0.056245973903561813 0 0.41772944009956992 -0.083783223794156744 0 0.42285632894762509 -0.070844646261928088 0 0.4085604980542662 -0.070905109261871088 0 0.4085604980542662 -0.070905109261871088 0 0.39667287653886107 -0.067909673171969762 0 0.40253477267015031 -0.051363409326558578 0 0.39667287653886107 -0.067909673171969762 0 0.38177286561492307 -0.063200900024129467 0 0.39596794252316347 -0.084056354941366984 0 0.4085604980542662 -0.070905109261871088 0 0.39667287653886107 -0.067909673171969762 0 0.39596794252316347 -0.084056354941366984 0 0.38177286561492307 -0.063200900024129467 0 0.38064910861070411 -0.076848663585597721 0 0.36554394034238141 -0.072453891641645118 0 0.38177286561492307 -0.063200900024129467 0 0.38064910861070411 -0.076848663585597721 0 0.39596794252316347 -0.084056354941366984 0 0.38177286561492307 -0.063200900024129467 0 0.39596794252316347 -0.084056354941366984 0 0.38064910861070411 -0.076848663585597721 0 0.3793116859623481 -0.087683507735249466 0 0.39596794252316347 -0.084056354941366984 0 0.3793116859623481 -0.087683507735249466 0 0.39596794252316347 -0.084056354941366984 0 0.39307943158231501 -0.10291312382885361 0 0.38064910861070411 -0.076848663585597721 0 0.3793116859623481 -0.087683507735249466 0 0.36554394034238141 -0.072453891641645118 0 0.40890166659946731 -0.087055110635062563 0 0.4085604980542662 -0.070905109261871088 0 0.39596794252316347 -0.084056354941366984 0 0.41016301943140338 -0.10491180985860479 0 0.40890166659946731 -0.087055110635062563 0 0.39596794252316347 -0.084056354941366984 0 0.41016301943140338 -0.10491180985860479 0 0.39596794252316347 -0.084056354941366984 0 0.39307943158231501 -0.10291312382885361 0 0.40684717720228192 -0.1181427399224577 0 0.41016301943140338 -0.10491180985860479 0 0.39307943158231501 -0.10291312382885361 0 0.41016301943140338 -0.10491180985860479 0 0.39596794252316347 -0.084056354941366984 0 0.3793116859623481 -0.087683507735249466 0 0.39307943158231501 -0.10291312382885361 0 0.39307943158231501 -0.10291312382885361 0 0.37903452142392052 -0.1234219282343578 0 0.37077601267056198 -0.1012314479345945 0 0.3793116859623481 -0.087683507735249466 0 0.39307943158231501 -0.10291312382885361 0 0.37077601267056198 -0.1012314479345945 0 0.39307943158231501 -0.10291312382885361 0 0.37903452142392052 -0.1234219282343578 0 0.39441594472885139 -0.12515600743495439 0 0.40684717720228192 -0.1181427399224577 0 0.39307943158231501 -0.10291312382885361 0 0.39441594472885139 -0.12515600743495439 0 0.40684717720228192 -0.1181427399224577 0 0.39307943158231501 -0.10291312382885361 0 0.40917621881698141 -0.030197145366958639 0 0.42221674588322361 -0.014236958760259349 0 0.42286598052890362 -0.028074510967997811 0 0.40917621881698141 -0.030197145366958639 0 0.41170436089701701 -0.01895522504719865 0 0.42221674588322361 -0.014236958760259349 0 0.40917621881698141 -0.030197145366958639 0 0.42221674588322361 -0.014236958760259349 0 0.40917621881698141 -0.030197145366958639 0 0.42286598052890362 -0.028074510967997811 0 0.41750093663820698 -0.032947545674818939 0 0.40917621881698141 -0.030197145366958639 0 0.41170436089701701 -0.01895522504719865 0 0.40093701989626362 -0.022622901803988269 0 0.40694679768576791 0.01149133248033146 0 0.42088167259752768 -0.011987497669902441 0 0.40286440319057443 -0.0049790845491525237 0 0.41170436089701701 -0.01895522504719865 0 0.42088167259752768 -0.011987497669902441 0 0.40286440319057443 -0.0049790845491525237 0 0.42088167259752768 -0.011987497669902441 0 0.40286440319057443 -0.0049790845491525237 0 0.40694679768576791 0.01149133248033146 0 0.42088167259752768 -0.011987497669902441 0 0.41170436089701701 -0.01895522504719865 0 0.42088167259752768 -0.011987497669902441 0 0.42221674588322361 -0.014236958760259349 0 0.42088167259752768 -0.011987497669902441 0 0.42221674588322361 -0.014236958760259349 0 0.44176402045643748 0.0096867790040321075 0 0.43858896474907688 -0.018875334880128401 0 0.42221674588322361 -0.014236958760259349 0 0.42321604131814933 0.003316656543007588 0 0.42088167259752768 -0.011987497669902441 0 0.42221674588322361 -0.014236958760259349 0 0.44176402045643748 0.0096867790040321075 0 0.42221674588322361 -0.014236958760259349 0 0.42321604131814933 0.003316656543007588 0 0.44176402045643748 0.0096867790040321075 0 0.42221674588322361 -0.014236958760259349 0 0.42221674588322361 -0.014236958760259349 0 0.43409626980257571 -0.034252734010069827 0 0.43858896474907688 -0.018875334880128401 0 0.42221674588322361 -0.014236958760259349 0 0.42221674588322361 -0.014236958760259349 0 0.42286598052890362 -0.028074510967997811 0 0.43409626980257571 -0.034252734010069827 0 0.43858896474907688 -0.018875334880128401 0 0.42221674588322361 -0.014236958760259349 0 0.43409626980257571 -0.034252734010069827 0 0.43409626980257571 -0.034252734010069827 0 0.42329667972537338 -0.039525918628980881 0 0.4340812650744148 -0.047789466840097418 0 0.42329667972537338 -0.039525918628980881 0 0.4340812650744148 -0.047789466840097418 0 0.42445327649552278 -0.050285676449812682 0 0.42286598052890362 -0.028074510967997811 0 0.43409626980257571 -0.034252734010069827 0 0.42329667972537338 -0.039525918628980881 0 0.43671212101785739 -0.061747668144515072 0 0.4340812650744148 -0.047789466840097418 0 0.42635173074215982 -0.057770152560993437 0 0.4340812650744148 -0.047789466840097418 0 0.42445327649552278 -0.050285676449812682 0 0.42635173074215982 -0.057770152560993437 0 0.42445327649552278 -0.050285676449812682 0 0.42635173074215982 -0.057770152560993437 0 0.41510525745641402 -0.056245973903561813 0 0.42329667972537338 -0.039525918628980881 0 0.42445327649552278 -0.050285676449812682 0 0.41510525745641402 -0.056245973903561813 0 0.4085604980542662 -0.070905109261871088 0 0.41510525745641402 -0.056245973903561813 0 0.40253477267015031 -0.051363409326558578 0 0.42329667972537338 -0.039525918628980881 0 0.41510525745641402 -0.056245973903561813 0 0.40253477267015031 -0.051363409326558578 0 0.42285632894762509 -0.070844646261928088 0 0.42635173074215982 -0.057770152560993437 0 0.41510525745641402 -0.056245973903561813 0 0.42329667972537338 -0.039525918628980881 0 0.41750093663820698 -0.032947545674818939 0 0.40253477267015031 -0.051363409326558578 0 0.40917621881698141 -0.030197145366958639 0 0.41750093663820698 -0.032947545674818939 0 0.40253477267015031 -0.051363409326558578 0 0.42329667972537338 -0.039525918628980881 0 0.40253477267015031 -0.051363409326558578 0 0.42286598052890362 -0.028074510967997811 0 0.42329667972537338 -0.039525918628980881 0 0.41750093663820698 -0.032947545674818939 0 0.40917621881698141 -0.030197145366958639 0 0.40253477267015031 -0.051363409326558578 0 0.38908944393645528 -0.0308322949563558 0 0.40253477267015031 -0.051363409326558578 0 0.38696451462797549 -0.047059599482527283 0 0.38908944393645528 -0.0308322949563558 0 0.38177286561492307 -0.063200900024129467 0 0.40253477267015031 -0.051363409326558578 0 0.39667287653886107 -0.067909673171969762 0 0.38177286561492307 -0.063200900024129467 0 0.40253477267015031 -0.051363409326558578 0 0.38177286561492307 -0.063200900024129467 0 0.37081042932547548 -0.047094851617658952 0 0.38177286561492307 -0.063200900024129467 0 0.38696451462797549 -0.047059599482527283 0 0.37081042932547548 -0.047094851617658952 0 0.38177286561492307 -0.063200900024129467 0 0.40253477267015031 -0.051363409326558578 0 0.38696451462797549 -0.047059599482527283 0 0.38696451462797549 -0.047059599482527283 0 0.37467434062209382 -0.02934521295969594 0 0.37081042932547548 -0.047094851617658952 0 0.38696451462797549 -0.047059599482527283 0 0.38908944393645528 -0.0308322949563558 0 0.37467434062209382 -0.02934521295969594 0 0.38543216865083968 -0.015674219691154411 0 0.37304385571162119 -0.01475058325064049 0 0.37467434062209382 -0.02934521295969594 0 0.38543216865083968 -0.015674219691154411 0 0.38908944393645528 -0.0308322949563558 0 0.394014111869191 -0.019422365418603791 0 0.38543216865083968 -0.015674219691154411 0 0.38908944393645528 -0.0308322949563558 0 0.37467434062209382 -0.02934521295969594 0 0.38908944393645528 -0.0308322949563558 0 0.394014111869191 -0.019422365418603791 0 0.40093701989626362 -0.022622901803988269 0 0.40917621881698141 -0.030197145366958639 0 0.38908944393645528 -0.0308322949563558 0 0.40093701989626362 -0.022622901803988269 0 0.394014111869191 -0.019422365418603791 0 0.40093701989626362 -0.022622901803988269 0 0.40070096396167332 -0.01370747823082444 0 0.41170436089701701 -0.01895522504719865 0 0.40093701989626362 -0.022622901803988269 0 0.40070096396167332 -0.01370747823082444 0 0.38623971838722038 0.0014876367099055561 0 0.40286440319057443 -0.0049790845491525237 0 0.39382163939594311 -0.0098990455842030423 0 0.38623971838722038 0.0014876367099055561 0 0.40286440319057443 -0.0049790845491525237 0 0.41170436089701701 -0.01895522504719865 0 0.40286440319057443 -0.0049790845491525237 0 0.40070096396167332 -0.01370747823082444 0 0.40286440319057443 -0.0049790845491525237 0 0.40070096396167332 -0.01370747823082444 0 0.39382163939594311 -0.0098990455842030423 0 0.40286440319057443 -0.0049790845491525237 0 0.40070096396167332 -0.01370747823082444 0 0.394014111869191 -0.019422365418603791 0 0.40070096396167332 -0.01370747823082444 0 0.39382163939594311 -0.0098990455842030423 0 0.38543216865083968 -0.015674219691154411 0 0.394014111869191 -0.019422365418603791 0 0.39382163939594311 -0.0098990455842030423 0 0.38623971838722038 0.0014876367099055561 0 0.37304385571162119 -0.01475058325064049 0 0.38623971838722038 0.0014876367099055561 0 0.38543216865083968 -0.015674219691154411 0 0.39382163939594311 -0.0098990455842030423 0 0.38623971838722038 0.0014876367099055561 0 0.37525963238515048 -0.0032303164562747649 0 0.37304385571162119 -0.01475058325064049 0 0.38623971838722038 0.0014876367099055561 0 0.38543216865083968 -0.015674219691154411 0 0.37304385571162119 -0.01475058325064049 0 0.38623971838722038 0.0014876367099055561 0 0.38150196621569082 0.001102431721108015 0 0.37525963238515048 -0.0032303164562747649 0 0.37418196128054781 0.0024073980133558171 0 0.37525963238515048 -0.0032303164562747649 0 0.36960909592710051 -0.0015044636085615719 0 0.37525963238515048 -0.0032303164562747649 0 0.36960909592710051 -0.0015044636085615719 0 0.36633758811883282 -0.0080040666343894947 0 0.36724891236202678 0.002076647110145572 0 0.36960909592710051 -0.0015044636085615719 0 0.36501738548894458 -0.00077198007564498812 0 0.37525963238515048 -0.0032303164562747649 0 0.37304385571162119 -0.01475058325064049 0 0.36633758811883282 -0.0080040666343894947 0 0.37304385571162119 -0.01475058325064049 0 0.36633758811883282 -0.0080040666343894947 0 0.36111473500132901 -0.01761054889109441 0 0.36633758811883282 -0.0080040666343894947 0 0.36111473500132901 -0.01761054889109441 0 0.35740362563496653 -0.010536712088958341 0 0.36633758811883282 -0.0080040666343894947 0 0.35896241513007549 -0.0045937699143797422 0 0.35740362563496653 -0.010536712088958341 0 0.36075474383835382 0.0022760831476610361 0 0.36501738548894458 -0.00077198007564498812 0 0.35896241513007549 -0.0045937699143797422 0 0.36960909592710051 -0.0015044636085615719 0 0.36633758811883282 -0.0080040666343894947 0 0.36501738548894458 -0.00077198007564498812 0 0.36633758811883282 -0.0080040666343894947 0 0.36501738548894458 -0.00077198007564498812 0 0.35896241513007549 -0.0045937699143797422 0 0.37304385571162119 -0.01475058325064049 0 0.37467434062209382 -0.02934521295969594 0 0.35984799303602588 -0.03098880321118979 0 0.37304385571162119 -0.01475058325064049 0 0.36111473500132901 -0.01761054889109441 0 0.35984799303602588 -0.03098880321118979 0 0.37304385571162119 -0.01475058325064049 0 0.35984799303602588 -0.03098880321118979 0 0.35984799303602588 -0.03098880321118979 0 0.34626764884590572 -0.026835136625019879 0 0.34901130232779848 -0.015593275170180851 0 0.35984799303602588 -0.03098880321118979 0 0.34901130232779848 -0.015593275170180851 0 0.36111473500132901 -0.01761054889109441 0 0.35984799303602588 -0.03098880321118979 0 0.34901130232779848 -0.015593275170180851 0 0.34626764884590572 -0.026835136625019879 0 0.34901130232779848 -0.015593275170180851 0 0.34626764884590572 -0.026835136625019879 0 0.34901130232779848 -0.015593275170180851 0 0.3431985192499083 -0.016159994100466889 0 0.35548005979191472 0.002718705057778954 0 0.35785446704027168 -0.00063597510139421431 0 0.35116293522280723 -0.0067771622510393306 0 0.36075474383835382 0.0022760831476610361 0 0.35785446704027168 -0.00063597510139421431 0 0.35896241513007549 -0.0045937699143797422 0 0.35896241513007549 -0.0045937699143797422 0 0.35740362563496653 -0.010536712088958341 0 0.35116293522280723 -0.0067771622510393306 0 0.35785446704027168 -0.00063597510139421431 0 0.35896241513007549 -0.0045937699143797422 0 0.35116293522280723 -0.0067771622510393306 0 0.35740362563496653 -0.010536712088958341 0 0.34901130232779848 -0.015593275170180851 0 0.35116293522280723 -0.0067771622510393306 0 0.36111473500132901 -0.01761054889109441 0 0.35740362563496653 -0.010536712088958341 0 0.34901130232779848 -0.015593275170180851 0 0.34901130232779848 -0.015593275170180851 0 0.35116293522280723 -0.0067771622510393306 0 0.3431985192499083 -0.016159994100466889 0 0.34901130232779848 -0.015593275170180851 0 0.35116293522280723 -0.0067771622510393306 0 0.35116293522280723 -0.0067771622510393306 0 0.33972239712762048 -0.011350478806973621 0 0.3431985192499083 -0.016159994100466889 0 0.35116293522280723 -0.0067771622510393306 0 0.34104095214448082 -0.0026718332580633452 0 0.33972239712762048 -0.011350478806973621 0 0.34469132047205148 0.0053403878299381488 0 0.35116293522280723 -0.0067771622510393306 0 0.34104095214448082 -0.0026718332580633452 0 0.33518692879436152 0.0047534368290651956 0 0.34104095214448082 -0.0026718332580633452 0 0.33444117910556348 -0.0053253498913071176 0 0.34104095214448082 -0.0026718332580633452 0 0.33444117910556348 -0.0053253498913071176 0 0.33972239712762048 -0.011350478806973621 0 0.32832809487141901 -0.0027596889321640978 0 0.33444117910556348 -0.0053253498913071176 0 0.32583212207827422 -0.0078022317911699878 0 0.33518692879436152 0.0047534368290651956 0 0.32832809487141901 -0.0027596889321640978 0 0.33444117910556348 -0.0053253498913071176 0 0.33444117910556348 -0.0053253498913071176 0 0.33180852460264731 -0.01197472777486373 0 0.32583212207827422 -0.0078022317911699878 0 0.33180852460264731 -0.01197472777486373 0 0.33972239712762048 -0.011350478806973621 0 0.33564109580329982 -0.019677198718834721 0 0.33444117910556348 -0.0053253498913071176 0 0.33180852460264731 -0.01197472777486373 0 0.33972239712762048 -0.011350478806973621 0 0.33972239712762048 -0.011350478806973621 0 0.3431985192499083 -0.016159994100466889 0 0.33564109580329982 -0.019677198718834721 0 0.34626764884590572 -0.026835136625019879 0 0.3431985192499083 -0.016159994100466889 0 0.33564109580329982 -0.019677198718834721 0 0.34626764884590572 -0.026835136625019879 0 0.33564109580329982 -0.019677198718834721 0 0.3274080808577669 -0.030268735452530521 0 0.33180852460264731 -0.01197472777486373 0 0.33564109580329982 -0.019677198718834721 0 0.3234058288984783 -0.015718379666033209 0 0.33564109580329982 -0.019677198718834721 0 0.3234058288984783 -0.015718379666033209 0 0.3274080808577669 -0.030268735452530521 0 0.3274080808577669 -0.030268735452530521 0 0.3100166638724271 -0.011030683608632611 0 0.31180054325099871 -0.030454687414745281 0 0.3234058288984783 -0.015718379666033209 0 0.3274080808577669 -0.030268735452530521 0 0.3100166638724271 -0.011030683608632611 0 0.3274080808577669 -0.030268735452530521 0 0.3100166638724271 -0.011030683608632611 0 0.3234058288984783 -0.015718379666033209 0 0.31926373662585411 -0.0092313024602817175 0 0.3100166638724271 -0.011030683608632611 0 0.33518692879436152 0.0047534368290651956 0 0.32832809487141901 -0.0027596889321640978 0 0.31785214950747692 -0.0026646108752444819 0 0.3252499454756213 0.01369231933837615 0 0.31785214950747692 -0.0026646108752444819 0 0.3100166638724271 -0.011030683608632611 0 0.31926373662585411 -0.0092313024602817175 0 0.31785214950747692 -0.0026646108752444819 0 0.3100166638724271 -0.011030683608632611 0 0.31926373662585411 -0.0092313024602817175 0 0.31785214950747692 -0.0026646108752444819 0 0.32583212207827422 -0.0078022317911699878 0 0.32832809487141901 -0.0027596889321640978 0 0.31785214950747692 -0.0026646108752444819 0 0.32583212207827422 -0.0078022317911699878 0 0.33180852460264731 -0.01197472777486373 0 0.3234058288984783 -0.015718379666033209 0 0.32583212207827422 -0.0078022317911699878 0 0.3234058288984783 -0.015718379666033209 0 0.31926373662585411 -0.0092313024602817175 0 0.32583212207827422 -0.0078022317911699878 0 0.31411840244176698 -0.061312391529918353 0 0.32102081967892171 -0.046717423502035699 0 0.30355422907521779 -0.048400881978974637 0 0.32662941375861648 -0.059578069298850053 0 0.32102081967892171 -0.046717423502035699 0 0.33157655488575299 -0.048746981780529143 0 0.32662941375861648 -0.059578069298850053 0 0.31411840244176698 -0.061312391529918353 0 0.32102081967892171 -0.046717423502035699 0 0.3274080808577669 -0.030268735452530521 0 0.32102081967892171 -0.046717423502035699 0 0.31180054325099871 -0.030454687414745281 0 0.3274080808577669 -0.030268735452530521 0 0.32102081967892171 -0.046717423502035699 0 0.33157655488575299 -0.048746981780529143 0 0.34626764884590572 -0.026835136625019879 0 0.3274080808577669 -0.030268735452530521 0 0.34479949784310687 -0.049506787296428358 0 0.3274080808577669 -0.030268735452530521 0 0.33157655488575299 -0.048746981780529143 0 0.34479949784310687 -0.049506787296428358 0 0.3274080808577669 -0.030268735452530521 0 0.34479949784310687 -0.049506787296428358 0 0.33839291491550438 -0.057390432748892599 0 0.34479949784310687 -0.049506787296428358 0 0.33157655488575299 -0.048746981780529143 0 0.33839291491550438 -0.057390432748892599 0 0.34479949784310687 -0.049506787296428358 0 0.32662941375861648 -0.059578069298850053 0 0.33839291491550438 -0.057390432748892599 0 0.33414244185397041 -0.065006360400649207 0 0.32662941375861648 -0.059578069298850053 0 0.33157655488575299 -0.048746981780529143 0 0.33839291491550438 -0.057390432748892599 0 0.33839291491550438 -0.057390432748892599 0 0.34479949784310687 -0.049506787296428358 0 0.35517171909274409 -0.060980339469036707 0 0.34479949784310687 -0.049506787296428358 0 0.35517171909274409 -0.060980339469036707 0 0.34479949784310687 -0.049506787296428358 0 0.35918311505620898 -0.049241522786359362 0 0.35517171909274409 -0.060980339469036707 0 0.35984799303602588 -0.03098880321118979 0 0.34479949784310687 -0.049506787296428358 0 0.35984799303602588 -0.03098880321118979 0 0.34626764884590572 -0.026835136625019879 0 0.34479949784310687 -0.049506787296428358 0 0.35984799303602588 -0.03098880321118979 0 0.34479949784310687 -0.049506787296428358 0 0.35918311505620898 -0.049241522786359362 0 0.35984799303602588 -0.03098880321118979 0 0.37081042932547548 -0.047094851617658952 0 0.37467434062209382 -0.02934521295969594 0 0.35984799303602588 -0.03098880321118979 0 0.37081042932547548 -0.047094851617658952 0 0.35984799303602588 -0.03098880321118979 0 0.35918311505620898 -0.049241522786359362 0 0.37081042932547548 -0.047094851617658952 0 0.38177286561492307 -0.063200900024129467 0 0.37081042932547548 -0.047094851617658952 0 0.36806380615424178 -0.059750825487253773 0 0.35918311505620898 -0.049241522786359362 0 0.35517171909274409 -0.060980339469036707 0 0.36806380615424178 -0.059750825487253773 0 0.35918311505620898 -0.049241522786359362 0 0.37081042932547548 -0.047094851617658952 0 0.36806380615424178 -0.059750825487253773 0 0.38177286561492307 -0.063200900024129467 0 0.36554394034238141 -0.072453891641645118 0 0.38177286561492307 -0.063200900024129467 0 0.36806380615424178 -0.059750825487253773 0 0.36554394034238141 -0.072453891641645118 0 0.35517171909274409 -0.060980339469036707 0 0.36554394034238141 -0.072453891641645118 0 0.35517171909274409 -0.060980339469036707 0 0.36806380615424178 -0.059750825487253773 0 0.36554394034238141 -0.072453891641645118 0 0.3793116859623481 -0.087683507735249466 0 0.36554394034238141 -0.072453891641645118 0 0.3793116859623481 -0.087683507735249466 0 0.36554394034238141 -0.072453891641645118 0 0.36412259702142841 -0.087576709234243114 0 0.3793116859623481 -0.087683507735249466 0 0.36412259702142841 -0.087576709234243114 0 0.37077601267056198 -0.1012314479345945 0 0.36554394034238141 -0.072453891641645118 0 0.36412259702142841 -0.087576709234243114 0 0.34436121209360082 -0.0845313153545664 0 0.36412259702142841 -0.087576709234243114 0 0.34436121209360082 -0.0845313153545664 0 0.35910262014967292 -0.098471088857962852 0 0.36554394034238141 -0.072453891641645118 0 0.34436121209360082 -0.0845313153545664 0 0.35517171909274409 -0.060980339469036707 0 0.36554394034238141 -0.072453891641645118 0 0.34440537244290709 -0.070294947008980965 0 0.36554394034238141 -0.072453891641645118 0 0.34436121209360082 -0.0845313153545664 0 0.34440537244290709 -0.070294947008980965 0 0.33839291491550438 -0.057390432748892599 0 0.35517171909274409 -0.060980339469036707 0 0.34440537244290709 -0.070294947008980965 0 0.37903452142392052 -0.1234219282343578 0 0.36050457353452542 -0.1120460650635715 0 0.37077601267056198 -0.1012314479345945 0 0.37903452142392052 -0.1234219282343578 0 0.36050457353452542 -0.1120460650635715 0 0.35723800163149078 -0.12665560823657121 0 0.37903452142392052 -0.1234219282343578 0 0.37077601267056198 -0.1012314479345945 0 0.36050457353452542 -0.1120460650635715 0 0.37077601267056198 -0.1012314479345945 0 0.35910262014967292 -0.098471088857962852 0 0.36412259702142841 -0.087576709234243114 0 0.37077601267056198 -0.1012314479345945 0 0.35910262014967292 -0.098471088857962852 0 0.34436121209360082 -0.0845313153545664 0 0.35910262014967292 -0.098471088857962852 0 0.34918620775179587 -0.10372973440006771 0 0.36050457353452542 -0.1120460650635715 0 0.35910262014967292 -0.098471088857962852 0 0.34918620775179587 -0.10372973440006771 0 0.36050457353452542 -0.1120460650635715 0 0.34918620775179587 -0.10372973440006771 0 0.34582248196328241 -0.11977334925641681 0 0.36050457353452542 -0.1120460650635715 0 0.34582248196328241 -0.11977334925641681 0 0.35723800163149078 -0.12665560823657121 0 0.34582248196328241 -0.11977334925641681 0 0.33061540058836919 -0.12152637259855641 0 0.33282440520105222 -0.10425124973781021 0 0.34918620775179587 -0.10372973440006771 0 0.34582248196328241 -0.11977334925641681 0 0.33282440520105222 -0.10425124973781021 0 0.34436121209360082 -0.0845313153545664 0 0.34918620775179587 -0.10372973440006771 0 0.33282440520105222 -0.10425124973781021 0 0.31815380722822267 -0.1150524902694869 0 0.31877621394434719 -0.089565214843939964 0 0.30422640981192922 -0.1034133665317163 0 0.33282440520105222 -0.10425124973781021 0 0.31815380722822267 -0.1150524902694869 0 0.31877621394434719 -0.089565214843939964 0 0.33061540058836919 -0.12152637259855641 0 0.31815380722822267 -0.1150524902694869 0 0.31703876043984502 -0.13308605490720951 0 0.31815380722822267 -0.1150524902694869 0 0.30494588089241148 -0.1212302719878468 0 0.31703876043984502 -0.13308605490720951 0 0.33061540058836919 -0.12152637259855641 0 0.33282440520105222 -0.10425124973781021 0 0.31815380722822267 -0.1150524902694869 0 0.34436121209360082 -0.0845313153545664 0 0.34440537244290709 -0.070294947008980965 0 0.32714206629885351 -0.072761992545873233 0 0.34440537244290709 -0.070294947008980965 0 0.33414244185397041 -0.065006360400649207 0 0.32714206629885351 -0.072761992545873233 0 0.32662941375861648 -0.059578069298850053 0 0.33414244185397041 -0.065006360400649207 0 0.32714206629885351 -0.072761992545873233 0 0.33839291491550438 -0.057390432748892599 0 0.34440537244290709 -0.070294947008980965 0 0.33414244185397041 -0.065006360400649207 0 0.34436121209360082 -0.0845313153545664 0 0.33282440520105222 -0.10425124973781021 0 0.31877621394434719 -0.089565214843939964 0 0.34436121209360082 -0.0845313153545664 0 0.31877621394434719 -0.089565214843939964 0 0.32714206629885351 -0.072761992545873233 0 0.31877621394434719 -0.089565214843939964 0 0.32714206629885351 -0.072761992545873233 0 0.30617585349350301 -0.076195623046023245 0 0.31411840244176698 -0.061312391529918353 0 0.32714206629885351 -0.072761992545873233 0 0.30617585349350301 -0.076195623046023245 0 0.32662941375861648 -0.059578069298850053 0 0.31411840244176698 -0.061312391529918353 0 0.32714206629885351 -0.072761992545873233 0 0.31411840244176698 -0.061312391529918353 0 0.29718868675954058 -0.063504129526733066 0 0.30617585349350301 -0.076195623046023245 0 0.29718868675954058 -0.063504129526733066 0 0.30617585349350301 -0.076195623046023245 0 0.28803382457359122 -0.077425726259768443 0 0.31877621394434719 -0.089565214843939964 0 0.30617585349350301 -0.076195623046023245 0 0.29358575017895561 -0.092865941774362512 0 0.29358575017895561 -0.092865941774362512 0 0.28803382457359122 -0.077425726259768443 0 0.279323343681596 -0.097454576357865363 0 0.30617585349350301 -0.076195623046023245 0 0.29358575017895561 -0.092865941774362512 0 0.28803382457359122 -0.077425726259768443 0 0.29718868675954058 -0.063504129526733066 0 0.28803382457359122 -0.077425726259768443 0 0.28265227574660112 -0.055441984200369852 0 0.30494588089241148 -0.1212302719878468 0 0.30422640981192922 -0.1034133665317163 0 0.28967660567951059 -0.1172615182194921 0 0.30494588089241148 -0.1212302719878468 0 0.28967660567951059 -0.1172615182194921 0 0.2994028823627165 -0.1358689674305025 0 0.31815380722822267 -0.1150524902694869 0 0.30494588089241148 -0.1212302719878468 0 0.30422640981192922 -0.1034133665317163 0 0.30422640981192922 -0.1034133665317163 0 0.28967660567951059 -0.1172615182194921 0 0.31877621394434719 -0.089565214843939964 0 0.29358575017895561 -0.092865941774362512 0 0.30422640981192922 -0.1034133665317163 0 0.31877621394434719 -0.089565214843939964 0 0.30422640981192922 -0.1034133665317163 0 0.28967660567951059 -0.1172615182194921 0 0.279323343681596 -0.097454576357865363 0 0.29358575017895561 -0.092865941774362512 0 0.28967660567951059 -0.1172615182194921 0 0.279323343681596 -0.097454576357865363 0 0.29358575017895561 -0.092865941774362512 0 0.30422640981192922 -0.1034133665317163 0 0.28967660567951059 -0.1172615182194921 0 0.28967660567951059 -0.1172615182194921 0 0.26805349928865491 -0.1157952476649422 0 0.27094517249572642 -0.13508964330610779 0 0.28967660567951059 -0.1172615182194921 0 0.26805349928865491 -0.1157952476649422 0 0.279323343681596 -0.097454576357865363 0 0.26805349928865491 -0.1157952476649422 0 0.279323343681596 -0.097454576357865363 0 0.25741518420236592 -0.096400768057638975 0 0.25741518420236592 -0.096400768057638975 0 0.2458602867210446 -0.11515390161903991 0 0.26805349928865491 -0.1157952476649422 0 0.25741518420236592 -0.096400768057638975 0 0.25622002015159723 -0.1188352847692218 0 0.25741518420236592 -0.096400768057638975 0 0.25622002015159723 -0.1188352847692218 0 0.2458602867210446 -0.11515390161903991 0 0.25622002015159723 -0.1188352847692218 0 0.25784239117297297 -0.1273257000846621 0 0.2460137926237394 -0.12515105592236961 0 0.26805349928865491 -0.1157952476649422 0 0.25622002015159723 -0.1188352847692218 0 0.25784239117297297 -0.1273257000846621 0 0.26897008168368508 -0.077647634496236712 0 0.28265227574660112 -0.055441984200369852 0 0.26897008168368508 -0.077647634496236712 0 0.26277230804482887 -0.065790604107062278 0 0.28265227574660112 -0.055441984200369852 0 0.28803382457359122 -0.077425726259768443 0 0.26897008168368508 -0.077647634496236712 0 0.28265227574660112 -0.055441984200369852 0 0.26897008168368508 -0.077647634496236712 0 0.26277230804482887 -0.065790604107062278 0 0.28803382457359122 -0.077425726259768443 0 0.279323343681596 -0.097454576357865363 0 0.26897008168368508 -0.077647634496236712 0 0.279323343681596 -0.097454576357865363 0 0.26897008168368508 -0.077647634496236712 0 0.279323343681596 -0.097454576357865363 0 0.25741518420236592 -0.096400768057638975 0 0.26897008168368508 -0.077647634496236712 0 0.25741518420236592 -0.096400768057638975 0 0.25040830460899682 -0.079634987691361597 0 0.2434201236699145 -0.085754315401211312 0 0.25741518420236592 -0.096400768057638975 0 0.25040830460899682 -0.079634987691361597 0 0.25900443123009759 -0.076435340074767572 0 0.25741518420236592 -0.096400768057638975 0 0.26897008168368508 -0.077647634496236712 0 0.25900443123009759 -0.076435340074767572 0 0.25741518420236592 -0.096400768057638975 0 0.26897008168368508 -0.077647634496236712 0 0.26277230804482887 -0.065790604107062278 0 0.2521052551029383 -0.069863450563826146 0 0.2455456683263457 -0.054849469214598157 0 0.25040830460899682 -0.079634987691361597 0 0.25900443123009759 -0.076435340074767572 0 0.2521052551029383 -0.069863450563826146 0 0.26897008168368508 -0.077647634496236712 0 0.25900443123009759 -0.076435340074767572 0 0.26277230804482887 -0.065790604107062278 0 0.25900443123009759 -0.076435340074767572 0 0.26277230804482887 -0.065790604107062278 0 0.2521052551029383 -0.069863450563826146 0 0.26277230804482887 -0.065790604107062278 0 0.26767728287176201 -0.050943911007284473 0 0.2455456683263457 -0.054849469214598157 0 0.26767728287176201 -0.050943911007284473 0 0.26245375747298683 -0.036206276988888481 0 0.2455456683263457 -0.054849469214598157 0 0.26767728287176201 -0.050943911007284473 0 0.27810452363611221 -0.039815586550149301 0 0.28265227574660112 -0.055441984200369852 0 0.26277230804482887 -0.065790604107062278 0 0.26767728287176201 -0.050943911007284473 0 0.28265227574660112 -0.055441984200369852 0 0.26767728287176201 -0.050943911007284473 0 0.27810452363611221 -0.039815586550149301 0 0.26245375747298683 -0.036206276988888481 0 0.27810452363611221 -0.039815586550149301 0 0.26245375747298683 -0.036206276988888481 0 0.28140483227969609 -0.02324942664970206 0 0.26245375747298683 -0.036206276988888481 0 0.2455456683263457 -0.054849469214598157 0 0.26245375747298683 -0.036206276988888481 0 0.26834637846271508 -0.011154355926822601 0 0.24549597117342711 -0.012807850074243629 0 0.26043281603631668 0.002112897292672999 0 0.26834637846271508 -0.011154355926822601 0 0.24549597117342711 -0.012807850074243629 0 0.26834637846271508 -0.011154355926822601 0 0.28140483227969609 -0.02324942664970206 0 0.28398377808604358 -0.0059592079478637938 0 0.27630711572782019 0.0091837288070893627 0 0.26834637846271508 -0.011154355926822601 0 0.28398377808604358 -0.0059592079478637938 0 0.26245375747298683 -0.036206276988888481 0 0.26834637846271508 -0.011154355926822601 0 0.28140483227969609 -0.02324942664970206 0 0.28140483227969609 -0.02324942664970206 0 0.29694846656595919 -0.01356070058578774 0 0.29633446980951489 -0.033236333904501661 0 0.28140483227969609 -0.02324942664970206 0 0.28398377808604358 -0.0059592079478637938 0 0.29694846656595919 -0.01356070058578774 0 0.28398377808604358 -0.0059592079478637938 0 0.29812996111648332 -0.0026127160514706569 0 0.29694846656595919 -0.01356070058578774 0 0.28867607649698429 0.0059818804495349164 0 0.28398377808604358 -0.0059592079478637938 0 0.29812996111648332 -0.0026127160514706569 0 0.30289238242431621 0.0019409988452290621 0 0.30720426612093682 0.00051080036662477779 0 0.30382575761827613 -0.0029809485564180459 0 0.30289238242431621 0.0019409988452290621 0 0.30382575761827613 -0.0029809485564180459 0 0.29812996111648332 -0.0026127160514706569 0 0.30382575761827613 -0.0029809485564180459 0 0.29812996111648332 -0.0026127160514706569 0 0.30302570407866009 -0.0073719424675342373 0 0.29812996111648332 -0.0026127160514706569 0 0.30302570407866009 -0.0073719424675342373 0 0.29694846656595919 -0.01356070058578774 0 0.30302570407866009 -0.0073719424675342373 0 0.29694846656595919 -0.01356070058578774 0 0.3100166638724271 -0.011030683608632611 0 0.30302570407866009 -0.0073719424675342373 0 0.3100166638724271 -0.011030683608632611 0 0.30826446012856512 -0.0060232538859309884 0 0.31215458004749119 0.0027295904063807052 0 0.3100166638724271 -0.011030683608632611 0 0.30826446012856512 -0.0060232538859309884 0 0.30720426612093682 0.00051080036662477779 0 0.31215458004749119 0.0027295904063807052 0 0.30826446012856512 -0.0060232538859309884 0 0.30382575761827613 -0.0029809485564180459 0 0.30302570407866009 -0.0073719424675342373 0 0.30826446012856512 -0.0060232538859309884 0 0.30720426612093682 0.00051080036662477779 0 0.30382575761827613 -0.0029809485564180459 0 0.30826446012856512 -0.0060232538859309884 0 0.29694846656595919 -0.01356070058578774 0 0.3100166638724271 -0.011030683608632611 0 0.29633446980951489 -0.033236333904501661 0 0.3100166638724271 -0.011030683608632611 0 0.31180054325099871 -0.030454687414745281 0 0.29633446980951489 -0.033236333904501661 0 0.3100166638724271 -0.011030683608632611 0 0.29633446980951489 -0.033236333904501661 0 0.32102081967892171 -0.046717423502035699 0 0.31180054325099871 -0.030454687414745281 0 0.30355422907521779 -0.048400881978974637 0 0.31180054325099871 -0.030454687414745281 0 0.30355422907521779 -0.048400881978974637 0 0.29633446980951489 -0.033236333904501661 0 0.31411840244176698 -0.061312391529918353 0 0.29718868675954058 -0.063504129526733066 0 0.30355422907521779 -0.048400881978974637 0 0.29718868675954058 -0.063504129526733066 0 0.30355422907521779 -0.048400881978974637 0 0.28265227574660112 -0.055441984200369852 0 0.28265227574660112 -0.055441984200369852 0 0.29633446980951489 -0.033236333904501661 0 0.30355422907521779 -0.048400881978974637 0 0.28265227574660112 -0.055441984200369852 0 0.29633446980951489 -0.033236333904501661 0 0.27810452363611221 -0.039815586550149301 0 0.28140483227969609 -0.02324942664970206 0 0.29633446980951489 -0.033236333904501661 0 0.27810452363611221 -0.039815586550149301 0 0.28265227574660112 -0.055441984200369852 0 0.29633446980951489 -0.033236333904501661 0 0.28980307959243412 -0.20583542879203229 0 0.3082699370251461 -0.20997258094100801 0 0.29054247192385713 -0.22471842058710981 0 0.28980307959243412 -0.20583542879203229 0 0.29870753533146899 -0.18916735307393279 0 0.27531649750394749 -0.1937006432749222 0 0.29870753533146899 -0.18916735307393279 0 0.3082699370251461 -0.20997258094100801 0 0.31996898500278181 -0.19153184380367591 0 0.29870753533146899 -0.18916735307393279 0 0.3082699370251461 -0.20997258094100801 0 0.28980307959243412 -0.20583542879203229 0 0.29870753533146899 -0.18916735307393279 0 0.3082699370251461 -0.20997258094100801 0 0.29054247192385713 -0.22471842058710981 0 0.31783233871881911 -0.23077780880808499 0 0.3082699370251461 -0.20997258094100801 0 0.29054247192385713 -0.22471842058710981 0 0.31783233871881911 -0.23077780880808499 0 0.29986174555818601 -0.2499561489764151 0 0.29054247192385713 -0.22471842058710981 0 0.31783233871881911 -0.23077780880808499 0 0.29986174555818601 -0.2499561489764151 0 0.29054247192385713 -0.22471842058710981 0 0.27798776553391868 -0.24009430107567059 0 0.29054247192385713 -0.22471842058710981 0 0.27798776553391868 -0.24009430107567059 0 0.26325260512889559 -0.21865903236613191 0 0.29054247192385713 -0.22471842058710981 0 0.26325260512889559 -0.21865903236613191 0 0.27798776553391868 -0.24009430107567059 0 0.2571087078033637 -0.24601667191256921 0 0.26325260512889559 -0.21865903236613191 0 0.2571087078033637 -0.24601667191256921 0 0.26325260512889559 -0.21865903236613191 0 0.24564482171306459 -0.23046674906431161 0 0.26325260512889559 -0.21865903236613191 0 0.25174218740861481 -0.19024473901930111 0 0.23596273833393411 -0.212599644145154 0 0.28980307959243412 -0.20583542879203229 0 0.29054247192385713 -0.22471842058710981 0 0.26325260512889559 -0.21865903236613191 0 0.28980307959243412 -0.20583542879203229 0 0.26325260512889559 -0.21865903236613191 0 0.27531649750394749 -0.1937006432749222 0 0.26325260512889559 -0.21865903236613191 0 0.27531649750394749 -0.1937006432749222 0 0.25174218740861481 -0.19024473901930111 0 0.27531649750394749 -0.1937006432749222 0 0.25174218740861481 -0.19024473901930111 0 0.26669370548936999 -0.17480802305714371 0 0.25174218740861481 -0.19024473901930111 0 0.25185170259338269 -0.17070251035931161 0 0.26669370548936999 -0.17480802305714371 0 0.25185170259338269 -0.17070251035931161 0 0.26834226365796893 -0.1583486955358667 0 0.26669370548936999 -0.17480802305714371 0 0.25185170259338269 -0.17070251035931161 0 0.26834226365796893 -0.1583486955358667 0 0.25221373931194169 -0.15291776839272289 0 0.26834226365796893 -0.1583486955358667 0 0.27958273194411482 -0.14755689733978269 0 0.28914513363779182 -0.1683621252068577 0 0.26834226365796893 -0.1583486955358667 0 0.26669370548936999 -0.17480802305714371 0 0.28914513363779182 -0.1683621252068577 0 0.27531649750394749 -0.1937006432749222 0 0.26669370548936999 -0.17480802305714371 0 0.28914513363779182 -0.1683621252068577 0 0.26805349928865491 -0.1157952476649422 0 0.25784239117297297 -0.1273257000846621 0 0.27094517249572642 -0.13508964330610779 0 0.25784239117297297 -0.1273257000846621 0 0.2504782668817489 -0.139995163159433 0 0.27094517249572642 -0.13508964330610779 0 0.25784239117297297 -0.1273257000846621 0 0.2504782668817489 -0.139995163159433 0 0.2460137926237394 -0.12515105592236961 0 0.25221373931194169 -0.15291776839272289 0 0.27094517249572642 -0.13508964330610779 0 0.26834226365796893 -0.1583486955358667 0 0.25221373931194169 -0.15291776839272289 0 0.27094517249572642 -0.13508964330610779 0 0.2504782668817489 -0.139995163159433 0 0.25221373931194169 -0.15291776839272289 0 0.27094517249572642 -0.13508964330610779 0 0.26834226365796893 -0.1583486955358667 0 0.27958273194411482 -0.14755689733978269 0 0.27094517249572642 -0.13508964330610779 0 0.28967660567951059 -0.1172615182194921 0 0.27094517249572642 -0.13508964330610779 0 0.27958273194411482 -0.14755689733978269 0 0.27094517249572642 -0.13508964330610779 0 0.28636365853645368 -0.13641605974643439 0 0.28967660567951059 -0.1172615182194921 0 0.27094517249572642 -0.13508964330610779 0 0.28636365853645368 -0.13641605974643439 0 0.28967660567951059 -0.1172615182194921 0 0.2994028823627165 -0.1358689674305025 0 0.28967660567951059 -0.1172615182194921 0 0.28636365853645368 -0.13641605974643439 0 0.2994028823627165 -0.1358689674305025 0 0.27958273194411482 -0.14755689733978269 0 0.29406236803006258 -0.14981137921056331 0 0.28914513363779182 -0.1683621252068577 0 0.28636365853645368 -0.13641605974643439 0 0.29406236803006258 -0.14981137921056331 0 0.2994028823627165 -0.1358689674305025 0 0.27958273194411482 -0.14755689733978269 0 0.28636365853645368 -0.13641605974643439 0 0.29406236803006258 -0.14981137921056331 0 0.30912915904592497 -0.15447641664151171 0 0.2994028823627165 -0.1358689674305025 0 0.29406236803006258 -0.14981137921056331 0 0.30912915904592497 -0.15447641664151171 0 0.2994028823627165 -0.1358689674305025 0 0.30912915904592497 -0.15447641664151171 0 0.2994028823627165 -0.1358689674305025 0 0.31703876043984502 -0.13308605490720951 0 0.30494588089241148 -0.1212302719878468 0 0.2994028823627165 -0.1358689674305025 0 0.31703876043984502 -0.13308605490720951 0 0.29870753533146899 -0.18916735307393279 0 0.27531649750394749 -0.1937006432749222 0 0.28914513363779182 -0.1683621252068577 0 0.29870753533146899 -0.18916735307393279 0 0.28914513363779182 -0.1683621252068577 0 0.27958273194411482 -0.14755689733978269 0 0.28914513363779182 -0.1683621252068577 0 0.30912915904592497 -0.15447641664151171 0 0.28914513363779182 -0.1683621252068577 0 0.31164274462055253 -0.17406531034060119 0 0.29406236803006258 -0.14981137921056331 0 0.30912915904592497 -0.15447641664151171 0 0.28914513363779182 -0.1683621252068577 0 0.29870753533146899 -0.18916735307393279 0 0.28914513363779182 -0.1683621252068577 0 0.31164274462055253 -0.17406531034060119 0 0.29870753533146899 -0.18916735307393279 0 0.31164274462055253 -0.17406531034060119 0 0.31996898500278181 -0.19153184380367591 0 0.31164274462055253 -0.17406531034060119 0 0.33081525414209362 -0.1768303282127284 0 0.31996898500278181 -0.19153184380367591 0 0.31164274462055253 -0.17406531034060119 0 0.32509458047302581 -0.16069441597351891 0 0.33081525414209362 -0.1768303282127284 0 0.30912915904592497 -0.15447641664151171 0 0.31164274462055253 -0.17406531034060119 0 0.32509458047302581 -0.16069441597351891 0 0.34110044104971282 -0.16234592436015691 0 0.33081525414209362 -0.1768303282127284 0 0.3497525181383665 -0.17450541248817061 0 0.32509458047302581 -0.16069441597351891 0 0.34110044104971282 -0.16234592436015691 0 0.33081525414209362 -0.1768303282127284 0 0.32509458047302581 -0.16069441597351891 0 0.34110044104971282 -0.16234592436015691 0 0.33593227071824311 -0.14925715404311091 0 0.33081525414209362 -0.1768303282127284 0 0.33948315486221731 -0.1917399677111338 0 0.31996898500278181 -0.19153184380367591 0 0.33081525414209362 -0.1768303282127284 0 0.3497525181383665 -0.17450541248817061 0 0.33948315486221731 -0.1917399677111338 0 0.31703876043984502 -0.13308605490720951 0 0.32449547070520268 -0.14647885475010269 0 0.3352825828489745 -0.13488023218516229 0 0.33061540058836919 -0.12152637259855641 0 0.31703876043984502 -0.13308605490720951 0 0.3352825828489745 -0.13488023218516229 0 0.30912915904592497 -0.15447641664151171 0 0.31703876043984502 -0.13308605490720951 0 0.32449547070520268 -0.14647885475010269 0 0.30912915904592497 -0.15447641664151171 0 0.32509458047302581 -0.16069441597351891 0 0.32449547070520268 -0.14647885475010269 0 0.32509458047302581 -0.16069441597351891 0 0.32449547070520268 -0.14647885475010269 0 0.33593227071824311 -0.14925715404311091 0 0.34110044104971282 -0.16234592436015691 0 0.33593227071824311 -0.14925715404311091 0 0.3489348926465588 -0.15200758111849791 0 0.33593227071824311 -0.14925715404311091 0 0.3352825828489745 -0.13488023218516229 0 0.34987693446077173 -0.13814312888109559 0 0.32449547070520268 -0.14647885475010269 0 0.33593227071824311 -0.14925715404311091 0 0.3352825828489745 -0.13488023218516229 0 0.34582248196328241 -0.11977334925641681 0 0.3352825828489745 -0.13488023218516229 0 0.34987693446077173 -0.13814312888109559 0 0.34582248196328241 -0.11977334925641681 0 0.33061540058836919 -0.12152637259855641 0 0.3352825828489745 -0.13488023218516229 0 0.34582248196328241 -0.11977334925641681 0 0.35723800163149078 -0.12665560823657121 0 0.34987693446077173 -0.13814312888109559 0 0.35723800163149078 -0.12665560823657121 0 0.34987693446077173 -0.13814312888109559 0 0.36285551811475691 -0.1368801547175858 0 0.34987693446077173 -0.13814312888109559 0 0.3489348926465588 -0.15200758111849791 0 0.36090910433067419 -0.14838273336601579 0 0.34987693446077173 -0.13814312888109559 0 0.36090910433067419 -0.14838273336601579 0 0.36285551811475691 -0.1368801547175858 0 0.33593227071824311 -0.14925715404311091 0 0.34987693446077173 -0.13814312888109559 0 0.3489348926465588 -0.15200758111849791 0 0.3489348926465588 -0.15200758111849791 0 0.36090910433067419 -0.14838273336601579 0 0.35685571267339222 -0.16190896494211029 0 0.3692581581327824 -0.1552685258823876 0 0.36090910433067419 -0.14838273336601579 0 0.3692581581327824 -0.1552685258823876 0 0.36090910433067419 -0.14838273336601579 0 0.35685571267339222 -0.16190896494211029 0 0.3692581581327824 -0.1552685258823876 0 0.37353237608231521 -0.14158148922204281 0 0.36090910433067419 -0.14838273336601579 0 0.37353237608231521 -0.14158148922204281 0 0.36090910433067419 -0.14838273336601579 0 0.36285551811475691 -0.1368801547175858 0 0.37903452142392052 -0.1234219282343578 0 0.35723800163149078 -0.12665560823657121 0 0.36285551811475691 -0.1368801547175858 0 0.37903452142392052 -0.1234219282343578 0 0.37353237608231521 -0.14158148922204281 0 0.36285551811475691 -0.1368801547175858 0 0.3497525181383665 -0.17450541248817061 0 0.35566222264333169 -0.18804136348617539 0 0.33948315486221731 -0.1917399677111338 0 0.3497525181383665 -0.17450541248817061 0 0.36920761947484559 -0.1739743600355618 0 0.35566222264333169 -0.18804136348617539 0 0.34110044104971282 -0.16234592436015691 0 0.3489348926465588 -0.15200758111849791 0 0.35685571267339222 -0.16190896494211029 0 0.3497525181383665 -0.17450541248817061 0 0.35685571267339222 -0.16190896494211029 0 0.36920761947484559 -0.1739743600355618 0 0.34110044104971282 -0.16234592436015691 0 0.3497525181383665 -0.17450541248817061 0 0.35685571267339222 -0.16190896494211029 0 0.3692581581327824 -0.1552685258823876 0 0.35685571267339222 -0.16190896494211029 0 0.36920761947484559 -0.1739743600355618 0 0.3692581581327824 -0.1552685258823876 0 0.36920761947484559 -0.1739743600355618 0 0.38486178151512018 -0.1681374467997781 0 0.3692581581327824 -0.1552685258823876 0 0.35685571267339222 -0.16190896494211029 0 0.36920761947484559 -0.1739743600355618 0 0.35566222264333169 -0.18804136348617539 0 0.37962234804752643 -0.1903689831095868 0 0.36744649669636031 -0.20367876575595539 0 0.35566222264333169 -0.18804136348617539 0 0.37962234804752643 -0.1903689831095868 0 0.36744649669636031 -0.20367876575595539 0 0.34999579661966002 -0.2123587768326409 0 0.36972623446945602 -0.21876948643859051 0 0.36744649669636031 -0.20367876575595539 0 0.36972623446945602 -0.21876948643859051 0 0.38024448936862448 -0.20687469319352411 0 0.36744649669636031 -0.20367876575595539 0 0.34999579661966002 -0.2123587768326409 0 0.35566222264333169 -0.18804136348617539 0 0.34999579661966002 -0.2123587768326409 0 0.35566222264333169 -0.18804136348617539 0 0.33948315486221731 -0.1917399677111338 0 0.33948315486221731 -0.1917399677111338 0 0.33070415262707042 -0.2071720814434119 0 0.31996898500278181 -0.19153184380367591 0 0.34999579661966002 -0.2123587768326409 0 0.33070415262707042 -0.2071720814434119 0 0.33327833231147908 -0.2236528680951598 0 0.34999579661966002 -0.2123587768326409 0 0.33948315486221731 -0.1917399677111338 0 0.33070415262707042 -0.2071720814434119 0 0.3082699370251461 -0.20997258094100801 0 0.33070415262707042 -0.2071720814434119 0 0.33327833231147908 -0.2236528680951598 0 0.3082699370251461 -0.20997258094100801 0 0.33070415262707042 -0.2071720814434119 0 0.31996898500278181 -0.19153184380367591 0 0.31783233871881911 -0.23077780880808499 0 0.32956248921523168 -0.25629947813454868 0 0.29986174555818601 -0.2499561489764151 0 0.31783233871881911 -0.23077780880808499 0 0.32956248921523168 -0.25629947813454868 0 0.3082699370251461 -0.20997258094100801 0 0.31783233871881911 -0.23077780880808499 0 0.33327833231147908 -0.2236528680951598 0 0.3082699370251461 -0.20997258094100801 0 0.31783233871881911 -0.23077780880808499 0 0.31783233871881911 -0.23077780880808499 0 0.33327833231147908 -0.2236528680951598 0 0.34425752521648001 -0.2366452051205768 0 0.31783233871881911 -0.23077780880808499 0 0.34425752521648001 -0.2366452051205768 0 0.34999579661966002 -0.2123587768326409 0 0.33327833231147908 -0.2236528680951598 0 0.34425752521648001 -0.2366452051205768 0 0.31783233871881911 -0.23077780880808499 0 0.34425752521648001 -0.2366452051205768 0 0.32956248921523168 -0.25629947813454868 0 0.34425752521648001 -0.2366452051205768 0 0.35921712272274359 -0.2289270355108847 0 0.37068271171414152 -0.24251260143306669 0 0.34425752521648001 -0.2366452051205768 0 0.37068271171414152 -0.24251260143306669 0 0.34425752521648001 -0.2366452051205768 0 0.37068271171414152 -0.24251260143306669 0 0.35301189793069693 -0.2576333347837918 0 0.34999579661966002 -0.2123587768326409 0 0.34425752521648001 -0.2366452051205768 0 0.35921712272274359 -0.2289270355108847 0 0.34999579661966002 -0.2123587768326409 0 0.35921712272274359 -0.2289270355108847 0 0.36972623446945602 -0.21876948643859051 0 0.36972623446945602 -0.21876948643859051 0 0.37068271171414152 -0.24251260143306669 0 0.37613951504943249 -0.2375322374689329 0 0.35921712272274359 -0.2289270355108847 0 0.36972623446945602 -0.21876948643859051 0 0.37068271171414152 -0.24251260143306669 0 0.36972623446945602 -0.21876948643859051 0 0.37068271171414152 -0.24251260143306669 0 0.37282213552708232 -0.24298763487860131 0 0.37068271171414152 -0.24251260143306669 0 0.37613951504943249 -0.2375322374689329 0 0.37282213552708232 -0.24298763487860131 0 0.37539019514231309 -0.24943132198872661 0 0.37678150345052458 -0.2446998792441514 0 0.37282213552708232 -0.24298763487860131 0 0.37068271171414152 -0.24251260143306669 0 0.37539019514231309 -0.24943132198872661 0 0.37282213552708232 -0.24298763487860131 0 0.37068271171414152 -0.24251260143306669 0 0.37539019514231309 -0.24943132198872661 0 0.37678150345052458 -0.2446998792441514 0 0.37982826263192432 -0.2470704577733738 0 0.37678150345052458 -0.2446998792441514 0 0.37975790922885277 -0.24241777786315849 0 0.37982826263192432 -0.2470704577733738 0 0.37282213552708232 -0.24298763487860131 0 0.37678150345052458 -0.2446998792441514 0 0.37637526581397301 -0.24190938236371101 0 0.37678150345052458 -0.2446998792441514 0 0.37975790922885277 -0.24241777786315849 0 0.37637526581397301 -0.24190938236371101 0 0.38245975964086742 -0.24488553010757699 0 0.37975790922885277 -0.24241777786315849 0 0.37982826263192432 -0.2470704577733738 0 0.38245975964086742 -0.24488553010757699 0 0.37975790922885277 -0.24241777786315849 0 0.38563290493246838 -0.24228355000987689 0 0.38245975964086742 -0.24488553010757699 0 0.37982826263192432 -0.2470704577733738 0 0.38461996177022412 -0.24777033478389901 0 0.37975790922885277 -0.24241777786315849 0 0.37613951504943249 -0.2375322374689329 0 0.37637526581397301 -0.24190938236371101 0 0.37282213552708232 -0.24298763487860131 0 0.37613951504943249 -0.2375322374689329 0 0.37637526581397301 -0.24190938236371101 0 0.37975790922885277 -0.24241777786315849 0 0.37613951504943249 -0.2375322374689329 0 0.38213057533640948 -0.2370577647556095 0 0.37975790922885277 -0.24241777786315849 0 0.38213057533640948 -0.2370577647556095 0 0.38563290493246838 -0.24228355000987689 0 0.38213057533640948 -0.2370577647556095 0 0.38807323351722611 -0.23589808912692739 0 0.38478308386411891 -0.2322847422406091 0 0.38213057533640948 -0.2370577647556095 0 0.38807323351722611 -0.23589808912692739 0 0.38563290493246838 -0.24228355000987689 0 0.38807323351722611 -0.23589808912692739 0 0.38563290493246838 -0.24228355000987689 0 0.39271291424002269 -0.24019217294352421 0 0.38245975964086742 -0.24488553010757699 0 0.38461996177022412 -0.24777033478389901 0 0.38563290493246838 -0.24228355000987689 0 0.38563290493246838 -0.24228355000987689 0 0.39024502739684302 -0.24635943192416701 0 0.39271291424002269 -0.24019217294352421 0 0.38461996177022412 -0.24777033478389901 0 0.38563290493246838 -0.24228355000987689 0 0.39024502739684302 -0.24635943192416701 0 0.38461996177022412 -0.24777033478389901 0 0.39024502739684302 -0.24635943192416701 0 0.38804128852899628 -0.25186476638962052 0 0.39024502739684302 -0.24635943192416701 0 0.39604091466887581 -0.24530219161301889 0 0.3950743242416534 -0.25083729468734278 0 0.39024502739684302 -0.24635943192416701 0 0.38804128852899628 -0.25186476638962052 0 0.3950743242416534 -0.25083729468734278 0 0.39604091466887581 -0.24530219161301889 0 0.39909042404198269 -0.2483857068063286 0 0.3950743242416534 -0.25083729468734278 0 0.39024502739684302 -0.24635943192416701 0 0.39604091466887581 -0.24530219161301889 0 0.39271291424002269 -0.24019217294352421 0 0.38807323351722611 -0.23589808912692739 0 0.39271291424002269 -0.24019217294352421 0 0.3942799180544827 -0.23418398082983691 0 0.39271291424002269 -0.24019217294352421 0 0.39912570806959702 -0.24002673470834129 0 0.3942799180544827 -0.23418398082983691 0 0.39912570806959702 -0.24002673470834129 0 0.40105076400472323 -0.23352153147432439 0 0.3942799180544827 -0.23418398082983691 0 0.39604091466887581 -0.24530219161301889 0 0.39271291424002269 -0.24019217294352421 0 0.39912570806959702 -0.24002673470834129 0 0.39912570806959702 -0.24002673470834129 0 0.40415086316680948 -0.23809228820373929 0 0.40105076400472323 -0.23352153147432439 0 0.40415086316680948 -0.23809228820373929 0 0.40105076400472323 -0.23352153147432439 0 0.40845543968052261 -0.23429497157556689 0 0.39912570806959702 -0.24002673470834129 0 0.40415086316680948 -0.23809228820373929 0 0.40567575588560723 -0.24300111125692039 0 0.40567575588560723 -0.24300111125692039 0 0.4032580493880823 -0.24820614017957751 0 0.40711599406387622 -0.24688363213921241 0 0.40567575588560723 -0.24300111125692039 0 0.4032580493880823 -0.24820614017957751 0 0.40043696323646988 -0.24509209370630031 0 0.4032580493880823 -0.24820614017957751 0 0.40406835381046818 -0.25141679738622502 0 0.40639731002377882 -0.25005475403268879 0 0.4032580493880823 -0.24820614017957751 0 0.40711599406387622 -0.24688363213921241 0 0.40639731002377882 -0.25005475403268879 0 0.4032580493880823 -0.24820614017957751 0 0.39909042404198269 -0.2483857068063286 0 0.40043696323646988 -0.24509209370630031 0 0.39604091466887581 -0.24530219161301889 0 0.39909042404198269 -0.2483857068063286 0 0.40043696323646988 -0.24509209370630031 0 0.4032580493880823 -0.24820614017957751 0 0.39909042404198269 -0.2483857068063286 0 0.40064186867483198 -0.25249081384540351 0 0.39604091466887581 -0.24530219161301889 0 0.39912570806959702 -0.24002673470834129 0 0.40043696323646988 -0.24509209370630031 0 0.39912570806959702 -0.24002673470834129 0 0.40567575588560723 -0.24300111125692039 0 0.40043696323646988 -0.24509209370630031 0 0.40485035226578309 -0.2253667080390353 0 0.39845914074818528 -0.21545466253532061 0 0.40981644550231622 -0.21634533123631239 0 0.40485035226578309 -0.2253667080390353 0 0.39614976124136392 -0.22620167575128389 0 0.39845914074818528 -0.21545466253532061 0 0.40485035226578309 -0.2253667080390353 0 0.40105076400472323 -0.23352153147432439 0 0.39614976124136392 -0.22620167575128389 0 0.40485035226578309 -0.2253667080390353 0 0.40105076400472323 -0.23352153147432439 0 0.40845543968052261 -0.23429497157556689 0 0.40105076400472323 -0.23352153147432439 0 0.3942799180544827 -0.23418398082983691 0 0.39614976124136392 -0.22620167575128389 0 0.3942799180544827 -0.23418398082983691 0 0.39614976124136392 -0.22620167575128389 0 0.38856712725396297 -0.22926368097462041 0 0.39614976124136392 -0.22620167575128389 0 0.38679275485288861 -0.2193037889487032 0 0.39845914074818528 -0.21545466253532061 0 0.38679275485288861 -0.2193037889487032 0 0.38856712725396297 -0.22926368097462041 0 0.38050108792023718 -0.22763442842789719 0 0.36972623446945602 -0.21876948643859051 0 0.37613951504943249 -0.2375322374689329 0 0.38050108792023718 -0.22763442842789719 0 0.39614976124136392 -0.22620167575128389 0 0.38679275485288861 -0.2193037889487032 0 0.38856712725396297 -0.22926368097462041 0 0.36972623446945602 -0.21876948643859051 0 0.38679275485288861 -0.2193037889487032 0 0.38050108792023718 -0.22763442842789719 0 0.38856712725396297 -0.22926368097462041 0 0.38478308386411891 -0.2322847422406091 0 0.38050108792023718 -0.22763442842789719 0 0.38807323351722611 -0.23589808912692739 0 0.38856712725396297 -0.22926368097462041 0 0.38478308386411891 -0.2322847422406091 0 0.38807323351722611 -0.23589808912692739 0 0.3942799180544827 -0.23418398082983691 0 0.38856712725396297 -0.22926368097462041 0 0.38213057533640948 -0.2370577647556095 0 0.38478308386411891 -0.2322847422406091 0 0.38050108792023718 -0.22763442842789719 0 0.37613951504943249 -0.2375322374689329 0 0.38213057533640948 -0.2370577647556095 0 0.38050108792023718 -0.22763442842789719 0 0.36972623446945602 -0.21876948643859051 0 0.38679275485288861 -0.2193037889487032 0 0.38024448936862448 -0.20687469319352411 0 0.38024448936862448 -0.20687469319352411 0 0.39029523944128458 -0.2102119863792859 0 0.38927628218409199 -0.2001618640127395 0 0.38679275485288861 -0.2193037889487032 0 0.38024448936862448 -0.20687469319352411 0 0.39029523944128458 -0.2102119863792859 0 0.36744649669636031 -0.20367876575595539 0 0.38024448936862448 -0.20687469319352411 0 0.37962234804752643 -0.1903689831095868 0 0.38024448936862448 -0.20687469319352411 0 0.37962234804752643 -0.1903689831095868 0 0.38927628218409199 -0.2001618640127395 0 0.37962234804752643 -0.1903689831095868 0 0.38927628218409199 -0.2001618640127395 0 0.39221752119882553 -0.19010509793596589 0 0.39221752119882553 -0.19010509793596589 0 0.39696317951758348 -0.19741877181433859 0 0.39899477373820391 -0.1891985667946692 0 0.38927628218409199 -0.2001618640127395 0 0.39696317951758348 -0.19741877181433859 0 0.39631491553070791 -0.20599165164373609 0 0.38927628218409199 -0.2001618640127395 0 0.39221752119882553 -0.19010509793596589 0 0.39696317951758348 -0.19741877181433859 0 0.39696317951758348 -0.19741877181433859 0 0.40386112036383059 -0.19376591886812619 0 0.40490703317336368 -0.2043024597396231 0 0.39696317951758348 -0.19741877181433859 0 0.39631491553070791 -0.20599165164373609 0 0.40490703317336368 -0.2043024597396231 0 0.39696317951758348 -0.19741877181433859 0 0.40386112036383059 -0.19376591886812619 0 0.39899477373820391 -0.1891985667946692 0 0.40386112036383059 -0.19376591886812619 0 0.39899477373820391 -0.1891985667946692 0 0.40146664271332227 -0.18369667763774661 0 0.38679275485288861 -0.2193037889487032 0 0.39029523944128458 -0.2102119863792859 0 0.39845914074818528 -0.21545466253532061 0 0.39029523944128458 -0.2102119863792859 0 0.38927628218409199 -0.2001618640127395 0 0.39631491553070791 -0.20599165164373609 0 0.39029523944128458 -0.2102119863792859 0 0.39631491553070791 -0.20599165164373609 0 0.39845914074818528 -0.21545466253532061 0 0.39631491553070791 -0.20599165164373609 0 0.40490703317336368 -0.2043024597396231 0 0.39845914074818528 -0.21545466253532061 0 0.40490703317336368 -0.2043024597396231 0 0.39845914074818528 -0.21545466253532061 0 0.40981644550231622 -0.21634533123631239 0 0.40490703317336368 -0.2043024597396231 0 0.40981644550231622 -0.21634533123631239 0 0.41594191896935978 -0.20775045052054519 0 0.40981644550231622 -0.21634533123631239 0 0.41594191896935978 -0.20775045052054519 0 0.42092254952731939 -0.2179800889160719 0 0.40386112036383059 -0.19376591886812619 0 0.41563295597755329 -0.19351564268346841 0 0.40146664271332227 -0.18369667763774661 0 0.40490703317336368 -0.2043024597396231 0 0.41594191896935978 -0.20775045052054519 0 0.41563295597755329 -0.19351564268346841 0 0.40386112036383059 -0.19376591886812619 0 0.40490703317336368 -0.2043024597396231 0 0.41563295597755329 -0.19351564268346841 0 0.41594191896935978 -0.20775045052054519 0 0.41563295597755329 -0.19351564268346841 0 0.43080050705764911 -0.20602491764976791 0 0.41563295597755329 -0.19351564268346841 0 0.43080050705764911 -0.20602491764976791 0 0.43255028706811482 -0.18525267037134269 0 0.41563295597755329 -0.19351564268346841 0 0.43080050705764911 -0.20602491764976791 0 0.42092254952731939 -0.2179800889160719 0 0.43080050705764911 -0.20602491764976791 0 0.43236920198890127 -0.22094297650252101 0 0.41594191896935978 -0.20775045052054519 0 0.42092254952731939 -0.2179800889160719 0 0.43080050705764911 -0.20602491764976791 0 0.43080050705764911 -0.20602491764976791 0 0.43236920198890127 -0.22094297650252101 0 0.44415518271850291 -0.21660306561601739 0 0.42092254952731939 -0.2179800889160719 0 0.43236920198890127 -0.22094297650252101 0 0.42564807965498641 -0.23090454052980711 0 0.42564807965498641 -0.23090454052980711 0 0.43064616996326349 -0.2379599829996791 0 0.44031969098604862 -0.23320226980094039 0 0.43236920198890127 -0.22094297650252101 0 0.42564807965498641 -0.23090454052980711 0 0.44031969098604862 -0.23320226980094039 0 0.43064616996326349 -0.2379599829996791 0 0.43181928263310793 -0.2472796538627352 0 0.44031969098604862 -0.23320226980094039 0 0.43181928263310793 -0.2472796538627352 0 0.42234963722430918 -0.24566756505792889 0 0.42479762657891162 -0.2404534678052338 0 0.43181928263310793 -0.2472796538627352 0 0.42234963722430918 -0.24566756505792889 0 0.41735081356935799 -0.24962829424353991 0 0.42234963722430918 -0.24566756505792889 0 0.42479762657891162 -0.2404534678052338 0 0.41955433454707541 -0.24268750163530639 0 0.43064616996326349 -0.2379599829996791 0 0.43181928263310793 -0.2472796538627352 0 0.42479762657891162 -0.2404534678052338 0 0.42564807965498641 -0.23090454052980711 0 0.43064616996326349 -0.2379599829996791 0 0.42479762657891162 -0.2404534678052338 0 0.42564807965498641 -0.23090454052980711 0 0.42479762657891162 -0.2404534678052338 0 0.41701880745577408 -0.23744773360050461 0 0.42479762657891162 -0.2404534678052338 0 0.41701880745577408 -0.23744773360050461 0 0.41955433454707541 -0.24268750163530639 0 0.41701880745577408 -0.23744773360050461 0 0.41527423814889958 -0.2433730394005813 0 0.41087470374570367 -0.24027438262730169 0 0.41701880745577408 -0.23744773360050461 0 0.41955433454707541 -0.24268750163530639 0 0.41527423814889958 -0.2433730394005813 0 0.42234963722430918 -0.24566756505792889 0 0.41833136332748228 -0.24649570231228321 0 0.41735081356935799 -0.24962829424353991 0 0.42234963722430918 -0.24566756505792889 0 0.41833136332748228 -0.24649570231228321 0 0.41955433454707541 -0.24268750163530639 0 0.41833136332748228 -0.24649570231228321 0 0.41955433454707541 -0.24268750163530639 0 0.41527423814889958 -0.2433730394005813 0 0.41833136332748228 -0.24649570231228321 0 0.41527423814889958 -0.2433730394005813 0 0.41377952360298281 -0.24782950542466711 0 0.41833136332748228 -0.24649570231228321 0 0.41735081356935799 -0.24962829424353991 0 0.41377952360298281 -0.24782950542466711 0 0.41735081356935799 -0.24962829424353991 0 0.41377952360298281 -0.24782950542466711 0 0.41263438769035488 -0.25140365445721052 0 0.41377952360298281 -0.24782950542466711 0 0.40959591766898618 -0.2497663098525551 0 0.41263438769035488 -0.25140365445721052 0 0.41377952360298281 -0.24782950542466711 0 0.41055537379368451 -0.2450509381952756 0 0.40959591766898618 -0.2497663098525551 0 0.41527423814889958 -0.2433730394005813 0 0.41055537379368451 -0.2450509381952756 0 0.41087470374570367 -0.24027438262730169 0 0.41527423814889958 -0.2433730394005813 0 0.41377952360298281 -0.24782950542466711 0 0.41055537379368451 -0.2450509381952756 0 0.40567575588560723 -0.24300111125692039 0 0.41055537379368451 -0.2450509381952756 0 0.40711599406387622 -0.24688363213921241 0 0.40567575588560723 -0.24300111125692039 0 0.41055537379368451 -0.2450509381952756 0 0.41087470374570367 -0.24027438262730169 0 0.41055537379368451 -0.2450509381952756 0 0.40711599406387622 -0.24688363213921241 0 0.40959591766898618 -0.2497663098525551 0 0.40711599406387622 -0.24688363213921241 0 0.40959591766898618 -0.2497663098525551 0 0.40639731002377882 -0.25005475403268879 0 0.41701880745577408 -0.23744773360050461 0 0.41087470374570367 -0.24027438262730169 0 0.40845543968052261 -0.23429497157556689 0 0.40415086316680948 -0.23809228820373929 0 0.40567575588560723 -0.24300111125692039 0 0.41087470374570367 -0.24027438262730169 0 0.40415086316680948 -0.23809228820373929 0 0.41087470374570367 -0.24027438262730169 0 0.40845543968052261 -0.23429497157556689 0 0.40485035226578309 -0.2253667080390353 0 0.40845543968052261 -0.23429497157556689 0 0.4138176783298857 -0.22721761766727849 0 0.41701880745577408 -0.23744773360050461 0 0.40845543968052261 -0.23429497157556689 0 0.4138176783298857 -0.22721761766727849 0 0.40485035226578309 -0.2253667080390353 0 0.40981644550231622 -0.21634533123631239 0 0.4138176783298857 -0.22721761766727849 0 0.40981644550231622 -0.21634533123631239 0 0.42092254952731939 -0.2179800889160719 0 0.4138176783298857 -0.22721761766727849 0 0.42092254952731939 -0.2179800889160719 0 0.42564807965498641 -0.23090454052980711 0 0.4138176783298857 -0.22721761766727849 0 0.42564807965498641 -0.23090454052980711 0 0.41701880745577408 -0.23744773360050461 0 0.4138176783298857 -0.22721761766727849 0 0.39441594472885139 -0.12515600743495439 0 0.40582556325846092 -0.1356898366549818 0 0.38729303017727879 -0.14561240853412119 0 0.40684717720228192 -0.1181427399224577 0 0.39441594472885139 -0.12515600743495439 0 0.40582556325846092 -0.1356898366549818 0 0.37903452142392052 -0.1234219282343578 0 0.39441594472885139 -0.12515600743495439 0 0.38729303017727879 -0.14561240853412119 0 0.37903452142392052 -0.1234219282343578 0 0.37353237608231521 -0.14158148922204281 0 0.38729303017727879 -0.14561240853412119 0 0.37903452142392052 -0.1234219282343578 0 0.38729303017727879 -0.14561240853412119 0 0.38729303017727879 -0.14561240853412119 0 0.39387921753736799 -0.1633093881256453 0 0.3692581581327824 -0.1552685258823876 0 0.38729303017727879 -0.14561240853412119 0 0.38729303017727879 -0.14561240853412119 0 0.39387921753736799 -0.1633093881256453 0 0.38454429857935429 -0.15670945114488979 0 0.3692581581327824 -0.1552685258823876 0 0.37353237608231521 -0.14158148922204281 0 0.38729303017727879 -0.14561240853412119 0 0.3692581581327824 -0.1552685258823876 0 0.38729303017727879 -0.14561240853412119 0 0.38454429857935429 -0.15670945114488979 0 0.40582556325846092 -0.1356898366549818 0 0.38729303017727879 -0.14561240853412119 0 0.40582556325846092 -0.1356898366549818 0 0.38729303017727879 -0.14561240853412119 0 0.40138614721606958 -0.14880389105538119 0 0.38729303017727879 -0.14561240853412119 0 0.40138614721606958 -0.14880389105538119 0 0.39387921753736799 -0.1633093881256453 0 0.39387921753736799 -0.1633093881256453 0 0.40984314929485771 -0.17055825815569439 0 0.40803570481956708 -0.15762721444978309 0 0.39387921753736799 -0.1633093881256453 0 0.40046540489745741 -0.18100636771716919 0 0.40984314929485771 -0.17055825815569439 0 0.39387921753736799 -0.1633093881256453 0 0.38486178151512018 -0.1681374467997781 0 0.40046540489745741 -0.18100636771716919 0 0.40138614721606958 -0.14880389105538119 0 0.39387921753736799 -0.1633093881256453 0 0.40803570481956708 -0.15762721444978309 0 0.39387921753736799 -0.1633093881256453 0 0.38454429857935429 -0.15670945114488979 0 0.38486178151512018 -0.1681374467997781 0 0.3692581581327824 -0.1552685258823876 0 0.38454429857935429 -0.15670945114488979 0 0.38486178151512018 -0.1681374467997781 0 0.3692581581327824 -0.1552685258823876 0 0.38486178151512018 -0.1681374467997781 0 0.36920761947484559 -0.1739743600355618 0 0.38486178151512018 -0.1681374467997781 0 0.38667609064646241 -0.180396965843972 0 0.36920761947484559 -0.1739743600355618 0 0.37962234804752643 -0.1903689831095868 0 0.38667609064646241 -0.180396965843972 0 0.37962234804752643 -0.1903689831095868 0 0.39221752119882553 -0.19010509793596589 0 0.38667609064646241 -0.180396965843972 0 0.39387921753736799 -0.1633093881256453 0 0.40046540489745741 -0.18100636771716919 0 0.39221752119882553 -0.19010509793596589 0 0.38667609064646241 -0.180396965843972 0 0.40046540489745741 -0.18100636771716919 0 0.39221752119882553 -0.19010509793596589 0 0.39899477373820391 -0.1891985667946692 0 0.40046540489745741 -0.18100636771716919 0 0.38486178151512018 -0.1681374467997781 0 0.38667609064646241 -0.180396965843972 0 0.40046540489745741 -0.18100636771716919 0 0.38486178151512018 -0.1681374467997781 0 0.40046540489745741 -0.18100636771716919 0 0.41563295597755329 -0.19351564268346841 0 0.40146664271332227 -0.18369667763774661 0 0.40046540489745741 -0.18100636771716919 0 0.39899477373820391 -0.1891985667946692 0 0.40146664271332227 -0.18369667763774661 0 0.40046540489745741 -0.18100636771716919 0 0.40146664271332227 -0.18369667763774661 0 0.40046540489745741 -0.18100636771716919 0 0.41563295597755329 -0.19351564268346841 0 0.40046540489745741 -0.18100636771716919 0 0.41113437931378832 -0.18140996363093501 0 0.41563295597755329 -0.19351564268346841 0 0.40046540489745741 -0.18100636771716919 0 0.41113437931378832 -0.18140996363093501 0 0.41859600708528449 -0.18055958596740809 0 0.40984314929485771 -0.17055825815569439 0 0.40046540489745741 -0.18100636771716919 0 0.41113437931378832 -0.18140996363093501 0 0.40984314929485771 -0.17055825815569439 0 0.41859600708528449 -0.18055958596740809 0 0.42465718625979099 -0.16948324480621829 0 0.40984314929485771 -0.17055825815569439 0 0.41563295597755329 -0.19351564268346841 0 0.41113437931378832 -0.18140996363093501 0 0.41859600708528449 -0.18055958596740809 0 0.41859600708528449 -0.18055958596740809 0 0.43255028706811482 -0.18525267037134269 0 0.42465718625979099 -0.16948324480621829 0 0.43255028706811482 -0.18525267037134269 0 0.42465718625979099 -0.16948324480621829 0 0.43760768362494618 -0.1675706138988878 0 0.41563295597755329 -0.19351564268346841 0 0.41859600708528449 -0.18055958596740809 0 0.43255028706811482 -0.18525267037134269 0 0.42465718625979099 -0.16948324480621829 0 0.42762485583032228 -0.15502526639372199 0 0.43760768362494618 -0.1675706138988878 0 0.42465718625979099 -0.16948324480621829 0 0.41833577107240572 -0.1598319410766896 0 0.42762485583032228 -0.15502526639372199 0 0.42465718625979099 -0.16948324480621829 0 0.41833577107240572 -0.1598319410766896 0 0.40984314929485771 -0.17055825815569439 0 0.41833577107240572 -0.1598319410766896 0 0.40984314929485771 -0.17055825815569439 0 0.40803570481956708 -0.15762721444978309 0 0.40138614721606958 -0.14880389105538119 0 0.40803570481956708 -0.15762721444978309 0 0.4167532741589573 -0.14671075761429259 0 0.40582556325846092 -0.1356898366549818 0 0.40138614721606958 -0.14880389105538119 0 0.4167532741589573 -0.14671075761429259 0 0.41833577107240572 -0.1598319410766896 0 0.4167532741589573 -0.14671075761429259 0 0.42762485583032228 -0.15502526639372199 0 0.41833577107240572 -0.1598319410766896 0 0.40803570481956708 -0.15762721444978309 0 0.4167532741589573 -0.14671075761429259 0 0.42762485583032228 -0.15502526639372199 0 0.43822500944790022 -0.14614058033023991 0 0.43760768362494618 -0.1675706138988878 0 0.42762485583032228 -0.15502526639372199 0 0.42674030894420573 -0.14341096727852429 0 0.43822500944790022 -0.14614058033023991 0 0.4167532741589573 -0.14671075761429259 0 0.42762485583032228 -0.15502526639372199 0 0.42674030894420573 -0.14341096727852429 0 0.42435809633964311 -0.12576726477584271 0 0.43822500944790022 -0.14614058033023991 0 0.42674030894420573 -0.14341096727852429 0 0.42435809633964311 -0.12576726477584271 0 0.43822500944790022 -0.14614058033023991 0 0.43573830460367602 -0.12712454920683239 0 0.42435809633964311 -0.12576726477584271 0 0.44134053800537593 -0.1363872497436962 0 0.42435809633964311 -0.12576726477584271 0 0.44134053800537593 -0.1363872497436962 0 0.43822500944790022 -0.14614058033023991 0 0.4167532741589573 -0.14671075761429259 0 0.42674030894420573 -0.14341096727852429 0 0.42435809633964311 -0.12576726477584271 0 0.42971069401940459 -0.12290141071342971 0 0.43573830460367602 -0.12712454920683239 0 0.42435809633964311 -0.12576726477584271 0 0.40582556325846092 -0.1356898366549818 0 0.42435809633964311 -0.12576726477584271 0 0.40684717720228192 -0.1181427399224577 0 0.40582556325846092 -0.1356898366549818 0 0.42435809633964311 -0.12576726477584271 0 0.40582556325846092 -0.1356898366549818 0 0.4167532741589573 -0.14671075761429259 0 0.42435809633964311 -0.12576726477584271 0 0.45330736655690551 -0.1178761153773067 0 0.46750053011296538 -0.13140197376231769 0 0.45474031987384061 -0.13419859031326881 0 0.46750053011296538 -0.13140197376231769 0 0.45474031987384061 -0.13419859031326881 0 0.46235064436451467 -0.1467305843950536 0 0.45330736655690551 -0.1178761153773067 0 0.44134053800537593 -0.1363872497436962 0 0.45330736655690551 -0.1178761153773067 0 0.45474031987384061 -0.13419859031326881 0 0.44134053800537593 -0.1363872497436962 0 0.44138059828465431 -0.119785700393876 0 0.43573830460367602 -0.12712454920683239 0 0.44134053800537593 -0.1363872497436962 0 0.45474031987384061 -0.13419859031326881 0 0.44134053800537593 -0.1363872497436962 0 0.44974968684955779 -0.14599418013337909 0 0.44974968684955779 -0.14599418013337909 0 0.43822500944790022 -0.14614058033023991 0 0.45209192255615732 -0.16651389588463711 0 0.44134053800537593 -0.1363872497436962 0 0.44974968684955779 -0.14599418013337909 0 0.43822500944790022 -0.14614058033023991 0 0.44974968684955779 -0.14599418013337909 0 0.46235064436451467 -0.1467305843950536 0 0.45209192255615732 -0.16651389588463711 0 0.45474031987384061 -0.13419859031326881 0 0.44974968684955779 -0.14599418013337909 0 0.46235064436451467 -0.1467305843950536 0 0.46235064436451467 -0.1467305843950536 0 0.45209192255615732 -0.16651389588463711 0 0.47057452042143949 -0.1592771752994474 0 0.45209192255615732 -0.16651389588463711 0 0.46595883566441432 -0.18688721143903439 0 0.47057452042143949 -0.1592771752994474 0 0.43822500944790022 -0.14614058033023991 0 0.45209192255615732 -0.16651389588463711 0 0.43760768362494618 -0.1675706138988878 0 0.43822500944790022 -0.14614058033023991 0 0.45209192255615732 -0.16651389588463711 0 0.45209192255615732 -0.16651389588463711 0 0.43760768362494618 -0.1675706138988878 0 0.44974234045920469 -0.18249896761577869 0 0.43255028706811482 -0.18525267037134269 0 0.43760768362494618 -0.1675706138988878 0 0.44974234045920469 -0.18249896761577869 0 0.45209192255615732 -0.16651389588463711 0 0.44974234045920469 -0.18249896761577869 0 0.46595883566441432 -0.18688721143903439 0 0.45209192255615732 -0.16651389588463711 0 0.46595883566441432 -0.18688721143903439 0 0.46595883566441432 -0.18688721143903439 0 0.4801392643322181 -0.17338461790197379 0 0.47057452042143949 -0.1592771752994474 0 0.4801392643322181 -0.17338461790197379 0 0.48005198298377522 -0.2015399312064142 0 0.46595883566441432 -0.18688721143903439 0 0.4801392643322181 -0.17338461790197379 0 0.48005198298377522 -0.2015399312064142 0 0.4801392643322181 -0.17338461790197379 0 0.5 -0.16779559159298421 0 0.5 -0.1964115443970092 0 0.4801392643322181 -0.17338461790197379 0 0.5 -0.16779559159298421 0 0.48022654568066098 -0.1452293045975333 0 0.4801392643322181 -0.17338461790197379 0 0.48022654568066098 -0.1452293045975333 0 0.4801392643322181 -0.17338461790197379 0 0.47057452042143949 -0.1592771752994474 0 0.48022654568066098 -0.1452293045975333 0 0.46235064436451467 -0.1467305843950536 0 0.47057452042143949 -0.1592771752994474 0 0.48022654568066098 -0.1452293045975333 0 0.46750053011296538 -0.13140197376231769 0 0.46235064436451467 -0.1467305843950536 0 0.48022654568066098 -0.1452293045975333 0 0.5 -0.16779559159298421 0 0.48022654568066098 -0.1452293045975333 0 0.5 -0.13917963878895909 0 0.48031382702910391 -0.1170739912930928 0 0.48022654568066098 -0.1452293045975333 0 0.5 -0.13917963878895909 0 0.48031382702910391 -0.1170739912930928 0 0.48022654568066098 -0.1452293045975333 0 0.48031382702910391 -0.1170739912930928 0 0.46750053011296538 -0.13140197376231769 0 0.48022654568066098 -0.1452293045975333 0 0.4672062974321185 -0.22785647125647629 0 0.45589199213422038 -0.23848744918679499 0 0.47996470163533272 -0.22969524451085471 0 0.45589199213422038 -0.23848744918679499 0 0.47996470163533272 -0.22969524451085471 0 0.46238031244980998 -0.225501300025823 0 0.45589199213422038 -0.23848744918679499 0 0.45221327541059259 -0.22655462160765749 0 0.46238031244980998 -0.225501300025823 0 0.45221327541059259 -0.22655462160765749 0 0.45872331353307938 -0.21536095890599299 0 0.46238031244980998 -0.225501300025823 0 0.4672062974321185 -0.22785647125647629 0 0.47058818350911108 -0.2177418913024326 0 0.46238031244980998 -0.225501300025823 0 0.45872331353307938 -0.21536095890599299 0 0.47058818350911108 -0.2177418913024326 0 0.46238031244980998 -0.225501300025823 0 0.4672062974321185 -0.22785647125647629 0 0.45589199213422038 -0.23848744918679499 0 0.45589199213422038 -0.23848744918679499 0 0.47996470163533272 -0.22969524451085471 0 0.46928680942954948 -0.243157232707367 0 0.46527841336311021 -0.2497465038857169 0 0.45589199213422038 -0.23848744918679499 0 0.45387328656599768 -0.25485765427186802 0 0.46527841336311021 -0.2497465038857169 0 0.45589199213422038 -0.23848744918679499 0 0.46928680942954948 -0.243157232707367 0 0.43181928263310793 -0.2472796538627352 0 0.45589199213422038 -0.23848744918679499 0 0.44031969098604862 -0.23320226980094039 0 0.43181928263310793 -0.2472796538627352 0 0.45589199213422038 -0.23848744918679499 0 0.43181928263310793 -0.2472796538627352 0 0.45589199213422038 -0.23848744918679499 0 0.45387328656599768 -0.25485765427186802 0 0.44031969098604862 -0.23320226980094039 0 0.45221327541059259 -0.22655462160765749 0 0.44415518271850291 -0.21660306561601739 0 0.43236920198890127 -0.22094297650252101 0 0.44031969098604862 -0.23320226980094039 0 0.44415518271850291 -0.21660306561601739 0 0.45589199213422038 -0.23848744918679499 0 0.44031969098604862 -0.23320226980094039 0 0.45221327541059259 -0.22655462160765749 0 0.45221327541059259 -0.22655462160765749 0 0.44415518271850291 -0.21660306561601739 0 0.45872331353307938 -0.21536095890599299 0 0.43080050705764911 -0.20602491764976791 0 0.44415518271850291 -0.21660306561601739 0 0.44978303556110699 -0.19903775054334849 0 0.44415518271850291 -0.21660306561601739 0 0.44978303556110699 -0.19903775054334849 0 0.45872331353307938 -0.21536095890599299 0 0.43080050705764911 -0.20602491764976791 0 0.43255028706811482 -0.18525267037134269 0 0.44978303556110699 -0.19903775054334849 0 0.43255028706811482 -0.18525267037134269 0 0.44974234045920469 -0.18249896761577869 0 0.44978303556110699 -0.19903775054334849 0 0.46595883566441432 -0.18688721143903439 0 0.44978303556110699 -0.19903775054334849 0 0.46470609608205232 -0.20248196335308599 0 0.44974234045920469 -0.18249896761577869 0 0.46595883566441432 -0.18688721143903439 0 0.44978303556110699 -0.19903775054334849 0 0.44978303556110699 -0.19903775054334849 0 0.46470609608205232 -0.20248196335308599 0 0.45872331353307938 -0.21536095890599299 0 0.46470609608205232 -0.20248196335308599 0 0.45872331353307938 -0.21536095890599299 0 0.47058818350911108 -0.2177418913024326 0 0.48005198298377522 -0.2015399312064142 0 0.47996470163533272 -0.22969524451085471 0 0.47058818350911108 -0.2177418913024326 0 0.48005198298377522 -0.2015399312064142 0 0.47996470163533272 -0.22969524451085471 0 0.48005198298377522 -0.2015399312064142 0 0.48965759200886527 -0.21745276693066631 0 0.47996470163533272 -0.22969524451085471 0 0.46470609608205232 -0.20248196335308599 0 0.47058818350911108 -0.2177418913024326 0 0.48005198298377522 -0.2015399312064142 0 0.46595883566441432 -0.18688721143903439 0 0.46470609608205232 -0.20248196335308599 0 0.48005198298377522 -0.2015399312064142 0 0.4801392643322181 -0.17338461790197379 0 0.48005198298377522 -0.2015399312064142 0 0.5 -0.1964115443970092 0 0.5 -0.1964115443970092 0 0.48965759200886527 -0.21745276693066631 0 0.5 -0.22502749720103429 0 0.48005198298377522 -0.2015399312064142 0 0.5 -0.1964115443970092 0 0.48965759200886527 -0.21745276693066631 0 0.48965759200886527 -0.21745276693066631 0 0.5 -0.22502749720103429 0 0.49201013026592549 -0.22578987493188599 0 0.5 -0.22502749720103429 0 0.49201013026592549 -0.22578987493188599 0 0.49222790580231462 -0.23527389281601119 0 0.4855249270275509 -0.22766445359841181 0 0.48576470277696621 -0.23734148894982349 0 0.49222790580231462 -0.23527389281601119 0 0.4855249270275509 -0.22766445359841181 0 0.49201013026592549 -0.22578987493188599 0 0.49222790580231462 -0.23527389281601119 0 0.48965759200886527 -0.21745276693066631 0 0.4855249270275509 -0.22766445359841181 0 0.47996470163533272 -0.22969524451085471 0 0.48965759200886527 -0.21745276693066631 0 0.4855249270275509 -0.22766445359841181 0 0.49201013026592549 -0.22578987493188599 0 0.4855249270275509 -0.22766445359841181 0 0.47996470163533272 -0.22969524451085471 0 0.4855249270275509 -0.22766445359841181 0 0.47996470163533272 -0.22969524451085471 0 0.48576470277696621 -0.23734148894982349 0 0.4672062974321185 -0.22785647125647629 0 0.47058818350911108 -0.2177418913024326 0 0.47996470163533272 -0.22969524451085471 0 0.47996470163533272 -0.22969524451085471 0 0.47512800545273898 -0.2415540660745665 0 0.47711794486273901 -0.2462685841179284 0 0.47996470163533272 -0.22969524451085471 0 0.48576470277696621 -0.23734148894982349 0 0.47989740400514519 -0.25417261534144969 0 0.47996470163533272 -0.22969524451085471 0 0.47711794486273901 -0.2462685841179284 0 0.47989740400514519 -0.25417261534144969 0 0.47996470163533272 -0.22969524451085471 0 0.47989740400514519 -0.25417261534144969 0 0.47360125168942369 -0.24627133590851499 0 0.47512800545273898 -0.2415540660745665 0 0.47711794486273901 -0.2462685841179284 0 0.47360125168942369 -0.24627133590851499 0 0.46928680942954948 -0.243157232707367 0 0.47512800545273898 -0.2415540660745665 0 0.47360125168942369 -0.24627133590851499 0 0.47515349680801172 -0.25032353570981608 0 0.47169216489806848 -0.25048526100680413 0 0.47711794486273901 -0.2462685841179284 0 0.47717945571124831 -0.25153212930319568 0 0.47515349680801172 -0.25032353570981608 0 0.47360125168942369 -0.24627133590851499 0 0.47711794486273901 -0.2462685841179284 0 0.47515349680801172 -0.25032353570981608 0 0.47360125168942369 -0.24627133590851499 0 0.46928680942954948 -0.243157232707367 0 0.47169216489806848 -0.25048526100680413 0 0.46527841336311021 -0.2497465038857169 0 0.46928680942954948 -0.243157232707367 0 0.47169216489806848 -0.25048526100680413 0 0.47996470163533272 -0.22969524451085471 0 0.46928680942954948 -0.243157232707367 0 0.47512800545273898 -0.2415540660745665 0 0.48967386460283813 -0.24358853647146461 0 0.49222790580231462 -0.23527389281601119 0 0.49999999999999961 -0.25364345000505939 0 0.48967386460283813 -0.24358853647146461 0 0.48576470277696621 -0.23734148894982349 0 0.47989740400514519 -0.25417261534144969 0 0.5 -0.22502749720103429 0 0.49222790580231462 -0.23527389281601119 0 0.49999999999999961 -0.25364345000505939 0 0.48967386460283813 -0.24358853647146461 0 0.48576470277696621 -0.23734148894982349 0 0.49222790580231462 -0.23527389281601119 0 0.49999999999999961 -0.25364345000505939 0 0.48651535860132811 -0.26390202079303021 0 0.5 -0.27893866060091332 0 0.49999999999999961 -0.25364345000505939 0 0.48651535860132811 -0.26390202079303021 0 0.47989740400514519 -0.25417261534144969 0 0.49999999999999961 -0.25364345000505939 0 0.47989740400514519 -0.25417261534144969 0 0.48967386460283813 -0.24358853647146461 0 0.49999999999999961 -0.25364345000505939 0 0.47989740400514519 -0.25417261534144969 0 0.48651535860132811 -0.26390202079303021 0 0.5 -0.27893866060091332 0 0.48259328920440298 -0.27456439449760922 0 0.48259328920440298 -0.27456439449760922 0 0.46832484215502451 -0.27704725138466979 0 0.4831180484336926 -0.29096929031539881 0 0.48651535860132811 -0.26390202079303021 0 0.48259328920440298 -0.27456439449760922 0 0.47551030440253372 -0.2645825008980785 0 0.47551030440253372 -0.2645825008980785 0 0.46486598180780608 -0.26473496005465602 0 0.46832484215502451 -0.27704725138466979 0 0.48259328920440298 -0.27456439449760922 0 0.47551030440253372 -0.2645825008980785 0 0.46832484215502451 -0.27704725138466979 0 0.47711794486273901 -0.2462685841179284 0 0.47989740400514519 -0.25417261534144969 0 0.47717945571124831 -0.25153212930319568 0 0.48651535860132811 -0.26390202079303021 0 0.47989740400514519 -0.25417261534144969 0 0.47693664328299867 -0.2542505521384637 0 0.47989740400514519 -0.25417261534144969 0 0.47693664328299867 -0.2542505521384637 0 0.47989740400514519 -0.25417261534144969 0 0.47693664328299867 -0.2542505521384637 0 0.47717945571124831 -0.25153212930319568 0 0.48651535860132811 -0.26390202079303021 0 0.47693664328299867 -0.2542505521384637 0 0.47551030440253372 -0.2645825008980785 0 0.47693664328299867 -0.2542505521384637 0 0.47551030440253372 -0.2645825008980785 0 0.46779655401483411 -0.25960641684076652 0 0.47551030440253372 -0.2645825008980785 0 0.46486598180780608 -0.26473496005465602 0 0.46779655401483411 -0.25960641684076652 0 0.46527841336311021 -0.2497465038857169 0 0.47693664328299867 -0.2542505521384637 0 0.47169216489806848 -0.25048526100680413 0 0.47693664328299867 -0.2542505521384637 0 0.47717945571124831 -0.25153212930319568 0 0.47515349680801172 -0.25032353570981608 0 0.47693664328299867 -0.2542505521384637 0 0.47515349680801172 -0.25032353570981608 0 0.47169216489806848 -0.25048526100680413 0 0.47693664328299867 -0.2542505521384637 0 0.45387328656599768 -0.25485765427186802 0 0.45387328656599768 -0.25485765427186802 0 0.46486598180780608 -0.26473496005465602 0 0.45469415205741642 -0.27122460412413268 0 0.47693664328299867 -0.2542505521384637 0 0.45387328656599768 -0.25485765427186802 0 0.46779655401483411 -0.25960641684076652 0 0.46527841336311021 -0.2497465038857169 0 0.47693664328299867 -0.2542505521384637 0 0.45387328656599768 -0.25485765427186802 0 0.45387328656599768 -0.25485765427186802 0 0.46486598180780608 -0.26473496005465602 0 0.46779655401483411 -0.25960641684076652 0 0.46486598180780608 -0.26473496005465602 0 0.46832484215502451 -0.27704725138466979 0 0.45469415205741642 -0.27122460412413268 0 0.46832484215502451 -0.27704725138466979 0 0.45469415205741642 -0.27122460412413268 0 0.45580024447565631 -0.28692608856164331 0 0.45469415205741642 -0.27122460412413268 0 0.44295759041678667 -0.27856190950760701 0 0.45580024447565631 -0.28692608856164331 0 0.45469415205741642 -0.27122460412413268 0 0.44295759041678667 -0.27856190950760701 0 0.44188240666479173 -0.26446162861433808 0 0.44295759041678667 -0.27856190950760701 0 0.44188240666479173 -0.26446162861433808 0 0.4300576311990757 -0.27303823450377002 0 0.43181928263310793 -0.2472796538627352 0 0.45387328656599768 -0.25485765427186802 0 0.43080992984899669 -0.25546475640527228 0 0.45387328656599768 -0.25485765427186802 0 0.43080992984899669 -0.25546475640527228 0 0.45387328656599768 -0.25485765427186802 0 0.44188240666479173 -0.26446162861433808 0 0.43080992984899669 -0.25546475640527228 0 0.45387328656599768 -0.25485765427186802 0 0.45469415205741642 -0.27122460412413268 0 0.44188240666479173 -0.26446162861433808 0 0.44113141032648467 -0.29601476865309218 0 0.46534958727072012 -0.30101036470971432 0 0.4453113015683634 -0.31591760228413279 0 0.44113141032648467 -0.29601476865309218 0 0.4453113015683634 -0.31591760228413279 0 0.42734554598021701 -0.31046239829054428 0 0.44295759041678667 -0.27856190950760701 0 0.44113141032648467 -0.29601476865309218 0 0.45580024447565631 -0.28692608856164331 0 0.44295759041678667 -0.27856190950760701 0 0.44113141032648467 -0.29601476865309218 0 0.4319059781184556 -0.28552951379063352 0 0.44113141032648467 -0.29601476865309218 0 0.45580024447565631 -0.28692608856164331 0 0.46534958727072012 -0.30101036470971432 0 0.46832484215502451 -0.27704725138466979 0 0.45580024447565631 -0.28692608856164331 0 0.46534958727072012 -0.30101036470971432 0 0.46534958727072012 -0.30101036470971432 0 0.48375710585791237 -0.3103489505986407 0 0.4831180484336926 -0.29096929031539881 0 0.46832484215502451 -0.27704725138466979 0 0.46534958727072012 -0.30101036470971432 0 0.4831180484336926 -0.29096929031539881 0 0.5 -0.27893866060091332 0 0.48259328920440298 -0.27456439449760922 0 0.4831180484336926 -0.29096929031539881 0 0.5 -0.27893866060091332 0 0.4831180484336926 -0.29096929031539881 0 0.5 -0.30423387119676731 0 0.48375710585791237 -0.3103489505986407 0 0.4831180484336926 -0.29096929031539881 0 0.5 -0.30423387119676731 0 0.48375710585791237 -0.3103489505986407 0 0.5 -0.30423387119676731 0 0.5 -0.32952908179262108 0 0.48375710585791237 -0.3103489505986407 0 0.5 -0.32952908179262108 0 0.47663725623748948 -0.32757535023912748 0 0.5 -0.32952908179262108 0 0.47663725623748948 -0.32757535023912748 0 0.48792492520425912 -0.35414033576854081 0 0.47663725623748948 -0.32757535023912748 0 0.48792492520425912 -0.35414033576854081 0 0.47663725623748948 -0.32757535023912748 0 0.47402059438593902 -0.34735979529269168 0 0.46506459103116671 -0.33706268481793139 0 0.47663725623748948 -0.32757535023912748 0 0.48792492520425912 -0.35414033576854081 0 0.47402059438593902 -0.34735979529269168 0 0.46534958727072012 -0.30101036470971432 0 0.47663725623748948 -0.32757535023912748 0 0.46534958727072012 -0.30101036470971432 0 0.48375710585791237 -0.3103489505986407 0 0.47663725623748948 -0.32757535023912748 0 0.48792492520425912 -0.35414033576854081 0 0.49921259417102859 -0.38070532129795398 0 0.5 -0.35482429238847513 0 0.48792492520425912 -0.35414033576854081 0 0.49921259417102859 -0.38070532129795398 0 0.48735030499949711 -0.36513203758497831 0 0.48792492520425912 -0.35414033576854081 0 0.49921259417102859 -0.38070532129795398 0 0.48934974355103211 -0.37310673335134209 0 0.48735030499949711 -0.36513203758497831 0 0.49921259417102859 -0.38070532129795398 0 0.48934974355103211 -0.37310673335134209 0 0.48735030499949711 -0.36513203758497831 0 0.48312196699938448 -0.37051489092720991 0 0.48934974355103211 -0.37310673335134209 0 0.48312196699938448 -0.37051489092720991 0 0.48497199751751668 -0.37579422010207209 0 0.5 -0.32952908179262108 0 0.5 -0.35482429238847513 0 0.48792492520425912 -0.35414033576854081 0 0.48792492520425912 -0.35414033576854081 0 0.47402059438593902 -0.34735979529269168 0 0.47643544118193543 -0.36371307844347239 0 0.47402059438593902 -0.34735979529269168 0 0.47643544118193543 -0.36371307844347239 0 0.46267715668406739 -0.35239985102414823 0 0.48735030499949711 -0.36513203758497831 0 0.48792492520425912 -0.35414033576854081 0 0.47643544118193543 -0.36371307844347239 0 0.48735030499949711 -0.36513203758497831 0 0.47643544118193543 -0.36371307844347239 0 0.48312196699938448 -0.37051489092720991 0 0.47643544118193543 -0.36371307844347239 0 0.47793792957580061 -0.37453628132782102 0 0.46923973130002478 -0.37715089740152558 0 0.47643544118193543 -0.36371307844347239 0 0.47793792957580061 -0.37453628132782102 0 0.48312196699938448 -0.37051489092720991 0 0.47793792957580061 -0.37453628132782102 0 0.48312196699938448 -0.37051489092720991 0 0.48497199751751668 -0.37579422010207209 0 0.47643544118193543 -0.36371307844347239 0 0.46041185941313922 -0.36681543959829488 0 0.46923973130002478 -0.37715089740152558 0 0.47643544118193543 -0.36371307844347239 0 0.46041185941313922 -0.36681543959829488 0 0.46267715668406739 -0.35239985102414823 0 0.46041185941313922 -0.36681543959829488 0 0.4466529409861848 -0.3693297638018519 0 0.45572529761609709 -0.38111745548115478 0 0.46267715668406739 -0.35239985102414823 0 0.44845417143866628 -0.35540876781067199 0 0.45151925209733051 -0.3366726682137513 0 0.46041185941313922 -0.36681543959829488 0 0.46267715668406739 -0.35239985102414823 0 0.44845417143866628 -0.35540876781067199 0 0.47402059438593902 -0.34735979529269168 0 0.46267715668406739 -0.35239985102414823 0 0.46506459103116671 -0.33706268481793139 0 0.44845417143866628 -0.35540876781067199 0 0.45151925209733051 -0.3366726682137513 0 0.43493504860342741 -0.34696362300923228 0 0.44845417143866628 -0.35540876781067199 0 0.43514828969237268 -0.3622008812169924 0 0.43493504860342741 -0.34696362300923228 0 0.4466529409861848 -0.3693297638018519 0 0.43514828969237268 -0.3622008812169924 0 0.43468361782506532 -0.37921725757594837 0 0.46041185941313922 -0.36681543959829488 0 0.44845417143866628 -0.35540876781067199 0 0.4466529409861848 -0.3693297638018519 0 0.44845417143866628 -0.35540876781067199 0 0.4466529409861848 -0.3693297638018519 0 0.43514828969237268 -0.3622008812169924 0 0.46534958727072012 -0.30101036470971432 0 0.47663725623748948 -0.32757535023912748 0 0.46046869575100707 -0.32130575931993821 0 0.46534958727072012 -0.30101036470971432 0 0.46046869575100707 -0.32130575931993821 0 0.4453113015683634 -0.31591760228413279 0 0.47663725623748948 -0.32757535023912748 0 0.46046869575100707 -0.32130575931993821 0 0.46506459103116671 -0.33706268481793139 0 0.46267715668406739 -0.35239985102414823 0 0.46506459103116671 -0.33706268481793139 0 0.45151925209733051 -0.3366726682137513 0 0.46046869575100707 -0.32130575931993821 0 0.46506459103116671 -0.33706268481793139 0 0.45151925209733051 -0.3366726682137513 0 0.45151925209733051 -0.3366726682137513 0 0.43109521830322139 -0.32894986873587218 0 0.43493504860342741 -0.34696362300923228 0 0.46046869575100707 -0.32130575931993821 0 0.45151925209733051 -0.3366726682137513 0 0.4453113015683634 -0.31591760228413279 0 0.45151925209733051 -0.3366726682137513 0 0.4453113015683634 -0.31591760228413279 0 0.43109521830322139 -0.32894986873587218 0 0.43109521830322139 -0.32894986873587218 0 0.41475457740921617 -0.32335402504617261 0 0.42734554598021701 -0.31046239829054428 0 0.4453113015683634 -0.31591760228413279 0 0.43109521830322139 -0.32894986873587218 0 0.42734554598021701 -0.31046239829054428 0 0.43109521830322139 -0.32894986873587218 0 0.41966028104396919 -0.34128947805579668 0 0.43493504860342741 -0.34696362300923228 0 0.43109521830322139 -0.32894986873587218 0 0.41966028104396919 -0.34128947805579668 0 0.41475457740921617 -0.32335402504617261 0 0.41966028104396919 -0.34128947805579668 0 0.41475457740921617 -0.32335402504617261 0 0.40100640508672608 -0.33513149447487139 0 0.41475457740921617 -0.32335402504617261 0 0.42734554598021701 -0.31046239829054428 0 0.4111397292386334 -0.30564266046904182 0 0.41475457740921617 -0.32335402504617261 0 0.39965462237561739 -0.31649489884932003 0 0.4111397292386334 -0.30564266046904182 0 0.4219420051194947 -0.36729015092853728 0 0.43514828969237268 -0.3622008812169924 0 0.43468361782506532 -0.37921725757594837 0 0.4219420051194947 -0.36729015092853728 0 0.43468361782506532 -0.37921725757594837 0 0.41864587402909742 -0.37713888012533581 0 0.4219420051194947 -0.36729015092853728 0 0.43514828969237268 -0.3622008812169924 0 0.42422195418139802 -0.35499572417571268 0 0.43514828969237268 -0.3622008812169924 0 0.42422195418139802 -0.35499572417571268 0 0.43493504860342741 -0.34696362300923228 0 0.41966028104396919 -0.34128947805579668 0 0.42422195418139802 -0.35499572417571268 0 0.43493504860342741 -0.34696362300923228 0 0.41966028104396919 -0.34128947805579668 0 0.40966630805606652 -0.35569472191817592 0 0.40100640508672608 -0.33513149447487139 0 0.41966028104396919 -0.34128947805579668 0 0.42422195418139802 -0.35499572417571268 0 0.40966630805606652 -0.35569472191817592 0 0.4219420051194947 -0.36729015092853728 0 0.42422195418139802 -0.35499572417571268 0 0.40966630805606652 -0.35569472191817592 0 0.4219420051194947 -0.36729015092853728 0 0.40966630805606652 -0.35569472191817592 0 0.40903063792353073 -0.3684683507184956 0 0.40903063792353073 -0.3684683507184956 0 0.41864587402909742 -0.37713888012533581 0 0.4097131248204598 -0.37611765535480418 0 0.4219420051194947 -0.36729015092853728 0 0.40903063792353073 -0.3684683507184956 0 0.41864587402909742 -0.37713888012533581 0 0.39796919685779791 -0.37274091544118659 0 0.39494480992030462 -0.36087933768916158 0 0.38600092605303721 -0.36955075866583598 0 0.40903063792353073 -0.3684683507184956 0 0.39796919685779791 -0.37274091544118659 0 0.4097131248204598 -0.37611765535480418 0 0.40903063792353073 -0.3684683507184956 0 0.39796919685779791 -0.37274091544118659 0 0.39494480992030462 -0.36087933768916158 0 0.40966630805606652 -0.35569472191817592 0 0.40903063792353073 -0.3684683507184956 0 0.39494480992030462 -0.36087933768916158 0 0.40966630805606652 -0.35569472191817592 0 0.39494480992030462 -0.36087933768916158 0 0.39215906522927241 -0.34768203161102629 0 0.40966630805606652 -0.35569472191817592 0 0.39215906522927241 -0.34768203161102629 0 0.40100640508672608 -0.33513149447487139 0 0.39215906522927241 -0.34768203161102629 0 0.3764830912008636 -0.35838615544041241 0 0.38330438208941647 -0.33903289170620088 0 0.39494480992030462 -0.36087933768916158 0 0.39215906522927241 -0.34768203161102629 0 0.3764830912008636 -0.35838615544041241 0 0.39215906522927241 -0.34768203161102629 0 0.3764830912008636 -0.35838615544041241 0 0.3764830912008636 -0.35838615544041241 0 0.38658844246967589 -0.3803726963282984 0 0.39494480992030462 -0.36087933768916158 0 0.3764830912008636 -0.35838615544041241 0 0.38600092605303721 -0.36955075866583598 0 0.3764830912008636 -0.35838615544041241 0 0.38600092605303721 -0.36955075866583598 0 0.38658844246967589 -0.3803726963282984 0 0.41475457740921617 -0.32335402504617261 0 0.39965462237561739 -0.31649489884932003 0 0.40100640508672608 -0.33513149447487139 0 0.39965462237561739 -0.31649489884932003 0 0.40100640508672608 -0.33513149447487139 0 0.38769042688080468 -0.32625226059848889 0 0.39965462237561739 -0.31649489884932003 0 0.38769042688080468 -0.32625226059848889 0 0.38658027122290128 -0.31045825091252949 0 0.39215906522927241 -0.34768203161102629 0 0.40100640508672608 -0.33513149447487139 0 0.38330438208941647 -0.33903289170620088 0 0.40100640508672608 -0.33513149447487139 0 0.38330438208941647 -0.33903289170620088 0 0.38769042688080468 -0.32625226059848889 0 0.38330438208941647 -0.33903289170620088 0 0.38769042688080468 -0.32625226059848889 0 0.36475294070445718 -0.3328644861139457 0 0.38769042688080468 -0.32625226059848889 0 0.38658027122290128 -0.31045825091252949 0 0.36475294070445718 -0.3328644861139457 0 0.38658027122290128 -0.31045825091252949 0 0.38415193532005609 -0.29575932516548509 0 0.37321689268048308 -0.3054198482444952 0 0.38658027122290128 -0.31045825091252949 0 0.39658304451384629 -0.29970391447814387 0 0.38415193532005609 -0.29575932516548509 0 0.39965462237561739 -0.31649489884932003 0 0.38658027122290128 -0.31045825091252949 0 0.39658304451384629 -0.29970391447814387 0 0.39658304451384629 -0.29970391447814387 0 0.4111397292386334 -0.30564266046904182 0 0.40682541336576461 -0.28920528091935682 0 0.39965462237561739 -0.31649489884932003 0 0.39658304451384629 -0.29970391447814387 0 0.4111397292386334 -0.30564266046904182 0 0.3904678071707095 -0.28264869433028278 0 0.40352813852806468 -0.27498682115249867 0 0.40682541336576461 -0.28920528091935682 0 0.39658304451384629 -0.29970391447814387 0 0.3904678071707095 -0.28264869433028278 0 0.40682541336576461 -0.28920528091935682 0 0.3904678071707095 -0.28264869433028278 0 0.38415193532005609 -0.29575932516548509 0 0.37237216569170151 -0.28445076597401908 0 0.39658304451384629 -0.29970391447814387 0 0.3904678071707095 -0.28264869433028278 0 0.38415193532005609 -0.29575932516548509 0 0.38415193532005609 -0.29575932516548509 0 0.37237216569170151 -0.28445076597401908 0 0.37321689268048308 -0.3054198482444952 0 0.38320638689785569 -0.26878584571629932 0 0.37152743870291988 -0.26348168370354302 0 0.37237216569170151 -0.28445076597401908 0 0.3904678071707095 -0.28264869433028278 0 0.38320638689785569 -0.26878584571629932 0 0.37237216569170151 -0.28445076597401908 0 0.3904678071707095 -0.28264869433028278 0 0.38320638689785569 -0.26878584571629932 0 0.39407612540497999 -0.26760228700816829 0 0.37539019514231309 -0.24943132198872661 0 0.38152419873806731 -0.25520595208347341 0 0.37152743870291988 -0.26348168370354302 0 0.37539019514231309 -0.24943132198872661 0 0.37982826263192432 -0.2470704577733738 0 0.38152419873806731 -0.25520595208347341 0 0.37982826263192432 -0.2470704577733738 0 0.38461996177022412 -0.24777033478389901 0 0.38152419873806731 -0.25520595208347341 0 0.38320638689785569 -0.26878584571629932 0 0.38152419873806731 -0.25520595208347341 0 0.37152743870291988 -0.26348168370354302 0 0.38320638689785569 -0.26878584571629932 0 0.38152419873806731 -0.25520595208347341 0 0.3892705856787565 -0.25932569119830912 0 0.38320638689785569 -0.26878584571629932 0 0.3892705856787565 -0.25932569119830912 0 0.39407612540497999 -0.26760228700816829 0 0.38152419873806731 -0.25520595208347341 0 0.3892705856787565 -0.25932569119830912 0 0.38804128852899628 -0.25186476638962052 0 0.3892705856787565 -0.25932569119830912 0 0.38804128852899628 -0.25186476638962052 0 0.39282930776892538 -0.25500418728084701 0 0.38461996177022412 -0.24777033478389901 0 0.38152419873806731 -0.25520595208347341 0 0.38804128852899628 -0.25186476638962052 0 0.3950743242416534 -0.25083729468734278 0 0.39282930776892538 -0.25500418728084701 0 0.39740845156715882 -0.25479627064217097 0 0.3950743242416534 -0.25083729468734278 0 0.39740845156715882 -0.25479627064217097 0 0.40064186867483198 -0.25249081384540351 0 0.39909042404198269 -0.2483857068063286 0 0.3950743242416534 -0.25083729468734278 0 0.40064186867483198 -0.25249081384540351 0 0.38804128852899628 -0.25186476638962052 0 0.3950743242416534 -0.25083729468734278 0 0.39282930776892538 -0.25500418728084701 0 0.39282930776892538 -0.25500418728084701 0 0.39740845156715882 -0.25479627064217097 0 0.39794248178666147 -0.25997394207894781 0 0.3892705856787565 -0.25932569119830912 0 0.39282930776892538 -0.25500418728084701 0 0.39794248178666147 -0.25997394207894781 0 0.3892705856787565 -0.25932569119830912 0 0.39794248178666147 -0.25997394207894781 0 0.39407612540497999 -0.26760228700816829 0 0.39794248178666147 -0.25997394207894781 0 0.40407269881482799 -0.26417838875844107 0 0.39407612540497999 -0.26760228700816829 0 0.40407269881482799 -0.26417838875844107 0 0.40605258179879339 -0.25942734473742601 0 0.40295262835752749 -0.25970030967585589 0 0.40605258179879339 -0.25942734473742601 0 0.40295262835752749 -0.25970030967585589 0 0.40491625592405101 -0.25614636164055538 0 0.39794248178666147 -0.25997394207894781 0 0.40407269881482799 -0.26417838875844107 0 0.40295262835752749 -0.25970030967585589 0 0.39794248178666147 -0.25997394207894781 0 0.40295262835752749 -0.25970030967585589 0 0.40130231556342949 -0.25604532960834658 0 0.39740845156715882 -0.25479627064217097 0 0.39794248178666147 -0.25997394207894781 0 0.40130231556342949 -0.25604532960834658 0 0.39740845156715882 -0.25479627064217097 0 0.40130231556342949 -0.25604532960834658 0 0.40064186867483198 -0.25249081384540351 0 0.40130231556342949 -0.25604532960834658 0 0.40387856717165632 -0.25389246140662902 0 0.40064186867483198 -0.25249081384540351 0 0.40295262835752749 -0.25970030967585589 0 0.40130231556342949 -0.25604532960834658 0 0.40491625592405101 -0.25614636164055538 0 0.40605258179879339 -0.25942734473742601 0 0.40491625592405101 -0.25614636164055538 0 0.40774657313199558 -0.25607185853867598 0 0.40491625592405101 -0.25614636164055538 0 0.40617675530853131 -0.25466333167478628 0 0.40387856717165632 -0.25389246140662902 0 0.40130231556342949 -0.25604532960834658 0 0.40491625592405101 -0.25614636164055538 0 0.40387856717165632 -0.25389246140662902 0 0.4032580493880823 -0.24820614017957751 0 0.40406835381046818 -0.25141679738622502 0 0.40064186867483198 -0.25249081384540351 0 0.40387856717165632 -0.25389246140662902 0 0.40406835381046818 -0.25141679738622502 0 0.40064186867483198 -0.25249081384540351 0 0.40387856717165632 -0.25389246140662902 0 0.40616573370325898 -0.2527444511020891 0 0.40406835381046818 -0.25141679738622502 0 0.40617675530853131 -0.25466333167478628 0 0.40387856717165632 -0.25389246140662902 0 0.40616573370325898 -0.2527444511020891 0 0.40616573370325898 -0.2527444511020891 0 0.40406835381046818 -0.25141679738622502 0 0.40639731002377882 -0.25005475403268879 0 0.3904678071707095 -0.28264869433028278 0 0.39407612540497999 -0.26760228700816829 0 0.40352813852806468 -0.27498682115249867 0 0.40407269881482799 -0.26417838875844107 0 0.39407612540497999 -0.26760228700816829 0 0.40352813852806468 -0.27498682115249867 0 0.40352813852806468 -0.27498682115249867 0 0.41738530905461768 -0.27918736273878908 0 0.40682541336576461 -0.28920528091935682 0 0.40352813852806468 -0.27498682115249867 0 0.41150174820930269 -0.2679130653680114 0 0.41738530905461768 -0.27918736273878908 0 0.40407269881482799 -0.26417838875844107 0 0.40352813852806468 -0.27498682115249867 0 0.41150174820930269 -0.2679130653680114 0 0.41150174820930269 -0.2679130653680114 0 0.42039916243955261 -0.26803215292985938 0 0.41434619175262483 -0.26262159581468819 0 0.41150174820930269 -0.2679130653680114 0 0.42039916243955261 -0.26803215292985938 0 0.41738530905461768 -0.27918736273878908 0 0.40774657313199558 -0.25607185853867598 0 0.43080992984899669 -0.25546475640527228 0 0.43181928263310793 -0.2472796538627352 0 0.40774657313199558 -0.25607185853867598 0 0.41317019913163772 -0.2578431913813346 0 0.42106430298725139 -0.26133913182366719 0 0.43080992984899669 -0.25546475640527228 0 0.43181928263310793 -0.2472796538627352 0 0.41735081356935799 -0.24962829424353991 0 0.40774657313199558 -0.25607185853867598 0 0.40774657313199558 -0.25607185853867598 0 0.41317019913163772 -0.2578431913813346 0 0.43080992984899669 -0.25546475640527228 0 0.41735081356935799 -0.24962829424353991 0 0.41263438769035488 -0.25140365445721052 0 0.40774657313199558 -0.25607185853867598 0 0.40959591766898618 -0.2497663098525551 0 0.41263438769035488 -0.25140365445721052 0 0.40932879812498579 -0.25283573445917568 0 0.41263438769035488 -0.25140365445721052 0 0.40932879812498579 -0.25283573445917568 0 0.40774657313199558 -0.25607185853867598 0 0.40959591766898618 -0.2497663098525551 0 0.407801192140268 -0.25182880055802842 0 0.40932879812498579 -0.25283573445917568 0 0.40616573370325898 -0.2527444511020891 0 0.40639731002377882 -0.25005475403268879 0 0.407801192140268 -0.25182880055802842 0 0.40959591766898618 -0.2497663098525551 0 0.40639731002377882 -0.25005475403268879 0 0.407801192140268 -0.25182880055802842 0 0.40616573370325898 -0.2527444511020891 0 0.407801192140268 -0.25182880055802842 0 0.40932879812498579 -0.25283573445917568 0 0.40616573370325898 -0.2527444511020891 0 0.40932879812498579 -0.25283573445917568 0 0.40774657313199558 -0.25607185853867598 0 0.40617675530853131 -0.25466333167478628 0 0.40616573370325898 -0.2527444511020891 0 0.40774657313199558 -0.25607185853867598 0 0.40491625592405101 -0.25614636164055538 0 0.40617675530853131 -0.25466333167478628 0 0.40774657313199558 -0.25607185853867598 0 0.40491625592405101 -0.25614636164055538 0 0.40774657313199558 -0.25607185853867598 0 0.40774657313199558 -0.25607185853867598 0 0.41001612383201053 -0.2579304387946329 0 0.40821786605440818 -0.25830253523062008 0 0.40774657313199558 -0.25607185853867598 0 0.41317019913163772 -0.2578431913813346 0 0.41001612383201053 -0.2579304387946329 0 0.4109298570100004 -0.25950417002790088 0 0.40921788338287463 -0.26186535039700548 0 0.41434619175262483 -0.26262159581468819 0 0.41317019913163772 -0.2578431913813346 0 0.4109298570100004 -0.25950417002790088 0 0.41434619175262483 -0.26262159581468819 0 0.41317019913163772 -0.2578431913813346 0 0.4109298570100004 -0.25950417002790088 0 0.41001612383201053 -0.2579304387946329 0 0.4109298570100004 -0.25950417002790088 0 0.41001612383201053 -0.2579304387946329 0 0.40821786605440818 -0.25830253523062008 0 0.40605258179879339 -0.25942734473742601 0 0.40774657313199558 -0.25607185853867598 0 0.40821786605440818 -0.25830253523062008 0 0.40605258179879339 -0.25942734473742601 0 0.40821786605440818 -0.25830253523062008 0 0.40921788338287463 -0.26186535039700548 0 0.4109298570100004 -0.25950417002790088 0 0.40821786605440818 -0.25830253523062008 0 0.40921788338287463 -0.26186535039700548 0 0.40407269881482799 -0.26417838875844107 0 0.40605258179879339 -0.25942734473742601 0 0.40921788338287463 -0.26186535039700548 0 0.40407269881482799 -0.26417838875844107 0 0.41150174820930269 -0.2679130653680114 0 0.40921788338287463 -0.26186535039700548 0 0.41150174820930269 -0.2679130653680114 0 0.40921788338287463 -0.26186535039700548 0 0.41434619175262483 -0.26262159581468819 0 0.41317019913163772 -0.2578431913813346 0 0.41434619175262483 -0.26262159581468819 0 0.42106430298725139 -0.26133913182366719 0 0.42039916243955261 -0.26803215292985938 0 0.41434619175262483 -0.26262159581468819 0 0.42106430298725139 -0.26133913182366719 0 0.43181928263310793 -0.2472796538627352 0 0.40774657313199558 -0.25607185853867598 0 0.43080992984899669 -0.25546475640527228 0 0.42106430298725139 -0.26133913182366719 0 0.42764743261888721 -0.26407945347152167 0 0.43080992984899669 -0.25546475640527228 0 0.42039916243955261 -0.26803215292985938 0 0.42106430298725139 -0.26133913182366719 0 0.42764743261888721 -0.26407945347152167 0 0.44188240666479173 -0.26446162861433808 0 0.42764743261888721 -0.26407945347152167 0 0.43080992984899669 -0.25546475640527228 0 0.41738530905461768 -0.27918736273878908 0 0.4300576311990757 -0.27303823450377002 0 0.4319059781184556 -0.28552951379063352 0 0.42039916243955261 -0.26803215292985938 0 0.42764743261888721 -0.26407945347152167 0 0.4300576311990757 -0.27303823450377002 0 0.42039916243955261 -0.26803215292985938 0 0.41738530905461768 -0.27918736273878908 0 0.4300576311990757 -0.27303823450377002 0 0.44188240666479173 -0.26446162861433808 0 0.42764743261888721 -0.26407945347152167 0 0.4300576311990757 -0.27303823450377002 0 0.44295759041678667 -0.27856190950760701 0 0.4300576311990757 -0.27303823450377002 0 0.4319059781184556 -0.28552951379063352 0 0.44113141032648467 -0.29601476865309218 0 0.4319059781184556 -0.28552951379063352 0 0.42167517178713898 -0.29463544523071289 0 0.41738530905461768 -0.27918736273878908 0 0.4319059781184556 -0.28552951379063352 0 0.42167517178713898 -0.29463544523071289 0 0.44113141032648467 -0.29601476865309218 0 0.42734554598021701 -0.31046239829054428 0 0.42167517178713898 -0.29463544523071289 0 0.42734554598021701 -0.31046239829054428 0 0.4111397292386334 -0.30564266046904182 0 0.42167517178713898 -0.29463544523071289 0 0.4111397292386334 -0.30564266046904182 0 0.40682541336576461 -0.28920528091935682 0 0.42167517178713898 -0.29463544523071289 0 0.41738530905461768 -0.27918736273878908 0 0.40682541336576461 -0.28920528091935682 0 0.42167517178713898 -0.29463544523071289 0 0.44692792019314881 -0.49010801112922131 0 0.43784891268786852 -0.5 0 0.46099536747095032 -0.5 0 0.44692792019314881 -0.49010801112922131 0 0.43784891268786852 -0.5 0 0.43576770388651281 -0.48737361229988929 0 0.44692792019314881 -0.49010801112922131 0 0.44729358824816501 -0.47967746710648462 0 0.43576770388651281 -0.48737361229988929 0 0.44176520860850471 -0.46963788736141648 0 0.44729358824816501 -0.47967746710648462 0 0.43576770388651281 -0.48737361229988929 0 0.44176520860850471 -0.46963788736141648 0 0.44729358824816501 -0.47967746710648462 0 0.45555031381531502 -0.46832315699273069 0 0.44692792019314881 -0.49010801112922131 0 0.44729358824816501 -0.47967746710648462 0 0.45645679473734357 -0.48294466774916489 0 0.44729358824816501 -0.47967746710648462 0 0.45645679473734357 -0.48294466774916489 0 0.45555031381531502 -0.46832315699273069 0 0.45645679473734357 -0.48294466774916489 0 0.47601569571170171 -0.47758062633776432 0 0.45555031381531502 -0.46832315699273069 0 0.44692792019314881 -0.49010801112922131 0 0.45645679473734357 -0.48294466774916489 0 0.46099536747095032 -0.5 0 0.45645679473734357 -0.48294466774916489 0 0.46099536747095032 -0.5 0 0.47601569571170171 -0.47758062633776432 0 0.48414182225403207 -0.50000000000000389 0 0.47601569571170171 -0.47758062633776432 0 0.46099536747095032 -0.5 0 0.48414182225403207 -0.50000000000000389 0 0.47601569571170171 -0.47758062633776432 0 0.5 -0.5 0 0.47601569571170171 -0.47758062633776432 0 0.5 -0.46055723075890131 0 0.48414182225403207 -0.50000000000000389 0 0.5 -0.5 0 0.47601569571170171 -0.47758062633776432 0 0.47601569571170171 -0.47758062633776432 0 0.46788956916937241 -0.45516125267552432 0 0.47601569571170171 -0.47758062633776432 0 0.5 -0.46055723075890131 0 0.46788956916937241 -0.45516125267552432 0 0.5 -0.46055723075890131 0 0.46788956916937241 -0.45516125267552432 0 0.48069433396775452 -0.43234873709870197 0 0.46788956916937241 -0.45516125267552432 0 0.45976344262704311 -0.4327418790132842 0 0.48069433396775452 -0.43234873709870197 0 0.45430108953791398 -0.44456373453657327 0 0.46788956916937241 -0.45516125267552432 0 0.45976344262704311 -0.4327418790132842 0 0.46788956916937241 -0.45516125267552432 0 0.45976344262704311 -0.4327418790132842 0 0.45430108953791398 -0.44456373453657327 0 0.46788956916937241 -0.45516125267552432 0 0.45500655986970118 -0.45544263624155512 0 0.47601569571170171 -0.47758062633776432 0 0.46788956916937241 -0.45516125267552432 0 0.45555031381531502 -0.46832315699273069 0 0.46788956916937241 -0.45516125267552432 0 0.45555031381531502 -0.46832315699273069 0 0.45500655986970118 -0.45544263624155512 0 0.45500655986970118 -0.45544263624155512 0 0.44747594934169421 -0.4594777587316049 0 0.44877481823242382 -0.44989004640774249 0 0.44747594934169421 -0.4594777587316049 0 0.44419977423518758 -0.45310583934140991 0 0.44877481823242382 -0.44989004640774249 0 0.44176520860850471 -0.46963788736141648 0 0.45555031381531502 -0.46832315699273069 0 0.44747594934169421 -0.4594777587316049 0 0.45555031381531502 -0.46832315699273069 0 0.45500655986970118 -0.45544263624155512 0 0.44747594934169421 -0.4594777587316049 0 0.44176520860850471 -0.46963788736141648 0 0.43848656958922527 -0.46072129054347732 0 0.43389917481061341 -0.46722828928121057 0 0.44176520860850471 -0.46963788736141648 0 0.44747594934169421 -0.4594777587316049 0 0.43848656958922527 -0.46072129054347732 0 0.44747594934169421 -0.4594777587316049 0 0.43848656958922527 -0.46072129054347732 0 0.44419977423518758 -0.45310583934140991 0 0.44419977423518758 -0.45310583934140991 0 0.44220034030033578 -0.44537945564430698 0 0.44877481823242382 -0.44989004640774249 0 0.44629546125279862 -0.44403927526096881 0 0.43638317740817839 -0.43179353330094822 0 0.44220034030033578 -0.44537945564430698 0 0.44629546125279862 -0.44403927526096881 0 0.43638317740817839 -0.43179353330094822 0 0.45430108953791398 -0.44456373453657327 0 0.44629546125279862 -0.44403927526096881 0 0.44807668607614531 -0.43010731762036503 0 0.45430108953791398 -0.44456373453657327 0 0.45500655986970118 -0.45544263624155512 0 0.44877481823242382 -0.44989004640774249 0 0.45430108953791398 -0.44456373453657327 0 0.44629546125279862 -0.44403927526096881 0 0.44877481823242382 -0.44989004640774249 0 0.44220034030033578 -0.44537945564430698 0 0.44629546125279862 -0.44403927526096881 0 0.44877481823242382 -0.44989004640774249 0 0.44629546125279862 -0.44403927526096881 0 0.44807668607614531 -0.43010731762036503 0 0.43638317740817839 -0.43179353330094822 0 0.44807668607614531 -0.43010731762036503 0 0.4394837787688507 -0.41924106877244982 0 0.43638317740817839 -0.43179353330094822 0 0.45163731608471258 -0.41032250535104448 0 0.4394837787688507 -0.41924106877244982 0 0.42148063481935383 -0.41338277207259733 0 0.44807668607614531 -0.43010731762036503 0 0.45163731608471258 -0.41032250535104448 0 0.4394837787688507 -0.41924106877244982 0 0.45163731608471258 -0.41032250535104448 0 0.45976344262704311 -0.4327418790132842 0 0.45163731608471258 -0.41032250535104448 0 0.47581865804235712 -0.40786860946561659 0 0.45163731608471258 -0.41032250535104448 0 0.45976344262704311 -0.4327418790132842 0 0.47581865804235712 -0.40786860946561659 0 0.44807668607614531 -0.43010731762036503 0 0.45163731608471258 -0.41032250535104448 0 0.45976344262704311 -0.4327418790132842 0 0.45430108953791398 -0.44456373453657327 0 0.44807668607614531 -0.43010731762036503 0 0.45976344262704311 -0.4327418790132842 0 0.45976344262704311 -0.4327418790132842 0 0.48069433396775452 -0.43234873709870197 0 0.47581865804235712 -0.40786860946561659 0 0.5 -0.46055723075890131 0 0.48069433396775452 -0.43234873709870197 0 0.50000000000000111 -0.40541471358018322 0 0.48069433396775452 -0.43234873709870197 0 0.47581865804235712 -0.40786860946561659 0 0.50000000000000111 -0.40541471358018322 0 0.47581865804235712 -0.40786860946561659 0 0.50000000000000111 -0.40541471358018322 0 0.47581865804235712 -0.40786860946561659 0 0.48224087866570381 -0.39472365756486288 0 0.4654006712995441 -0.3922160741961872 0 0.47581865804235712 -0.40786860946561659 0 0.48224087866570381 -0.39472365756486288 0 0.50000000000000111 -0.40541471358018322 0 0.50000000000000111 -0.40541471358018322 0 0.49921259417102859 -0.38070532129795398 0 0.49014982833869231 -0.38660858804143411 0 0.48224087866570381 -0.39472365756486288 0 0.50000000000000111 -0.40541471358018322 0 0.49014982833869231 -0.38660858804143411 0 0.49921259417102859 -0.38070532129795398 0 0.49014982833869231 -0.38660858804143411 0 0.49154676109979628 -0.37778555269867242 0 0.48934974355103211 -0.37310673335134209 0 0.49921259417102859 -0.38070532129795398 0 0.49154676109979628 -0.37778555269867242 0 0.49014982833869231 -0.38660858804143411 0 0.48659684284595112 -0.38078738381027849 0 0.47971878442779847 -0.38296117439893512 0 0.49014982833869231 -0.38660858804143411 0 0.48659684284595112 -0.38078738381027849 0 0.49154676109979628 -0.37778555269867242 0 0.48934974355103211 -0.37310673335134209 0 0.49154676109979628 -0.37778555269867242 0 0.48497199751751668 -0.37579422010207209 0 0.48659684284595112 -0.38078738381027849 0 0.49154676109979628 -0.37778555269867242 0 0.48497199751751668 -0.37579422010207209 0 0.48224087866570381 -0.39472365756486288 0 0.47971878442779847 -0.38296117439893512 0 0.4654006712995441 -0.3922160741961872 0 0.47793792957580061 -0.37453628132782102 0 0.48497199751751668 -0.37579422010207209 0 0.47971878442779847 -0.38296117439893512 0 0.48659684284595112 -0.38078738381027849 0 0.48497199751751668 -0.37579422010207209 0 0.47971878442779847 -0.38296117439893512 0 0.48224087866570381 -0.39472365756486288 0 0.49014982833869231 -0.38660858804143411 0 0.47971878442779847 -0.38296117439893512 0 0.47971878442779847 -0.38296117439893512 0 0.46923973130002478 -0.37715089740152558 0 0.4654006712995441 -0.3922160741961872 0 0.47793792957580061 -0.37453628132782102 0 0.47971878442779847 -0.38296117439893512 0 0.46923973130002478 -0.37715089740152558 0 0.45572529761609709 -0.38111745548115478 0 0.4654006712995441 -0.3922160741961872 0 0.44489323042656448 -0.39171607883373488 0 0.46041185941313922 -0.36681543959829488 0 0.46923973130002478 -0.37715089740152558 0 0.45572529761609709 -0.38111745548115478 0 0.46923973130002478 -0.37715089740152558 0 0.45572529761609709 -0.38111745548115478 0 0.4654006712995441 -0.3922160741961872 0 0.45163731608471258 -0.41032250535104448 0 0.47581865804235712 -0.40786860946561659 0 0.4654006712995441 -0.3922160741961872 0 0.45163731608471258 -0.41032250535104448 0 0.4654006712995441 -0.3922160741961872 0 0.44489323042656448 -0.39171607883373488 0 0.45163731608471258 -0.41032250535104448 0 0.44489323042656448 -0.39171607883373488 0 0.45163731608471258 -0.41032250535104448 0 0.4390710988654481 -0.40435181269142689 0 0.44489323042656448 -0.39171607883373488 0 0.4390710988654481 -0.40435181269142689 0 0.44489323042656448 -0.39171607883373488 0 0.43013110049190539 -0.39529959848243951 0 0.45572529761609709 -0.38111745548115478 0 0.44489323042656448 -0.39171607883373488 0 0.43468361782506532 -0.37921725757594837 0 0.4466529409861848 -0.3693297638018519 0 0.45572529761609709 -0.38111745548115478 0 0.43468361782506532 -0.37921725757594837 0 0.43468361782506532 -0.37921725757594837 0 0.42326985710918202 -0.38715704313394012 0 0.41864587402909742 -0.37713888012533581 0 0.44489323042656448 -0.39171607883373488 0 0.43468361782506532 -0.37921725757594837 0 0.43013110049190539 -0.39529959848243951 0 0.43468361782506532 -0.37921725757594837 0 0.42326985710918202 -0.38715704313394012 0 0.43013110049190539 -0.39529959848243951 0 0.4390710988654481 -0.40435181269142689 0 0.42975163933704708 -0.40233018466702303 0 0.42806207496478699 -0.40619657411503451 0 0.4390710988654481 -0.40435181269142689 0 0.43013110049190539 -0.39529959848243951 0 0.42975163933704708 -0.40233018466702303 0 0.42975163933704708 -0.40233018466702303 0 0.42806207496478699 -0.40619657411503451 0 0.42334504796033179 -0.40119454369622098 0 0.43013110049190539 -0.39529959848243951 0 0.42975163933704708 -0.40233018466702303 0 0.42334504796033179 -0.40119454369622098 0 0.43013110049190539 -0.39529959848243951 0 0.42334504796033179 -0.40119454369622098 0 0.41980688329647009 -0.39304730473656302 0 0.42326985710918202 -0.38715704313394012 0 0.43013110049190539 -0.39529959848243951 0 0.41980688329647009 -0.39304730473656302 0 0.42334504796033179 -0.40119454369622098 0 0.41030706722448651 -0.3930027676769508 0 0.42148063481935383 -0.41338277207259733 0 0.40374078043619599 -0.39146676536921621 0 0.42148063481935383 -0.41338277207259733 0 0.40969559796979638 -0.40304508330712469 0 0.40374078043619599 -0.39146676536921621 0 0.42148063481935383 -0.41338277207259733 0 0.41030706722448651 -0.3930027676769508 0 0.40374078043619599 -0.39146676536921621 0 0.42148063481935383 -0.41338277207259733 0 0.41030706722448651 -0.3930027676769508 0 0.42148063481935383 -0.41338277207259733 0 0.42334504796033179 -0.40119454369622098 0 0.41980688329647009 -0.39304730473656302 0 0.41030706722448651 -0.3930027676769508 0 0.39796919685779791 -0.37274091544118659 0 0.41030706722448651 -0.3930027676769508 0 0.41323600137685179 -0.38458282304028901 0 0.41980688329647009 -0.39304730473656302 0 0.41030706722448651 -0.3930027676769508 0 0.41323600137685179 -0.38458282304028901 0 0.42326985710918202 -0.38715704313394012 0 0.41980688329647009 -0.39304730473656302 0 0.41323600137685179 -0.38458282304028901 0 0.42326985710918202 -0.38715704313394012 0 0.41323600137685179 -0.38458282304028901 0 0.41864587402909742 -0.37713888012533581 0 0.41323600137685179 -0.38458282304028901 0 0.41864587402909742 -0.37713888012533581 0 0.4097131248204598 -0.37611765535480418 0 0.39796919685779791 -0.37274091544118659 0 0.41323600137685179 -0.38458282304028901 0 0.4097131248204598 -0.37611765535480418 0 0.39796919685779791 -0.37274091544118659 0 0.41030706722448651 -0.3930027676769508 0 0.38600092605303721 -0.36955075866583598 0 0.40374078043619599 -0.39146676536921621 0 0.39796919685779791 -0.37274091544118659 0 0.38600092605303721 -0.36955075866583598 0 0.40374078043619599 -0.39146676536921621 0 0.38600092605303721 -0.36955075866583598 0 0.38658844246967589 -0.3803726963282984 0 0.40374078043619599 -0.39146676536921621 0 0.39796919685779791 -0.37274091544118659 0 0.41030706722448651 -0.3930027676769508 0 0.40374078043619599 -0.39146676536921621 0 0.38658844246967589 -0.3803726963282984 0 0.39669379373848612 -0.40235923721618538 0 0.36798336053280872 -0.40275174420756488 0 0.38658844246967589 -0.3803726963282984 0 0.39669379373848612 -0.40235923721618538 0 0.40374078043619599 -0.39146676536921621 0 0.38658844246967589 -0.3803726963282984 0 0.39669379373848612 -0.40235923721618538 0 0.40969559796979638 -0.40304508330712469 0 0.39669379373848612 -0.40235923721618538 0 0.40948519018375978 -0.41193813891307818 0 0.40969559796979638 -0.40304508330712469 0 0.39669379373848612 -0.40235923721618538 0 0.40374078043619599 -0.39146676536921621 0 0.39669379373848612 -0.40235923721618538 0 0.38275428758915758 -0.41917102421592478 0 0.40679914500729619 -0.42434577810407231 0 0.39669379373848612 -0.40235923721618538 0 0.40679914500729619 -0.42434577810407231 0 0.40948519018375978 -0.41193813891307818 0 0.39669379373848612 -0.40235923721618538 0 0.40679914500729619 -0.42434577810407231 0 0.39669379373848612 -0.40235923721618538 0 0.38275428758915758 -0.41917102421592478 0 0.36798336053280872 -0.40275174420756488 0 0.38275428758915758 -0.41917102421592478 0 0.38882302560396048 -0.43936369924295499 0 0.36074155493181581 -0.43239507949394979 0 0.40679914500729619 -0.42434577810407231 0 0.41690449627610549 -0.44633231899195958 0 0.38882302560396048 -0.43936369924295499 0 0.38275428758915758 -0.41917102421592478 0 0.40679914500729619 -0.42434577810407231 0 0.38882302560396048 -0.43936369924295499 0 0.41788829857466231 -0.43001782823854728 0 0.40679914500729619 -0.42434577810407231 0 0.41690449627610549 -0.44633231899195958 0 0.41788829857466231 -0.43001782823854728 0 0.42916651350701762 -0.43561119989514502 0 0.41690449627610549 -0.44633231899195958 0 0.40679914500729619 -0.42434577810407231 0 0.41690449627610549 -0.44633231899195958 0 0.41788829857466231 -0.43001782823854728 0 0.41302865177901349 -0.41985507891145563 0 0.41982671533512311 -0.42075039412729692 0 0.41788829857466231 -0.43001782823854728 0 0.41982671533512311 -0.42075039412729692 0 0.42333810524509041 -0.42648180340047931 0 0.41788829857466231 -0.43001782823854728 0 0.40679914500729619 -0.42434577810407231 0 0.41302865177901349 -0.41985507891145563 0 0.41302865177901349 -0.41985507891145563 0 0.40948519018375978 -0.41193813891307818 0 0.41697478986580122 -0.41384002024399108 0 0.40679914500729619 -0.42434577810407231 0 0.41302865177901349 -0.41985507891145563 0 0.40948519018375978 -0.41193813891307818 0 0.40969559796979638 -0.40304508330712469 0 0.40948519018375978 -0.41193813891307818 0 0.41440905320967802 -0.41055150363419762 0 0.40948519018375978 -0.41193813891307818 0 0.41697478986580122 -0.41384002024399108 0 0.41440905320967802 -0.41055150363419762 0 0.40969559796979638 -0.40304508330712469 0 0.41440905320967802 -0.41055150363419762 0 0.42148063481935383 -0.41338277207259733 0 0.41697478986580122 -0.41384002024399108 0 0.41440905320967802 -0.41055150363419762 0 0.42148063481935383 -0.41338277207259733 0 0.41697478986580122 -0.41384002024399108 0 0.42148063481935383 -0.41338277207259733 0 0.41302865177901349 -0.41985507891145563 0 0.41697478986580122 -0.41384002024399108 0 0.41982671533512311 -0.42075039412729692 0 0.41697478986580122 -0.41384002024399108 0 0.42148063481935383 -0.41338277207259733 0 0.41982671533512311 -0.42075039412729692 0 0.45163731608471258 -0.41032250535104448 0 0.4390710988654481 -0.40435181269142689 0 0.42148063481935383 -0.41338277207259733 0 0.4390710988654481 -0.40435181269142689 0 0.42806207496478699 -0.40619657411503451 0 0.42148063481935383 -0.41338277207259733 0 0.45163731608471258 -0.41032250535104448 0 0.42148063481935383 -0.41338277207259733 0 0.4394837787688507 -0.41924106877244982 0 0.42148063481935383 -0.41338277207259733 0 0.42647089356355827 -0.41954779134092779 0 0.42148063481935383 -0.41338277207259733 0 0.42647089356355827 -0.41954779134092779 0 0.42148063481935383 -0.41338277207259733 0 0.41982671533512311 -0.42075039412729692 0 0.42647089356355827 -0.41954779134092779 0 0.42806207496478699 -0.40619657411503451 0 0.42334504796033179 -0.40119454369622098 0 0.42148063481935383 -0.41338277207259733 0 0.44220034030033578 -0.44537945564430698 0 0.42647089356355827 -0.41954779134092779 0 0.44220034030033578 -0.44537945564430698 0 0.42647089356355827 -0.41954779134092779 0 0.43638317740817839 -0.43179353330094822 0 0.44220034030033578 -0.44537945564430698 0 0.42647089356355827 -0.41954779134092779 0 0.42916651350701762 -0.43561119989514502 0 0.42647089356355827 -0.41954779134092779 0 0.42916651350701762 -0.43561119989514502 0 0.42333810524509041 -0.42648180340047931 0 0.42647089356355827 -0.41954779134092779 0 0.43638317740817839 -0.43179353330094822 0 0.4394837787688507 -0.41924106877244982 0 0.42647089356355827 -0.41954779134092779 0 0.43638317740817839 -0.43179353330094822 0 0.41788829857466231 -0.43001782823854728 0 0.42916651350701762 -0.43561119989514502 0 0.42333810524509041 -0.42648180340047931 0 0.41982671533512311 -0.42075039412729692 0 0.42647089356355827 -0.41954779134092779 0 0.42333810524509041 -0.42648180340047931 0 0.44419977423518758 -0.45310583934140991 0 0.4292937453562814 -0.45624102919245563 0 0.41690449627610549 -0.44633231899195958 0 0.44419977423518758 -0.45310583934140991 0 0.44220034030033578 -0.44537945564430698 0 0.41690449627610549 -0.44633231899195958 0 0.44419977423518758 -0.45310583934140991 0 0.41690449627610549 -0.44633231899195958 0 0.44220034030033578 -0.44537945564430698 0 0.42916651350701762 -0.43561119989514502 0 0.41690449627610549 -0.44633231899195958 0 0.42418264661253807 -0.4621676270088107 0 0.4292937453562814 -0.45624102919245563 0 0.41690449627610549 -0.44633231899195958 0 0.43848656958922527 -0.46072129054347732 0 0.44419977423518758 -0.45310583934140991 0 0.4292937453562814 -0.45624102919245563 0 0.43848656958922527 -0.46072129054347732 0 0.43389917481061341 -0.46722828928121057 0 0.4292937453562814 -0.45624102919245563 0 0.43389917481061341 -0.46722828928121057 0 0.42418264661253807 -0.4621676270088107 0 0.4292937453562814 -0.45624102919245563 0 0.42418264661253807 -0.4621676270088107 0 0.4292937453562814 -0.45624102919245563 0 0.42418264661253807 -0.4621676270088107 0 0.41690449627610549 -0.44633231899195958 0 0.42418264661253807 -0.4621676270088107 0 0.39771247574417867 -0.46016651158043481 0 0.40786932486712357 -0.48108381350440699 0 0.42418264661253807 -0.4621676270088107 0 0.41690449627610549 -0.44633231899195958 0 0.39771247574417867 -0.46016651158043481 0 0.41690449627610549 -0.44633231899195958 0 0.38882302560396048 -0.43936369924295499 0 0.41690449627610549 -0.44633231899195958 0 0.38882302560396048 -0.43936369924295499 0 0.39771247574417867 -0.46016651158043481 0 0.38882302560396048 -0.43936369924295499 0 0.39771247574417867 -0.46016651158043481 0 0.37095295829936442 -0.4489695720220912 0 0.39771247574417867 -0.46016651158043481 0 0.37126802357300992 -0.46698314104267769 0 0.37095295829936442 -0.4489695720220912 0 0.39771247574417867 -0.46016651158043481 0 0.38458496253452229 -0.47980430412811198 0 0.40786932486712357 -0.48108381350440699 0 0.39771247574417867 -0.46016651158043481 0 0.38458496253452229 -0.47980430412811198 0 0.37126802357300992 -0.46698314104267769 0 0.38458496253452229 -0.47980430412811198 0 0.39155600312170491 -0.49999999999999989 0 0.36865341000714569 -0.5 0 0.38458496253452229 -0.47980430412811198 0 0.39155600312170491 -0.49999999999999989 0 0.40786932486712357 -0.48108381350440699 0 0.39155600312170491 -0.49999999999999989 0 0.41470245790478671 -0.5 0 0.40786932486712357 -0.48108381350440699 0 0.39155600312170491 -0.49999999999999989 0 0.40786932486712357 -0.48108381350440699 0 0.41470245790478671 -0.5 0 0.40786932486712357 -0.48108381350440699 0 0.42351105843623699 -0.49041060506978418 0 0.42418264661253807 -0.4621676270088107 0 0.40786932486712357 -0.48108381350440699 0 0.42280733778357338 -0.4803166106436712 0 0.42418264661253807 -0.4621676270088107 0 0.40786932486712357 -0.48108381350440699 0 0.40786932486712357 -0.48108381350440699 0 0.42280733778357338 -0.4803166106436712 0 0.42351105843623699 -0.49041060506978418 0 0.42418264661253807 -0.4621676270088107 0 0.43576770388651281 -0.48737361229988929 0 0.44176520860850471 -0.46963788736141648 0 0.43389917481061341 -0.46722828928121057 0 0.43576770388651281 -0.48737361229988929 0 0.42418264661253807 -0.4621676270088107 0 0.42280733778357338 -0.4803166106436712 0 0.43576770388651281 -0.48737361229988929 0 0.43389917481061341 -0.46722828928121057 0 0.42418264661253807 -0.4621676270088107 0 0.43576770388651281 -0.48737361229988929 0 0.43784891268786852 -0.5 0 0.41470245790478671 -0.5 0 0.42351105843623699 -0.49041060506978418 0 0.43784891268786852 -0.5 0 0.43576770388651281 -0.48737361229988929 0 0.42351105843623699 -0.49041060506978418 0 0.42280733778357338 -0.4803166106436712 0 0.43576770388651281 -0.48737361229988929 0 0.42351105843623699 -0.49041060506978418 0 0.32284822377802741 -0.5 0 0.31639428655028501 -0.48155486540991571 0 0.29994563066346808 -0.50000000000000333 0 0.32284822377802741 -0.5 0 0.31639428655028501 -0.48155486540991571 0 0.33531788618728142 -0.47667904008853351 0 0.33531788618728142 -0.47667904008853351 0 0.3167571177320006 -0.46085117300612272 0 0.31639428655028501 -0.48155486540991571 0 0.33531788618728142 -0.47667904008853351 0 0.3167571177320006 -0.46085117300612272 0 0.32284822377802741 -0.5 0 0.33531788618728142 -0.47667904008853351 0 0.34575081689258652 -0.5 0 0.34575081689258652 -0.5 0 0.36865341000714569 -0.5 0 0.3586888220054858 -0.48222745756759139 0 0.33531788618728142 -0.47667904008853351 0 0.34575081689258652 -0.5 0 0.3586888220054858 -0.48222745756759139 0 0.38458496253452229 -0.47980430412811198 0 0.36865341000714569 -0.5 0 0.3586888220054858 -0.48222745756759139 0 0.3586888220054858 -0.48222745756759139 0 0.35552773169990409 -0.46511928160099242 0 0.37126802357300992 -0.46698314104267769 0 0.38458496253452229 -0.47980430412811198 0 0.3586888220054858 -0.48222745756759139 0 0.37126802357300992 -0.46698314104267769 0 0.33531788618728142 -0.47667904008853351 0 0.3586888220054858 -0.48222745756759139 0 0.35552773169990409 -0.46511928160099242 0 0.35552773169990409 -0.46511928160099242 0 0.37095295829936442 -0.4489695720220912 0 0.34141096843437929 -0.45073719728406852 0 0.33531788618728142 -0.47667904008853351 0 0.35552773169990409 -0.46511928160099242 0 0.34141096843437929 -0.45073719728406852 0 0.35552773169990409 -0.46511928160099242 0 0.37126802357300992 -0.46698314104267769 0 0.37095295829936442 -0.4489695720220912 0 0.38882302560396048 -0.43936369924295499 0 0.37095295829936442 -0.4489695720220912 0 0.36074155493181581 -0.43239507949394979 0 0.37095295829936442 -0.4489695720220912 0 0.34141096843437929 -0.45073719728406852 0 0.36074155493181581 -0.43239507949394979 0 0.34141096843437929 -0.45073719728406852 0 0.32518322174310599 -0.44628553398970622 0 0.33266008425967108 -0.42542645974494447 0 0.33531788618728142 -0.47667904008853351 0 0.34141096843437929 -0.45073719728406852 0 0.3167571177320006 -0.46085117300612272 0 0.34141096843437929 -0.45073719728406852 0 0.3167571177320006 -0.46085117300612272 0 0.32518322174310599 -0.44628553398970622 0 0.3167571177320006 -0.46085117300612272 0 0.32518322174310599 -0.44628553398970622 0 0.31311561528512999 -0.43455821787995952 0 0.33266008425967108 -0.42542645974494447 0 0.34543174174167179 -0.40616882610459759 0 0.32738975436250839 -0.39190886706031791 0 0.33266008425967108 -0.42542645974494447 0 0.32738975436250839 -0.39190886706031791 0 0.30284308594333109 -0.40867022287027083 0 0.32518322174310599 -0.44628553398970622 0 0.31311561528512999 -0.43455821787995952 0 0.33266008425967108 -0.42542645974494447 0 0.33266008425967108 -0.42542645974494447 0 0.30457861358752641 -0.41845783999593927 0 0.31311561528512999 -0.43455821787995952 0 0.33266008425967108 -0.42542645974494447 0 0.30457861358752641 -0.41845783999593927 0 0.33266008425967108 -0.42542645974494447 0 0.30284308594333109 -0.40867022287027083 0 0.30457861358752641 -0.41845783999593927 0 0.34141096843437929 -0.45073719728406852 0 0.33266008425967108 -0.42542645974494447 0 0.36074155493181581 -0.43239507949394979 0 0.33266008425967108 -0.42542645974494447 0 0.36074155493181581 -0.43239507949394979 0 0.38882302560396048 -0.43936369924295499 0 0.36074155493181581 -0.43239507949394979 0 0.38275428758915758 -0.41917102421592478 0 0.36074155493181581 -0.43239507949394979 0 0.36798336053280872 -0.40275174420756488 0 0.33266008425967108 -0.42542645974494447 0 0.36074155493181581 -0.43239507949394979 0 0.34543174174167179 -0.40616882610459759 0 0.36074155493181581 -0.43239507949394979 0 0.34543174174167179 -0.40616882610459759 0 0.36798336053280872 -0.40275174420756488 0 0.38658844246967589 -0.3803726963282984 0 0.36798336053280872 -0.40275174420756488 0 0.35193642278168591 -0.37514751125036488 0 0.34543174174167179 -0.40616882610459759 0 0.36798336053280872 -0.40275174420756488 0 0.35193642278168591 -0.37514751125036488 0 0.35193642278168591 -0.37514751125036488 0 0.32738975436250839 -0.39190886706031791 0 0.35193642278168591 -0.37514751125036488 0 0.32738975436250839 -0.39190886706031791 0 0.32049325188254879 -0.3734709642533528 0 0.34543174174167179 -0.40616882610459759 0 0.35193642278168591 -0.37514751125036488 0 0.32738975436250839 -0.39190886706031791 0 0.32738975436250839 -0.39190886706031791 0 0.30284308594333109 -0.40867022287027083 0 0.32738975436250839 -0.39190886706031791 0 0.30572478039076639 -0.37626970506596857 0 0.32049325188254879 -0.3734709642533528 0 0.30572478039076639 -0.37626970506596857 0 0.30015835238435251 -0.39155865707379361 0 0.29310592625404969 -0.37526660000253448 0 0.32738975436250839 -0.39190886706031791 0 0.30572478039076639 -0.37626970506596857 0 0.30015835238435251 -0.39155865707379361 0 0.30015835238435251 -0.39155865707379361 0 0.29072152570318588 -0.40256720743746832 0 0.30284308594333109 -0.40867022287027083 0 0.32738975436250839 -0.39190886706031791 0 0.30015835238435251 -0.39155865707379361 0 0.30284308594333109 -0.40867022287027083 0 0.30015835238435251 -0.39155865707379361 0 0.29072152570318588 -0.40256720743746832 0 0.2841288758756238 -0.38719943240432608 0 0.29072152570318588 -0.40256720743746832 0 0.27775028375703431 -0.39979493571821911 0 0.27649714291538141 -0.41148922024693407 0 0.29072152570318588 -0.40256720743746832 0 0.2841288758756238 -0.38719943240432608 0 0.27775028375703431 -0.39979493571821911 0 0.30015835238435251 -0.39155865707379361 0 0.2841288758756238 -0.38719943240432608 0 0.29310592625404969 -0.37526660000253448 0 0.2841288758756238 -0.38719943240432608 0 0.29310592625404969 -0.37526660000253448 0 0.28290335648079351 -0.36820591921568052 0 0.2841288758756238 -0.38719943240432608 0 0.27166823518932243 -0.37756166898898391 0 0.28290335648079351 -0.36820591921568052 0 0.2841288758756238 -0.38719943240432608 0 0.27166823518932243 -0.37756166898898391 0 0.2610359695399353 -0.38509772471132042 0 0.2841288758756238 -0.38719943240432608 0 0.2610359695399353 -0.38509772471132042 0 0.25965359053394632 -0.39792388278414781 0 0.2610359695399353 -0.38509772471132042 0 0.25201201578982008 -0.37587874638716962 0 0.2438270059657571 -0.39509544328716378 0 0.27166823518932243 -0.37756166898898391 0 0.2610359695399353 -0.38509772471132042 0 0.25201201578982008 -0.37587874638716962 0 0.25965359053394632 -0.39792388278414781 0 0.27649714291538141 -0.41148922024693407 0 0.24841567224323641 -0.40452060049792882 0 0.2610359695399353 -0.38509772471132042 0 0.25965359053394632 -0.39792388278414781 0 0.2438270059657571 -0.39509544328716378 0 0.25965359053394632 -0.39792388278414781 0 0.27775028375703431 -0.39979493571821911 0 0.27649714291538141 -0.41148922024693407 0 0.2841288758756238 -0.38719943240432608 0 0.25965359053394632 -0.39792388278414781 0 0.27775028375703431 -0.39979493571821911 0 0.2841288758756238 -0.38719943240432608 0 0.25965359053394632 -0.39792388278414781 0 0.27649714291538141 -0.41148922024693407 0 0.26207726795395753 -0.41749121568016451 0 0.27709373626269729 -0.42702785736875332 0 0.27649714291538141 -0.41148922024693407 0 0.26207726795395753 -0.41749121568016451 0 0.24841567224323641 -0.40452060049792882 0 0.27649714291538141 -0.41148922024693407 0 0.24841567224323641 -0.40452060049792882 0 0.26207726795395753 -0.41749121568016451 0 0.25857293382539581 -0.4286193686498998 0 0.24980685452307649 -0.4157990316373063 0 0.26207726795395753 -0.41749121568016451 0 0.24980685452307649 -0.4157990316373063 0 0.24841567224323641 -0.40452060049792882 0 0.25857293382539581 -0.4286193686498998 0 0.26594926322581691 -0.43861293734795243 0 0.24882440446700019 -0.44331963817276387 0 0.25857293382539581 -0.4286193686498998 0 0.24882440446700019 -0.44331963817276387 0 0.2467392420549577 -0.43084486699066021 0 0.25857293382539581 -0.4286193686498998 0 0.2467392420549577 -0.43084486699066021 0 0.24980685452307649 -0.4157990316373063 0 0.27709373626269729 -0.42702785736875332 0 0.27735920804434921 -0.44309997570548748 0 0.26594926322581691 -0.43861293734795243 0 0.25857293382539581 -0.4286193686498998 0 0.27709373626269729 -0.42702785736875332 0 0.26594926322581691 -0.43861293734795243 0 0.26207726795395753 -0.41749121568016451 0 0.25857293382539581 -0.4286193686498998 0 0.27709373626269729 -0.42702785736875332 0 0.27709373626269729 -0.42702785736875332 0 0.29819634927672067 -0.44502330592371092 0 0.27709373626269729 -0.42702785736875332 0 0.29756123262574441 -0.4250627586452243 0 0.29819634927672067 -0.44502330592371092 0 0.27649714291538141 -0.41148922024693407 0 0.27709373626269729 -0.42702785736875332 0 0.29756123262574441 -0.4250627586452243 0 0.27649714291538141 -0.41148922024693407 0 0.30457861358752641 -0.41845783999593927 0 0.29072152570318588 -0.40256720743746832 0 0.27649714291538141 -0.41148922024693407 0 0.30457861358752641 -0.41845783999593927 0 0.27649714291538141 -0.41148922024693407 0 0.30457861358752641 -0.41845783999593927 0 0.29756123262574441 -0.4250627586452243 0 0.29072152570318588 -0.40256720743746832 0 0.30284308594333109 -0.40867022287027083 0 0.30457861358752641 -0.41845783999593927 0 0.31311561528512999 -0.43455821787995952 0 0.30457861358752641 -0.41845783999593927 0 0.29756123262574441 -0.4250627586452243 0 0.31311561528512999 -0.43455821787995952 0 0.29756123262574441 -0.4250627586452243 0 0.29819634927672067 -0.44502330592371092 0 0.29756123262574441 -0.4250627586452243 0 0.29819634927672067 -0.44502330592371092 0 0.3167571177320006 -0.46085117300612272 0 0.29819634927672067 -0.44502330592371092 0 0.3167571177320006 -0.46085117300612272 0 0.31311561528512999 -0.43455821787995952 0 0.29819634927672067 -0.44502330592371092 0 0.29819634927672067 -0.44502330592371092 0 0.29907098997009479 -0.47251165296185699 0 0.3167571177320006 -0.46085117300612272 0 0.29819634927672067 -0.44502330592371092 0 0.29907098997009479 -0.47251165296185699 0 0.29819634927672067 -0.44502330592371092 0 0.28391369310876768 -0.46098112412737458 0 0.29907098997009479 -0.47251165296185699 0 0.28391369310876768 -0.46098112412737458 0 0.28226555575813939 -0.47182389624578019 0 0.29907098997009479 -0.47251165296185699 0 0.29819634927672067 -0.44502330592371092 0 0.28391369310876768 -0.46098112412737458 0 0.27735920804434921 -0.44309997570548748 0 0.27709373626269729 -0.42702785736875332 0 0.29819634927672067 -0.44502330592371092 0 0.27735920804434921 -0.44309997570548748 0 0.27735920804434921 -0.44309997570548748 0 0.26789603352964209 -0.45099784684285688 0 0.26594926322581691 -0.43861293734795243 0 0.26789603352964209 -0.45099784684285688 0 0.25611344061023389 -0.45967818946234368 0 0.24882440446700019 -0.44331963817276387 0 0.25611344061023389 -0.45967818946234368 0 0.24559505041163859 -0.45532746190222317 0 0.24882440446700019 -0.44331963817276387 0 0.26789603352964209 -0.45099784684285688 0 0.24882440446700019 -0.44331963817276387 0 0.26789603352964209 -0.45099784684285688 0 0.26594926322581691 -0.43861293734795243 0 0.24882440446700019 -0.44331963817276387 0 0.26789603352964209 -0.45099784684285688 0 0.25611344061023389 -0.45967818946234368 0 0.26807084415727539 -0.47154998785274421 0 0.25611344061023389 -0.45967818946234368 0 0.25533942406790539 -0.4742925229157845 0 0.24255698423928629 -0.4652872552104873 0 0.25611344061023389 -0.45967818946234368 0 0.26807084415727539 -0.47154998785274421 0 0.25533942406790539 -0.4742925229157845 0 0.27735920804434921 -0.44309997570548748 0 0.26807084415727539 -0.47154998785274421 0 0.27735920804434921 -0.44309997570548748 0 0.26789603352964209 -0.45099784684285688 0 0.26807084415727539 -0.47154998785274421 0 0.28391369310876768 -0.46098112412737458 0 0.27735920804434921 -0.44309997570548748 0 0.26807084415727539 -0.47154998785274421 0 0.28391369310876768 -0.46098112412737458 0 0.26807084415727539 -0.47154998785274421 0 0.28226555575813939 -0.47182389624578019 0 0.26807084415727539 -0.47154998785274421 0 0.28261339194566742 -0.48300568733357069 0 0.28226555575813939 -0.47182389624578019 0 0.26807084415727539 -0.47154998785274421 0 0.25533942406790539 -0.4742925229157845 0 0.25878248027020129 -0.50000000000000089 0 0.26807084415727539 -0.47154998785274421 0 0.25878248027020129 -0.50000000000000089 0 0.25533942406790539 -0.4742925229157845 0 0.25878248027020129 -0.50000000000000089 0 0.24582689742997141 -0.48780682716811641 0 0.25878248027020129 -0.50000000000000089 0 0.27936405546683468 -0.5 0 0.28261339194566742 -0.48300568733357069 0 0.26807084415727539 -0.47154998785274421 0 0.25878248027020129 -0.50000000000000089 0 0.28261339194566742 -0.48300568733357069 0 0.27936405546683468 -0.5 0 0.28261339194566742 -0.48300568733357069 0 0.29994563066346808 -0.50000000000000333 0 0.28261339194566742 -0.48300568733357069 0 0.29907098997009479 -0.47251165296185699 0 0.29994563066346808 -0.50000000000000333 0 0.28261339194566742 -0.48300568733357069 0 0.28226555575813939 -0.47182389624578019 0 0.29907098997009479 -0.47251165296185699 0 0.31639428655028501 -0.48155486540991571 0 0.3167571177320006 -0.46085117300612272 0 0.29907098997009479 -0.47251165296185699 0 0.29907098997009479 -0.47251165296185699 0 0.29994563066346808 -0.50000000000000333 0 0.31639428655028501 -0.48155486540991571 0 0.29907098997009479 -0.47251165296185699 0 0.29994563066346808 -0.50000000000000333 0 0.34129263971164031 -0.28182114746101439 0 0.31896951930814632 -0.31028495241377652 0 0.30739982194142768 -0.27771211906891569 0 0.34129263971164031 -0.28182114746101439 0 0.31896951930814632 -0.31028495241377652 0 0.35302279020804872 -0.30734281678747999 0 0.34129263971164031 -0.28182114746101439 0 0.32956248921523168 -0.25629947813454868 0 0.30739982194142768 -0.27771211906891569 0 0.34129263971164031 -0.28182114746101439 0 0.32956248921523168 -0.25629947813454868 0 0.35301189793069693 -0.2576333347837918 0 0.34425752521648001 -0.2366452051205768 0 0.32956248921523168 -0.25629947813454868 0 0.35301189793069693 -0.2576333347837918 0 0.34129263971164031 -0.28182114746101439 0 0.32956248921523168 -0.25629947813454868 0 0.34129263971164031 -0.28182114746101439 0 0.35906904505984188 -0.27571744247208402 0 0.35301189793069693 -0.2576333347837918 0 0.37068271171414152 -0.24251260143306669 0 0.37539019514231309 -0.24943132198872661 0 0.37152743870291988 -0.26348168370354302 0 0.37068271171414152 -0.24251260143306669 0 0.37152743870291988 -0.26348168370354302 0 0.37068271171414152 -0.24251260143306669 0 0.35301189793069693 -0.2576333347837918 0 0.37152743870291988 -0.26348168370354302 0 0.35906904505984188 -0.27571744247208402 0 0.35301189793069693 -0.2576333347837918 0 0.37152743870291988 -0.26348168370354302 0 0.35906904505984188 -0.27571744247208402 0 0.37152743870291988 -0.26348168370354302 0 0.37237216569170151 -0.28445076597401908 0 0.37152743870291988 -0.26348168370354302 0 0.37237216569170151 -0.28445076597401908 0 0.37237216569170151 -0.28445076597401908 0 0.37321689268048308 -0.3054198482444952 0 0.37237216569170151 -0.28445076597401908 0 0.35979470667034308 -0.29095040418781848 0 0.37321689268048308 -0.3054198482444952 0 0.35906904505984188 -0.27571744247208402 0 0.37237216569170151 -0.28445076597401908 0 0.35979470667034308 -0.29095040418781848 0 0.34129263971164031 -0.28182114746101439 0 0.35302279020804872 -0.30734281678747999 0 0.34129263971164031 -0.28182114746101439 0 0.35979470667034308 -0.29095040418781848 0 0.35302279020804872 -0.30734281678747999 0 0.34129263971164031 -0.28182114746101439 0 0.35906904505984188 -0.27571744247208402 0 0.35979470667034308 -0.29095040418781848 0 0.35979470667034308 -0.29095040418781848 0 0.35302279020804872 -0.30734281678747999 0 0.37321689268048308 -0.3054198482444952 0 0.38658027122290128 -0.31045825091252949 0 0.37321689268048308 -0.3054198482444952 0 0.36475294070445718 -0.3328644861139457 0 0.35302279020804872 -0.30734281678747999 0 0.37321689268048308 -0.3054198482444952 0 0.36475294070445718 -0.3328644861139457 0 0.3764830912008636 -0.35838615544041241 0 0.38330438208941647 -0.33903289170620088 0 0.36475294070445718 -0.3328644861139457 0 0.36475294070445718 -0.3328644861139457 0 0.34812582571264611 -0.34825084477817769 0 0.34180320559639138 -0.32719479979960581 0 0.35302279020804872 -0.30734281678747999 0 0.36475294070445718 -0.3328644861139457 0 0.34180320559639138 -0.32719479979960581 0 0.35302279020804872 -0.30734281678747999 0 0.36475294070445718 -0.3328644861139457 0 0.3764830912008636 -0.35838615544041241 0 0.38658844246967589 -0.3803726963282984 0 0.35193642278168591 -0.37514751125036488 0 0.3764830912008636 -0.35838615544041241 0 0.35193642278168591 -0.37514751125036488 0 0.3764830912008636 -0.35838615544041241 0 0.36475294070445718 -0.3328644861139457 0 0.3764830912008636 -0.35838615544041241 0 0.36475294070445718 -0.3328644861139457 0 0.34812582571264611 -0.34825084477817769 0 0.3764830912008636 -0.35838615544041241 0 0.35193642278168591 -0.37514751125036488 0 0.34812582571264611 -0.34825084477817769 0 0.35193642278168591 -0.37514751125036488 0 0.32778088308572839 -0.35819660977890339 0 0.32049325188254879 -0.3734709642533528 0 0.35193642278168591 -0.37514751125036488 0 0.34812582571264611 -0.34825084477817769 0 0.32778088308572839 -0.35819660977890339 0 0.34812582571264611 -0.34825084477817769 0 0.32778088308572839 -0.35819660977890339 0 0.32414495204865867 -0.33723089890464869 0 0.32778088308572839 -0.35819660977890339 0 0.31505233051638698 -0.3511754221935362 0 0.31032418410238211 -0.36325287354481561 0 0.31505233051638698 -0.3511754221935362 0 0.32414495204865867 -0.33723089890464869 0 0.30095131590823521 -0.34965773411490009 0 0.32778088308572839 -0.35819660977890339 0 0.31505233051638698 -0.3511754221935362 0 0.32414495204865867 -0.33723089890464869 0 0.32778088308572839 -0.35819660977890339 0 0.32049325188254879 -0.3734709642533528 0 0.31032418410238211 -0.36325287354481561 0 0.31896951930814632 -0.31028495241377652 0 0.35302279020804872 -0.30734281678747999 0 0.34180320559639138 -0.32719479979960581 0 0.31896951930814632 -0.31028495241377652 0 0.34180320559639138 -0.32719479979960581 0 0.32414495204865867 -0.33723089890464869 0 0.34812582571264611 -0.34825084477817769 0 0.34180320559639138 -0.32719479979960581 0 0.32414495204865867 -0.33723089890464869 0 0.32414495204865867 -0.33723089890464869 0 0.30095131590823521 -0.34965773411490009 0 0.31896951930814632 -0.31028495241377652 0 0.32414495204865867 -0.33723089890464869 0 0.30855539398424942 -0.33096098108452232 0 0.31896951930814632 -0.31028495241377652 0 0.30855539398424942 -0.33096098108452232 0 0.29258273927744333 -0.32315007813798652 0 0.30855539398424942 -0.33096098108452232 0 0.29258273927744333 -0.32315007813798652 0 0.30095131590823521 -0.34965773411490009 0 0.32414495204865867 -0.33723089890464869 0 0.30855539398424942 -0.33096098108452232 0 0.30095131590823521 -0.34965773411490009 0 0.29258273927744333 -0.32315007813798652 0 0.30095131590823521 -0.34965773411490009 0 0.2890547609315432 -0.34224629797814271 0 0.29258273927744333 -0.32315007813798652 0 0.2799632075574856 -0.33555901230513169 0 0.2890547609315432 -0.34224629797814271 0 0.29258273927744333 -0.32315007813798652 0 0.30095131590823521 -0.34965773411490009 0 0.2890547609315432 -0.34224629797814271 0 0.27871771930734002 -0.34590957521321603 0 0.2799632075574856 -0.33555901230513169 0 0.30572478039076639 -0.37626970506596857 0 0.29310592625404969 -0.37526660000253448 0 0.29670024962297759 -0.36548465011369918 0 0.30572478039076639 -0.37626970506596857 0 0.31032418410238211 -0.36325287354481561 0 0.29670024962297759 -0.36548465011369918 0 0.30572478039076639 -0.37626970506596857 0 0.32049325188254879 -0.3734709642533528 0 0.31032418410238211 -0.36325287354481561 0 0.31032418410238211 -0.36325287354481561 0 0.30272417391128648 -0.36028745927306188 0 0.30699768421613799 -0.35538685184176733 0 0.30272417391128648 -0.36028745927306188 0 0.29958219035981809 -0.35664567054343321 0 0.29670024962297759 -0.36548465011369918 0 0.31032418410238211 -0.36325287354481561 0 0.30272417391128648 -0.36028745927306188 0 0.29670024962297759 -0.36548465011369918 0 0.29958219035981809 -0.35664567054343321 0 0.30095131590823521 -0.34965773411490009 0 0.29346255332759807 -0.35846748526166072 0 0.30272417391128648 -0.36028745927306188 0 0.29958219035981809 -0.35664567054343321 0 0.3018119757218215 -0.35238389356330713 0 0.30272417391128648 -0.36028745927306188 0 0.3018119757218215 -0.35238389356330713 0 0.30699768421613799 -0.35538685184176733 0 0.3018119757218215 -0.35238389356330713 0 0.30699768421613799 -0.35538685184176733 0 0.30095131590823521 -0.34965773411490009 0 0.29958219035981809 -0.35664567054343321 0 0.3018119757218215 -0.35238389356330713 0 0.30095131590823521 -0.34965773411490009 0 0.31505233051638698 -0.3511754221935362 0 0.30699768421613799 -0.35538685184176733 0 0.30095131590823521 -0.34965773411490009 0 0.31505233051638698 -0.3511754221935362 0 0.31032418410238211 -0.36325287354481561 0 0.30699768421613799 -0.35538685184176733 0 0.3018119757218215 -0.35238389356330713 0 0.30095131590823521 -0.34965773411490009 0 0.30095131590823521 -0.34965773411490009 0 0.27461985268169209 -0.36376577445751801 0 0.30095131590823521 -0.34965773411490009 0 0.29346255332759807 -0.35846748526166072 0 0.27461985268169209 -0.36376577445751801 0 0.30095131590823521 -0.34965773411490009 0 0.28856549391247788 -0.35109784815329642 0 0.27461985268169209 -0.36376577445751801 0 0.2890547609315432 -0.34224629797814271 0 0.30095131590823521 -0.34965773411490009 0 0.28856549391247788 -0.35109784815329642 0 0.2890547609315432 -0.34224629797814271 0 0.28273440195465133 -0.35104677949639851 0 0.27871771930734002 -0.34590957521321603 0 0.2890547609315432 -0.34224629797814271 0 0.28856549391247788 -0.35109784815329642 0 0.28273440195465133 -0.35104677949639851 0 0.28856549391247788 -0.35109784815329642 0 0.28273440195465133 -0.35104677949639851 0 0.27461985268169209 -0.36376577445751801 0 0.29346255332759807 -0.35846748526166072 0 0.28840454627238288 -0.3652789859049389 0 0.27461985268169209 -0.36376577445751801 0 0.29346255332759807 -0.35846748526166072 0 0.29670024962297759 -0.36548465011369918 0 0.28840454627238288 -0.3652789859049389 0 0.29958219035981809 -0.35664567054343321 0 0.29346255332759807 -0.35846748526166072 0 0.29670024962297759 -0.36548465011369918 0 0.28840454627238288 -0.3652789859049389 0 0.28290335648079351 -0.36820591921568052 0 0.27461985268169209 -0.36376577445751801 0 0.29310592625404969 -0.37526660000253448 0 0.28840454627238288 -0.3652789859049389 0 0.28290335648079351 -0.36820591921568052 0 0.29310592625404969 -0.37526660000253448 0 0.29670024962297759 -0.36548465011369918 0 0.28840454627238288 -0.3652789859049389 0 0.27166823518932243 -0.37756166898898391 0 0.25201201578982008 -0.37587874638716962 0 0.27461985268169209 -0.36376577445751801 0 0.27166823518932243 -0.37756166898898391 0 0.28290335648079351 -0.36820591921568052 0 0.27461985268169209 -0.36376577445751801 0 0.28290335648079351 -0.36820591921568052 0 0.27461985268169209 -0.36376577445751801 0 0.27461985268169209 -0.36376577445751801 0 0.25707115502332623 -0.35435927694027142 0 0.27500327620495152 -0.35380815575982572 0 0.26969347110321962 -0.34702235256482838 0 0.25707115502332623 -0.35435927694027142 0 0.27461985268169209 -0.36376577445751801 0 0.27500327620495152 -0.35380815575982572 0 0.25707115502332623 -0.35435927694027142 0 0.28273440195465133 -0.35104677949639851 0 0.27461985268169209 -0.36376577445751801 0 0.27500327620495152 -0.35380815575982572 0 0.27500327620495152 -0.35380815575982572 0 0.27871771930734002 -0.34590957521321603 0 0.26969347110321962 -0.34702235256482838 0 0.28273440195465133 -0.35104677949639851 0 0.27500327620495152 -0.35380815575982572 0 0.27871771930734002 -0.34590957521321603 0 0.25772240781640487 -0.34559376549742987 0 0.25707115502332623 -0.35435927694027142 0 0.23952245736496069 -0.3449527794230241 0 0.26969347110321962 -0.34702235256482838 0 0.25772240781640487 -0.34559376549742987 0 0.25707115502332623 -0.35435927694027142 0 0.25707115502332623 -0.35435927694027142 0 0.25329668261841959 -0.36202615390441062 0 0.24942294090057399 -0.3546029760840364 0 0.25201201578982008 -0.37587874638716962 0 0.27461985268169209 -0.36376577445751801 0 0.26060751933230047 -0.36357754400574199 0 0.27461985268169209 -0.36376577445751801 0 0.25707115502332623 -0.35435927694027142 0 0.26060751933230047 -0.36357754400574199 0 0.25201201578982008 -0.37587874638716962 0 0.27461985268169209 -0.36376577445751801 0 0.25201201578982008 -0.37587874638716962 0 0.26060751933230047 -0.36357754400574199 0 0.25329668261841959 -0.36202615390441062 0 0.25707115502332623 -0.35435927694027142 0 0.26060751933230047 -0.36357754400574199 0 0.25329668261841959 -0.36202615390441062 0 0.29258273927744333 -0.32315007813798652 0 0.2799632075574856 -0.33555901230513169 0 0.25983880244158009 -0.32066699919438407 0 0.29258273927744333 -0.32315007813798652 0 0.25983880244158009 -0.32066699919438407 0 0.284214162646653 -0.29664242216107239 0 0.26969347110321962 -0.34702235256482838 0 0.2799632075574856 -0.33555901230513169 0 0.25983880244158009 -0.32066699919438407 0 0.27871771930734002 -0.34590957521321603 0 0.26969347110321962 -0.34702235256482838 0 0.2799632075574856 -0.33555901230513169 0 0.25494752101753521 -0.33724849993495271 0 0.25983880244158009 -0.32066699919438407 0 0.24367037051332679 -0.32717426935638111 0 0.26969347110321962 -0.34702235256482838 0 0.25983880244158009 -0.32066699919438407 0 0.25772240781640487 -0.34559376549742987 0 0.25494752101753521 -0.33724849993495271 0 0.23952245736496069 -0.3449527794230241 0 0.26969347110321962 -0.34702235256482838 0 0.25494752101753521 -0.33724849993495271 0 0.25983880244158009 -0.32066699919438407 0 0.26969347110321962 -0.34702235256482838 0 0.25772240781640487 -0.34559376549742987 0 0.25494752101753521 -0.33724849993495271 0 0.25983880244158009 -0.32066699919438407 0 0.284214162646653 -0.29664242216107239 0 0.24998413377994061 -0.29431164582393959 0 0.284214162646653 -0.29664242216107239 0 0.27584558601586268 -0.27013476618415838 0 0.24998413377994061 -0.29431164582393959 0 0.25983880244158009 -0.32066699919438407 0 0.24998413377994061 -0.29431164582393959 0 0.25983880244158009 -0.32066699919438407 0 0.24998413377994061 -0.29431164582393959 0 0.24302815748284401 -0.31296471600588183 0 0.284214162646653 -0.29664242216107239 0 0.27584558601586268 -0.27013476618415838 0 0.29258273927744333 -0.32315007813798652 0 0.284214162646653 -0.29664242216107239 0 0.31896951930814632 -0.31028495241377652 0 0.284214162646653 -0.29664242216107239 0 0.30739982194142768 -0.27771211906891569 0 0.31896951930814632 -0.31028495241377652 0 0.29258273927744333 -0.32315007813798652 0 0.284214162646653 -0.29664242216107239 0 0.284214162646653 -0.29664242216107239 0 0.30739982194142768 -0.27771211906891569 0 0.27584558601586268 -0.27013476618415838 0 0.29986174555818601 -0.2499561489764151 0 0.30739982194142768 -0.27771211906891569 0 0.27584558601586268 -0.27013476618415838 0 0.29986174555818601 -0.2499561489764151 0 0.32956248921523168 -0.25629947813454868 0 0.30739982194142768 -0.27771211906891569 0 0.29986174555818601 -0.2499561489764151 0 0.27798776553391868 -0.24009430107567059 0 0.27584558601586268 -0.27013476618415838 0 0.27584558601586268 -0.27013476618415838 0 0.24012946511830119 -0.26795629245349539 0 0.24998413377994061 -0.29431164582393959 0 0.27798776553391868 -0.24009430107567059 0 0.2571087078033637 -0.24601667191256921 0 0.27584558601586268 -0.27013476618415838 0 0.2571087078033637 -0.24601667191256921 0 0.27584558601586268 -0.27013476618415838 0 0.24012946511830119 -0.26795629245349539 0 0.2571087078033637 -0.24601667191256921 0 0.24012946511830119 -0.26795629245349539 0 0.22810228118296169 -0.24229642026567491 0 0.24012946511830119 -0.26795629245349539 0 0.24998413377994061 -0.29431164582393959 0 0.21999090770916571 -0.26704736540622981 0 0.21117417239157829 -0.28161142596646521 0 0.2278272446986811 -0.28458120944964133 0 0.24012946511830119 -0.26795629245349539 0 0.21999090770916571 -0.26704736540622981 0 0.2278272446986811 -0.28458120944964133 0 0.24012946511830119 -0.26795629245349539 0 0.21999090770916571 -0.26704736540622981 0 0.22810228118296169 -0.24229642026567491 0 0.21999090770916571 -0.26704736540622981 0 0.20796735216411399 -0.25223914687671228 0 0.22810228118296169 -0.24229642026567491 0 0.21999090770916571 -0.26704736540622981 0 0.20796735216411399 -0.25223914687671228 0 0.20052932210205709 -0.2713804590980084 0 0.21999090770916571 -0.26704736540622981 0 0.20052932210205709 -0.2713804590980084 0 0.21117417239157829 -0.28161142596646521 0 0.20052932210205709 -0.2713804590980084 0 0.19034018279028611 -0.2570382396244843 0 0.18648742116689351 -0.27294791201644392 0 0.20052932210205709 -0.2713804590980084 0 0.19735200460068941 -0.28334210963755507 0 0.21117417239157829 -0.28161142596646521 0 0.20052932210205709 -0.2713804590980084 0 0.191606725129082 -0.2790835394695394 0 0.19735200460068941 -0.28334210963755507 0 0.191606725129082 -0.2790835394695394 0 0.18648742116689351 -0.27294791201644392 0 0.18612713964144831 -0.28235352216073212 0 0.20052932210205709 -0.2713804590980084 0 0.191606725129082 -0.2790835394695394 0 0.18648742116689351 -0.27294791201644392 0 0.20796735216411399 -0.25223914687671228 0 0.19034018279028611 -0.2570382396244843 0 0.19538814465999699 -0.241508895247565 0 0.20796735216411399 -0.25223914687671228 0 0.20052932210205709 -0.2713804590980084 0 0.19034018279028611 -0.2570382396244843 0 0.1900003098688996 -0.29668256507505097 0 0.20650769236758729 -0.31277263652437459 0 0.19524977703584431 -0.31226497608521869 0 0.1900003098688996 -0.29668256507505097 0 0.20650769236758729 -0.31277263652437459 0 0.1900003098688996 -0.29668256507505097 0 0.18814988467847429 -0.32160146102555348 0 0.18535742278826711 -0.31083202996391729 0 0.19580987986359311 -0.29771587044882469 0 0.1900003098688996 -0.29668256507505097 0 0.20650769236758729 -0.31277263652437459 0 0.1900003098688996 -0.29668256507505097 0 0.18814988467847429 -0.32160146102555348 0 0.19524977703584431 -0.31226497608521869 0 0.1900003098688996 -0.29668256507505097 0 0.18814988467847429 -0.32160146102555348 0 0.19580987986359311 -0.29771587044882469 0 0.20123314940269821 -0.29807026062906411 0 0.20650769236758729 -0.31277263652437459 0 0.1900003098688996 -0.29668256507505097 0 0.1865303495863084 -0.29782763912686339 0 0.18666692697882159 -0.30142219718517499 0 0.1900003098688996 -0.29668256507505097 0 0.19028940451416371 -0.29202613050714121 0 0.19184751400400221 -0.29614942943247641 0 0.1900003098688996 -0.29668256507505097 0 0.19028940451416371 -0.29202613050714121 0 0.18700941239599889 -0.29009272502672911 0 0.19028940451416371 -0.29202613050714121 0 0.1905854536989566 -0.28646597236924959 0 0.18700941239599889 -0.29009272502672911 0 0.19028940451416371 -0.29202613050714121 0 0.1946227364927032 -0.28961298163104449 0 0.1905854536989566 -0.28646597236924959 0 0.19028940451416371 -0.29202613050714121 0 0.1946227364927032 -0.28961298163104449 0 0.19364880731500991 -0.29333718295079653 0 0.1946227364927032 -0.28961298163104449 0 0.19364880731500991 -0.29333718295079653 0 0.19735239164332011 -0.29363994885998979 0 0.19028940451416371 -0.29202613050714121 0 0.19364880731500991 -0.29333718295079653 0 0.19184751400400221 -0.29614942943247641 0 0.19580987986359311 -0.29771587044882469 0 0.19364880731500991 -0.29333718295079653 0 0.19184751400400221 -0.29614942943247641 0 0.19580987986359311 -0.29771587044882469 0 0.1900003098688996 -0.29668256507505097 0 0.19184751400400221 -0.29614942943247641 0 0.191606725129082 -0.2790835394695394 0 0.1905854536989566 -0.28646597236924959 0 0.18612713964144831 -0.28235352216073212 0 0.1905854536989566 -0.28646597236924959 0 0.18612713964144831 -0.28235352216073212 0 0.18700941239599889 -0.29009272502672911 0 0.1946227364927032 -0.28961298163104449 0 0.1905854536989566 -0.28646597236924959 0 0.19735200460068941 -0.28334210963755507 0 0.191606725129082 -0.2790835394695394 0 0.1905854536989566 -0.28646597236924959 0 0.19735200460068941 -0.28334210963755507 0 0.1946227364927032 -0.28961298163104449 0 0.19735200460068941 -0.28334210963755507 0 0.20144738514259589 -0.28946344864021911 0 0.20123314940269821 -0.29807026062906411 0 0.19735239164332011 -0.29363994885998979 0 0.20144738514259589 -0.28946344864021911 0 0.19580987986359311 -0.29771587044882469 0 0.19364880731500991 -0.29333718295079653 0 0.19735239164332011 -0.29363994885998979 0 0.19580987986359311 -0.29771587044882469 0 0.20123314940269821 -0.29807026062906411 0 0.19735239164332011 -0.29363994885998979 0 0.1946227364927032 -0.28961298163104449 0 0.19735239164332011 -0.29363994885998979 0 0.20144738514259589 -0.28946344864021911 0 0.20144738514259589 -0.28946344864021911 0 0.21605525485656871 -0.29309655217483133 0 0.20741020014752479 -0.29929618955192788 0 0.21117417239157829 -0.28161142596646521 0 0.21605525485656871 -0.29309655217483133 0 0.2278272446986811 -0.28458120944964133 0 0.20123314940269821 -0.29807026062906411 0 0.20144738514259589 -0.28946344864021911 0 0.20741020014752479 -0.29929618955192788 0 0.19735200460068941 -0.28334210963755507 0 0.20144738514259589 -0.28946344864021911 0 0.21117417239157829 -0.28161142596646521 0 0.20144738514259589 -0.28946344864021911 0 0.21117417239157829 -0.28161142596646521 0 0.21605525485656871 -0.29309655217483133 0 0.21605525485656871 -0.29309655217483133 0 0.21614872294526519 -0.30450081875585039 0 0.20741020014752479 -0.29929618955192788 0 0.20123314940269821 -0.29807026062906411 0 0.20741020014752479 -0.29929618955192788 0 0.20650769236758729 -0.31277263652437459 0 0.21614872294526519 -0.30450081875585039 0 0.20741020014752479 -0.29929618955192788 0 0.20650769236758729 -0.31277263652437459 0 0.21614872294526519 -0.30450081875585039 0 0.22114093301811269 -0.31387474065523169 0 0.20650769236758729 -0.31277263652437459 0 0.22962953433653249 -0.30346397487288679 0 0.22114093301811269 -0.31387474065523169 0 0.23201794634284009 -0.31920669078181729 0 0.21614872294526519 -0.30450081875585039 0 0.22962953433653249 -0.30346397487288679 0 0.22114093301811269 -0.31387474065523169 0 0.21605525485656871 -0.29309655217483133 0 0.21614872294526519 -0.30450081875585039 0 0.22962953433653249 -0.30346397487288679 0 0.21605525485656871 -0.29309655217483133 0 0.22962953433653249 -0.30346397487288679 0 0.2278272446986811 -0.28458120944964133 0 0.24012946511830119 -0.26795629245349539 0 0.2278272446986811 -0.28458120944964133 0 0.24998413377994061 -0.29431164582393959 0 0.22962953433653249 -0.30346397487288679 0 0.2278272446986811 -0.28458120944964133 0 0.24998413377994061 -0.29431164582393959 0 0.22962953433653249 -0.30346397487288679 0 0.24998413377994061 -0.29431164582393959 0 0.24302815748284401 -0.31296471600588183 0 0.22962953433653249 -0.30346397487288679 0 0.24302815748284401 -0.31296471600588183 0 0.23201794634284009 -0.31920669078181729 0 0.25983880244158009 -0.32066699919438407 0 0.24302815748284401 -0.31296471600588183 0 0.24367037051332679 -0.32717426935638111 0 0.24302815748284401 -0.31296471600588183 0 0.24367037051332679 -0.32717426935638111 0 0.23201794634284009 -0.31920669078181729 0 0.24367037051332679 -0.32717426935638111 0 0.2345564622718504 -0.33004911188373037 0 0.23201794634284009 -0.31920669078181729 0 0.24367037051332679 -0.32717426935638111 0 0.2345564622718504 -0.33004911188373037 0 0.23952245736496069 -0.3449527794230241 0 0.25494752101753521 -0.33724849993495271 0 0.24367037051332679 -0.32717426935638111 0 0.23952245736496069 -0.3449527794230241 0 0.2345564622718504 -0.33004911188373037 0 0.223015074866274 -0.32886270797369938 0 0.23952245736496069 -0.3449527794230241 0 0.22079548420355261 -0.33491469967615661 0 0.23952245736496069 -0.3449527794230241 0 0.22079548420355261 -0.33491469967615661 0 0.23952245736496069 -0.3449527794230241 0 0.2274013825358954 -0.34926223911579679 0 0.22079548420355261 -0.33491469967615661 0 0.223015074866274 -0.32886270797369938 0 0.23952245736496069 -0.3449527794230241 0 0.223015074866274 -0.32886270797369938 0 0.23952245736496069 -0.3449527794230241 0 0.22079548420355261 -0.33491469967615661 0 0.2274013825358954 -0.34926223911579679 0 0.21525764062926711 -0.34513147305156938 0 0.223015074866274 -0.32886270797369938 0 0.22114093301811269 -0.31387474065523169 0 0.23201794634284009 -0.31920669078181729 0 0.2345564622718504 -0.33004911188373037 0 0.223015074866274 -0.32886270797369938 0 0.23201794634284009 -0.31920669078181729 0 0.25201201578982008 -0.37587874638716962 0 0.24319884003366879 -0.36273371943134469 0 0.23205009544919999 -0.37064193732808948 0 0.25329668261841959 -0.36202615390441062 0 0.24319884003366879 -0.36273371943134469 0 0.24942294090057399 -0.3546029760840364 0 0.25201201578982008 -0.37587874638716962 0 0.25329668261841959 -0.36202615390441062 0 0.24319884003366879 -0.36273371943134469 0 0.24319884003366879 -0.36273371943134469 0 0.23171736158256739 -0.35959786430790308 0 0.23205009544919999 -0.37064193732808948 0 0.25707115502332623 -0.35435927694027142 0 0.23952245736496069 -0.3449527794230241 0 0.25707115502332623 -0.35435927694027142 0 0.24942294090057399 -0.3546029760840364 0 0.23952245736496069 -0.3449527794230241 0 0.24319884003366879 -0.36273371943134469 0 0.23825259648353331 -0.35422991567242113 0 0.23171736158256739 -0.35959786430790308 0 0.24319884003366879 -0.36273371943134469 0 0.23825259648353331 -0.35422991567242113 0 0.24942294090057399 -0.3546029760840364 0 0.23825259648353331 -0.35422991567242113 0 0.24942294090057399 -0.3546029760840364 0 0.23952245736496069 -0.3449527794230241 0 0.24942294090057399 -0.3546029760840364 0 0.23952245736496069 -0.3449527794230241 0 0.23825259648353331 -0.35422991567242113 0 0.23952245736496069 -0.3449527794230241 0 0.2274013825358954 -0.34926223911579679 0 0.2274013825358954 -0.34926223911579679 0 0.2207038300205775 -0.35994551937622338 0 0.21525764062926711 -0.34513147305156938 0 0.23825259648353331 -0.35422991567242113 0 0.2274013825358954 -0.34926223911579679 0 0.23171736158256739 -0.35959786430790308 0 0.2274013825358954 -0.34926223911579679 0 0.23171736158256739 -0.35959786430790308 0 0.2207038300205775 -0.35994551937622338 0 0.2207038300205775 -0.35994551937622338 0 0.23205009544919999 -0.37064193732808948 0 0.21448738636817419 -0.37765068968408427 0 0.23171736158256739 -0.35959786430790308 0 0.2207038300205775 -0.35994551937622338 0 0.23205009544919999 -0.37064193732808948 0 0.20567809119854541 -0.35722163691591141 0 0.194433979608897 -0.37080449916529762 0 0.21448738636817419 -0.37765068968408427 0 0.2207038300205775 -0.35994551937622338 0 0.20567809119854541 -0.35722163691591141 0 0.21448738636817419 -0.37765068968408427 0 0.2207038300205775 -0.35994551937622338 0 0.20567809119854541 -0.35722163691591141 0 0.21525764062926711 -0.34513147305156938 0 0.20567809119854541 -0.35722163691591141 0 0.21525764062926711 -0.34513147305156938 0 0.20288625107630431 -0.34327728324223827 0 0.194433979608897 -0.37080449916529762 0 0.18629945948805141 -0.34652035697605632 0 0.20567809119854541 -0.35722163691591141 0 0.20288625107630431 -0.34327728324223827 0 0.18629945948805141 -0.34652035697605632 0 0.20567809119854541 -0.35722163691591141 0 0.194433979608897 -0.37080449916529762 0 0.18629945948805141 -0.34652035697605632 0 0.194433979608897 -0.37080449916529762 0 0.18489313814572911 -0.36545869362625649 0 0.18629945948805141 -0.34652035697605632 0 0.194433979608897 -0.37080449916529762 0 0.18489313814572911 -0.36545869362625649 0 0.18348681680340961 -0.384397030276457 0 0.223015074866274 -0.32886270797369938 0 0.20650769236758729 -0.31277263652437459 0 0.223015074866274 -0.32886270797369938 0 0.20650769236758729 -0.31277263652437459 0 0.20206851104214449 -0.32487661992928901 0 0.223015074866274 -0.32886270797369938 0 0.22114093301811269 -0.31387474065523169 0 0.20650769236758729 -0.31277263652437459 0 0.22079548420355261 -0.33491469967615661 0 0.20206851104214449 -0.32487661992928901 0 0.22079548420355261 -0.33491469967615661 0 0.20690318707368421 -0.33668121894598069 0 0.20206851104214449 -0.32487661992928901 0 0.22079548420355261 -0.33491469967615661 0 0.223015074866274 -0.32886270797369938 0 0.20206851104214449 -0.32487661992928901 0 0.22079548420355261 -0.33491469967615661 0 0.21525764062926711 -0.34513147305156938 0 0.20690318707368421 -0.33668121894598069 0 0.21525764062926711 -0.34513147305156938 0 0.20690318707368421 -0.33668121894598069 0 0.20288625107630431 -0.34327728324223827 0 0.197261458671732 -0.33459138802382338 0 0.18814988467847429 -0.32160146102555348 0 0.18629945948805141 -0.34652035697605632 0 0.197261458671732 -0.33459138802382338 0 0.20288625107630431 -0.34327728324223827 0 0.18629945948805141 -0.34652035697605632 0 0.20690318707368421 -0.33668121894598069 0 0.197261458671732 -0.33459138802382338 0 0.20206851104214449 -0.32487661992928901 0 0.20690318707368421 -0.33668121894598069 0 0.197261458671732 -0.33459138802382338 0 0.20288625107630431 -0.34327728324223827 0 0.18814988467847429 -0.32160146102555348 0 0.20206851104214449 -0.32487661992928901 0 0.1979939662810126 -0.31787892339110901 0 0.197261458671732 -0.33459138802382338 0 0.18814988467847429 -0.32160146102555348 0 0.20206851104214449 -0.32487661992928901 0 0.19524977703584431 -0.31226497608521869 0 0.20650769236758729 -0.31277263652437459 0 0.1979939662810126 -0.31787892339110901 0 0.20650769236758729 -0.31277263652437459 0 0.20206851104214449 -0.32487661992928901 0 0.1979939662810126 -0.31787892339110901 0 0.19524977703584431 -0.31226497608521869 0 0.18814988467847429 -0.32160146102555348 0 0.1979939662810126 -0.31787892339110901 0 0.18814988467847429 -0.32160146102555348 0 0.1819905436813358 -0.3156057998302052 0 0.17709083261314301 -0.31902966286308032 0 0.17709083261314301 -0.31902966286308032 0 0.17355493571975891 -0.32339880429240642 0 0.173725775942561 -0.33655624406920592 0 0.18814988467847429 -0.32160146102555348 0 0.1819905436813358 -0.3156057998302052 0 0.18535742278826711 -0.31083202996391729 0 0.1819905436813358 -0.3156057998302052 0 0.17709083261314301 -0.31902966286308032 0 0.17827368838754451 -0.31076447206674562 0 0.18814988467847429 -0.32160146102555348 0 0.18629945948805141 -0.34652035697605632 0 0.17709083261314301 -0.31902966286308032 0 0.18629945948805141 -0.34652035697605632 0 0.18814988467847429 -0.32160146102555348 0 0.17709083261314301 -0.31902966286308032 0 0.18629945948805141 -0.34652035697605632 0 0.17709083261314301 -0.31902966286308032 0 0.173725775942561 -0.33655624406920592 0 0.18629945948805141 -0.34652035697605632 0 0.17355493571975891 -0.32339880429240642 0 0.173725775942561 -0.33655624406920592 0 0.15996016232676341 -0.33442258738417241 0 0.173725775942561 -0.33655624406920592 0 0.15996016232676341 -0.33442258738417241 0 0.1717234895650871 -0.35940980883031443 0 0.17709083261314301 -0.31902966286308032 0 0.17355493571975891 -0.32339880429240642 0 0.16420460280662461 -0.29639146168617392 0 0.15996016232676341 -0.33442258738417241 0 0.16215620936171671 -0.31265683548603429 0 0.1481968350884397 -0.30943536593803028 0 0.17355493571975891 -0.32339880429240642 0 0.15996016232676341 -0.33442258738417241 0 0.16215620936171671 -0.31265683548603429 0 0.18489313814572911 -0.36545869362625649 0 0.1717234895650871 -0.35940980883031443 0 0.18348681680340961 -0.384397030276457 0 0.1717234895650871 -0.35940980883031443 0 0.18348681680340961 -0.384397030276457 0 0.16661440123803581 -0.37675163773035347 0 0.18489313814572911 -0.36545869362625649 0 0.18348681680340961 -0.384397030276457 0 0.1717234895650871 -0.35940980883031443 0 0.18348681680340961 -0.384397030276457 0 0.18489313814572911 -0.36545869362625649 0 0.18629945948805141 -0.34652035697605632 0 0.173725775942561 -0.33655624406920592 0 0.18629945948805141 -0.34652035697605632 0 0.1717234895650871 -0.35940980883031443 0 0.18489313814572911 -0.36545869362625649 0 0.18629945948805141 -0.34652035697605632 0 0.1717234895650871 -0.35940980883031443 0 0.15996016232676341 -0.33442258738417241 0 0.1717234895650871 -0.35940980883031443 0 0.15996016232676341 -0.33442258738417241 0 0.1571910461505511 -0.35616667416051412 0 0.1717234895650871 -0.35940980883031443 0 0.16162545616399959 -0.3660259497926312 0 0.15090057742010959 -0.37161699495860878 0 0.16661440123803581 -0.37675163773035347 0 0.1717234895650871 -0.35940980883031443 0 0.16162545616399959 -0.3660259497926312 0 0.16661440123803581 -0.37675163773035347 0 0.1571910461505511 -0.35616667416051412 0 0.1717234895650871 -0.35940980883031443 0 0.16162545616399959 -0.3660259497926312 0 0.1571910461505511 -0.35616667416051412 0 0.16162545616399959 -0.3660259497926312 0 0.15090057742010959 -0.37161699495860878 0 0.15090057742010959 -0.37161699495860878 0 0.13710829173513439 -0.3657552425186551 0 0.1349861405252463 -0.38177546980993587 0 0.15090057742010959 -0.37161699495860878 0 0.14170035135041159 -0.34925885265513529 0 0.13710829173513439 -0.3657552425186551 0 0.1571910461505511 -0.35616667416051412 0 0.15090057742010959 -0.37161699495860878 0 0.14170035135041159 -0.34925885265513529 0 0.15996016232676341 -0.33442258738417241 0 0.1571910461505511 -0.35616667416051412 0 0.14170035135041159 -0.34925885265513529 0 0.14170035135041159 -0.34925885265513529 0 0.13710829173513439 -0.3657552425186551 0 0.1208460976447702 -0.36036965265094051 0 0.14170035135041159 -0.34925885265513529 0 0.12262513419468279 -0.33114882781072941 0 0.1208460976447702 -0.36036965265094051 0 0.1349861405252463 -0.38177546980993587 0 0.1208460976447702 -0.36036965265094051 0 0.13710829173513439 -0.3657552425186551 0 0.1349861405252463 -0.38177546980993587 0 0.1208460976447702 -0.36036965265094051 0 0.15996016232676341 -0.33442258738417241 0 0.1481968350884397 -0.30943536593803028 0 0.15996016232676341 -0.33442258738417241 0 0.1406728633426137 -0.32736643084374151 0 0.1481968350884397 -0.30943536593803028 0 0.15996016232676341 -0.33442258738417241 0 0.14170035135041159 -0.34925885265513529 0 0.1406728633426137 -0.32736643084374151 0 0.14170035135041159 -0.34925885265513529 0 0.1406728633426137 -0.32736643084374151 0 0.12262513419468279 -0.33114882781072941 0 0.1406728633426137 -0.32736643084374151 0 0.1481968350884397 -0.30943536593803028 0 0.1216191951753916 -0.30930962589134381 0 0.1406728633426137 -0.32736643084374151 0 0.1216191951753916 -0.30930962589134381 0 0.12262513419468279 -0.33114882781072941 0 0.1481968350884397 -0.30943536593803028 0 0.1364335078501159 -0.28444814449188832 0 0.1216191951753916 -0.30930962589134381 0 0.1481968350884397 -0.30943536593803028 0 0.1364335078501159 -0.28444814449188832 0 0.1481968350884397 -0.30943536593803028 0 0.1499681434471769 -0.29498316450405299 0 0.15640861181833021 -0.30104193011461972 0 0.16215620936171671 -0.31265683548603429 0 0.1481968350884397 -0.30943536593803028 0 0.15640861181833021 -0.30104193011461972 0 0.1481968350884397 -0.30943536593803028 0 0.1499681434471769 -0.29498316450405299 0 0.1364335078501159 -0.28444814449188832 0 0.14893234047399759 -0.28545756402499889 0 0.15450052503337369 -0.29145889154394211 0 0.1529889266207396 -0.27942033738986483 0 0.14893234047399759 -0.28545756402499889 0 0.1499681434471769 -0.29498316450405299 0 0.15450052503337369 -0.29145889154394211 0 0.1499681434471769 -0.29498316450405299 0 0.15450052503337369 -0.29145889154394211 0 0.15640861181833021 -0.30104193011461972 0 0.14893234047399759 -0.28545756402499889 0 0.1364335078501159 -0.28444814449188832 0 0.14451680905726319 -0.27718405759581999 0 0.14893234047399759 -0.28545756402499889 0 0.1499681434471769 -0.29498316450405299 0 0.1364335078501159 -0.28444814449188832 0 0.1364335078501159 -0.28444814449188832 0 0.1371422946026957 -0.2707606629081149 0 0.11833535072591279 -0.266438350319673 0 0.1371422946026957 -0.2707606629081149 0 0.1371458790726231 -0.26275748701235868 0 0.11833535072591279 -0.266438350319673 0 0.1371422946026957 -0.2707606629081149 0 0.1371458790726231 -0.26275748701235868 0 0.1456365825186928 -0.26853907450713421 0 0.1364335078501159 -0.28444814449188832 0 0.1371422946026957 -0.2707606629081149 0 0.14451680905726319 -0.27718405759581999 0 0.13953105822987491 -0.25028402685060758 0 0.11833535072591279 -0.266438350319673 0 0.1371458790726231 -0.26275748701235868 0 0.13953105822987491 -0.25028402685060758 0 0.11833535072591279 -0.266438350319673 0 0.13953105822987491 -0.25028402685060758 0 0.11833535072591279 -0.266438350319673 0 0.12307433225321859 -0.24857721426736179 0 0.1371458790726231 -0.26275748701235868 0 0.13953105822987491 -0.25028402685060758 0 0.14508410928593959 -0.25776532047626421 0 0.1548542698934903 -0.26938411907994159 0 0.15867357886332381 -0.26404827463712938 0 0.14550393698035599 -0.24237677647370909 0 0.14508410928593959 -0.25776532047626421 0 0.1548542698934903 -0.26938411907994159 0 0.14550393698035599 -0.24237677647370909 0 0.15867357886332381 -0.26404827463712938 0 0.1494649519884142 -0.2365575805241539 0 0.1548542698934903 -0.26938411907994159 0 0.14550393698035599 -0.24237677647370909 0 0.13953105822987491 -0.25028402685060758 0 0.14508410928593959 -0.25776532047626421 0 0.14550393698035599 -0.24237677647370909 0 0.1371458790726231 -0.26275748701235868 0 0.14508410928593959 -0.25776532047626421 0 0.1456365825186928 -0.26853907450713421 0 0.14508410928593959 -0.25776532047626421 0 0.1456365825186928 -0.26853907450713421 0 0.1548542698934903 -0.26938411907994159 0 0.14451680905726319 -0.27718405759581999 0 0.1456365825186928 -0.26853907450713421 0 0.1529889266207396 -0.27942033738986483 0 0.1371422946026957 -0.2707606629081149 0 0.14451680905726319 -0.27718405759581999 0 0.1456365825186928 -0.26853907450713421 0 0.1456365825186928 -0.26853907450713421 0 0.1548542698934903 -0.26938411907994159 0 0.1529889266207396 -0.27942033738986483 0 0.14893234047399759 -0.28545756402499889 0 0.14451680905726319 -0.27718405759581999 0 0.1529889266207396 -0.27942033738986483 0 0.1548542698934903 -0.26938411907994159 0 0.15867357886332381 -0.26404827463712938 0 0.1678822057382334 -0.29153896875010482 0 0.16168415962098789 -0.26908225468695679 0 0.15867357886332381 -0.26404827463712938 0 0.1678822057382334 -0.29153896875010482 0 0.15867357886332381 -0.26404827463712938 0 0.1678822057382334 -0.29153896875010482 0 0.16168415962098789 -0.26908225468695679 0 0.15867357886332381 -0.26404827463712938 0 0.1646169099815539 -0.26439160860798527 0 0.16168415962098789 -0.26908225468695679 0 0.16976753061902669 -0.26976515383799538 0 0.1646169099815539 -0.26439160860798527 0 0.16168415962098789 -0.26908225468695679 0 0.16976753061902669 -0.26976515383799538 0 0.17584223474494429 -0.28288240988100338 0 0.16168415962098789 -0.26908225468695679 0 0.17584223474494429 -0.28288240988100338 0 0.16968880924500901 -0.2833533069445871 0 0.16168415962098789 -0.26908225468695679 0 0.17584223474494429 -0.28288240988100338 0 0.16151684879227951 -0.2504272094540565 0 0.15867357886332381 -0.26404827463712938 0 0.1494649519884142 -0.2365575805241539 0 0.16151684879227951 -0.2504272094540565 0 0.15867357886332381 -0.26404827463712938 0 0.1648171259142609 -0.25866527385340249 0 0.15867357886332381 -0.26404827463712938 0 0.1646169099815539 -0.26439160860798527 0 0.1648171259142609 -0.25866527385340249 0 0.1706224306686408 -0.26191270156479463 0 0.1648171259142609 -0.25866527385340249 0 0.1688541313086471 -0.2531807176536105 0 0.16976753061902669 -0.26976515383799538 0 0.1646169099815539 -0.26439160860798527 0 0.1706224306686408 -0.26191270156479463 0 0.1646169099815539 -0.26439160860798527 0 0.1706224306686408 -0.26191270156479463 0 0.1648171259142609 -0.25866527385340249 0 0.16151684879227951 -0.2504272094540565 0 0.1648171259142609 -0.25866527385340249 0 0.1688541313086471 -0.2531807176536105 0 0.19034018279028611 -0.2570382396244843 0 0.1801763538622809 -0.26397624594207769 0 0.18648742116689351 -0.27294791201644392 0 0.1688541313086471 -0.2531807176536105 0 0.17734641617266039 -0.25326039426792291 0 0.17053504618157159 -0.245166152055523 0 0.1706224306686408 -0.26191270156479463 0 0.1688541313086471 -0.2531807176536105 0 0.17734641617266039 -0.25326039426792291 0 0.1706224306686408 -0.26191270156479463 0 0.1801763538622809 -0.26397624594207769 0 0.1760719180790068 -0.27055679444923669 0 0.1706224306686408 -0.26191270156479463 0 0.17734641617266039 -0.25326039426792291 0 0.1801763538622809 -0.26397624594207769 0 0.19034018279028611 -0.2570382396244843 0 0.17734641617266039 -0.25326039426792291 0 0.1801763538622809 -0.26397624594207769 0 0.19034018279028611 -0.2570382396244843 0 0.17734641617266039 -0.25326039426792291 0 0.18151872860292839 -0.2423147903487417 0 0.16976753061902669 -0.26976515383799538 0 0.1760719180790068 -0.27055679444923669 0 0.17584223474494429 -0.28288240988100338 0 0.1760719180790068 -0.27055679444923669 0 0.18648742116689351 -0.27294791201644392 0 0.17584223474494429 -0.28288240988100338 0 0.16976753061902669 -0.26976515383799538 0 0.1706224306686408 -0.26191270156479463 0 0.1760719180790068 -0.27055679444923669 0 0.1801763538622809 -0.26397624594207769 0 0.1760719180790068 -0.27055679444923669 0 0.18648742116689351 -0.27294791201644392 0 0.18648742116689351 -0.27294791201644392 0 0.18612713964144831 -0.28235352216073212 0 0.17584223474494429 -0.28288240988100338 0 0.18612713964144831 -0.28235352216073212 0 0.17584223474494429 -0.28288240988100338 0 0.18700941239599889 -0.29009272502672911 0 0.17584223474494429 -0.28288240988100338 0 0.17334663687587071 -0.28990959446028342 0 0.17791352940572511 -0.29383851832768321 0 0.17584223474494429 -0.28288240988100338 0 0.17334663687587071 -0.28990959446028342 0 0.16968880924500901 -0.2833533069445871 0 0.17584223474494429 -0.28288240988100338 0 0.17791352940572511 -0.29383851832768321 0 0.18309108262274179 -0.29455516932642573 0 0.17446835319659121 -0.29521334469220872 0 0.17558916104192149 -0.30324927930795098 0 0.1678822057382334 -0.29153896875010482 0 0.17446835319659121 -0.29521334469220872 0 0.17334663687587071 -0.28990959446028342 0 0.17791352940572511 -0.29383851832768321 0 0.17446835319659121 -0.29521334469220872 0 0.17334663687587071 -0.28990959446028342 0 0.1678822057382334 -0.29153896875010482 0 0.17791352940572511 -0.29383851832768321 0 0.18198042709835061 -0.2975521818587587 0 0.17834441149444091 -0.29892978124905301 0 0.17446835319659121 -0.29521334469220872 0 0.17791352940572511 -0.29383851832768321 0 0.17834441149444091 -0.29892978124905301 0 0.1900003098688996 -0.29668256507505097 0 0.17584223474494429 -0.28288240988100338 0 0.18700941239599889 -0.29009272502672911 0 0.1900003098688996 -0.29668256507505097 0 0.17584223474494429 -0.28288240988100338 0 0.18309108262274179 -0.29455516932642573 0 0.1900003098688996 -0.29668256507505097 0 0.17584223474494429 -0.28288240988100338 0 0.17791352940572511 -0.29383851832768321 0 0.18309108262274179 -0.29455516932642573 0 0.18198042709835061 -0.2975521818587587 0 0.1900003098688996 -0.29668256507505097 0 0.18309108262274179 -0.29455516932642573 0 0.1865303495863084 -0.29782763912686339 0 0.1900003098688996 -0.29668256507505097 0 0.18666692697882159 -0.30142219718517499 0 0.18535742278826711 -0.31083202996391729 0 0.17709083261314301 -0.31902966286308032 0 0.17558916104192149 -0.30324927930795098 0 0.1678822057382334 -0.29153896875010482 0 0.17709083261314301 -0.31902966286308032 0 0.17827368838754451 -0.31076447206674562 0 0.17558916104192149 -0.30324927930795098 0 0.18309108262274179 -0.29455516932642573 0 0.1865303495863084 -0.29782763912686339 0 0.18482766679143819 -0.29889646454342239 0 0.18482766679143819 -0.29889646454342239 0 0.18415991558368969 -0.30322393134535142 0 0.18274175515971411 -0.30007516958101799 0 0.17709083261314301 -0.31902966286308032 0 0.1678822057382334 -0.29153896875010482 0 0.1865303495863084 -0.29782763912686339 0 0.18482766679143819 -0.29889646454342239 0 0.18666692697882159 -0.30142219718517499 0 0.18482766679143819 -0.29889646454342239 0 0.18666692697882159 -0.30142219718517499 0 0.18415991558368969 -0.30322393134535142 0 0.18415991558368969 -0.30322393134535142 0 0.1823350767115926 -0.30291977500675399 0 0.18274175515971411 -0.30007516958101799 0 0.1823350767115926 -0.30291977500675399 0 0.18016551729845631 -0.30259795159307579 0 0.18274175515971411 -0.30007516958101799 0 0.18415991558368969 -0.30322393134535142 0 0.1823350767115926 -0.30291977500675399 0 0.18227311880451019 -0.30578204750757088 0 0.1823350767115926 -0.30291977500675399 0 0.18016551729845631 -0.30259795159307579 0 0.18227311880451019 -0.30578204750757088 0 0.18016551729845631 -0.30259795159307579 0 0.18274175515971411 -0.30007516958101799 0 0.17834441149444091 -0.29892978124905301 0 0.18198042709835061 -0.2975521818587587 0 0.18274175515971411 -0.30007516958101799 0 0.17834441149444091 -0.29892978124905301 0 0.18309108262274179 -0.29455516932642573 0 0.18482766679143819 -0.29889646454342239 0 0.18198042709835061 -0.2975521818587587 0 0.18482766679143819 -0.29889646454342239 0 0.18198042709835061 -0.2975521818587587 0 0.18274175515971411 -0.30007516958101799 0 0.18666692697882159 -0.30142219718517499 0 0.18415991558368969 -0.30322393134535142 0 0.18535742278826711 -0.31083202996391729 0 0.18415991558368969 -0.30322393134535142 0 0.18535742278826711 -0.31083202996391729 0 0.18227311880451019 -0.30578204750757088 0 0.18535742278826711 -0.31083202996391729 0 0.18227311880451019 -0.30578204750757088 0 0.179666516535507 -0.30712326784593902 0 0.18016551729845631 -0.30259795159307579 0 0.18227311880451019 -0.30578204750757088 0 0.179666516535507 -0.30712326784593902 0 0.18535742278826711 -0.31083202996391729 0 0.17827368838754451 -0.31076447206674562 0 0.179666516535507 -0.30712326784593902 0 0.1819905436813358 -0.3156057998302052 0 0.18535742278826711 -0.31083202996391729 0 0.17827368838754451 -0.31076447206674562 0 0.17827368838754451 -0.31076447206674562 0 0.179666516535507 -0.30712326784593902 0 0.17747547482157619 -0.30401944622651389 0 0.17827368838754451 -0.31076447206674562 0 0.17747547482157619 -0.30401944622651389 0 0.17558916104192149 -0.30324927930795098 0 0.17446835319659121 -0.29521334469220872 0 0.17834441149444091 -0.29892978124905301 0 0.17558916104192149 -0.30324927930795098 0 0.17834441149444091 -0.29892978124905301 0 0.17747547482157619 -0.30401944622651389 0 0.17558916104192149 -0.30324927930795098 0 0.18016551729845631 -0.30259795159307579 0 0.17834441149444091 -0.29892978124905301 0 0.17747547482157619 -0.30401944622651389 0 0.18016551729845631 -0.30259795159307579 0 0.179666516535507 -0.30712326784593902 0 0.17747547482157619 -0.30401944622651389 0 0.17355493571975891 -0.32339880429240642 0 0.16420460280662461 -0.29639146168617392 0 0.17709083261314301 -0.31902966286308032 0 0.16420460280662461 -0.29639146168617392 0 0.1678822057382334 -0.29153896875010482 0 0.16215620936171671 -0.31265683548603429 0 0.15640861181833021 -0.30104193011461972 0 0.16420460280662461 -0.29639146168617392 0 0.17355493571975891 -0.32339880429240642 0 0.16215620936171671 -0.31265683548603429 0 0.16420460280662461 -0.29639146168617392 0 0.15450052503337369 -0.29145889154394211 0 0.15640861181833021 -0.30104193011461972 0 0.16420460280662461 -0.29639146168617392 0 0.15450052503337369 -0.29145889154394211 0 0.1529889266207396 -0.27942033738986483 0 0.16420460280662461 -0.29639146168617392 0 0.1548542698934903 -0.26938411907994159 0 0.16420460280662461 -0.29639146168617392 0 0.1548542698934903 -0.26938411907994159 0 0.1529889266207396 -0.27942033738986483 0 0.16420460280662461 -0.29639146168617392 0 0.16168415962098789 -0.26908225468695679 0 0.16968880924500901 -0.2833533069445871 0 0.1678822057382334 -0.29153896875010482 0 0.1548542698934903 -0.26938411907994159 0 0.16420460280662461 -0.29639146168617392 0 0.1678822057382334 -0.29153896875010482 0 0.17334663687587071 -0.28990959446028342 0 0.16968880924500901 -0.2833533069445871 0 0.1678822057382334 -0.29153896875010482 0 0.19755419318176509 -0.49999999999999778 0 0.19266965140911951 -0.48655855198390818 0 0.18113090628917239 -0.5 0 0.19266965140911951 -0.48655855198390818 0 0.2135595756287148 -0.4824698756278667 0 0.19755419318176509 -0.49999999999999778 0 0.19266965140911951 -0.48655855198390818 0 0.2042584083530235 -0.4901493381277009 0 0.19755419318176509 -0.49999999999999778 0 0.19266965140911951 -0.48655855198390818 0 0.19266965140911951 -0.48655855198390818 0 0.18886736020187281 -0.47609527784623101 0 0.20073282139327001 -0.47450813233274169 0 0.18886736020187281 -0.47609527784623101 0 0.20073282139327001 -0.47450813233274169 0 0.20531314851433141 -0.45982308339773131 0 0.19266965140911951 -0.48655855198390818 0 0.18886736020187281 -0.47609527784623101 0 0.19266965140911951 -0.48655855198390818 0 0.20073282139327001 -0.47450813233274169 0 0.20791030631700619 -0.47645482237992232 0 0.20791030631700619 -0.47645482237992232 0 0.21624177802864719 -0.47572412938757291 0 0.20531314851433141 -0.45982308339773131 0 0.20073282139327001 -0.47450813233274169 0 0.20791030631700619 -0.47645482237992232 0 0.20531314851433141 -0.45982308339773131 0 0.19266965140911951 -0.48655855198390818 0 0.20791030631700619 -0.47645482237992232 0 0.2135595756287148 -0.4824698756278667 0 0.21624177802864719 -0.47572412938757291 0 0.2135595756287148 -0.4824698756278667 0 0.222953070911274 -0.473765716562144 0 0.20791030631700619 -0.47645482237992232 0 0.21624177802864719 -0.47572412938757291 0 0.2135595756287148 -0.4824698756278667 0 0.2135595756287148 -0.4824698756278667 0 0.21224642480049249 -0.49222871027830201 0 0.22565333005585941 -0.48930916841904842 0 0.19755419318176509 -0.49999999999999778 0 0.21224642480049249 -0.49222871027830201 0 0.21796362221124391 -0.5 0 0.19266965140911951 -0.48655855198390818 0 0.2135595756287148 -0.4824698756278667 0 0.2042584083530235 -0.4901493381277009 0 0.2135595756287148 -0.4824698756278667 0 0.2042584083530235 -0.4901493381277009 0 0.21224642480049249 -0.49222871027830201 0 0.19755419318176509 -0.49999999999999778 0 0.2042584083530235 -0.4901493381277009 0 0.21224642480049249 -0.49222871027830201 0 0.21224642480049249 -0.49222871027830201 0 0.21796362221124391 -0.5 0 0.22565333005585941 -0.48930916841904842 0 0.21796362221124391 -0.5 0 0.22565333005585941 -0.48930916841904842 0 0.23837305124072261 -0.5 0 0.22565333005585941 -0.48930916841904842 0 0.2364009441126218 -0.48897129961568442 0 0.23444949984831009 -0.47838119927182549 0 0.22565333005585941 -0.48930916841904842 0 0.23837305124072261 -0.5 0 0.2364009441126218 -0.48897129961568442 0 0.25878248027020129 -0.50000000000000089 0 0.23837305124072261 -0.5 0 0.24582689742997141 -0.48780682716811641 0 0.23837305124072261 -0.5 0 0.2364009441126218 -0.48897129961568442 0 0.24582689742997141 -0.48780682716811641 0 0.2364009441126218 -0.48897129961568442 0 0.24582689742997141 -0.48780682716811641 0 0.23444949984831009 -0.47838119927182549 0 0.25533942406790539 -0.4742925229157845 0 0.23444949984831009 -0.47838119927182549 0 0.25533942406790539 -0.4742925229157845 0 0.23444949984831009 -0.47838119927182549 0 0.24255698423928629 -0.4652872552104873 0 0.25533942406790539 -0.4742925229157845 0 0.24582689742997141 -0.48780682716811641 0 0.23444949984831009 -0.47838119927182549 0 0.23444949984831009 -0.47838119927182549 0 0.22701778744781259 -0.4680775786920861 0 0.24255698423928629 -0.4652872552104873 0 0.2135595756287148 -0.4824698756278667 0 0.22565333005585941 -0.48930916841904842 0 0.23444949984831009 -0.47838119927182549 0 0.2135595756287148 -0.4824698756278667 0 0.23444949984831009 -0.47838119927182549 0 0.222953070911274 -0.473765716562144 0 0.23444949984831009 -0.47838119927182549 0 0.222953070911274 -0.473765716562144 0 0.22701778744781259 -0.4680775786920861 0 0.2135595756287148 -0.4824698756278667 0 0.23444949984831009 -0.47838119927182549 0 0.222953070911274 -0.473765716562144 0 0.22701778744781259 -0.4680775786920861 0 0.2181166589711685 -0.46746909588536922 0 0.21624177802864719 -0.47572412938757291 0 0.222953070911274 -0.473765716562144 0 0.2181166589711685 -0.46746909588536922 0 0.21905750995377779 -0.45995497138731212 0 0.22701778744781259 -0.4680775786920861 0 0.21953809053606571 -0.44574829305028052 0 0.21905750995377779 -0.45995497138731212 0 0.22701778744781259 -0.4680775786920861 0 0.2181166589711685 -0.46746909588536922 0 0.22701778744781259 -0.4680775786920861 0 0.2348853723300339 -0.45302476476329823 0 0.21953809053606571 -0.44574829305028052 0 0.22701778744781259 -0.4680775786920861 0 0.21953809053606571 -0.44574829305028052 0 0.22701778744781259 -0.4680775786920861 0 0.24255698423928629 -0.4652872552104873 0 0.2348853723300339 -0.45302476476329823 0 0.24559505041163859 -0.45532746190222317 0 0.24255698423928629 -0.4652872552104873 0 0.2348853723300339 -0.45302476476329823 0 0.25611344061023389 -0.45967818946234368 0 0.24559505041163859 -0.45532746190222317 0 0.24255698423928629 -0.4652872552104873 0 0.24882440446700019 -0.44331963817276387 0 0.22975277540435821 -0.4356414295026711 0 0.24882440446700019 -0.44331963817276387 0 0.2348853723300339 -0.45302476476329823 0 0.22916632024823069 -0.44526397796163469 0 0.24882440446700019 -0.44331963817276387 0 0.22916632024823069 -0.44526397796163469 0 0.22975277540435821 -0.4356414295026711 0 0.24559505041163859 -0.45532746190222317 0 0.24882440446700019 -0.44331963817276387 0 0.2348853723300339 -0.45302476476329823 0 0.2348853723300339 -0.45302476476329823 0 0.22916632024823069 -0.44526397796163469 0 0.21953809053606571 -0.44574829305028052 0 0.21953809053606571 -0.44574829305028052 0 0.22975277540435821 -0.4356414295026711 0 0.22916632024823069 -0.44526397796163469 0 0.21953809053606571 -0.44574829305028052 0 0.22975277540435821 -0.4356414295026711 0 0.21953809053606571 -0.44574829305028052 0 0.21403254834491461 -0.42931249014949541 0 0.21464745770349031 -0.45058730270527642 0 0.20243341997079839 -0.42464269881939559 0 0.21464745770349031 -0.45058730270527642 0 0.20531314851433141 -0.45982308339773131 0 0.19525364437377499 -0.4451866060823837 0 0.21953809053606571 -0.44574829305028052 0 0.21464745770349031 -0.45058730270527642 0 0.21403254834491461 -0.42931249014949541 0 0.21905750995377779 -0.45995497138731212 0 0.21953809053606571 -0.44574829305028052 0 0.21464745770349031 -0.45058730270527642 0 0.21953809053606571 -0.44574829305028052 0 0.21464745770349031 -0.45058730270527642 0 0.21905750995377779 -0.45995497138731212 0 0.21464745770349031 -0.45058730270527642 0 0.21905750995377779 -0.45995497138731212 0 0.21464745770349031 -0.45058730270527642 0 0.20531314851433141 -0.45982308339773131 0 0.21624177802864719 -0.47572412938757291 0 0.2181166589711685 -0.46746909588536922 0 0.20531314851433141 -0.45982308339773131 0 0.21624177802864719 -0.47572412938757291 0 0.20531314851433141 -0.45982308339773131 0 0.21905750995377779 -0.45995497138731212 0 0.2181166589711685 -0.46746909588536922 0 0.20531314851433141 -0.45982308339773131 0 0.21464745770349031 -0.45058730270527642 0 0.20531314851433141 -0.45982308339773131 0 0.18886736020187281 -0.47609527784623101 0 0.20531314851433141 -0.45982308339773131 0 0.17874579262012291 -0.44824240426590051 0 0.18886736020187281 -0.47609527784623101 0 0.20531314851433141 -0.45982308339773131 0 0.21464745770349031 -0.45058730270527642 0 0.19525364437377499 -0.4451866060823837 0 0.19818156753439439 -0.43460492275521823 0 0.20531314851433141 -0.45982308339773131 0 0.19525364437377499 -0.4451866060823837 0 0.17874579262012291 -0.44824240426590051 0 0.19525364437377499 -0.4451866060823837 0 0.18519414023321731 -0.43055012876703702 0 0.20531314851433141 -0.45982308339773131 0 0.19525364437377499 -0.4451866060823837 0 0.20047523901352479 -0.42385433816313728 0 0.18056025043946189 -0.42380786573892038 0 0.18519414023321731 -0.43055012876703702 0 0.20047523901352479 -0.42385433816313728 0 0.20243341997079839 -0.42464269881939559 0 0.19818156753439439 -0.43460492275521823 0 0.20047523901352479 -0.42385433816313728 0 0.20243341997079839 -0.42464269881939559 0 0.19525364437377499 -0.4451866060823837 0 0.19818156753439439 -0.43460492275521823 0 0.18519414023321731 -0.43055012876703702 0 0.20047523901352479 -0.42385433816313728 0 0.19818156753439439 -0.43460492275521823 0 0.18519414023321731 -0.43055012876703702 0 0.20047523901352479 -0.42385433816313728 0 0.18519414023321731 -0.43055012876703702 0 0.20047523901352479 -0.42385433816313728 0 0.19263885196073771 -0.40383744237465741 0 0.1811349977048391 -0.41606798661392208 0 0.20047523901352479 -0.42385433816313728 0 0.20243341997079839 -0.42464269881939559 0 0.19263885196073771 -0.40383744237465741 0 0.20243341997079839 -0.42464269881939559 0 0.19263885196073771 -0.40383744237465741 0 0.20047523901352479 -0.42385433816313728 0 0.1811349977048391 -0.41606798661392208 0 0.20243341997079839 -0.42464269881939559 0 0.20188085264448849 -0.41136102619139242 0 0.19263885196073771 -0.40383744237465741 0 0.20188085264448849 -0.41136102619139242 0 0.21070301985058659 -0.4193727835437806 0 0.20256849972974131 -0.39508864135453919 0 0.21070301985058659 -0.4193727835437806 0 0.20256849972974131 -0.39508864135453919 0 0.20243341997079839 -0.42464269881939559 0 0.20188085264448849 -0.41136102619139242 0 0.21070301985058659 -0.4193727835437806 0 0.21464745770349031 -0.45058730270527642 0 0.20243341997079839 -0.42464269881939559 0 0.19818156753439439 -0.43460492275521823 0 0.21464745770349031 -0.45058730270527642 0 0.20243341997079839 -0.42464269881939559 0 0.21403254834491461 -0.42931249014949541 0 0.21070301985058659 -0.4193727835437806 0 0.21403254834491461 -0.42931249014949541 0 0.21070301985058659 -0.4193727835437806 0 0.21403254834491461 -0.42931249014949541 0 0.2272205702860649 -0.4212339810298979 0 0.20243341997079839 -0.42464269881939559 0 0.21070301985058659 -0.4193727835437806 0 0.21403254834491461 -0.42931249014949541 0 0.20243341997079839 -0.42464269881939559 0 0.21070301985058659 -0.4193727835437806 0 0.20243341997079839 -0.42464269881939559 0 0.21403254834491461 -0.42931249014949541 0 0.21403254834491461 -0.42931249014949541 0 0.22975277540435821 -0.4356414295026711 0 0.2272205702860649 -0.4212339810298979 0 0.21403254834491461 -0.42931249014949541 0 0.22975277540435821 -0.4356414295026711 0 0.21953809053606571 -0.44574829305028052 0 0.21403254834491461 -0.42931249014949541 0 0.22975277540435821 -0.4356414295026711 0 0.22975277540435821 -0.4356414295026711 0 0.2467392420549577 -0.43084486699066021 0 0.24980685452307649 -0.4157990316373063 0 0.24882440446700019 -0.44331963817276387 0 0.22975277540435821 -0.4356414295026711 0 0.2467392420549577 -0.43084486699066021 0 0.22975277540435821 -0.4356414295026711 0 0.24980685452307649 -0.4157990316373063 0 0.2272205702860649 -0.4212339810298979 0 0.22975277540435821 -0.4356414295026711 0 0.24980685452307649 -0.4157990316373063 0 0.24980685452307649 -0.4157990316373063 0 0.23517830519226879 -0.40864833316396942 0 0.2272205702860649 -0.4212339810298979 0 0.24980685452307649 -0.4157990316373063 0 0.23517830519226879 -0.40864833316396942 0 0.24841567224323641 -0.40452060049792882 0 0.21070301985058659 -0.4193727835437806 0 0.23517830519226879 -0.40864833316396942 0 0.2182225409562859 -0.40195414360892717 0 0.21070301985058659 -0.4193727835437806 0 0.23517830519226879 -0.40864833316396942 0 0.2272205702860649 -0.4212339810298979 0 0.21070301985058659 -0.4193727835437806 0 0.23517830519226879 -0.40864833316396942 0 0.23517830519226879 -0.40864833316396942 0 0.2294041788979487 -0.38799171831682261 0 0.2182225409562859 -0.40195414360892717 0 0.25965359053394632 -0.39792388278414781 0 0.23517830519226879 -0.40864833316396942 0 0.24841567224323641 -0.40452060049792882 0 0.25965359053394632 -0.39792388278414781 0 0.23517830519226879 -0.40864833316396942 0 0.25965359053394632 -0.39792388278414781 0 0.23517830519226879 -0.40864833316396942 0 0.2438270059657571 -0.39509544328716378 0 0.23517830519226879 -0.40864833316396942 0 0.2438270059657571 -0.39509544328716378 0 0.2294041788979487 -0.38799171831682261 0 0.25201201578982008 -0.37587874638716962 0 0.2294041788979487 -0.38799171831682261 0 0.25201201578982008 -0.37587874638716962 0 0.2438270059657571 -0.39509544328716378 0 0.2294041788979487 -0.38799171831682261 0 0.25201201578982008 -0.37587874638716962 0 0.23205009544919999 -0.37064193732808948 0 0.2294041788979487 -0.38799171831682261 0 0.2294041788979487 -0.38799171831682261 0 0.21448738636817419 -0.37765068968408427 0 0.2182225409562859 -0.40195414360892717 0 0.23205009544919999 -0.37064193732808948 0 0.2294041788979487 -0.38799171831682261 0 0.21448738636817419 -0.37765068968408427 0 0.194433979608897 -0.37080449916529762 0 0.21448738636817419 -0.37765068968408427 0 0.20256849972974131 -0.39508864135453919 0 0.21070301985058659 -0.4193727835437806 0 0.2182225409562859 -0.40195414360892717 0 0.20256849972974131 -0.39508864135453919 0 0.21448738636817419 -0.37765068968408427 0 0.2182225409562859 -0.40195414360892717 0 0.20256849972974131 -0.39508864135453919 0 0.19263885196073771 -0.40383744237465741 0 0.18348681680340961 -0.384397030276457 0 0.19263885196073771 -0.40383744237465741 0 0.20256849972974131 -0.39508864135453919 0 0.18348681680340961 -0.384397030276457 0 0.20188085264448849 -0.41136102619139242 0 0.19263885196073771 -0.40383744237465741 0 0.20256849972974131 -0.39508864135453919 0 0.194433979608897 -0.37080449916529762 0 0.20256849972974131 -0.39508864135453919 0 0.194433979608897 -0.37080449916529762 0 0.20256849972974131 -0.39508864135453919 0 0.18348681680340961 -0.384397030276457 0 0.18348681680340961 -0.384397030276457 0 0.17143791595447061 -0.3927179645160872 0 0.16661440123803581 -0.37675163773035347 0 0.18348681680340961 -0.384397030276457 0 0.18231090725412299 -0.40023250844518943 0 0.17143791595447061 -0.3927179645160872 0 0.19263885196073771 -0.40383744237465741 0 0.18348681680340961 -0.384397030276457 0 0.18231090725412299 -0.40023250844518943 0 0.18348681680340961 -0.384397030276457 0 0.18231090725412299 -0.40023250844518943 0 0.18231090725412299 -0.40023250844518943 0 0.17365675135160369 -0.40354501022158967 0 0.17143791595447061 -0.3927179645160872 0 0.15777061241857041 -0.39052219069623079 0 0.1491261834057227 -0.40318128696893141 0 0.16464064741702869 -0.40942738643385368 0 0.17143791595447061 -0.3927179645160872 0 0.1647880066610827 -0.40085940972670309 0 0.15777061241857041 -0.39052219069623079 0 0.15777061241857041 -0.39052219069623079 0 0.16464064741702869 -0.40942738643385368 0 0.1647880066610827 -0.40085940972670309 0 0.15777061241857041 -0.39052219069623079 0 0.16464064741702869 -0.40942738643385368 0 0.17365675135160369 -0.40354501022158967 0 0.17143791595447061 -0.3927179645160872 0 0.1647880066610827 -0.40085940972670309 0 0.17365675135160369 -0.40354501022158967 0 0.1647880066610827 -0.40085940972670309 0 0.17298581476111399 -0.41278713803369632 0 0.15090057742010959 -0.37161699495860878 0 0.15777061241857041 -0.39052219069623079 0 0.16661440123803581 -0.37675163773035347 0 0.17143791595447061 -0.3927179645160872 0 0.15777061241857041 -0.39052219069623079 0 0.16661440123803581 -0.37675163773035347 0 0.15090057742010959 -0.37161699495860878 0 0.15777061241857041 -0.39052219069623079 0 0.15090057742010959 -0.37161699495860878 0 0.14735433478012869 -0.38360654098470798 0 0.1349861405252463 -0.38177546980993587 0 0.15090057742010959 -0.37161699495860878 0 0.15777061241857041 -0.39052219069623079 0 0.14735433478012869 -0.38360654098470798 0 0.15777061241857041 -0.39052219069623079 0 0.1473093177824171 -0.38977137211495139 0 0.14735433478012869 -0.38360654098470798 0 0.1473093177824171 -0.38977137211495139 0 0.14735433478012869 -0.38360654098470798 0 0.1349861405252463 -0.38177546980993587 0 0.1349861405252463 -0.38177546980993587 0 0.1259451657338862 -0.38904291765868682 0 0.1154102007289585 -0.37612636257455873 0 0.1349861405252463 -0.38177546980993587 0 0.1259451657338862 -0.38904291765868682 0 0.13458133650844789 -0.39140734302674851 0 0.1349861405252463 -0.38177546980993587 0 0.13458133650844789 -0.39140734302674851 0 0.1491261834057227 -0.40318128696893141 0 0.1259451657338862 -0.38904291765868682 0 0.12906541510633071 -0.39846060922434801 0 0.13458133650844789 -0.39140734302674851 0 0.1259451657338862 -0.38904291765868682 0 0.12906541510633071 -0.39846060922434801 0 0.1221004376042758 -0.39781216448263812 0 0.12906541510633071 -0.39846060922434801 0 0.13458133650844789 -0.39140734302674851 0 0.13909265992711789 -0.39914180577348812 0 0.13909265992711789 -0.39914180577348812 0 0.1491261834057227 -0.40318128696893141 0 0.1349861405252463 -0.38177546980993587 0 0.1491261834057227 -0.40318128696893141 0 0.1473093177824171 -0.38977137211495139 0 0.1349861405252463 -0.38177546980993587 0 0.1491261834057227 -0.40318128696893141 0 0.13458133650844789 -0.39140734302674851 0 0.13909265992711789 -0.39914180577348812 0 0.1491261834057227 -0.40318128696893141 0 0.15777061241857041 -0.39052219069623079 0 0.1473093177824171 -0.38977137211495139 0 0.1491261834057227 -0.40318128696893141 0 0.1491261834057227 -0.40318128696893141 0 0.1601847123814322 -0.41992217320968978 0 0.1491261834057227 -0.40318128696893141 0 0.13855467314346931 -0.42264450952097699 0 0.1601847123814322 -0.41992217320968978 0 0.13909265992711789 -0.39914180577348812 0 0.1491261834057227 -0.40318128696893141 0 0.13855467314346931 -0.42264450952097699 0 0.12906541510633071 -0.39846060922434801 0 0.13855467314346931 -0.42264450952097699 0 0.12906541510633071 -0.39846060922434801 0 0.13855467314346931 -0.42264450952097699 0 0.1243269844260998 -0.41865372029952219 0 0.12906541510633071 -0.39846060922434801 0 0.13909265992711789 -0.39914180577348812 0 0.13855467314346931 -0.42264450952097699 0 0.13855467314346931 -0.42264450952097699 0 0.13026564556491671 -0.43723230348066161 0 0.1480439311806096 -0.4468284098176053 0 0.13855467314346931 -0.42264450952097699 0 0.13026564556491671 -0.43723230348066161 0 0.1243269844260998 -0.41865372029952219 0 0.13855467314346931 -0.42264450952097699 0 0.15505749435471569 -0.43234531985779001 0 0.1480439311806096 -0.4468284098176053 0 0.13855467314346931 -0.42264450952097699 0 0.1480439311806096 -0.4468284098176053 0 0.13855467314346931 -0.42264450952097699 0 0.15505749435471569 -0.43234531985779001 0 0.1601847123814322 -0.41992217320968978 0 0.16464064741702869 -0.40942738643385368 0 0.17408537491734641 -0.43541770848053107 0 0.17124324135714189 -0.43666305945044798 0 0.1601847123814322 -0.41992217320968978 0 0.15505749435471569 -0.43234531985779001 0 0.17124324135714189 -0.43666305945044798 0 0.1601847123814322 -0.41992217320968978 0 0.17124324135714189 -0.43666305945044798 0 0.1601847123814322 -0.41992217320968978 0 0.17408537491734641 -0.43541770848053107 0 0.17124324135714189 -0.43666305945044798 0 0.17228840541880841 -0.43824527465264362 0 0.16464064741702869 -0.40942738643385368 0 0.17298581476111399 -0.41278713803369632 0 0.17408537491734641 -0.43541770848053107 0 0.1601847123814322 -0.41992217320968978 0 0.16464064741702869 -0.40942738643385368 0 0.17408537491734641 -0.43541770848053107 0 0.1491261834057227 -0.40318128696893141 0 0.1601847123814322 -0.41992217320968978 0 0.16464064741702869 -0.40942738643385368 0 0.1491261834057227 -0.40318128696893141 0 0.16464064741702869 -0.40942738643385368 0 0.1647880066610827 -0.40085940972670309 0 0.16464064741702869 -0.40942738643385368 0 0.17298581476111399 -0.41278713803369632 0 0.16464064741702869 -0.40942738643385368 0 0.17298581476111399 -0.41278713803369632 0 0.1647880066610827 -0.40085940972670309 0 0.17298581476111399 -0.41278713803369632 0 0.20047523901352479 -0.42385433816313728 0 0.1811349977048391 -0.41606798661392208 0 0.18056025043946189 -0.42380786573892038 0 0.18231090725412299 -0.40023250844518943 0 0.1811349977048391 -0.41606798661392208 0 0.17298581476111399 -0.41278713803369632 0 0.1811349977048391 -0.41606798661392208 0 0.19263885196073771 -0.40383744237465741 0 0.18231090725412299 -0.40023250844518943 0 0.1811349977048391 -0.41606798661392208 0 0.18231090725412299 -0.40023250844518943 0 0.17365675135160369 -0.40354501022158967 0 0.1811349977048391 -0.41606798661392208 0 0.17298581476111399 -0.41278713803369632 0 0.1811349977048391 -0.41606798661392208 0 0.18056025043946189 -0.42380786573892038 0 0.17298581476111399 -0.41278713803369632 0 0.18056025043946189 -0.42380786573892038 0 0.17365675135160369 -0.40354501022158967 0 0.17298581476111399 -0.41278713803369632 0 0.1811349977048391 -0.41606798661392208 0 0.1811349977048391 -0.41606798661392208 0 0.18056025043946189 -0.42380786573892038 0 0.18056025043946189 -0.42380786573892038 0 0.18519414023321731 -0.43055012876703702 0 0.179886897326655 -0.43287562824173181 0 0.18056025043946189 -0.42380786573892038 0 0.179886897326655 -0.43287562824173181 0 0.17298581476111399 -0.41278713803369632 0 0.18056025043946189 -0.42380786573892038 0 0.17408537491734641 -0.43541770848053107 0 0.18056025043946189 -0.42380786573892038 0 0.18519414023321731 -0.43055012876703702 0 0.19525364437377499 -0.4451866060823837 0 0.18519414023321731 -0.43055012876703702 0 0.179886897326655 -0.43287562824173181 0 0.18519414023321731 -0.43055012876703702 0 0.179886897326655 -0.43287562824173181 0 0.18056025043946189 -0.42380786573892038 0 0.179886897326655 -0.43287562824173181 0 0.17408537491734641 -0.43541770848053107 0 0.179886897326655 -0.43287562824173181 0 0.17408537491734641 -0.43541770848053107 0 0.17124324135714189 -0.43666305945044798 0 0.17408537491734641 -0.43541770848053107 0 0.17124324135714189 -0.43666305945044798 0 0.17408537491734641 -0.43541770848053107 0 0.17228840541880841 -0.43824527465264362 0 0.19525364437377499 -0.4451866060823837 0 0.179886897326655 -0.43287562824173181 0 0.17874579262012291 -0.44824240426590051 0 0.17874579262012291 -0.44824240426590051 0 0.16894379988720731 -0.46107353727695732 0 0.17038848532742171 -0.44655653477249357 0 0.17408537491734641 -0.43541770848053107 0 0.17874579262012291 -0.44824240426590051 0 0.17228840541880841 -0.43824527465264362 0 0.17874579262012291 -0.44824240426590051 0 0.17228840541880841 -0.43824527465264362 0 0.17038848532742171 -0.44655653477249357 0 0.179886897326655 -0.43287562824173181 0 0.17408537491734641 -0.43541770848053107 0 0.17874579262012291 -0.44824240426590051 0 0.179886897326655 -0.43287562824173181 0 0.17874579262012291 -0.44824240426590051 0 0.17408537491734641 -0.43541770848053107 0 0.17874579262012291 -0.44824240426590051 0 0.17874579262012291 -0.44824240426590051 0 0.16894379988720731 -0.46107353727695732 0 0.1765380044221275 -0.47797375718482088 0 0.18886736020187281 -0.47609527784623101 0 0.17874579262012291 -0.44824240426590051 0 0.17874579262012291 -0.44824240426590051 0 0.1765380044221275 -0.47797375718482088 0 0.18886736020187281 -0.47609527784623101 0 0.17874579262012291 -0.44824240426590051 0 0.1765380044221275 -0.47797375718482088 0 0.16894379988720731 -0.46107353727695732 0 0.1632268983155723 -0.45118237659914168 0 0.156797929437094 -0.4691384597923417 0 0.16894379988720731 -0.46107353727695732 0 0.156797929437094 -0.4691384597923417 0 0.16764996921670719 -0.4721451808121529 0 0.15505749435471569 -0.43234531985779001 0 0.17124324135714189 -0.43666305945044798 0 0.1480439311806096 -0.4468284098176053 0 0.17124324135714189 -0.43666305945044798 0 0.1480439311806096 -0.4468284098176053 0 0.17124324135714189 -0.43666305945044798 0 0.1632268983155723 -0.45118237659914168 0 0.1480439311806096 -0.4468284098176053 0 0.16894379988720731 -0.46107353727695732 0 0.1632268983155723 -0.45118237659914168 0 0.17038848532742171 -0.44655653477249357 0 0.17124324135714189 -0.43666305945044798 0 0.17228840541880841 -0.43824527465264362 0 0.17038848532742171 -0.44655653477249357 0 0.17124324135714189 -0.43666305945044798 0 0.1632268983155723 -0.45118237659914168 0 0.17038848532742171 -0.44655653477249357 0 0.1480439311806096 -0.4468284098176053 0 0.1384301892853638 -0.45104090811867348 0 0.13026564556491671 -0.43723230348066161 0 0.1480439311806096 -0.4468284098176053 0 0.1384301892853638 -0.45104090811867348 0 0.13026564556491671 -0.43723230348066161 0 0.1384301892853638 -0.45104090811867348 0 0.12797251629283399 -0.4485649431883485 0 0.12704407962610029 -0.45979525669365179 0 0.1402840140998895 -0.46431178917769739 0 0.13014611050723501 -0.4753324265777315 0 0.1384301892853638 -0.45104090811867348 0 0.12797251629283399 -0.4485649431883485 0 0.12704407962610029 -0.45979525669365179 0 0.1384301892853638 -0.45104090811867348 0 0.12704407962610029 -0.45979525669365179 0 0.1402840140998895 -0.46431178917769739 0 0.1480439311806096 -0.4468284098176053 0 0.156797929437094 -0.4691384597923417 0 0.1480439311806096 -0.4468284098176053 0 0.1402840140998895 -0.46431178917769739 0 0.156797929437094 -0.4691384597923417 0 0.1632268983155723 -0.45118237659914168 0 0.1480439311806096 -0.4468284098176053 0 0.156797929437094 -0.4691384597923417 0 0.1480439311806096 -0.4468284098176053 0 0.1384301892853638 -0.45104090811867348 0 0.1402840140998895 -0.46431178917769739 0 0.14124184456293429 -0.483735274066181 0 0.15324062244260461 -0.4848388643040471 0 0.156797929437094 -0.4691384597923417 0 0.1402840140998895 -0.46431178917769739 0 0.14124184456293429 -0.483735274066181 0 0.156797929437094 -0.4691384597923417 0 0.1402840140998895 -0.46431178917769739 0 0.14124184456293429 -0.483735274066181 0 0.13014611050723501 -0.4753324265777315 0 0.14124184456293429 -0.483735274066181 0 0.14937078807681001 -0.49503321359058827 0 0.12399441130532431 -0.50000000000000089 0 0.14124184456293429 -0.483735274066181 0 0.13014611050723501 -0.4753324265777315 0 0.12399441130532431 -0.50000000000000089 0 0.14435101535095199 -0.5 0 0.14937078807681001 -0.49503321359058827 0 0.12399441130532431 -0.50000000000000089 0 0.14937078807681001 -0.49503321359058827 0 0.12399441130532431 -0.50000000000000089 0 0.15324062244260461 -0.4848388643040471 0 0.14937078807681001 -0.49503321359058827 0 0.16563065685523251 -0.49185075393550132 0 0.14435101535095199 -0.5 0 0.14937078807681001 -0.49503321359058827 0 0.1647076193965796 -0.50000000000000056 0 0.14124184456293429 -0.483735274066181 0 0.15324062244260461 -0.4848388643040471 0 0.14937078807681001 -0.49503321359058827 0 0.14937078807681001 -0.49503321359058827 0 0.1647076193965796 -0.50000000000000056 0 0.16563065685523251 -0.49185075393550132 0 0.14937078807681001 -0.49503321359058827 0 0.16563065685523251 -0.49185075393550132 0 0.1647076193965796 -0.50000000000000056 0 0.16563065685523251 -0.49185075393550132 0 0.17474716484829539 -0.49006642718117333 0 0.1647076193965796 -0.50000000000000056 0 0.17474716484829539 -0.49006642718117333 0 0.16563065685523251 -0.49185075393550132 0 0.17474716484829539 -0.49006642718117333 0 0.16563065685523251 -0.49185075393550132 0 0.16832014312040011 -0.48039496899449169 0 0.17474716484829539 -0.49006642718117333 0 0.16894379988720731 -0.46107353727695732 0 0.16764996921670719 -0.4721451808121529 0 0.1765380044221275 -0.47797375718482088 0 0.15324062244260461 -0.4848388643040471 0 0.16563065685523251 -0.49185075393550132 0 0.156797929437094 -0.4691384597923417 0 0.16563065685523251 -0.49185075393550132 0 0.156797929437094 -0.4691384597923417 0 0.16832014312040011 -0.48039496899449169 0 0.16563065685523251 -0.49185075393550132 0 0.156797929437094 -0.4691384597923417 0 0.156797929437094 -0.4691384597923417 0 0.16764996921670719 -0.4721451808121529 0 0.16832014312040011 -0.48039496899449169 0 0.16764996921670719 -0.4721451808121529 0 0.16832014312040011 -0.48039496899449169 0 0.1765380044221275 -0.47797375718482088 0 0.16832014312040011 -0.48039496899449169 0 0.1765380044221275 -0.47797375718482088 0 0.17474716484829539 -0.49006642718117333 0 0.19266965140911951 -0.48655855198390818 0 0.18886736020187281 -0.47609527784623101 0 0.17474716484829539 -0.49006642718117333 0 0.18886736020187281 -0.47609527784623101 0 0.1765380044221275 -0.47797375718482088 0 0.17474716484829539 -0.49006642718117333 0 0.18886736020187281 -0.47609527784623101 0 0.17474716484829539 -0.49006642718117333 0 0.1647076193965796 -0.50000000000000056 0 0.18113090628917239 -0.5 0 0.17474716484829539 -0.49006642718117333 0 0.19266965140911951 -0.48655855198390818 0 0.17474716484829539 -0.49006642718117333 0 0.19266965140911951 -0.48655855198390818 0 0.18113090628917239 -0.5 0 0.17474716484829539 -0.49006642718117333 0 0.068855397004607632 -0.5 0 0.074371748386814249 -0.48022310360255083 0 0.053854594279113703 -0.47944711970563147 0 0.074371748386814249 -0.48022310360255083 0 0.064331960367962265 -0.45756921842330173 0 0.053854594279113703 -0.47944711970563147 0 0.074371748386814249 -0.48022310360255083 0 0.095142145338360351 -0.48015083416608723 0 0.086270010414386505 -0.46349028780811158 0 0.074371748386814249 -0.48022310360255083 0 0.096424904154965962 -0.5 0 0.095142145338360351 -0.48015083416608723 0 0.068855397004607632 -0.5 0 0.074371748386814249 -0.48022310360255083 0 0.096424904154965962 -0.5 0 0.096424904154965962 -0.5 0 0.1106131068863115 -0.48627712700261522 0 0.095142145338360351 -0.48015083416608723 0 0.13014611050723501 -0.4753324265777315 0 0.12399441130532431 -0.50000000000000089 0 0.1106131068863115 -0.48627712700261522 0 0.096424904154965962 -0.5 0 0.12399441130532431 -0.50000000000000089 0 0.1106131068863115 -0.48627712700261522 0 0.13014611050723501 -0.4753324265777315 0 0.1106131068863115 -0.48627712700261522 0 0.1082080604608107 -0.4694113571929216 0 0.13014611050723501 -0.4753324265777315 0 0.1082080604608107 -0.4694113571929216 0 0.095142145338360351 -0.48015083416608723 0 0.1082080604608107 -0.4694113571929216 0 0.086270010414386505 -0.46349028780811158 0 0.1106131068863115 -0.48627712700261522 0 0.095142145338360351 -0.48015083416608723 0 0.1082080604608107 -0.4694113571929216 0 0.1082080604608107 -0.4694113571929216 0 0.1163196266834771 -0.44737642916201897 0 0.097353591691009239 -0.44691576065879679 0 0.1082080604608107 -0.4694113571929216 0 0.097353591691009239 -0.44691576065879679 0 0.086270010414386505 -0.46349028780811158 0 0.1082080604608107 -0.4694113571929216 0 0.086270010414386505 -0.46349028780811158 0 0.12704407962610029 -0.45979525669365179 0 0.1082080604608107 -0.4694113571929216 0 0.1163196266834771 -0.44737642916201897 0 0.12704407962610029 -0.45979525669365179 0 0.13014611050723501 -0.4753324265777315 0 0.1082080604608107 -0.4694113571929216 0 0.13026564556491671 -0.43723230348066161 0 0.1163196266834771 -0.44737642916201897 0 0.1174770764280172 -0.43047036374512182 0 0.13026564556491671 -0.43723230348066161 0 0.12797251629283399 -0.4485649431883485 0 0.1163196266834771 -0.44737642916201897 0 0.12797251629283399 -0.4485649431883485 0 0.12704407962610029 -0.45979525669365179 0 0.1163196266834771 -0.44737642916201897 0 0.1163196266834771 -0.44737642916201897 0 0.097353591691009239 -0.44691576065879679 0 0.1042431025011358 -0.43261035908042977 0 0.097353591691009239 -0.44691576065879679 0 0.078317634894407503 -0.43934786848686891 0 0.086270010414386505 -0.46349028780811158 0 0.097353591691009239 -0.44691576065879679 0 0.078317634894407503 -0.43934786848686891 0 0.090763115191838037 -0.42925826222243019 0 0.078317634894407503 -0.43934786848686891 0 0.086270010414386505 -0.46349028780811158 0 0.064331960367962265 -0.45756921842330173 0 0.086270010414386505 -0.46349028780811158 0 0.064331960367962265 -0.45756921842330173 0 0.074371748386814249 -0.48022310360255083 0 0.086270010414386505 -0.46349028780811158 0 0.064331960367962265 -0.45756921842330173 0 0.078317634894407503 -0.43934786848686891 0 0.064331960367962265 -0.45756921842330173 0 0.062293163137110523 -0.44123529178893978 0 0.078317634894407503 -0.43934786848686891 0 0.06480695351051019 -0.42443078857725669 0 0.079623089990872559 -0.42070898497740239 0 0.078317634894407503 -0.43934786848686891 0 0.06480695351051019 -0.42443078857725669 0 0.062293163137110523 -0.44123529178893978 0 0.06480695351051019 -0.42443078857725669 0 0.079623089990872559 -0.42070898497740239 0 0.073387655135847968 -0.40530732915857209 0 0.079623089990872559 -0.42070898497740239 0 0.095108548341222288 -0.41542201537332052 0 0.073387655135847968 -0.40530732915857209 0 0.079623089990872559 -0.42070898497740239 0 0.090763115191838037 -0.42925826222243019 0 0.095108548341222288 -0.41542201537332052 0 0.078317634894407503 -0.43934786848686891 0 0.079623089990872559 -0.42070898497740239 0 0.090763115191838037 -0.42925826222243019 0 0.097353591691009239 -0.44691576065879679 0 0.090763115191838037 -0.42925826222243019 0 0.1042431025011358 -0.43261035908042977 0 0.090763115191838037 -0.42925826222243019 0 0.1042431025011358 -0.43261035908042977 0 0.095108548341222288 -0.41542201537332052 0 0.1163196266834771 -0.44737642916201897 0 0.1042431025011358 -0.43261035908042977 0 0.1174770764280172 -0.43047036374512182 0 0.13026564556491671 -0.43723230348066161 0 0.1174770764280172 -0.43047036374512182 0 0.1243269844260998 -0.41865372029952219 0 0.1042431025011358 -0.43261035908042977 0 0.1174770764280172 -0.43047036374512182 0 0.111561096610637 -0.41747870059356429 0 0.1174770764280172 -0.43047036374512182 0 0.1243269844260998 -0.41865372029952219 0 0.111561096610637 -0.41747870059356429 0 0.12906541510633071 -0.39846060922434801 0 0.1243269844260998 -0.41865372029952219 0 0.1190379997032282 -0.40563583523246127 0 0.1243269844260998 -0.41865372029952219 0 0.111561096610637 -0.41747870059356429 0 0.1190379997032282 -0.40563583523246127 0 0.111561096610637 -0.41747870059356429 0 0.1079454449927225 -0.40676419408460629 0 0.1190379997032282 -0.40563583523246127 0 0.1079454449927225 -0.40676419408460629 0 0.095108548341222288 -0.41542201537332052 0 0.099666410434867098 -0.39717512340862948 0 0.111561096610637 -0.41747870059356429 0 0.1079454449927225 -0.40676419408460629 0 0.095108548341222288 -0.41542201537332052 0 0.1042431025011358 -0.43261035908042977 0 0.111561096610637 -0.41747870059356429 0 0.095108548341222288 -0.41542201537332052 0 0.099666410434867098 -0.39717512340862948 0 0.10756711225058679 -0.39083380443291099 0 0.096102363089552362 -0.38464221292058842 0 0.1079454449927225 -0.40676419408460629 0 0.099666410434867098 -0.39717512340862948 0 0.114353169873658 -0.39810929581505611 0 0.1259451657338862 -0.38904291765868682 0 0.099666410434867098 -0.39717512340862948 0 0.114353169873658 -0.39810929581505611 0 0.1259451657338862 -0.38904291765868682 0 0.099666410434867098 -0.39717512340862948 0 0.1079454449927225 -0.40676419408460629 0 0.114353169873658 -0.39810929581505611 0 0.1190379997032282 -0.40563583523246127 0 0.1259451657338862 -0.38904291765868682 0 0.099666410434867098 -0.39717512340862948 0 0.10756711225058679 -0.39083380443291099 0 0.1259451657338862 -0.38904291765868682 0 0.114353169873658 -0.39810929581505611 0 0.1221004376042758 -0.39781216448263812 0 0.12906541510633071 -0.39846060922434801 0 0.1221004376042758 -0.39781216448263812 0 0.1190379997032282 -0.40563583523246127 0 0.114353169873658 -0.39810929581505611 0 0.1221004376042758 -0.39781216448263812 0 0.1190379997032282 -0.40563583523246127 0 0.1259451657338862 -0.38904291765868682 0 0.10756711225058679 -0.39083380443291099 0 0.1154102007289585 -0.37612636257455873 0 0.10756711225058679 -0.39083380443291099 0 0.1154102007289585 -0.37612636257455873 0 0.096194864048715939 -0.37161271859603923 0 0.10756711225058679 -0.39083380443291099 0 0.096102363089552362 -0.38464221292058842 0 0.096194864048715939 -0.37161271859603923 0 0.10756711225058679 -0.39083380443291099 0 0.096194864048715939 -0.37161271859603923 0 0.099666410434867098 -0.39717512340862948 0 0.096102363089552362 -0.38464221292058842 0 0.083115172515396463 -0.38601435841939952 0 0.096102363089552362 -0.38464221292058842 0 0.083115172515396463 -0.38601435841939952 0 0.096194864048715939 -0.37161271859603923 0 0.083115172515396463 -0.38601435841939952 0 0.096194864048715939 -0.37161271859603923 0 0.080157286820565249 -0.36986256073536028 0 0.099666410434867098 -0.39717512340862948 0 0.083115172515396463 -0.38601435841939952 0 0.073387655135847968 -0.40530732915857209 0 0.095108548341222288 -0.41542201537332052 0 0.099666410434867098 -0.39717512340862948 0 0.073387655135847968 -0.40530732915857209 0 0.099666410434867098 -0.39717512340862948 0 0.073387655135847968 -0.40530732915857209 0 0.083115172515396463 -0.38601435841939952 0 0.073387655135847968 -0.40530732915857209 0 0.066541317163131108 -0.3821939533898876 0 0.073387655135847968 -0.40530732915857209 0 0.066541317163131108 -0.3821939533898876 0 0.051420013447415931 -0.39488553407012938 0 0.083115172515396463 -0.38601435841939952 0 0.066541317163131108 -0.3821939533898876 0 0.080157286820565249 -0.36986256073536028 0 0.066541317163131108 -0.3821939533898876 0 0.051420013447415931 -0.39488553407012938 0 0.049617599918326892 -0.37217479322733621 0 0.073387655135847968 -0.40530732915857209 0 0.051420013447415931 -0.39488553407012938 0 0.047108899836828831 -0.41343953490851482 0 0.051420013447415931 -0.39488553407012938 0 0.0406782731310334 -0.40077457002003491 0 0.047108899836828831 -0.41343953490851482 0 0.0406782731310334 -0.40077457002003491 0 0.029910564554085761 -0.40438934957181888 0 0.047108899836828831 -0.41343953490851482 0 0.051420013447415931 -0.39488553407012938 0 0.0406782731310334 -0.40077457002003491 0 0.034273614685803089 -0.39038386152967658 0 0.0406782731310334 -0.40077457002003491 0 0.034273614685803089 -0.39038386152967658 0 0.029910564554085761 -0.40438934957181888 0 0.034273614685803089 -0.39038386152967658 0 0.049617599918326892 -0.37217479322733621 0 0.030165237016575971 -0.37140988797917829 0 0.051420013447415931 -0.39488553407012938 0 0.034273614685803089 -0.39038386152967658 0 0.049617599918326892 -0.37217479322733621 0 0.034273614685803089 -0.39038386152967658 0 0.020201875250971411 -0.38727785671020121 0 0.030165237016575971 -0.37140988797917829 0 0.020201875250971411 -0.38727785671020121 0 0.030165237016575971 -0.37140988797917829 0 0.010463267296614591 -0.37120704066749949 0 0.020201875250971411 -0.38727785671020121 0 0.0044044243153291826 -0.38884571969487242 0 0.010463267296614591 -0.37120704066749949 0 -0.00128820618288191 -0.37569286940333679 0 0.0044044243153291826 -0.38884571969487242 0 0.010463267296614591 -0.37120704066749949 0 0.020201875250971411 -0.38727785671020121 0 0.0044044243153291826 -0.38884571969487242 0 0.0153194717914352 -0.39880204884055409 0 -0.0053096943317760704 -0.39856200391047852 0 0.0044044243153291826 -0.38884571969487242 0 0.0055741236593935903 -0.40430246929208719 0 0.0044044243153291826 -0.38884571969487242 0 0.0055741236593935903 -0.40430246929208719 0 0.0153194717914352 -0.39880204884055409 0 0.0055741236593935903 -0.40430246929208719 0 0.0153194717914352 -0.39880204884055409 0 0.016506371177396041 -0.40919484893379071 0 0.034273614685803089 -0.39038386152967658 0 0.020201875250971411 -0.38727785671020121 0 0.029910564554085761 -0.40438934957181888 0 0.020201875250971411 -0.38727785671020121 0 0.0153194717914352 -0.39880204884055409 0 0.029910564554085761 -0.40438934957181888 0 0.0153194717914352 -0.39880204884055409 0 0.029910564554085761 -0.40438934957181888 0 0.016506371177396041 -0.40919484893379071 0 0.029910564554085761 -0.40438934957181888 0 0.020830144537809701 -0.42157174065845748 0 0.016506371177396041 -0.40919484893379071 0 0.0055741236593935903 -0.40430246929208719 0 0.016506371177396041 -0.40919484893379071 0 0.0065174665876817448 -0.41576476478699748 0 0.020830144537809701 -0.42157174065845748 0 0.016506371177396041 -0.40919484893379071 0 0.0065174665876817448 -0.41576476478699748 0 -0.0057694837270574799 -0.41279563166380512 0 0.0055741236593935903 -0.40430246929208719 0 0.0065174665876817448 -0.41576476478699748 0 -0.0054486107612093659 -0.42970394640840021 0 0.020830144537809701 -0.42157174065845748 0 -0.0054486107612093659 -0.42970394640840021 0 0.020830144537809701 -0.42157174065845748 0 0.0065174665876817448 -0.41576476478699748 0 -0.0054486107612093659 -0.42970394640840021 0 0.020830144537809701 -0.42157174065845748 0 0.0057178097885894237 -0.44201216835368512 0 0.033733672536273809 -0.42058841193276952 0 0.02076640707701808 -0.44024889407038681 0 0.020830144537809701 -0.42157174065845748 0 0.02076640707701808 -0.44024889407038681 0 0.0057178097885894237 -0.44201216835368512 0 0.03451616109509989 -0.43521109516789908 0 0.033733672536273809 -0.42058841193276952 0 0.02076640707701808 -0.44024889407038681 0 0.020830144537809701 -0.42157174065845748 0 0.033733672536273809 -0.42058841193276952 0 0.02076640707701808 -0.44024889407038681 0 0.033733672536273809 -0.42058841193276952 0 0.047108899836828831 -0.41343953490851482 0 0.049002153142388663 -0.43306838946119741 0 0.03451616109509989 -0.43521109516789908 0 0.033733672536273809 -0.42058841193276952 0 0.049002153142388663 -0.43306838946119741 0 0.029910564554085761 -0.40438934957181888 0 0.020830144537809701 -0.42157174065845748 0 0.047108899836828831 -0.41343953490851482 0 0.020830144537809701 -0.42157174065845748 0 0.047108899836828831 -0.41343953490851482 0 0.020830144537809701 -0.42157174065845748 0 0.033733672536273809 -0.42058841193276952 0 0.047108899836828831 -0.41343953490851482 0 0.06480695351051019 -0.42443078857725669 0 0.073387655135847968 -0.40530732915857209 0 0.047108899836828831 -0.41343953490851482 0 0.073387655135847968 -0.40530732915857209 0 0.047108899836828831 -0.41343953490851482 0 0.06480695351051019 -0.42443078857725669 0 0.047108899836828831 -0.41343953490851482 0 0.049002153142388663 -0.43306838946119741 0 0.06480695351051019 -0.42443078857725669 0 0.049002153142388663 -0.43306838946119741 0 0.062293163137110523 -0.44123529178893978 0 0.064331960367962265 -0.45756921842330173 0 0.062293163137110523 -0.44123529178893978 0 0.042393910321537893 -0.45164814903849182 0 0.049002153142388663 -0.43306838946119741 0 0.062293163137110523 -0.44123529178893978 0 0.042393910321537893 -0.45164814903849182 0 0.064331960367962265 -0.45756921842330173 0 0.040849550122874112 -0.46698605708840157 0 0.042393910321537893 -0.45164814903849182 0 0.064331960367962265 -0.45756921842330173 0 0.042393910321537893 -0.45164814903849182 0 0.064331960367962265 -0.45756921842330173 0 0.040849550122874112 -0.46698605708840157 0 0.053854594279113703 -0.47944711970563147 0 0.040849550122874112 -0.46698605708840157 0 0.042393910321537893 -0.45164814903849182 0 0.028138671026907341 -0.45596024161487392 0 0.03451616109509989 -0.43521109516789908 0 0.042393910321537893 -0.45164814903849182 0 0.028138671026907341 -0.45596024161487392 0 0.03451616109509989 -0.43521109516789908 0 0.049002153142388663 -0.43306838946119741 0 0.042393910321537893 -0.45164814903849182 0 0.02076640707701808 -0.44024889407038681 0 0.0077991416177623264 -0.45990937620800421 0 0.028138671026907341 -0.45596024161487392 0 0.03451616109509989 -0.43521109516789908 0 0.02076640707701808 -0.44024889407038681 0 0.028138671026907341 -0.45596024161487392 0 0.02076640707701808 -0.44024889407038681 0 0.0057178097885894237 -0.44201216835368512 0 0.0077991416177623264 -0.45990937620800421 0 -0.0067196714858158294 -0.44896261521635361 0 0.0057178097885894237 -0.44201216835368512 0 0.0077991416177623264 -0.45990937620800421 0 0.02076640707701808 -0.44024889407038681 0 0.0077991416177623264 -0.45990937620800421 0 0.040849550122874112 -0.46698605708840157 0 0.028138671026907341 -0.45596024161487392 0 0.024343235218810291 -0.47950848902562693 0 0.0077991416177623264 -0.45990937620800421 0 0.028138671026907341 -0.45596024161487392 0 0.024343235218810291 -0.47950848902562693 0 -0.0051681238414931427 -0.47956985834562171 0 0.024343235218810291 -0.47950848902562693 0 0.001140787539995986 -0.49203858842346421 0 -0.0051681238414931427 -0.47956985834562171 0 0.0077991416177623264 -0.45990937620800421 0 -0.0051681238414931427 -0.47956985834562171 0 0.0077991416177623264 -0.45990937620800421 0 0.024343235218810291 -0.47950848902562693 0 -0.0051681238414931427 -0.47956985834562171 0 0.024343235218810291 -0.47950848902562693 0 0.024343235218810291 -0.47950848902562693 0 0.013716382703890971 -0.5 0 0.001140787539995986 -0.49203858842346421 0 -0.013853124446467359 -0.5 0 0.013716382703890971 -0.5 0 0.001140787539995986 -0.49203858842346421 0 0.024343235218810291 -0.47950848902562693 0 0.013716382703890971 -0.5 0 0.041285889854249302 -0.5 0 0.024343235218810291 -0.47950848902562693 0 0.041285889854249302 -0.5 0 0.053854594279113703 -0.47944711970563147 0 0.024343235218810291 -0.47950848902562693 0 0.053854594279113703 -0.47944711970563147 0 0.040849550122874112 -0.46698605708840157 0 0.024343235218810291 -0.47950848902562693 0 0.053854594279113703 -0.47944711970563147 0 0.068855397004607632 -0.5 0 0.041285889854249302 -0.5 0 0.053854594279113703 -0.47944711970563147 0 0.076426169500583022 -0.29837946243924279 0 0.097139643221951344 -0.28259267378873942 0 0.1029268856316819 -0.29702036454245351 0 0.076426169500583022 -0.29837946243924279 0 0.074158937872496056 -0.27648707038961889 0 0.097139643221951344 -0.28259267378873942 0 0.076426169500583022 -0.29837946243924279 0 0.097139643221951344 -0.28259267378873942 0 0.076426169500583022 -0.29837946243924279 0 0.097132859263270754 -0.31082019422402613 0 0.1029268856316819 -0.29702036454245351 0 0.076426169500583022 -0.29837946243924279 0 0.097132859263270754 -0.31082019422402613 0 0.076021743221242277 -0.31301576168631412 0 0.076426169500583022 -0.29837946243924279 0 0.055712695779215463 -0.31416625108974711 0 0.060380827566521043 -0.29008244228281949 0 0.076426169500583022 -0.29837946243924279 0 0.076021743221242277 -0.31301576168631412 0 0.055712695779215463 -0.31416625108974711 0 0.076426169500583022 -0.29837946243924279 0 0.055712695779215463 -0.31416625108974711 0 0.076426169500583022 -0.29837946243924279 0 0.074158937872496056 -0.27648707038961889 0 0.060380827566521043 -0.29008244228281949 0 0.074158937872496056 -0.27648707038961889 0 0.064737193322777789 -0.26068806367782538 0 0.051178232523041239 -0.27038146699049681 0 0.074158937872496056 -0.27648707038961889 0 0.051178232523041239 -0.27038146699049681 0 0.064737193322777789 -0.26068806367782538 0 0.053457937141745883 -0.24841672040361329 0 0.073288831844258218 -0.24638152795638571 0 0.064737193322777789 -0.26068806367782538 0 0.090105712914478817 -0.2570866157219972 0 0.073288831844258218 -0.24638152795638571 0 0.074158937872496056 -0.27648707038961889 0 0.064737193322777789 -0.26068806367782538 0 0.090105712914478817 -0.2570866157219972 0 0.074158937872496056 -0.27648707038961889 0 0.090105712914478817 -0.2570866157219972 0 0.097139643221951344 -0.28259267378873942 0 0.074158937872496056 -0.27648707038961889 0 0.097139643221951344 -0.28259267378873942 0 0.090105712914478817 -0.2570866157219972 0 0.10246533101832719 -0.26651697839445959 0 0.097139643221951344 -0.28259267378873942 0 0.10246533101832719 -0.26651697839445959 0 0.11833535072591279 -0.266438350319673 0 0.097139643221951344 -0.28259267378873942 0 0.11833535072591279 -0.266438350319673 0 0.097139643221951344 -0.28259267378873942 0 0.10246533101832719 -0.26651697839445959 0 0.11833535072591279 -0.266438350319673 0 0.10569055569705239 -0.24951258740225549 0 0.090105712914478817 -0.2570866157219972 0 0.10246533101832719 -0.26651697839445959 0 0.10569055569705239 -0.24951258740225549 0 0.11833535072591279 -0.266438350319673 0 0.12307433225321859 -0.24857721426736179 0 0.10569055569705239 -0.24951258740225549 0 0.1364335078501159 -0.28444814449188832 0 0.11833535072591279 -0.266438350319673 0 0.1158391903088381 -0.28756084236840818 0 0.11833535072591279 -0.266438350319673 0 0.1158391903088381 -0.28756084236840818 0 0.097139643221951344 -0.28259267378873942 0 0.1364335078501159 -0.28444814449188832 0 0.1158391903088381 -0.28756084236840818 0 0.1216191951753916 -0.30930962589134381 0 0.1158391903088381 -0.28756084236840818 0 0.097139643221951344 -0.28259267378873942 0 0.1029268856316819 -0.29702036454245351 0 0.1158391903088381 -0.28756084236840818 0 0.097139643221951344 -0.28259267378873942 0 0.097132859263270754 -0.31082019422402613 0 0.1029268856316819 -0.29702036454245351 0 0.1216191951753916 -0.30930962589134381 0 0.1158391903088381 -0.28756084236840818 0 0.1029268856316819 -0.29702036454245351 0 0.1216191951753916 -0.30930962589134381 0 0.1216191951753916 -0.30930962589134381 0 0.12262513419468279 -0.33114882781072941 0 0.10653732352158279 -0.32612531810302359 0 0.12262513419468279 -0.33114882781072941 0 0.1037238750207643 -0.34177023028494818 0 0.10653732352158279 -0.32612531810302359 0 0.12262513419468279 -0.33114882781072941 0 0.1037238750207643 -0.34177023028494818 0 0.1037238750207643 -0.34177023028494818 0 0.10653732352158279 -0.32612531810302359 0 0.091045710144729092 -0.33528889788873772 0 0.097132859263270754 -0.31082019422402613 0 0.1216191951753916 -0.30930962589134381 0 0.10653732352158279 -0.32612531810302359 0 0.097132859263270754 -0.31082019422402613 0 0.10653732352158279 -0.32612531810302359 0 0.084819825076230662 -0.32110576206090291 0 0.10653732352158279 -0.32612531810302359 0 0.084819825076230662 -0.32110576206090291 0 0.091045710144729092 -0.33528889788873772 0 0.1349861405252463 -0.38177546980993587 0 0.1154102007289585 -0.37612636257455873 0 0.1208460976447702 -0.36036965265094051 0 0.1154102007289585 -0.37612636257455873 0 0.1208460976447702 -0.36036965265094051 0 0.10195974547800481 -0.3585700748749685 0 0.12262513419468279 -0.33114882781072941 0 0.1037238750207643 -0.34177023028494818 0 0.1208460976447702 -0.36036965265094051 0 0.1037238750207643 -0.34177023028494818 0 0.1208460976447702 -0.36036965265094051 0 0.10195974547800481 -0.3585700748749685 0 0.1037238750207643 -0.34177023028494818 0 0.10195974547800481 -0.3585700748749685 0 0.084822615846845667 -0.35239163275916707 0 0.1037238750207643 -0.34177023028494818 0 0.084822615846845667 -0.35239163275916707 0 0.10195974547800481 -0.3585700748749685 0 0.096194864048715939 -0.37161271859603923 0 0.084822615846845667 -0.35239163275916707 0 0.1154102007289585 -0.37612636257455873 0 0.10195974547800481 -0.3585700748749685 0 0.096194864048715939 -0.37161271859603923 0 0.096194864048715939 -0.37161271859603923 0 0.084822615846845667 -0.35239163275916707 0 0.096194864048715939 -0.37161271859603923 0 0.080157286820565249 -0.36986256073536028 0 0.084822615846845667 -0.35239163275916707 0 0.084822615846845667 -0.35239163275916707 0 0.075419891166878292 -0.33649938568840959 0 0.084822615846845667 -0.35239163275916707 0 0.067220107882586283 -0.36228321299325172 0 0.084822615846845667 -0.35239163275916707 0 0.065745227515341703 -0.34761840807081562 0 0.075419891166878292 -0.33649938568840959 0 0.084822615846845667 -0.35239163275916707 0 0.065745227515341703 -0.34761840807081562 0 0.067220107882586283 -0.36228321299325172 0 0.080157286820565249 -0.36986256073536028 0 0.084822615846845667 -0.35239163275916707 0 0.067220107882586283 -0.36228321299325172 0 0.066541317163131108 -0.3821939533898876 0 0.080157286820565249 -0.36986256073536028 0 0.067220107882586283 -0.36228321299325172 0 0.097132859263270754 -0.31082019422402613 0 0.084819825076230662 -0.32110576206090291 0 0.076021743221242277 -0.31301576168631412 0 0.1037238750207643 -0.34177023028494818 0 0.084822615846845667 -0.35239163275916707 0 0.091045710144729092 -0.33528889788873772 0 0.084822615846845667 -0.35239163275916707 0 0.091045710144729092 -0.33528889788873772 0 0.075419891166878292 -0.33649938568840959 0 0.084819825076230662 -0.32110576206090291 0 0.091045710144729092 -0.33528889788873772 0 0.075419891166878292 -0.33649938568840959 0 0.075419891166878292 -0.33649938568840959 0 0.066017166486911555 -0.32060713861765178 0 0.075419891166878292 -0.33649938568840959 0 0.066017166486911555 -0.32060713861765178 0 0.056754759104831208 -0.32748604810606319 0 0.065745227515341703 -0.34761840807081562 0 0.075419891166878292 -0.33649938568840959 0 0.054425256051265559 -0.33877150815755108 0 0.084819825076230662 -0.32110576206090291 0 0.076021743221242277 -0.31301576168631412 0 0.066017166486911555 -0.32060713861765178 0 0.084819825076230662 -0.32110576206090291 0 0.075419891166878292 -0.33649938568840959 0 0.066017166486911555 -0.32060713861765178 0 0.076021743221242277 -0.31301576168631412 0 0.066017166486911555 -0.32060713861765178 0 0.055712695779215463 -0.31416625108974711 0 0.055712695779215463 -0.31416625108974711 0 0.056754759104831208 -0.32748604810606319 0 0.034999222057847862 -0.32995303974025147 0 0.066017166486911555 -0.32060713861765178 0 0.055712695779215463 -0.31416625108974711 0 0.056754759104831208 -0.32748604810606319 0 0.056754759104831208 -0.32748604810606319 0 0.054425256051265559 -0.33877150815755108 0 0.034999222057847862 -0.32995303974025147 0 0.075419891166878292 -0.33649938568840959 0 0.056754759104831208 -0.32748604810606319 0 0.054425256051265559 -0.33877150815755108 0 0.054425256051265559 -0.33877150815755108 0 0.034999222057847862 -0.32995303974025147 0 0.045208342682632068 -0.35256438265130569 0 0.034999222057847862 -0.32995303974025147 0 0.045208342682632068 -0.35256438265130569 0 0.01428574833648028 -0.34573982839075579 0 0.055712695779215463 -0.31416625108974711 0 0.034999222057847862 -0.32995303974025147 0 0.030947133901477259 -0.31019988931742692 0 0.055712695779215463 -0.31416625108974711 0 0.034999222057847862 -0.32995303974025147 0 0.066541317163131108 -0.3821939533898876 0 0.067220107882586283 -0.36228321299325172 0 0.049617599918326892 -0.37217479322733621 0 0.067220107882586283 -0.36228321299325172 0 0.049617599918326892 -0.37217479322733621 0 0.045208342682632068 -0.35256438265130569 0 0.067220107882586283 -0.36228321299325172 0 0.049617599918326892 -0.37217479322733621 0 0.065745227515341703 -0.34761840807081562 0 0.067220107882586283 -0.36228321299325172 0 0.045208342682632068 -0.35256438265130569 0 0.065745227515341703 -0.34761840807081562 0 0.054425256051265559 -0.33877150815755108 0 0.045208342682632068 -0.35256438265130569 0 0.049617599918326892 -0.37217479322733621 0 0.045208342682632068 -0.35256438265130569 0 0.030165237016575971 -0.37140988797917829 0 0.030165237016575971 -0.37140988797917829 0 0.01428574833648028 -0.34573982839075579 0 0.010463267296614591 -0.37120704066749949 0 0.045208342682632068 -0.35256438265130569 0 0.030165237016575971 -0.37140988797917829 0 0.01428574833648028 -0.34573982839075579 0 -0.0064277253848860818 -0.36152661704126182 0 0.01428574833648028 -0.34573982839075579 0 -0.0064277253848860818 -0.36152661704126182 0 0.01428574833648028 -0.34573982839075579 0 0.002228587754734048 -0.33721392867879069 0 -0.0064277253848860818 -0.36152661704126182 0 -0.00128820618288191 -0.37569286940333679 0 0.010463267296614591 -0.37120704066749949 0 -0.0064277253848860818 -0.36152661704126182 0 0.01428574833648028 -0.34573982839075579 0 0.010463267296614591 -0.37120704066749949 0 0.034999222057847862 -0.32995303974025147 0 0.017737780054299039 -0.32878693300440859 0 0.030947133901477259 -0.31019988931742692 0 0.017737780054299039 -0.32878693300440859 0 0.01088490089435183 -0.31290124031631888 0 0.030947133901477259 -0.31019988931742692 0 0.034999222057847862 -0.32995303974025147 0 0.01428574833648028 -0.34573982839075579 0 0.034999222057847862 -0.32995303974025147 0 0.01428574833648028 -0.34573982839075579 0 0.017737780054299039 -0.32878693300440859 0 0.01428574833648028 -0.34573982839075579 0 0.017737780054299039 -0.32878693300440859 0 0.002228587754734048 -0.33721392867879069 0 0.002228587754734048 -0.33721392867879069 0 0.01088490089435183 -0.31290124031631888 0 0.017737780054299039 -0.32878693300440859 0 0.002228587754734048 -0.33721392867879069 0 0.01088490089435183 -0.31290124031631888 0 -0.003964000036299974 -0.29653637714181441 0 0.01088490089435183 -0.31290124031631888 0 0.019541214033969651 -0.28858855195384697 0 0.01088490089435183 -0.31290124031631888 0 0.019541214033969651 -0.28858855195384697 0 -0.003964000036299974 -0.29653637714181441 0 0.019541214033969651 -0.28858855195384697 0 0.0026608380666450649 -0.27535432271331278 0 0.019541214033969651 -0.28858855195384697 0 0.043322999152160008 -0.29332216718058668 0 0.02819752717358627 -0.26427586359137462 0 0.01088490089435183 -0.31290124031631888 0 0.019541214033969651 -0.28858855195384697 0 0.030947133901477259 -0.31019988931742692 0 0.055712695779215463 -0.31416625108974711 0 0.030947133901477259 -0.31019988931742692 0 0.043322999152160008 -0.29332216718058668 0 0.019541214033969651 -0.28858855195384697 0 0.030947133901477259 -0.31019988931742692 0 0.043322999152160008 -0.29332216718058668 0 0.043322999152160008 -0.29332216718058668 0 0.060380827566521043 -0.29008244228281949 0 0.051178232523041239 -0.27038146699049681 0 0.055712695779215463 -0.31416625108974711 0 0.043322999152160008 -0.29332216718058668 0 0.060380827566521043 -0.29008244228281949 0 0.064737193322777789 -0.26068806367782538 0 0.051178232523041239 -0.27038146699049681 0 0.053457937141745883 -0.24841672040361329 0 0.074158937872496056 -0.27648707038961889 0 0.060380827566521043 -0.29008244228281949 0 0.051178232523041239 -0.27038146699049681 0 0.043322999152160008 -0.29332216718058668 0 0.051178232523041239 -0.27038146699049681 0 0.02819752717358627 -0.26427586359137462 0 0.051178232523041239 -0.27038146699049681 0 0.02819752717358627 -0.26427586359137462 0 0.051178232523041239 -0.27038146699049681 0 0.033432954012691252 -0.2495713006751967 0 0.053457937141745883 -0.24841672040361329 0 0.051178232523041239 -0.27038146699049681 0 0.02819752717358627 -0.26427586359137462 0 0.033432954012691252 -0.2495713006751967 0 0.02819752717358627 -0.26427586359137462 0 0.01940109808522571 -0.2513620540507544 0 0.033432954012691252 -0.2495713006751967 0 0.02819752717358627 -0.26427586359137462 0 0.033432954012691252 -0.2495713006751967 0 0.02819752717358627 -0.26427586359137462 0 0.012695631256519589 -0.2601572594421625 0 0.02819752717358627 -0.26427586359137462 0 0.01940109808522571 -0.2513620540507544 0 0.012695631256519589 -0.2601572594421625 0 0.019541214033969651 -0.28858855195384697 0 0.02819752717358627 -0.26427586359137462 0 0.012695631256519589 -0.2601572594421625 0 0.019541214033969651 -0.28858855195384697 0 0.02819752717358627 -0.26427586359137462 0 0.019541214033969651 -0.28858855195384697 0 0.0026608380666450649 -0.27535432271331278 0 0.012695631256519589 -0.2601572594421625 0 -0.0028062646605471891 -0.25603865529295061 0 0.0026608380666450649 -0.27535432271331278 0 0.012695631256519589 -0.2601572594421625 0 0.01940109808522571 -0.2513620540507544 0 0.0061461166185984087 -0.25428847611900829 0 0.010525752145158791 -0.24610309580084319 0 0.01940109808522571 -0.2513620540507544 0 0.012695631256519589 -0.2601572594421625 0 0.0061461166185984087 -0.25428847611900829 0 -0.0028062646605471891 -0.25603865529295061 0 0.012695631256519589 -0.2601572594421625 0 -0.0028062646605471891 -0.25603865529295061 0 0.012695631256519589 -0.2601572594421625 0 0.0061461166185984087 -0.25428847611900829 0 -0.0028062646605471891 -0.25603865529295061 0 0.0061461166185984087 -0.25428847611900829 0 0.010525752145158791 -0.24610309580084319 0 -0.0028062646605471891 -0.25603865529295061 0 0.009936768792998131 -0.2313807498679101 0 -0.0028062646605471891 -0.25603865529295061 0 0.010525752145158791 -0.24610309580084319 0 0.009936768792998131 -0.2313807498679101 0 -0.0028062646605471891 -0.25603865529295061 0 -0.002530237488774692 -0.24437598203643451 0 0.009936768792998131 -0.2313807498679101 0 0.010525752145158791 -0.24610309580084319 0 0.009936768792998131 -0.2313807498679101 0 0.022541603882387851 -0.23960207489551821 0 -0.002530237488774692 -0.24437598203643451 0 -0.0015922057514601571 -0.23873122412804151 0 0.009936768792998131 -0.2313807498679101 0 -0.0015922057514601571 -0.23873122412804151 0 -0.00216090551606126 -0.23338461732650551 0 0.009936768792998131 -0.2313807498679101 0 -0.0025420893870695752 -0.22620329259932309 0 0.009936768792998131 -0.2313807498679101 0 0.004835303937409669 -0.21520312503532901 0 -0.00216090551606126 -0.23338461732650551 0 -0.0025420893870695752 -0.22620329259932309 0 0.009936768792998131 -0.2313807498679101 0 0.009936768792998131 -0.2313807498679101 0 0.026044751431013449 -0.2263335758760294 0 0.022506743964931419 -0.20796092265855329 0 0.009936768792998131 -0.2313807498679101 0 0.026044751431013449 -0.2263335758760294 0 0.022541603882387851 -0.23960207489551821 0 0.026044751431013449 -0.2263335758760294 0 0.022541603882387851 -0.23960207489551821 0 0.038668380851795012 -0.2348667377590184 0 0.009936768792998131 -0.2313807498679101 0 0.022506743964931419 -0.20796092265855329 0 0.01940109808522571 -0.2513620540507544 0 0.022541603882387851 -0.23960207489551821 0 0.033432954012691252 -0.2495713006751967 0 0.01940109808522571 -0.2513620540507544 0 0.010525752145158791 -0.24610309580084319 0 0.022541603882387851 -0.23960207489551821 0 -0.0053548066405819184 -0.199869257964846 0 0.0066136436387469327 -0.18951179742331359 0 0.006958858200533817 -0.20299696070589909 0 0.0066136436387469327 -0.18951179742331359 0 0.006958858200533817 -0.20299696070589909 0 0.017788991235268531 -0.19625269405924031 0 0.009936768792998131 -0.2313807498679101 0 0.004835303937409669 -0.21520312503532901 0 0.022506743964931419 -0.20796092265855329 0 0.006958858200533817 -0.20299696070589909 0 0.004835303937409669 -0.21520312503532901 0 0.022506743964931419 -0.20796092265855329 0 -0.0020784706516440129 -0.20733256337608791 0 0.006958858200533817 -0.20299696070589909 0 0.004835303937409669 -0.21520312503532901 0 0.026044751431013449 -0.2263335758760294 0 0.022506743964931419 -0.20796092265855329 0 0.036570259662954852 -0.21785739419914721 0 0.022506743964931419 -0.20796092265855329 0 0.035076719136861938 -0.18454109544919511 0 0.022506743964931419 -0.20796092265855329 0 0.017788991235268531 -0.19625269405924031 0 0.035076719136861938 -0.18454109544919511 0 0.0066136436387469327 -0.18951179742331359 0 0.017788991235268531 -0.19625269405924031 0 0.035076719136861938 -0.18454109544919511 0 0.006958858200533817 -0.20299696070589909 0 0.022506743964931419 -0.20796092265855329 0 0.017788991235268531 -0.19625269405924031 0 0.022506743964931419 -0.20796092265855329 0 0.038699955022833153 -0.1945624868934229 0 0.035076719136861938 -0.18454109544919511 0 0.022506743964931419 -0.20796092265855329 0 0.038699955022833153 -0.1945624868934229 0 0.039265863518355093 -0.20486682465988379 0 0.038699955022833153 -0.1945624868934229 0 0.048519462495620683 -0.19831714864654371 0 0.046956993246417889 -0.1884881545549818 0 0.038699955022833153 -0.1945624868934229 0 0.046956993246417889 -0.1884881545549818 0 0.03925817035880879 -0.18381085996058641 0 0.038699955022833153 -0.1945624868934229 0 0.035076719136861938 -0.18454109544919511 0 0.03925817035880879 -0.18381085996058641 0 0.038699955022833153 -0.1945624868934229 0 0.039265863518355093 -0.20486682465988379 0 0.048519462495620683 -0.19831714864654371 0 0.022506743964931419 -0.20796092265855329 0 0.039265863518355093 -0.20486682465988379 0 0.036570259662954852 -0.21785739419914721 0 0.039265863518355093 -0.20486682465988379 0 0.05028517971550904 -0.20910923216721061 0 0.048519462495620683 -0.19831714864654371 0 0.039265863518355093 -0.20486682465988379 0 0.036570259662954852 -0.21785739419914721 0 0.05028517971550904 -0.20910923216721061 0 0.036570259662954852 -0.21785739419914721 0 0.05028517971550904 -0.20910923216721061 0 0.050459363741028218 -0.22205524637631199 0 0.05028517971550904 -0.20910923216721061 0 0.050459363741028218 -0.22205524637631199 0 0.065665025189558635 -0.21550789752919969 0 0.05028517971550904 -0.20910923216721061 0 0.060775518686890691 -0.2017797803426872 0 0.065665025189558635 -0.21550789752919969 0 0.05028517971550904 -0.20910923216721061 0 0.048519462495620683 -0.19831714864654371 0 0.060775518686890691 -0.2017797803426872 0 0.048519462495620683 -0.19831714864654371 0 0.060775518686890691 -0.2017797803426872 0 0.055015285883687988 -0.19054401703869589 0 0.060775518686890691 -0.2017797803426872 0 0.055015285883687988 -0.19054401703869589 0 0.063514293669944308 -0.18773275999691599 0 0.048519462495620683 -0.19831714864654371 0 0.055015285883687988 -0.19054401703869589 0 0.046956993246417889 -0.1884881545549818 0 0.022541603882387851 -0.23960207489551821 0 0.033432954012691252 -0.2495713006751967 0 0.038668380851795012 -0.2348667377590184 0 0.033432954012691252 -0.2495713006751967 0 0.038668380851795012 -0.2348667377590184 0 0.053457937141745883 -0.24841672040361329 0 0.033432954012691252 -0.2495713006751967 0 0.038668380851795012 -0.2348667377590184 0 0.026044751431013449 -0.2263335758760294 0 0.036570259662954852 -0.21785739419914721 0 0.038668380851795012 -0.2348667377590184 0 0.036570259662954852 -0.21785739419914721 0 0.038668380851795012 -0.2348667377590184 0 0.050459363741028218 -0.22205524637631199 0 0.038668380851795012 -0.2348667377590184 0 0.061107973285323532 -0.23293497022698451 0 0.050459363741028218 -0.22205524637631199 0 0.061107973285323532 -0.23293497022698451 0 0.050459363741028218 -0.22205524637631199 0 0.065665025189558635 -0.21550789752919969 0 0.038668380851795012 -0.2348667377590184 0 0.061107973285323532 -0.23293497022698451 0 0.053457937141745883 -0.24841672040361329 0 0.061107973285323532 -0.23293497022698451 0 0.073288831844258218 -0.24638152795638571 0 0.085262523435793047 -0.2303869841642853 0 0.061107973285323532 -0.23293497022698451 0 0.053457937141745883 -0.24841672040361329 0 0.073288831844258218 -0.24638152795638571 0 0.090105712914478817 -0.2570866157219972 0 0.085262523435793047 -0.2303869841642853 0 0.10569055569705239 -0.24951258740225549 0 0.090105712914478817 -0.2570866157219972 0 0.073288831844258218 -0.24638152795638571 0 0.085262523435793047 -0.2303869841642853 0 0.090105712914478817 -0.2570866157219972 0 0.085262523435793047 -0.2303869841642853 0 0.061107973285323532 -0.23293497022698451 0 0.085262523435793047 -0.2303869841642853 0 0.065665025189558635 -0.21550789752919969 0 0.085262523435793047 -0.2303869841642853 0 0.065665025189558635 -0.21550789752919969 0 0.080419333957107292 -0.20368735260657339 0 0.060775518686890691 -0.2017797803426872 0 0.065665025189558635 -0.21550789752919969 0 0.080419333957107292 -0.20368735260657339 0 0.080419333957107292 -0.20368735260657339 0 0.07557614447845018 -0.17698772104885629 0 0.060775518686890691 -0.2017797803426872 0 0.063514293669944308 -0.18773275999691599 0 0.080419333957107292 -0.20368735260657339 0 0.063514293669944308 -0.18773275999691599 0 0.080419333957107292 -0.20368735260657339 0 0.07557614447845018 -0.17698772104885629 0 0.080419333957107292 -0.20368735260657339 0 0.1011897078162706 -0.18267490615504381 0 0.07557614447845018 -0.17698772104885629 0 0.085262523435793047 -0.2303869841642853 0 0.080419333957107292 -0.20368735260657339 0 0.085262523435793047 -0.2303869841642853 0 0.080419333957107292 -0.20368735260657339 0 0.10533351705787269 -0.21647451426263059 0 0.080419333957107292 -0.20368735260657339 0 0.10533351705787269 -0.21647451426263059 0 0.1069270271878502 -0.1996675928276026 0 0.080419333957107292 -0.20368735260657339 0 0.1069270271878502 -0.1996675928276026 0 0.1011897078162706 -0.18267490615504381 0 0.1069270271878502 -0.1996675928276026 0 0.1208893059539121 -0.2071390998525228 0 0.12680327115408821 -0.18836209126124401 0 0.1069270271878502 -0.1996675928276026 0 0.1011897078162706 -0.18267490615504381 0 0.12680327115408821 -0.18836209126124401 0 0.10533351705787269 -0.21647451426263059 0 0.1069270271878502 -0.1996675928276026 0 0.1208893059539121 -0.2071390998525228 0 0.10533351705787269 -0.21647451426263059 0 0.1208893059539121 -0.2071390998525228 0 0.12038005181342799 -0.21805933841298891 0 0.1208893059539121 -0.2071390998525228 0 0.12038005181342799 -0.21805933841298891 0 0.12635983332139389 -0.21621258582908121 0 0.12038005181342799 -0.21805933841298891 0 0.1164023878349522 -0.22853524419724441 0 0.12801637145101399 -0.2242824711833365 0 0.12038005181342799 -0.21805933841298891 0 0.12801637145101399 -0.2242824711833365 0 0.12635983332139389 -0.21621258582908121 0 0.10533351705787269 -0.21647451426263059 0 0.12038005181342799 -0.21805933841298891 0 0.1164023878349522 -0.22853524419724441 0 0.1164023878349522 -0.22853524419724441 0 0.11537546846505931 -0.23921365609544151 0 0.10565944488952771 -0.232647283260704 0 0.1164023878349522 -0.22853524419724441 0 0.11537546846505931 -0.23921365609544151 0 0.1261392696030291 -0.2339588230044238 0 0.1164023878349522 -0.22853524419724441 0 0.12801637145101399 -0.2242824711833365 0 0.1261392696030291 -0.2339588230044238 0 0.12307433225321859 -0.24857721426736179 0 0.11537546846505931 -0.23921365609544151 0 0.10569055569705239 -0.24951258740225549 0 0.12307433225321859 -0.24857721426736179 0 0.11537546846505931 -0.23921365609544151 0 0.1261392696030291 -0.2339588230044238 0 0.085262523435793047 -0.2303869841642853 0 0.10569055569705239 -0.24951258740225549 0 0.10565944488952771 -0.232647283260704 0 0.11537546846505931 -0.23921365609544151 0 0.10569055569705239 -0.24951258740225549 0 0.10565944488952771 -0.232647283260704 0 0.085262523435793047 -0.2303869841642853 0 0.10533351705787269 -0.21647451426263059 0 0.10565944488952771 -0.232647283260704 0 0.10533351705787269 -0.21647451426263059 0 0.1164023878349522 -0.22853524419724441 0 0.10565944488952771 -0.232647283260704 0 0.095882139161663466 -0.1409106216889211 0 0.1126116733902677 -0.147371321574431 0 0.08892448340172357 -0.1546409095315405 0 0.1126116733902677 -0.147371321574431 0 0.1031871975368642 -0.1638810395671193 0 0.08892448340172357 -0.1546409095315405 0 0.1126116733902677 -0.147371321574431 0 0.08892448340172357 -0.1546409095315405 0 0.095882139161663466 -0.1409106216889211 0 0.1076360072371169 -0.13299969205698201 0 0.092071906116818536 -0.13011632162184461 0 0.095882139161663466 -0.1409106216889211 0 0.1076360072371169 -0.13299969205698201 0 0.1126116733902677 -0.147371321574431 0 0.1076360072371169 -0.13299969205698201 0 0.092071906116818536 -0.13011632162184461 0 0.1026603410839662 -0.11862806253953299 0 0.1076360072371169 -0.13299969205698201 0 0.1026603410839662 -0.11862806253953299 0 0.1076360072371169 -0.13299969205698201 0 0.11988993624089821 -0.13300561870815261 0 0.1126116733902677 -0.147371321574431 0 0.1076360072371169 -0.13299969205698201 0 0.1126116733902677 -0.147371321574431 0 0.11988993624089821 -0.13300561870815261 0 0.1126116733902677 -0.147371321574431 0 0.13503027043397359 -0.14049106422169841 0 0.1076360072371169 -0.13299969205698201 0 0.11988993624089821 -0.13300561870815261 0 0.11600303181420291 -0.1207324919355562 0 0.11988993624089821 -0.13300561870815261 0 0.11600303181420291 -0.1207324919355562 0 0.12816869832892991 -0.12343352375209631 0 0.1126116733902677 -0.147371321574431 0 0.13503027043397359 -0.14049106422169841 0 0.1126116733902677 -0.147371321574431 0 0.1197074722721775 -0.1678667064178376 0 0.1359530756141544 -0.15895214696469581 0 0.1126116733902677 -0.147371321574431 0 0.1197074722721775 -0.1678667064178376 0 0.1031871975368642 -0.1638810395671193 0 0.1126116733902677 -0.147371321574431 0 0.1197074722721775 -0.1678667064178376 0 0.1011897078162706 -0.18267490615504381 0 0.12680327115408821 -0.18836209126124401 0 0.1197074722721775 -0.1678667064178376 0 0.1011897078162706 -0.18267490615504381 0 0.12680327115408821 -0.18836209126124401 0 0.1197074722721775 -0.1678667064178376 0 0.12680327115408821 -0.18836209126124401 0 0.1197074722721775 -0.1678667064178376 0 0.1011897078162706 -0.18267490615504381 0 0.1031871975368642 -0.1638810395671193 0 0.1011897078162706 -0.18267490615504381 0 0.1031871975368642 -0.1638810395671193 0 0.088442518271318549 -0.16856351835866221 0 0.1031871975368642 -0.1638810395671193 0 0.088442518271318549 -0.16856351835866221 0 0.08892448340172357 -0.1546409095315405 0 0.088442518271318549 -0.16856351835866221 0 0.07557614447845018 -0.17698772104885629 0 0.073335058123281741 -0.1646330154907619 0 0.088442518271318549 -0.16856351835866221 0 0.073335058123281741 -0.1646330154907619 0 0.08892448340172357 -0.1546409095315405 0 0.1011897078162706 -0.18267490615504381 0 0.088442518271318549 -0.16856351835866221 0 0.07557614447845018 -0.17698772104885629 0 0.1011897078162706 -0.18267490615504381 0 0.07557614447845018 -0.17698772104885629 0 0.063514293669944308 -0.18773275999691599 0 0.07557614447845018 -0.17698772104885629 0 0.059293876832860408 -0.17337243844142969 0 0.07557614447845018 -0.17698772104885629 0 0.059293876832860408 -0.17337243844142969 0 0.073335058123281741 -0.1646330154907619 0 0.065237293413179548 -0.1619104974886503 0 0.08892448340172357 -0.1546409095315405 0 0.065237293413179548 -0.1619104974886503 0 0.08892448340172357 -0.1546409095315405 0 0.07557614447845018 -0.17698772104885629 0 0.071734950266719583 -0.16509669307668651 0 0.059293876832860408 -0.17337243844142969 0 0.07557614447845018 -0.17698772104885629 0 0.073335058123281741 -0.1646330154907619 0 0.071734950266719583 -0.16509669307668651 0 0.07557614447845018 -0.17698772104885629 0 0.073335058123281741 -0.1646330154907619 0 0.071734950266719583 -0.16509669307668651 0 0.065237293413179548 -0.1619104974886503 0 0.059293876832860408 -0.17337243844142969 0 0.073335058123281741 -0.1646330154907619 0 0.071734950266719583 -0.16509669307668651 0 0.065237293413179548 -0.1619104974886503 0 0.071734950266719583 -0.16509669307668651 0 0.065237293413179548 -0.1619104974886503 0 0.068051422138012241 -0.14925978492841649 0 0.078166625662390798 -0.13942486365980811 0 0.058981729442313377 -0.14000232722302219 0 0.065237293413179548 -0.1619104974886503 0 0.068051422138012241 -0.14925978492841649 0 0.08892448340172357 -0.1546409095315405 0 0.068051422138012241 -0.14925978492841649 0 0.08892448340172357 -0.1546409095315405 0 0.078166625662390798 -0.13942486365980811 0 0.095882139161663466 -0.1409106216889211 0 0.08892448340172357 -0.1546409095315405 0 0.078166625662390798 -0.13942486365980811 0 0.095882139161663466 -0.1409106216889211 0 0.092071906116818536 -0.13011632162184461 0 0.078166625662390798 -0.13942486365980811 0 0.092071906116818536 -0.13011632162184461 0 0.08115880249185764 -0.12807390632134619 0 0.087409615339735972 -0.11766729937109049 0 0.092071906116818536 -0.13011632162184461 0 0.078166625662390798 -0.13942486365980811 0 0.08115880249185764 -0.12807390632134619 0 0.078166625662390798 -0.13942486365980811 0 0.08115880249185764 -0.12807390632134619 0 0.06698706284848524 -0.12508714063264159 0 0.078166625662390798 -0.13942486365980811 0 0.06698706284848524 -0.12508714063264159 0 0.058981729442313377 -0.14000232722302219 0 0.06698706284848524 -0.12508714063264159 0 0.058981729442313377 -0.14000232722302219 0 0.06698706284848524 -0.12508714063264159 0 0.052933514242022597 -0.13019302051059109 0 0.050734705002981127 -0.11982086705425769 0 0.06698706284848524 -0.12508714063264159 0 0.052933514242022597 -0.13019302051059109 0 0.06698706284848524 -0.12508714063264159 0 0.052933514242022597 -0.13019302051059109 0 0.058981729442313377 -0.14000232722302219 0 0.052933514242022597 -0.13019302051059109 0 0.037987255988143259 -0.12739414594267109 0 0.050734705002981127 -0.11982086705425769 0 0.052933514242022597 -0.13019302051059109 0 0.058981729442313377 -0.14000232722302219 0 0.045623484100697227 -0.1393407730916903 0 0.068051422138012241 -0.14925978492841649 0 0.058981729442313377 -0.14000232722302219 0 0.050976396036145163 -0.15491751381340471 0 0.065237293413179548 -0.1619104974886503 0 0.068051422138012241 -0.14925978492841649 0 0.050976396036145163 -0.15491751381340471 0 0.058981729442313377 -0.14000232722302219 0 0.050976396036145163 -0.15491751381340471 0 0.058981729442313377 -0.14000232722302219 0 0.050976396036145163 -0.15491751381340471 0 0.045623484100697227 -0.1393407730916903 0 0.050976396036145163 -0.15491751381340471 0 0.041072616968417887 -0.16932662582448091 0 0.028556754452453179 -0.14392380258650281 0 0.050976396036145163 -0.15491751381340471 0 0.028556754452453179 -0.14392380258650281 0 0.050976396036145163 -0.15491751381340471 0 0.045623484100697227 -0.1393407730916903 0 0.028556754452453179 -0.14392380258650281 0 0.037987255988143259 -0.12739414594267109 0 0.045623484100697227 -0.1393407730916903 0 0.028556754452453179 -0.14392380258650281 0 0.052933514242022597 -0.13019302051059109 0 0.037987255988143259 -0.12739414594267109 0 0.045623484100697227 -0.1393407730916903 0 0.059293876832860408 -0.17337243844142969 0 0.049887623280636673 -0.1794728542808845 0 0.043011609187267152 -0.1697571558340189 0 0.046956993246417889 -0.1884881545549818 0 0.049887623280636673 -0.1794728542808845 0 0.044707188845387817 -0.1823978589661753 0 0.055015285883687988 -0.19054401703869589 0 0.046956993246417889 -0.1884881545549818 0 0.049887623280636673 -0.1794728542808845 0 0.055015285883687988 -0.19054401703869589 0 0.063514293669944308 -0.18773275999691599 0 0.049887623280636673 -0.1794728542808845 0 0.063514293669944308 -0.18773275999691599 0 0.059293876832860408 -0.17337243844142969 0 0.049887623280636673 -0.1794728542808845 0 0.065237293413179548 -0.1619104974886503 0 0.050976396036145163 -0.15491751381340471 0 0.043011609187267152 -0.1697571558340189 0 0.065237293413179548 -0.1619104974886503 0 0.059293876832860408 -0.17337243844142969 0 0.043011609187267152 -0.1697571558340189 0 0.065237293413179548 -0.1619104974886503 0 0.043011609187267152 -0.1697571558340189 0 0.059293876832860408 -0.17337243844142969 0 0.043011609187267152 -0.1697571558340189 0 0.065237293413179548 -0.1619104974886503 0 0.050976396036145163 -0.15491751381340471 0 0.050976396036145163 -0.15491751381340471 0 0.043011609187267152 -0.1697571558340189 0 0.050976396036145163 -0.15491751381340471 0 0.041072616968417887 -0.16932662582448091 0 0.043011609187267152 -0.1697571558340189 0 0.041072616968417887 -0.16932662582448091 0 0.043011609187267152 -0.1697571558340189 0 0.041072616968417887 -0.16932662582448091 0 0.043011609187267152 -0.1697571558340189 0 0.035076719136861938 -0.18454109544919511 0 0.049887623280636673 -0.1794728542808845 0 0.043011609187267152 -0.1697571558340189 0 0.042379632678372151 -0.1781568396252507 0 0.043011609187267152 -0.1697571558340189 0 0.042379632678372151 -0.1781568396252507 0 0.035076719136861938 -0.18454109544919511 0 0.043011609187267152 -0.1697571558340189 0 0.035076719136861938 -0.18454109544919511 0 0.042379632678372151 -0.1781568396252507 0 0.035076719136861938 -0.18454109544919511 0 0.03925817035880879 -0.18381085996058641 0 0.035076719136861938 -0.18454109544919511 0 0.03925817035880879 -0.18381085996058641 0 0.042379632678372151 -0.1781568396252507 0 0.03925817035880879 -0.18381085996058641 0 0.044707188845387817 -0.1823978589661753 0 0.049887623280636673 -0.1794728542808845 0 0.042379632678372151 -0.1781568396252507 0 0.044707188845387817 -0.1823978589661753 0 0.046956993246417889 -0.1884881545549818 0 0.03925817035880879 -0.18381085996058641 0 0.044707188845387817 -0.1823978589661753 0 0.0066136436387469327 -0.18951179742331359 0 0.035076719136861938 -0.18454109544919511 0 0.041072616968417887 -0.16932662582448091 0 0.01378874730351626 -0.17770003315710831 0 0.041072616968417887 -0.16932662582448091 0 0.035076719136861938 -0.18454109544919511 0 0.01378874730351626 -0.17770003315710831 0 0.0066136436387469327 -0.18951179742331359 0 0.035076719136861938 -0.18454109544919511 0 0.01378874730351626 -0.17770003315710831 0 0.041072616968417887 -0.16932662582448091 0 0.01463103200196861 -0.16345558842830921 0 0.01378874730351626 -0.17770003315710831 0 0.041072616968417887 -0.16932662582448091 0 0.01463103200196861 -0.16345558842830921 0 0.041072616968417887 -0.16932662582448091 0 0.01463103200196861 -0.16345558842830921 0 0.028556754452453179 -0.14392380258650281 0 -0.0028894263151013492 -0.17132874208039969 0 0.01463103200196861 -0.16345558842830921 0 0.01378874730351626 -0.17770003315710831 0 -0.01181055296448133 -0.15758455103214011 0 0.01463103200196861 -0.16345558842830921 0 -0.013495122361386461 -0.18607344048973279 0 0.01378874730351626 -0.17770003315710831 0 -0.013495122361386461 -0.18607344048973279 0 0.0066136436387469327 -0.18951179742331359 0 0.01378874730351626 -0.17770003315710831 0 0.028556754452453179 -0.14392380258650281 0 0.0061371128687612887 -0.13293009135960071 0 0.02465481044006497 -0.12695015448964189 0 0.028556754452453179 -0.14392380258650281 0 0.0061371128687612887 -0.13293009135960071 0 0.037987255988143259 -0.12739414594267109 0 0.02465481044006497 -0.12695015448964189 0 0.028556754452453179 -0.14392380258650281 0 0.01463103200196861 -0.16345558842830921 0 0.028556754452453179 -0.14392380258650281 0 0.0061371128687612887 -0.13293009135960071 0 -0.01181055296448133 -0.15758455103214011 0 0.01463103200196861 -0.16345558842830921 0 0.0061371128687612887 -0.13293009135960071 0 -0.0010234108840705769 -0.1111422733610427 0 0.0061371128687612887 -0.13293009135960071 0 0.017560929541950199 -0.1133006526961679 0 0.02465481044006497 -0.12695015448964189 0 0.0061371128687612887 -0.13293009135960071 0 0.017560929541950199 -0.1133006526961679 0 0.017560929541950199 -0.1133006526961679 0 0.031001402517282731 -0.11726890467820281 0 0.031739748893936007 -0.1061985885430913 0 0.02465481044006497 -0.12695015448964189 0 0.017560929541950199 -0.1133006526961679 0 0.031001402517282731 -0.11726890467820281 0 0.037987255988143259 -0.12739414594267109 0 0.02465481044006497 -0.12695015448964189 0 0.031001402517282731 -0.11726890467820281 0 0.02159284871405091 -0.099151061407949437 0 0.031739748893936007 -0.1061985885430913 0 0.035374476133589287 -0.09375858676105614 0 0.017560929541950199 -0.1133006526961679 0 0.02159284871405091 -0.099151061407949437 0 0.031739748893936007 -0.1061985885430913 0 0.017560929541950199 -0.1133006526961679 0 0.02159284871405091 -0.099151061407949437 0 0.0094817353331982553 -0.1019975741867017 0 -0.0010234108840705769 -0.1111422733610427 0 0.017560929541950199 -0.1133006526961679 0 0.0094817353331982553 -0.1019975741867017 0 0.02159284871405091 -0.099151061407949437 0 0.0094817353331982553 -0.1019975741867017 0 0.0096127330843122812 -0.090076832972628237 0 -0.0030207421050504179 -0.094690391065331614 0 -0.0010234108840705769 -0.1111422733610427 0 0.0094817353331982553 -0.1019975741867017 0 -0.0030207421050504179 -0.094690391065331614 0 0.0094817353331982553 -0.1019975741867017 0 0.0096127330843122812 -0.090076832972628237 0 -0.0030207421050504179 -0.094690391065331614 0 0.001362956578321187 -0.080402770807104701 0 0.0096127330843122812 -0.090076832972628237 0 0.001362956578321187 -0.080402770807104701 0 0.015595326529277051 -0.079825623567668383 0 0.0096127330843122812 -0.090076832972628237 0 -0.0086430830603134862 -0.070525339744229004 0 0.001362956578321187 -0.080402770807104701 0 0.011566756889433439 -0.064126794304745785 0 0.001362956578321187 -0.080402770807104701 0 0.015595326529277051 -0.079825623567668383 0 0.011566756889433439 -0.064126794304745785 0 0.011566756889433439 -0.064126794304745785 0 0.03238938128821154 -0.077489259239323344 0 0.029352071597231862 -0.060935351002876247 0 0.011566756889433439 -0.064126794304745785 0 0.03238938128821154 -0.077489259239323344 0 0.03238938128821154 -0.077489259239323344 0 0.029352071597231862 -0.060935351002876247 0 0.015595326529277051 -0.079825623567668383 0 0.011566756889433439 -0.064126794304745785 0 0.03238938128821154 -0.077489259239323344 0 0.015595326529277051 -0.079825623567668383 0 0.023110638431990741 -0.087600238434659264 0 0.03238938128821154 -0.077489259239323344 0 0.023110638431990741 -0.087600238434659264 0 0.03238938128821154 -0.077489259239323344 0 0.035374476133589287 -0.09375858676105614 0 0.02159284871405091 -0.099151061407949437 0 0.0096127330843122812 -0.090076832972628237 0 0.023110638431990741 -0.087600238434659264 0 0.015595326529277051 -0.079825623567668383 0 0.0096127330843122812 -0.090076832972628237 0 0.023110638431990741 -0.087600238434659264 0 0.02159284871405091 -0.099151061407949437 0 0.023110638431990741 -0.087600238434659264 0 0.035374476133589287 -0.09375858676105614 0 0.03238938128821154 -0.077489259239323344 0 0.035374476133589287 -0.09375858676105614 0 0.040713692243310833 -0.082831204188806115 0 0.03238938128821154 -0.077489259239323344 0 0.035374476133589287 -0.09375858676105614 0 0.040713692243310833 -0.082831204188806115 0 0.03238938128821154 -0.077489259239323344 0 0.040713692243310833 -0.082831204188806115 0 0.047746806317272239 -0.077488606848840846 0 0.049258343968381198 -0.089178099804879979 0 0.040713692243310833 -0.082831204188806115 0 0.049258343968381198 -0.089178099804879979 0 0.035374476133589287 -0.09375858676105614 0 0.03238938128821154 -0.077489259239323344 0 0.041614837900322887 -0.069855125538877488 0 0.029352071597231862 -0.060935351002876247 0 0.040713692243310833 -0.082831204188806115 0 0.03238938128821154 -0.077489259239323344 0 0.041614837900322887 -0.069855125538877488 0 0.040713692243310833 -0.082831204188806115 0 0.041614837900322887 -0.069855125538877488 0 0.047746806317272239 -0.077488606848840846 0 0.041614837900322887 -0.069855125538877488 0 0.055351957420979467 -0.066925852384832452 0 0.04577060204626375 -0.054225806398286808 0 0.047746806317272239 -0.077488606848840846 0 0.055351957420979467 -0.066925852384832452 0 0.056720710968407299 -0.080325629028930354 0 0.041614837900322887 -0.069855125538877488 0 0.047746806317272239 -0.077488606848840846 0 0.055351957420979467 -0.066925852384832452 0 0.055351957420979467 -0.066925852384832452 0 0.056720710968407299 -0.080325629028930354 0 0.063101122469663221 -0.073383159794779135 0 0.055351957420979467 -0.066925852384832452 0 0.061206259172253953 -0.056502711557208589 0 0.069406271578028422 -0.066105792805318003 0 0.047746806317272239 -0.077488606848840846 0 0.049258343968381198 -0.089178099804879979 0 0.056720710968407299 -0.080325629028930354 0 0.049258343968381198 -0.089178099804879979 0 0.056720710968407299 -0.080325629028930354 0 0.062764117619143064 -0.089477011201901754 0 0.049258343968381198 -0.089178099804879979 0 0.056433456263757363 -0.097280105884007789 0 0.062764117619143064 -0.089477011201901754 0 0.056433456263757363 -0.097280105884007789 0 0.064458521881977551 -0.1030652463136167 0 0.062764117619143064 -0.089477011201901754 0 0.049258343968381198 -0.089178099804879979 0 0.056433456263757363 -0.097280105884007789 0 0.045029997845235308 -0.1007457504813203 0 0.058056302525908647 -0.1118751447908664 0 0.043064267722319242 -0.1125009817194416 0 0.045029997845235308 -0.1007457504813203 0 0.056433456263757363 -0.097280105884007789 0 0.058056302525908647 -0.1118751447908664 0 0.045029997845235308 -0.1007457504813203 0 0.056433456263757363 -0.097280105884007789 0 0.058056302525908647 -0.1118751447908664 0 0.064458521881977551 -0.1030652463136167 0 0.06698706284848524 -0.12508714063264159 0 0.058056302525908647 -0.1118751447908664 0 0.050734705002981127 -0.11982086705425769 0 0.058056302525908647 -0.1118751447908664 0 0.050734705002981127 -0.11982086705425769 0 0.043064267722319242 -0.1125009817194416 0 0.037987255988143259 -0.12739414594267109 0 0.050734705002981127 -0.11982086705425769 0 0.043064267722319242 -0.1125009817194416 0 0.037987255988143259 -0.12739414594267109 0 0.031001402517282731 -0.11726890467820281 0 0.043064267722319242 -0.1125009817194416 0 0.031001402517282731 -0.11726890467820281 0 0.043064267722319242 -0.1125009817194416 0 0.031739748893936007 -0.1061985885430913 0 0.031739748893936007 -0.1061985885430913 0 0.035374476133589287 -0.09375858676105614 0 0.045029997845235308 -0.1007457504813203 0 0.049258343968381198 -0.089178099804879979 0 0.035374476133589287 -0.09375858676105614 0 0.045029997845235308 -0.1007457504813203 0 0.043064267722319242 -0.1125009817194416 0 0.031739748893936007 -0.1061985885430913 0 0.045029997845235308 -0.1007457504813203 0 0.02251926428410074 -0.0073038966235017301 0 0.018328231455461148 -0.019255538779088359 0 0.036106344407698297 -0.0051612020737346461 0 0.018328231455461148 -0.019255538779088359 0 0.036106344407698297 -0.0051612020737346461 0 0.018328231455461148 -0.019255538779088359 0 0.02140827554187447 -0.01764017062005846 0 0.036106344407698297 -0.0051612020737346461 0 0.02467877432803221 0.0042019712561680751 0 0.02251926428410074 -0.0073038966235017301 0 0.036106344407698297 -0.0051612020737346461 0 0.02140827554187447 -0.01764017062005846 0 0.033786072958920971 -0.017323700286417221 0 0.036106344407698297 -0.0051612020737346461 0 0.02251926428410074 -0.0073038966235017301 0 0.011284172552750139 -0.010635754128112169 0 0.018328231455461148 -0.019255538779088359 0 0.02467877432803221 0.0042019712561680751 0 0.02251926428410074 -0.0073038966235017301 0 0.011284172552750139 -0.010635754128112169 0 -0.00054800408978100679 -0.0084191619305039114 0 0.018328231455461148 -0.019255538779088359 0 -0.00054800408978100679 -0.0084191619305039114 0 0.0035384049315929219 -0.01422158895588529 0 0.018328231455461148 -0.019255538779088359 0 -0.0024677066761123741 -0.01085137102075517 0 0.0049815738509715237 0.0098677468062828497 0 -0.00054800408978100679 -0.0084191619305039114 0 0.011284172552750139 -0.010635754128112169 0 0.018328231455461148 -0.019255538779088359 0 -0.00054800408978100679 -0.0084191619305039114 0 -0.0024677066761123741 -0.01085137102075517 0 0.0049815738509715237 0.0098677468062828497 0 -0.00054800408978100679 -0.0084191619305039114 0 0.0072021928638943194 0.001053014752512365 0 0.011284172552750139 -0.010635754128112169 0 -0.0001056971232139192 -0.012226877567302801 0 -0.00066297982304809719 -0.014619421599601961 0 0.0035384049315929219 -0.01422158895588529 0 -0.0001056971232139192 -0.012226877567302801 0 -0.00054800408978100679 -0.0084191619305039114 0 0.0035384049315929219 -0.01422158895588529 0 0.0035384049315929219 -0.01422158895588529 0 0.0061787552525916093 -0.018957133519067609 0 0.018328231455461148 -0.019255538779088359 0 -0.001128837493879413 -0.034680937515615157 0 0.012078061132976801 -0.030837086751890751 0 0.018328231455461148 -0.019255538779088359 0 -0.001128837493879413 -0.034680937515615157 0 0.001676689434876717 -0.024690191921736999 0 0.018328231455461148 -0.019255538779088359 0 0.0061787552525916093 -0.018957133519067609 0 0.001676689434876717 -0.024690191921736999 0 0.018328231455461148 -0.019255538779088359 0 -0.001128837493879413 -0.034680937515615157 0 0.018328231455461148 -0.019255538779088359 0 0.0061787552525916093 -0.018957133519067609 0 0.001893944040340123 -0.018834665851262051 0 0.001676689434876717 -0.024690191921736999 0 -0.00066297982304809719 -0.014619421599601961 0 0.0035384049315929219 -0.01422158895588529 0 0.001893944040340123 -0.018834665851262051 0 0.0035384049315929219 -0.01422158895588529 0 0.0061787552525916093 -0.018957133519067609 0 0.001893944040340123 -0.018834665851262051 0 0.012078061132976801 -0.030837086751890751 0 0.01792256092675518 -0.026159773655955801 0 0.019714531579215419 -0.0327646500460166 0 0.012078061132976801 -0.030837086751890751 0 0.01792256092675518 -0.026159773655955801 0 0.018328231455461148 -0.019255538779088359 0 0.01792256092675518 -0.026159773655955801 0 0.022102177629255929 -0.021422067314266831 0 0.019714531579215419 -0.0327646500460166 0 0.01792256092675518 -0.026159773655955801 0 0.018328231455461148 -0.019255538779088359 0 0.022102177629255929 -0.021422067314266831 0 0.018328231455461148 -0.019255538779088359 0 0.02140827554187447 -0.01764017062005846 0 0.022102177629255929 -0.021422067314266831 0 0.02140827554187447 -0.01764017062005846 0 0.022102177629255929 -0.021422067314266831 0 0.018328231455461148 -0.019255538779088359 0 0.022102177629255929 -0.021422067314266831 0 0.02140827554187447 -0.01764017062005846 0 0.022102177629255929 -0.021422067314266831 0 0.033786072958920971 -0.017323700286417221 0 0.022102177629255929 -0.021422067314266831 0 0.026314761906252211 -0.044381442766429191 0 0.019714531579215419 -0.0327646500460166 0 0.022102177629255929 -0.021422067314266831 0 0.026314761906252211 -0.044381442766429191 0 0.026314761906252211 -0.044381442766429191 0 0.022669489819663411 -0.04586476836788099 0 0.0212206124806146 -0.040303376276419008 0 0.018031327394898568 -0.043502448723283758 0 0.012714489805933959 -0.040838000109619028 0 0.026314761906252211 -0.044381442766429191 0 0.0212206124806146 -0.040303376276419008 0 0.019714531579215419 -0.0327646500460166 0 0.026314761906252211 -0.044381442766429191 0 0.0212206124806146 -0.040303376276419008 0 0.022669489819663411 -0.04586476836788099 0 0.0212206124806146 -0.040303376276419008 0 0.022669489819663411 -0.04586476836788099 0 0.018031327394898568 -0.043502448723283758 0 0.022669489819663411 -0.04586476836788099 0 0.018031327394898568 -0.043502448723283758 0 0.01552071747338229 -0.047003650139216001 0 0.012078061132976801 -0.030837086751890751 0 0.0212206124806146 -0.040303376276419008 0 0.019714531579215419 -0.0327646500460166 0 -0.001128837493879413 -0.034680937515615157 0 0.012078061132976801 -0.030837086751890751 0 0.0212206124806146 -0.040303376276419008 0 -0.001128837493879413 -0.034680937515615157 0 0.0212206124806146 -0.040303376276419008 0 0.012714489805933959 -0.040838000109619028 0 -0.001128837493879413 -0.034680937515615157 0 0.0212206124806146 -0.040303376276419008 0 -0.001128837493879413 -0.034680937515615157 0 0.0067580730857419724 -0.039809893212708863 0 0.012714489805933959 -0.040838000109619028 0 -0.001128837493879413 -0.034680937515615157 0 0.00062593558706157881 -0.036194677136116411 0 0.0067580730857419724 -0.039809893212708863 0 0.0033640740049530869 -0.038556708246917551 0 0.00062593558706157881 -0.036194677136116411 0 0.0067580730857419724 -0.039809893212708863 0 -0.00025254928865790262 -0.038458025568642591 0 0.0033640740049530869 -0.038556708246917551 0 0.00062593558706157881 -0.036194677136116411 0 -0.00030323227905542711 -0.042401915278994201 0 -0.001150650971923293 -0.046643051696177038 0 0.003319636801746999 -0.04389963141392747 0 -0.00030323227905542711 -0.042401915278994201 0 0.0033640740049530869 -0.038556708246917551 0 0.003319636801746999 -0.04389963141392747 0 -0.00025254928865790262 -0.038458025568642591 0 -0.00030323227905542711 -0.042401915278994201 0 0.0033640740049530869 -0.038556708246917551 0 0.0033640740049530869 -0.038556708246917551 0 0.003319636801746999 -0.04389963141392747 0 0.0067580730857419724 -0.039809893212708863 0 0.003319636801746999 -0.04389963141392747 0 0.0067580730857419724 -0.039809893212708863 0 0.0073247173104522712 -0.045151333536247507 0 0.003319636801746999 -0.04389963141392747 0 0.0073247173104522712 -0.045151333536247507 0 0.0055277343438959363 -0.050975300030189873 0 0.0073247173104522712 -0.045151333536247507 0 0.01048440283380289 -0.043689782155922223 0 0.010533739487073561 -0.047382060868489111 0 0.0067580730857419724 -0.039809893212708863 0 0.0073247173104522712 -0.045151333536247507 0 0.01048440283380289 -0.043689782155922223 0 0.0067580730857419724 -0.039809893212708863 0 0.01048440283380289 -0.043689782155922223 0 0.012714489805933959 -0.040838000109619028 0 0.01048440283380289 -0.043689782155922223 0 0.01552071747338229 -0.047003650139216001 0 0.010533739487073561 -0.047382060868489111 0 0.01048440283380289 -0.043689782155922223 0 0.012714489805933959 -0.040838000109619028 0 0.01552071747338229 -0.047003650139216001 0 0.018031327394898568 -0.043502448723283758 0 0.012714489805933959 -0.040838000109619028 0 0.01552071747338229 -0.047003650139216001 0 0.01552071747338229 -0.047003650139216001 0 0.01270227621130169 -0.052646173416882262 0 0.010533739487073561 -0.047382060868489111 0 -0.0092558675093447514 -0.050764329370168337 0 0.011566756889433439 -0.064126794304745785 0 0.0055277343438959363 -0.050975300030189873 0 -0.0092558675093447514 -0.050764329370168337 0 0.011566756889433439 -0.064126794304745785 0 0.01270227621130169 -0.052646173416882262 0 0.010533739487073561 -0.047382060868489111 0 0.0055277343438959363 -0.050975300030189873 0 0.0073247173104522712 -0.045151333536247507 0 0.010533739487073561 -0.047382060868489111 0 0.0055277343438959363 -0.050975300030189873 0 -0.001150650971923293 -0.046643051696177038 0 0.003319636801746999 -0.04389963141392747 0 0.0055277343438959363 -0.050975300030189873 0 0.011566756889433439 -0.064126794304745785 0 0.01270227621130169 -0.052646173416882262 0 0.01975480560348197 -0.052560062829365588 0 0.011566756889433439 -0.064126794304745785 0 0.01270227621130169 -0.052646173416882262 0 0.0055277343438959363 -0.050975300030189873 0 0.026314761906252211 -0.044381442766429191 0 0.029352071597231862 -0.060935351002876247 0 0.01975480560348197 -0.052560062829365588 0 0.026314761906252211 -0.044381442766429191 0 0.029352071597231862 -0.060935351002876247 0 0.037172806544682982 -0.048850895570892852 0 0.026314761906252211 -0.044381442766429191 0 0.029352071597231862 -0.060935351002876247 0 0.011566756889433439 -0.064126794304745785 0 0.029352071597231862 -0.060935351002876247 0 0.01975480560348197 -0.052560062829365588 0 0.026314761906252211 -0.044381442766429191 0 0.022669489819663411 -0.04586476836788099 0 0.01975480560348197 -0.052560062829365588 0 0.022669489819663411 -0.04586476836788099 0 0.01552071747338229 -0.047003650139216001 0 0.01975480560348197 -0.052560062829365588 0 0.01552071747338229 -0.047003650139216001 0 0.01270227621130169 -0.052646173416882262 0 0.01975480560348197 -0.052560062829365588 0 0.029352071597231862 -0.060935351002876247 0 0.037172806544682982 -0.048850895570892852 0 0.04577060204626375 -0.054225806398286808 0 0.041614837900322887 -0.069855125538877488 0 0.029352071597231862 -0.060935351002876247 0 0.04577060204626375 -0.054225806398286808 0 0.055351957420979467 -0.066925852384832452 0 0.04577060204626375 -0.054225806398286808 0 0.061206259172253953 -0.056502711557208589 0 0.04577060204626375 -0.054225806398286808 0 0.061206259172253953 -0.056502711557208589 0 0.060918751814993947 -0.0437056961045287 0 0.060918751814993947 -0.0437056961045287 0 0.047253790628984119 -0.035860982115979663 0 0.067249804937621921 -0.027724250687857929 0 0.060918751814993947 -0.0437056961045287 0 0.047253790628984119 -0.035860982115979663 0 0.04577060204626375 -0.054225806398286808 0 0.060918751814993947 -0.0437056961045287 0 0.047253790628984119 -0.035860982115979663 0 0.047253790628984119 -0.035860982115979663 0 0.067249804937621921 -0.027724250687857929 0 0.026314761906252211 -0.044381442766429191 0 0.037172806544682982 -0.048850895570892852 0 0.047253790628984119 -0.035860982115979663 0 0.026314761906252211 -0.044381442766429191 0 0.047253790628984119 -0.035860982115979663 0 0.037172806544682982 -0.048850895570892852 0 0.04577060204626375 -0.054225806398286808 0 0.047253790628984119 -0.035860982115979663 0 0.022102177629255929 -0.021422067314266831 0 0.026314761906252211 -0.044381442766429191 0 0.047253790628984119 -0.035860982115979663 0 0.022102177629255929 -0.021422067314266831 0 0.047253790628984119 -0.035860982115979663 0 0.047253790628984119 -0.035860982115979663 0 0.033786072958920971 -0.017323700286417221 0 0.051217692665439067 -0.016739131161654989 0 0.022102177629255929 -0.021422067314266831 0 0.047253790628984119 -0.035860982115979663 0 0.033786072958920971 -0.017323700286417221 0 0.051217692665439067 -0.016739131161654989 0 0.067640138836871547 -0.01270511951758313 0 0.067249804937621921 -0.027724250687857929 0 0.047253790628984119 -0.035860982115979663 0 0.051217692665439067 -0.016739131161654989 0 0.067249804937621921 -0.027724250687857929 0 0.051217692665439067 -0.016739131161654989 0 0.057185388887520977 -0.0041612752712019956 0 0.067640138836871547 -0.01270511951758313 0 0.051217692665439067 -0.016739131161654989 0 0.057185388887520977 -0.0041612752712019956 0 0.036106344407698297 -0.0051612020737346461 0 0.053884457359936293 0.0089331346316180692 0 0.057185388887520977 -0.0041612752712019956 0 0.036106344407698297 -0.0051612020737346461 0 0.033786072958920971 -0.017323700286417221 0 0.051217692665439067 -0.016739131161654989 0 0.036106344407698297 -0.0051612020737346461 0 0.077078311167659674 0.0048659417653447177 0 0.096641392955245917 0.003349163440841085 0 0.087245819246259917 -0.019587519259736692 0 0.077078311167659674 0.0048659417653447177 0 0.067640138836871547 -0.01270511951758313 0 0.087245819246259917 -0.019587519259736692 0 0.077078311167659674 0.0048659417653447177 0 0.057185388887520977 -0.0041612752712019956 0 0.067640138836871547 -0.01270511951758313 0 0.067249804937621921 -0.027724250687857929 0 0.087245819246259917 -0.019587519259736692 0 0.067640138836871547 -0.01270511951758313 0 0.067249804937621921 -0.027724250687857929 0 0.087245819246259917 -0.019587519259736692 0 0.067249804937621921 -0.027724250687857929 0 0.087245819246259917 -0.019587519259736692 0 0.075695392328228764 -0.036226672656997548 0 0.087245819246259917 -0.019587519259736692 0 0.088478872641263931 -0.038565487139787448 0 0.1017795725991693 -0.029582879511287231 0 0.087245819246259917 -0.019587519259736692 0 0.088478872641263931 -0.038565487139787448 0 0.075695392328228764 -0.036226672656997548 0 0.088478872641263931 -0.038565487139787448 0 0.075695392328228764 -0.036226672656997548 0 0.074583713001004137 -0.051550410093076968 0 0.060918751814993947 -0.0437056961045287 0 0.067249804937621921 -0.027724250687857929 0 0.075695392328228764 -0.036226672656997548 0 0.060918751814993947 -0.0437056961045287 0 0.075695392328228764 -0.036226672656997548 0 0.074583713001004137 -0.051550410093076968 0 0.074583713001004137 -0.051550410093076968 0 0.069406271578028422 -0.066105792805318003 0 0.086686313252325592 -0.068248012243648126 0 0.061206259172253953 -0.056502711557208589 0 0.060918751814993947 -0.0437056961045287 0 0.074583713001004137 -0.051550410093076968 0 0.060918751814993947 -0.0437056961045287 0 0.074583713001004137 -0.051550410093076968 0 0.061206259172253953 -0.056502711557208589 0 0.074583713001004137 -0.051550410093076968 0 0.069406271578028422 -0.066105792805318003 0 0.088478872641263931 -0.038565487139787448 0 0.074583713001004137 -0.051550410093076968 0 0.090333427593764684 -0.053521496434106593 0 0.074583713001004137 -0.051550410093076968 0 0.090333427593764684 -0.053521496434106593 0 0.086686313252325592 -0.068248012243648126 0 0.090333427593764684 -0.053521496434106593 0 0.1005475090788043 -0.061223194000145503 0 0.086686313252325592 -0.068248012243648126 0 0.1005475090788043 -0.061223194000145503 0 0.11592200956431591 -0.062451931634909488 0 0.10536409331115899 -0.046429545505966598 0 0.090333427593764684 -0.053521496434106593 0 0.1005475090788043 -0.061223194000145503 0 0.10536409331115899 -0.046429545505966598 0 0.11592200956431591 -0.062451931634909488 0 0.1221149751744896 -0.04776379745822542 0 0.1350856297758613 -0.061638645388421863 0 0.11592200956431591 -0.062451931634909488 0 0.1221149751744896 -0.04776379745822542 0 0.10536409331115899 -0.046429545505966598 0 0.1221149751744896 -0.04776379745822542 0 0.10536409331115899 -0.046429545505966598 0 0.11897703352856261 -0.029479632737043789 0 0.088478872641263931 -0.038565487139787448 0 0.090333427593764684 -0.053521496434106593 0 0.10536409331115899 -0.046429545505966598 0 0.088478872641263931 -0.038565487139787448 0 0.10536409331115899 -0.046429545505966598 0 0.1017795725991693 -0.029582879511287231 0 0.10536409331115899 -0.046429545505966598 0 0.1017795725991693 -0.029582879511287231 0 0.11897703352856261 -0.029479632737043789 0 0.087245819246259917 -0.019587519259736692 0 0.1017795725991693 -0.029582879511287231 0 0.1072418335548978 -0.01145078783161547 0 0.1017795725991693 -0.029582879511287231 0 0.11897703352856261 -0.029479632737043789 0 0.1072418335548978 -0.01145078783161547 0 0.11897703352856261 -0.029479632737043789 0 0.1248276010241347 -0.0085433062776674694 0 0.1072418335548978 -0.01145078783161547 0 0.118158237685422 0.011120547471588371 0 0.1248276010241347 -0.0085433062776674694 0 0.1072418335548978 -0.01145078783161547 0 0.087245819246259917 -0.019587519259736692 0 0.1072418335548978 -0.01145078783161547 0 0.096641392955245917 0.003349163440841085 0 0.087245819246259917 -0.019587519259736692 0 0.1072418335548978 -0.01145078783161547 0 0.084115031795187339 -0.1060072546870402 0 0.088604856099818968 -0.095516645643055106 0 0.073735603476374104 -0.096314114315990573 0 0.084115031795187339 -0.1060072546870402 0 0.088604856099818968 -0.095516645643055106 0 0.0937388474180261 -0.10454632122689569 0 0.084115031795187339 -0.1060072546870402 0 0.0937388474180261 -0.10454632122689569 0 0.087409615339735972 -0.11766729937109049 0 0.08115880249185764 -0.12807390632134619 0 0.06698706284848524 -0.12508714063264159 0 0.087409615339735972 -0.11766729937109049 0 0.084115031795187339 -0.1060072546870402 0 0.087409615339735972 -0.11766729937109049 0 0.073929837988552016 -0.1121516660664835 0 0.06698706284848524 -0.12508714063264159 0 0.087409615339735972 -0.11766729937109049 0 0.06698706284848524 -0.12508714063264159 0 0.087409615339735972 -0.11766729937109049 0 0.073929837988552016 -0.1121516660664835 0 0.06698706284848524 -0.12508714063264159 0 0.058056302525908647 -0.1118751447908664 0 0.073929837988552016 -0.1121516660664835 0 0.06698706284848524 -0.12508714063264159 0 0.073929837988552016 -0.1121516660664835 0 0.073929837988552016 -0.1121516660664835 0 0.064458521881977551 -0.1030652463136167 0 0.073735603476374104 -0.096314114315990573 0 0.058056302525908647 -0.1118751447908664 0 0.073929837988552016 -0.1121516660664835 0 0.064458521881977551 -0.1030652463136167 0 0.084115031795187339 -0.1060072546870402 0 0.073929837988552016 -0.1121516660664835 0 0.073735603476374104 -0.096314114315990573 0 0.064458521881977551 -0.1030652463136167 0 0.073735603476374104 -0.096314114315990573 0 0.062764117619143064 -0.089477011201901754 0 0.073735603476374104 -0.096314114315990573 0 0.062764117619143064 -0.089477011201901754 0 0.070925549911237701 -0.080175364960035772 0 0.073735603476374104 -0.096314114315990573 0 0.070925549911237701 -0.080175364960035772 0 0.086084273062004973 -0.083162249354069323 0 0.056720710968407299 -0.080325629028930354 0 0.062764117619143064 -0.089477011201901754 0 0.070925549911237701 -0.080175364960035772 0 0.070925549911237701 -0.080175364960035772 0 0.069406271578028422 -0.066105792805318003 0 0.086686313252325592 -0.068248012243648126 0 0.055351957420979467 -0.066925852384832452 0 0.069406271578028422 -0.066105792805318003 0 0.063101122469663221 -0.073383159794779135 0 0.056720710968407299 -0.080325629028930354 0 0.070925549911237701 -0.080175364960035772 0 0.063101122469663221 -0.073383159794779135 0 0.070925549911237701 -0.080175364960035772 0 0.069406271578028422 -0.066105792805318003 0 0.063101122469663221 -0.073383159794779135 0 0.086686313252325592 -0.068248012243648126 0 0.086084273062004973 -0.083162249354069323 0 0.1048033223160427 -0.078099754881741965 0 0.070925549911237701 -0.080175364960035772 0 0.086686313252325592 -0.068248012243648126 0 0.086084273062004973 -0.083162249354069323 0 0.088604856099818968 -0.095516645643055106 0 0.073735603476374104 -0.096314114315990573 0 0.086084273062004973 -0.083162249354069323 0 0.088604856099818968 -0.095516645643055106 0 0.086084273062004973 -0.083162249354069323 0 0.1007325660244015 -0.093292948323753039 0 0.086084273062004973 -0.083162249354069323 0 0.1007325660244015 -0.093292948323753039 0 0.1048033223160427 -0.078099754881741965 0 0.1007325660244015 -0.093292948323753039 0 0.1048033223160427 -0.078099754881741965 0 0.1165290213191402 -0.090463685864866514 0 0.1005475090788043 -0.061223194000145503 0 0.11592200956431591 -0.062451931634909488 0 0.1048033223160427 -0.078099754881741965 0 0.1005475090788043 -0.061223194000145503 0 0.086686313252325592 -0.068248012243648126 0 0.1048033223160427 -0.078099754881741965 0 0.11592200956431591 -0.062451931634909488 0 0.1048033223160427 -0.078099754881741965 0 0.12609770391785291 -0.076378572439673609 0 0.1048033223160427 -0.078099754881741965 0 0.1165290213191402 -0.090463685864866514 0 0.12609770391785291 -0.076378572439673609 0 0.1048033223160427 -0.078099754881741965 0 0.1165290213191402 -0.090463685864866514 0 0.1165290213191402 -0.090463685864866514 0 0.13132491805039459 -0.089016174331263076 0 0.12609770391785291 -0.076378572439673609 0 0.1165290213191402 -0.090463685864866514 0 0.12825472032223831 -0.10282761684799049 0 0.1078321678309867 -0.1102474581095394 0 0.12825472032223831 -0.10282761684799049 0 0.1165290213191402 -0.090463685864866514 0 0.1078321678309867 -0.1102474581095394 0 0.12825472032223831 -0.10282761684799049 0 0.1007325660244015 -0.093292948323753039 0 0.1165290213191402 -0.090463685864866514 0 0.1078321678309867 -0.1102474581095394 0 0.0937388474180261 -0.10454632122689569 0 0.1007325660244015 -0.093292948323753039 0 0.1078321678309867 -0.1102474581095394 0 0.088604856099818968 -0.095516645643055106 0 0.0937388474180261 -0.10454632122689569 0 0.1007325660244015 -0.093292948323753039 0 0.087409615339735972 -0.11766729937109049 0 0.1078321678309867 -0.1102474581095394 0 0.0937388474180261 -0.10454632122689569 0 0.087409615339735972 -0.11766729937109049 0 0.1078321678309867 -0.1102474581095394 0 0.087409615339735972 -0.11766729937109049 0 0.1078321678309867 -0.1102474581095394 0 0.1026603410839662 -0.11862806253953299 0 0.092071906116818536 -0.13011632162184461 0 0.087409615339735972 -0.11766729937109049 0 0.1026603410839662 -0.11862806253953299 0 0.1078321678309867 -0.1102474581095394 0 0.1026603410839662 -0.11862806253953299 0 0.11600303181420291 -0.1207324919355562 0 0.1076360072371169 -0.13299969205698201 0 0.1026603410839662 -0.11862806253953299 0 0.11600303181420291 -0.1207324919355562 0 0.11600303181420291 -0.1207324919355562 0 0.12816869832892991 -0.12343352375209631 0 0.12825472032223831 -0.10282761684799049 0 0.1078321678309867 -0.1102474581095394 0 0.11600303181420291 -0.1207324919355562 0 0.12825472032223831 -0.10282761684799049 0 0.12816869832892991 -0.12343352375209631 0 0.14285179389995939 -0.1182192118584776 0 0.12825472032223831 -0.10282761684799049 0 0.14285179389995939 -0.1182192118584776 0 0.12825472032223831 -0.10282761684799049 0 0.14285179389995939 -0.1182192118584776 0 0.16058107896265711 -0.1196050691856473 0 0.15744886747767939 -0.13361080686896559 0 0.14285179389995939 -0.1182192118584776 0 0.15552917015342621 -0.1076057230369836 0 0.16058107896265711 -0.1196050691856473 0 0.14285179389995939 -0.1182192118584776 0 0.15552917015342621 -0.1076057230369836 0 0.14267897348181419 -0.097587054053188974 0 0.15552917015342621 -0.1076057230369836 0 0.14267897348181419 -0.097587054053188974 0 0.15710322664139059 -0.092346491258388952 0 0.14267897348181419 -0.097587054053188974 0 0.15710322664139059 -0.092346491258388952 0 0.14267897348181419 -0.097587054053188974 0 0.12825472032223831 -0.10282761684799049 0 0.14285179389995939 -0.1182192118584776 0 0.14267897348181419 -0.097587054053188974 0 0.12825472032223831 -0.10282761684799049 0 0.14267897348181419 -0.097587054053188974 0 0.12825472032223831 -0.10282761684799049 0 0.13132491805039459 -0.089016174331263076 0 0.1165290213191402 -0.090463685864866514 0 0.12825472032223831 -0.10282761684799049 0 0.13132491805039459 -0.089016174331263076 0 0.13132491805039459 -0.089016174331263076 0 0.12609770391785291 -0.076378572439673609 0 0.1430641712109279 -0.077823942450595207 0 0.14267897348181419 -0.097587054053188974 0 0.13132491805039459 -0.089016174331263076 0 0.1430641712109279 -0.077823942450595207 0 0.12609770391785291 -0.076378572439673609 0 0.1430641712109279 -0.077823942450595207 0 0.1350856297758613 -0.061638645388421863 0 0.11592200956431591 -0.062451931634909488 0 0.12609770391785291 -0.076378572439673609 0 0.1350856297758613 -0.061638645388421863 0 0.1430641712109279 -0.077823942450595207 0 0.15667404013825961 -0.063074385864841806 0 0.1629726137743514 -0.076630356158310223 0 0.1430641712109279 -0.077823942450595207 0 0.15667404013825961 -0.063074385864841806 0 0.1350856297758613 -0.061638645388421863 0 0.14267897348181419 -0.097587054053188974 0 0.1430641712109279 -0.077823942450595207 0 0.15710322664139059 -0.092346491258388952 0 0.1430641712109279 -0.077823942450595207 0 0.15710322664139059 -0.092346491258388952 0 0.1629726137743514 -0.076630356158310223 0 0.1430641712109279 -0.077823942450595207 0 0.15710322664139059 -0.092346491258388952 0 0.15710322664139059 -0.092346491258388952 0 0.1835924125441 -0.082722544661605432 0 0.15710322664139059 -0.092346491258388952 0 0.1629726137743514 -0.076630356158310223 0 0.1835924125441 -0.082722544661605432 0 0.15667404013825961 -0.063074385864841806 0 0.1629726137743514 -0.076630356158310223 0 0.17687738661829019 -0.067929767813610945 0 0.1629726137743514 -0.076630356158310223 0 0.17687738661829019 -0.067929767813610945 0 0.1835924125441 -0.082722544661605432 0 0.15710322664139059 -0.092346491258388952 0 0.1835924125441 -0.082722544661605432 0 0.18492672390704781 -0.098463842903746698 0 0.18492672390704781 -0.098463842903746698 0 0.1744307777813095 -0.110270788829215 0 0.19482140088642241 -0.1107790458917272 0 0.15710322664139059 -0.092346491258388952 0 0.18492672390704781 -0.098463842903746698 0 0.1744307777813095 -0.110270788829215 0 0.1744307777813095 -0.110270788829215 0 0.1917583289212271 -0.12819508640004221 0 0.1744307777813095 -0.110270788829215 0 0.19482140088642241 -0.1107790458917272 0 0.1917583289212271 -0.12819508640004221 0 0.17439077576098419 -0.1244542052942407 0 0.1744307777813095 -0.110270788829215 0 0.1917583289212271 -0.12819508640004221 0 0.15552917015342621 -0.1076057230369836 0 0.1744307777813095 -0.110270788829215 0 0.16058107896265711 -0.1196050691856473 0 0.17439077576098419 -0.1244542052942407 0 0.16058107896265711 -0.1196050691856473 0 0.16686387572006581 -0.13072134507260971 0 0.17439077576098419 -0.1244542052942407 0 0.1744307777813095 -0.110270788829215 0 0.16058107896265711 -0.1196050691856473 0 0.15710322664139059 -0.092346491258388952 0 0.1744307777813095 -0.110270788829215 0 0.15552917015342621 -0.1076057230369836 0 0.15710322664139059 -0.092346491258388952 0 0.1744307777813095 -0.110270788829215 0 0.14007318484290529 0.00069167290441296114 0 0.15707395672645269 -0.0073986462847924961 0 0.14007318484290529 0.00069167290441296114 0 0.13841066648722361 -0.020085099859865271 0 0.15707395672645269 -0.0073986462847924961 0 0.14007318484290529 0.00069167290441296114 0 0.1248276010241347 -0.0085433062776674694 0 0.13841066648722361 -0.020085099859865271 0 0.14007318484290529 0.00069167290441296114 0 0.13841066648722361 -0.020085099859865271 0 0.11897703352856261 -0.029479632737043789 0 0.1248276010241347 -0.0085433062776674694 0 0.13841066648722361 -0.020085099859865271 0 0.13841066648722361 -0.020085099859865271 0 0.13674814813154251 -0.040861872624143578 0 0.11897703352856261 -0.029479632737043789 0 0.13841066648722361 -0.020085099859865271 0 0.13674814813154251 -0.040861872624143578 0 0.13841066648722361 -0.020085099859865271 0 0.15917381413249601 -0.030686516969658469 0 0.15707395672645269 -0.0073986462847924961 0 0.13841066648722361 -0.020085099859865271 0 0.13674814813154251 -0.040861872624143578 0 0.15917381413249601 -0.030686516969658469 0 0.13674814813154251 -0.040861872624143578 0 0.15181686462462851 -0.046979345376640932 0 0.15917381413249601 -0.030686516969658469 0 0.1221149751744896 -0.04776379745822542 0 0.11897703352856261 -0.029479632737043789 0 0.13674814813154251 -0.040861872624143578 0 0.1221149751744896 -0.04776379745822542 0 0.13674814813154251 -0.040861872624143578 0 0.1350856297758613 -0.061638645388421863 0 0.13674814813154251 -0.040861872624143578 0 0.1350856297758613 -0.061638645388421863 0 0.15667404013825961 -0.063074385864841806 0 0.1350856297758613 -0.061638645388421863 0 0.15181686462462851 -0.046979345376640932 0 0.13674814813154251 -0.040861872624143578 0 0.1350856297758613 -0.061638645388421863 0 0.15181686462462851 -0.046979345376640932 0 0.15667404013825961 -0.063074385864841806 0 0.17687738661829019 -0.067929767813610945 0 0.17707179420229849 -0.04906463271968535 0 0.15667404013825961 -0.063074385864841806 0 0.15181686462462851 -0.046979345376640932 0 0.17707179420229849 -0.04906463271968535 0 0.17687738661829019 -0.067929767813610945 0 0.17707179420229849 -0.04906463271968535 0 0.2040760724324415 -0.068156919663611926 0 0.17707179420229849 -0.04906463271968535 0 0.18245663914907401 -0.031662367983942577 0 0.19987985319267471 -0.036979038504538139 0 0.17707179420229849 -0.04906463271968535 0 0.18245663914907401 -0.031662367983942577 0 0.15917381413249601 -0.030686516969658469 0 0.15181686462462851 -0.046979345376640932 0 0.17707179420229849 -0.04906463271968535 0 0.15917381413249601 -0.030686516969658469 0 0.15917381413249601 -0.030686516969658469 0 0.17407472860999931 -0.015488965473999319 0 0.15707395672645269 -0.0073986462847924961 0 0.18245663914907401 -0.031662367983942577 0 0.17407472860999931 -0.015488965473999319 0 0.19860754386476789 -0.01137599832411872 0 0.18245663914907401 -0.031662367983942577 0 0.15917381413249601 -0.030686516969658469 0 0.17407472860999931 -0.015488965473999319 0 0.18319044527574271 0.001983538708897655 0 0.16900359446208199 0.0020174119125163691 0 0.17407472860999931 -0.015488965473999319 0 0.18319044527574271 0.001983538708897655 0 0.17407472860999931 -0.015488965473999319 0 0.19860754386476789 -0.01137599832411872 0 0.17407472860999931 -0.015488965473999319 0 0.15707395672645269 -0.0073986462847924961 0 0.16900359446208199 0.0020174119125163691 0 0.17407472860999931 -0.015488965473999319 0 0.15707395672645269 -0.0073986462847924961 0 0.21051234954539819 0.010657545668979579 0 0.21379443551079011 -0.0044917321571892174 0 0.19860754386476789 -0.01137599832411872 0 0.21379443551079011 -0.0044917321571892174 0 0.19860754386476789 -0.01137599832411872 0 0.22268791218305081 -0.024893444289390929 0 0.18245663914907401 -0.031662367983942577 0 0.19860754386476789 -0.01137599832411872 0 0.19987985319267471 -0.036979038504538139 0 0.19987985319267471 -0.036979038504538139 0 0.22268791218305081 -0.024893444289390929 0 0.19860754386476789 -0.01137599832411872 0 0.19987985319267471 -0.036979038504538139 0 0.22268791218305081 -0.024893444289390929 0 0.19987985319267471 -0.036979038504538139 0 0.21972483668864071 -0.047899708625446437 0 0.22268791218305081 -0.024893444289390929 0 0.17707179420229849 -0.04906463271968535 0 0.19987985319267471 -0.036979038504538139 0 0.17707179420229849 -0.04906463271968535 0 0.19987985319267471 -0.036979038504538139 0 0.2040760724324415 -0.068156919663611926 0 0.21972483668864071 -0.047899708625446437 0 0.2040760724324415 -0.068156919663611926 0 0.21946764937839189 -0.064618881134095557 0 0.19987985319267471 -0.036979038504538139 0 0.21972483668864071 -0.047899708625446437 0 0.2040760724324415 -0.068156919663611926 0 0.2300334060188986 -0.055859373356493103 0 0.21972483668864071 -0.047899708625446437 0 0.23796533754392171 -0.039350791615619447 0 0.2300334060188986 -0.055859373356493103 0 0.21972483668864071 -0.047899708625446437 0 0.21946764937839189 -0.064618881134095557 0 0.2300334060188986 -0.055859373356493103 0 0.2455456683263457 -0.054849469214598157 0 0.22863757917970459 -0.073492661440307847 0 0.2300334060188986 -0.055859373356493103 0 0.2455456683263457 -0.054849469214598157 0 0.23796533754392171 -0.039350791615619447 0 0.26245375747298683 -0.036206276988888481 0 0.2455456683263457 -0.054849469214598157 0 0.23796533754392171 -0.039350791615619447 0 0.21972483668864071 -0.047899708625446437 0 0.23796533754392171 -0.039350791615619447 0 0.22268791218305081 -0.024893444289390929 0 0.22268791218305081 -0.024893444289390929 0 0.24549597117342711 -0.012807850074243629 0 0.23796533754392171 -0.039350791615619447 0 0.22268791218305081 -0.024893444289390929 0 0.24549597117342711 -0.012807850074243629 0 0.26245375747298683 -0.036206276988888481 0 0.23796533754392171 -0.039350791615619447 0 0.24549597117342711 -0.012807850074243629 0 0.23993170804288261 0.0050449336296522693 0 0.22839953870114971 0.0007346707372799427 0 0.24549597117342711 -0.012807850074243629 0 0.23993170804288261 0.0050449336296522693 0 0.26043281603631668 0.002112897292672999 0 0.24549597117342711 -0.012807850074243629 0 0.22839953870114971 0.0007346707372799427 0 0.22268791218305081 -0.024893444289390929 0 0.24549597117342711 -0.012807850074243629 0 0.22839953870114971 0.0007346707372799427 0 0.21379443551079011 -0.0044917321571892174 0 0.22268791218305081 -0.024893444289390929 0 0.21626261207945899 -0.1116293100151166 0 0.21172949003306349 -0.092135853666017536 0 0.22445882241257409 -0.099143420465372306 0 0.21626261207945899 -0.1116293100151166 0 0.19482140088642241 -0.1107790458917272 0 0.21172949003306349 -0.092135853666017536 0 0.19482140088642241 -0.1107790458917272 0 0.21172949003306349 -0.092135853666017536 0 0.21626261207945899 -0.1116293100151166 0 0.19482140088642241 -0.1107790458917272 0 0.2076926974701318 -0.12535898984740179 0 0.21626261207945899 -0.1116293100151166 0 0.22305417338551631 -0.13045532209807811 0 0.2076926974701318 -0.12535898984740179 0 0.19482140088642241 -0.1107790458917272 0 0.2076926974701318 -0.12535898984740179 0 0.1917583289212271 -0.12819508640004221 0 0.18492672390704781 -0.098463842903746698 0 0.19482140088642241 -0.1107790458917272 0 0.21172949003306349 -0.092135853666017536 0 0.1835924125441 -0.082722544661605432 0 0.18492672390704781 -0.098463842903746698 0 0.21172949003306349 -0.092135853666017536 0 0.1835924125441 -0.082722544661605432 0 0.2040760724324415 -0.068156919663611926 0 0.21172949003306349 -0.092135853666017536 0 0.17687738661829019 -0.067929767813610945 0 0.1835924125441 -0.082722544661605432 0 0.2040760724324415 -0.068156919663611926 0 0.2040760724324415 -0.068156919663611926 0 0.21486635257227421 -0.077685742584618453 0 0.21946764937839189 -0.064618881134095557 0 0.21486635257227421 -0.077685742584618453 0 0.21172949003306349 -0.092135853666017536 0 0.22863757917970459 -0.073492661440307847 0 0.2040760724324415 -0.068156919663611926 0 0.21486635257227421 -0.077685742584618453 0 0.21172949003306349 -0.092135853666017536 0 0.21172949003306349 -0.092135853666017536 0 0.2336959245124321 -0.08344739966556447 0 0.22863757917970459 -0.073492661440307847 0 0.21172949003306349 -0.092135853666017536 0 0.2336959245124321 -0.08344739966556447 0 0.22445882241257409 -0.099143420465372306 0 0.21172949003306349 -0.092135853666017536 0 0.22863757917970459 -0.073492661440307847 0 0.2300334060188986 -0.055859373356493103 0 0.21946764937839189 -0.064618881134095557 0 0.22863757917970459 -0.073492661440307847 0 0.21486635257227421 -0.077685742584618453 0 0.21946764937839189 -0.064618881134095557 0 0.22863757917970459 -0.073492661440307847 0 0.2455456683263457 -0.054849469214598157 0 0.22863757917970459 -0.073492661440307847 0 0.2455456683263457 -0.054849469214598157 0 0.22863757917970459 -0.073492661440307847 0 0.2420974336153236 -0.074098673510984453 0 0.2521052551029383 -0.069863450563826146 0 0.2455456683263457 -0.054849469214598157 0 0.2420974336153236 -0.074098673510984453 0 0.2336959245124321 -0.08344739966556447 0 0.22863757917970459 -0.073492661440307847 0 0.2420974336153236 -0.074098673510984453 0 0.25040830460899682 -0.079634987691361597 0 0.2521052551029383 -0.069863450563826146 0 0.2420974336153236 -0.074098673510984453 0 0.2336959245124321 -0.08344739966556447 0 0.2434201236699145 -0.085754315401211312 0 0.24240315192880449 -0.095696532354362984 0 0.2336959245124321 -0.08344739966556447 0 0.2420974336153236 -0.074098673510984453 0 0.2434201236699145 -0.085754315401211312 0 0.25040830460899682 -0.079634987691361597 0 0.2420974336153236 -0.074098673510984453 0 0.2434201236699145 -0.085754315401211312 0 0.25741518420236592 -0.096400768057638975 0 0.2434201236699145 -0.085754315401211312 0 0.24240315192880449 -0.095696532354362984 0 0.24240315192880449 -0.095696532354362984 0 0.23614726302534189 -0.1093611185147907 0 0.2458602867210446 -0.11515390161903991 0 0.25741518420236592 -0.096400768057638975 0 0.24240315192880449 -0.095696532354362984 0 0.2458602867210446 -0.11515390161903991 0 0.2336959245124321 -0.08344739966556447 0 0.23614726302534189 -0.1093611185147907 0 0.2336959245124321 -0.08344739966556447 0 0.24240315192880449 -0.095696532354362984 0 0.23614726302534189 -0.1093611185147907 0 0.2336959245124321 -0.08344739966556447 0 0.23614726302534189 -0.1093611185147907 0 0.22445882241257409 -0.099143420465372306 0 0.21626261207945899 -0.1116293100151166 0 0.23614726302534189 -0.1093611185147907 0 0.22445882241257409 -0.099143420465372306 0 0.21626261207945899 -0.1116293100151166 0 0.2285156625071422 -0.1216801469980006 0 0.22305417338551631 -0.13045532209807811 0 0.21626261207945899 -0.1116293100151166 0 0.23614726302534189 -0.1093611185147907 0 0.2285156625071422 -0.1216801469980006 0 0.23614726302534189 -0.1093611185147907 0 0.2460137926237394 -0.12515105592236961 0 0.23859860153825169 -0.1352748373640171 0 0.23614726302534189 -0.1093611185147907 0 0.2458602867210446 -0.11515390161903991 0 0.2460137926237394 -0.12515105592236961 0 0.23614726302534189 -0.1093611185147907 0 0.23859860153825169 -0.1352748373640171 0 0.23614726302534189 -0.1093611185147907 0 0.2285156625071422 -0.1216801469980006 0 0.23859860153825169 -0.1352748373640171 0 0.25622002015159723 -0.1188352847692218 0 0.2458602867210446 -0.11515390161903991 0 0.2460137926237394 -0.12515105592236961 0 0.2504782668817489 -0.139995163159433 0 0.2460137926237394 -0.12515105592236961 0 0.23859860153825169 -0.1352748373640171 0 0.23859860153825169 -0.1352748373640171 0 0.24104994005116151 -0.1611885562132436 0 0.2504782668817489 -0.139995163159433 0 0.25221373931194169 -0.15291776839272289 0 0.24104994005116151 -0.1611885562132436 0 0.2504782668817489 -0.139995163159433 0 0.23859860153825169 -0.1352748373640171 0 0.24104994005116151 -0.1611885562132436 0 0.23859860153825169 -0.1352748373640171 0 0.22701864884260869 -0.14677318705997749 0 0.24104994005116151 -0.1611885562132436 0 0.22701864884260869 -0.14677318705997749 0 0.20908588006114559 -0.14611938397086871 0 0.22330464917696799 -0.16082783565368 0 0.22701864884260869 -0.14677318705997749 0 0.22305417338551631 -0.13045532209807811 0 0.20908588006114559 -0.14611938397086871 0 0.23859860153825169 -0.1352748373640171 0 0.22701864884260869 -0.14677318705997749 0 0.22305417338551631 -0.13045532209807811 0 0.2285156625071422 -0.1216801469980006 0 0.23859860153825169 -0.1352748373640171 0 0.22305417338551631 -0.13045532209807811 0 0.22305417338551631 -0.13045532209807811 0 0.2076926974701318 -0.12535898984740179 0 0.20908588006114559 -0.14611938397086871 0 0.22305417338551631 -0.13045532209807811 0 0.20908588006114559 -0.14611938397086871 0 0.20908588006114559 -0.14611938397086871 0 0.22330464917696799 -0.16082783565368 0 0.1897010153286717 -0.14212080591378859 0 0.1945894005893711 -0.16237575446012059 0 0.18194212351519429 -0.16122625401496371 0 0.20908588006114559 -0.14611938397086871 0 0.1945894005893711 -0.16237575446012059 0 0.20908588006114559 -0.14611938397086871 0 0.1897010153286717 -0.14212080591378859 0 0.1945894005893711 -0.16237575446012059 0 0.20908588006114559 -0.14611938397086871 0 0.1917583289212271 -0.12819508640004221 0 0.2076926974701318 -0.12535898984740179 0 0.20908588006114559 -0.14611938397086871 0 0.1917583289212271 -0.12819508640004221 0 0.20908588006114559 -0.14611938397086871 0 0.1897010153286717 -0.14212080591378859 0 0.1917583289212271 -0.12819508640004221 0 0.19759635981514431 -0.1851691161073277 0 0.1945894005893711 -0.16237575446012059 0 0.2096337496442901 -0.16857176051756381 0 0.19759635981514431 -0.1851691161073277 0 0.1945894005893711 -0.16237575446012059 0 0.18009292111759659 -0.1786321249493725 0 0.20908588006114559 -0.14611938397086871 0 0.1945894005893711 -0.16237575446012059 0 0.2096337496442901 -0.16857176051756381 0 0.20908588006114559 -0.14611938397086871 0 0.2096337496442901 -0.16857176051756381 0 0.22330464917696799 -0.16082783565368 0 0.2096337496442901 -0.16857176051756381 0 0.22316013065625251 -0.1767223583037808 0 0.22330464917696799 -0.16082783565368 0 0.19759635981514431 -0.1851691161073277 0 0.2096337496442901 -0.16857176051756381 0 0.21438784895289581 -0.18630583522401001 0 0.2096337496442901 -0.16857176051756381 0 0.21438784895289581 -0.18630583522401001 0 0.22316013065625251 -0.1767223583037808 0 0.21438784895289581 -0.18630583522401001 0 0.22316013065625251 -0.1767223583037808 0 0.23095098721431709 -0.19237007278715959 0 0.22316013065625251 -0.1767223583037808 0 0.23752341829279139 -0.17553628733649049 0 0.23095098721431709 -0.19237007278715959 0 0.22316013065625251 -0.1767223583037808 0 0.22330464917696799 -0.16082783565368 0 0.23752341829279139 -0.17553628733649049 0 0.22330464917696799 -0.16082783565368 0 0.24104994005116151 -0.1611885562132436 0 0.23752341829279139 -0.17553628733649049 0 0.22701864884260869 -0.14677318705997749 0 0.22330464917696799 -0.16082783565368 0 0.24104994005116151 -0.1611885562132436 0 0.22330464917696799 -0.16082783565368 0 0.23752341829279139 -0.17553628733649049 0 0.25185170259338269 -0.17070251035931161 0 0.25221373931194169 -0.15291776839272289 0 0.24104994005116151 -0.1611885562132436 0 0.25185170259338269 -0.17070251035931161 0 0.24104994005116151 -0.1611885562132436 0 0.23752341829279139 -0.17553628733649049 0 0.25174218740861481 -0.19024473901930111 0 0.23752341829279139 -0.17553628733649049 0 0.23095098721431709 -0.19237007278715959 0 0.25174218740861481 -0.19024473901930111 0 0.25185170259338269 -0.17070251035931161 0 0.23752341829279139 -0.17553628733649049 0 0.25174218740861481 -0.19024473901930111 0 0.23752341829279139 -0.17553628733649049 0 0.25174218740861481 -0.19024473901930111 0 0.23596273833393411 -0.212599644145154 0 0.23095098721431709 -0.19237007278715959 0 0.26325260512889559 -0.21865903236613191 0 0.23596273833393411 -0.212599644145154 0 0.23596273833393411 -0.212599644145154 0 0.2086728715389726 -0.20654025592417599 0 0.23596273833393411 -0.212599644145154 0 0.23095098721431709 -0.19237007278715959 0 0.2086728715389726 -0.20654025592417599 0 0.2571087078033637 -0.24601667191256921 0 0.24564482171306459 -0.23046674906431161 0 0.22810228118296169 -0.24229642026567491 0 0.23596273833393411 -0.212599644145154 0 0.24564482171306459 -0.23046674906431161 0 0.22810228118296169 -0.24229642026567491 0 0.26325260512889559 -0.21865903236613191 0 0.23596273833393411 -0.212599644145154 0 0.24564482171306459 -0.23046674906431161 0 0.23596273833393411 -0.212599644145154 0 0.22810228118296169 -0.24229642026567491 0 0.20883150545745149 -0.22931699946250039 0 0.20796735216411399 -0.25223914687671228 0 0.22810228118296169 -0.24229642026567491 0 0.20883150545745149 -0.22931699946250039 0 0.20796735216411399 -0.25223914687671228 0 0.20883150545745149 -0.22931699946250039 0 0.19538814465999699 -0.241508895247565 0 0.20883150545745149 -0.22931699946250039 0 0.2086728715389726 -0.20654025592417599 0 0.18454338575267859 -0.22512018573647349 0 0.20883150545745149 -0.22931699946250039 0 0.19538814465999699 -0.241508895247565 0 0.18454338575267859 -0.22512018573647349 0 0.19034018279028611 -0.2570382396244843 0 0.19538814465999699 -0.241508895247565 0 0.18151872860292839 -0.2423147903487417 0 0.21438784895289581 -0.18630583522401001 0 0.23095098721431709 -0.19237007278715959 0 0.2086728715389726 -0.20654025592417599 0 0.19759635981514431 -0.1851691161073277 0 0.21438784895289581 -0.18630583522401001 0 0.2086728715389726 -0.20654025592417599 0 0.23596273833393411 -0.212599644145154 0 0.20883150545745149 -0.22931699946250039 0 0.2086728715389726 -0.20654025592417599 0 0.2086728715389726 -0.20654025592417599 0 0.18138300474401109 -0.20048086770319809 0 0.18454338575267859 -0.22512018573647349 0 0.2086728715389726 -0.20654025592417599 0 0.18138300474401109 -0.20048086770319809 0 0.19759635981514431 -0.1851691161073277 0 0.2086728715389726 -0.20654025592417599 0 0.18138300474401109 -0.20048086770319809 0 0.19759635981514431 -0.1851691161073277 0 0.18138300474401109 -0.20048086770319809 0 0.18009292111759659 -0.1786321249493725 0 0.18138300474401109 -0.20048086770319809 0 0.1655964416458221 -0.19488849543862441 0 0.18009292111759659 -0.1786321249493725 0 0.18138300474401109 -0.20048086770319809 0 0.16441465508830391 -0.2145373509935404 0 0.18454338575267859 -0.22512018573647349 0 0.18138300474401109 -0.20048086770319809 0 0.16441465508830391 -0.2145373509935404 0 0.15409313794904991 -0.19442147948222019 0 0.16441465508830391 -0.2145373509935404 0 0.15409313794904991 -0.19442147948222019 0 0.1525374726540748 -0.20822575209895411 0 0.16441465508830391 -0.2145373509935404 0 0.1525374726540748 -0.20822575209895411 0 0.15302882568482909 -0.21869348973817429 0 0.18138300474401109 -0.20048086770319809 0 0.1655964416458221 -0.19488849543862441 0 0.15409313794904991 -0.19442147948222019 0 0.18138300474401109 -0.20048086770319809 0 0.15409313794904991 -0.19442147948222019 0 0.1655964416458221 -0.19488849543862441 0 0.15409313794904991 -0.19442147948222019 0 0.16086211314218241 -0.18304052233324969 0 0.19538814465999699 -0.241508895247565 0 0.18151872860292839 -0.2423147903487417 0 0.18454338575267859 -0.22512018573647349 0 0.17734641617266039 -0.25326039426792291 0 0.18151872860292839 -0.2423147903487417 0 0.17053504618157159 -0.245166152055523 0 0.18151872860292839 -0.2423147903487417 0 0.17095919606037741 -0.23179487516048181 0 0.17053504618157159 -0.245166152055523 0 0.16441465508830391 -0.2145373509935404 0 0.18454338575267859 -0.22512018573647349 0 0.17095919606037741 -0.23179487516048181 0 0.18151872860292839 -0.2423147903487417 0 0.18454338575267859 -0.22512018573647349 0 0.17095919606037741 -0.23179487516048181 0 0.16441465508830391 -0.2145373509935404 0 0.15949763184196539 -0.22746500255635541 0 0.17095919606037741 -0.23179487516048181 0 0.16441465508830391 -0.2145373509935404 0 0.15949763184196539 -0.22746500255635541 0 0.15302882568482909 -0.21869348973817429 0 0.15949763184196539 -0.22746500255635541 0 0.16215627729881271 -0.2381170772207854 0 0.1494649519884142 -0.2365575805241539 0 0.15949763184196539 -0.22746500255635541 0 0.17095919606037741 -0.23179487516048181 0 0.16215627729881271 -0.2381170772207854 0 0.17095919606037741 -0.23179487516048181 0 0.16215627729881271 -0.2381170772207854 0 0.17053504618157159 -0.245166152055523 0 0.16151684879227951 -0.2504272094540565 0 0.16215627729881271 -0.2381170772207854 0 0.1494649519884142 -0.2365575805241539 0 0.16151684879227951 -0.2504272094540565 0 0.16215627729881271 -0.2381170772207854 0 0.17053504618157159 -0.245166152055523 0 0.16151684879227951 -0.2504272094540565 0 0.1688541313086471 -0.2531807176536105 0 0.17053504618157159 -0.245166152055523 0 0.15867357886332381 -0.26404827463712938 0 0.14550393698035599 -0.24237677647370909 0 0.1494649519884142 -0.2365575805241539 0 0.1494649519884142 -0.2365575805241539 0 0.14025632511350469 -0.2090668864111786 0 0.13615360406722171 -0.2153694338674767 0 0.14550393698035599 -0.24237677647370909 0 0.13615360406722171 -0.2153694338674767 0 0.1494649519884142 -0.2365575805241539 0 0.14025632511350469 -0.2090668864111786 0 0.1494649519884142 -0.2365575805241539 0 0.15302882568482909 -0.21869348973817429 0 0.14025632511350469 -0.2090668864111786 0 0.15949763184196539 -0.22746500255635541 0 0.1494649519884142 -0.2365575805241539 0 0.15302882568482909 -0.21869348973817429 0 0.14550393698035599 -0.24237677647370909 0 0.1494649519884142 -0.2365575805241539 0 0.13615360406722171 -0.2153694338674767 0 0.14550393698035599 -0.24237677647370909 0 0.13390984142043169 -0.23148500046598611 0 0.13615360406722171 -0.2153694338674767 0 0.12801637145101399 -0.2242824711833365 0 0.13390984142043169 -0.23148500046598611 0 0.13615360406722171 -0.2153694338674767 0 0.12801637145101399 -0.2242824711833365 0 0.1261392696030291 -0.2339588230044238 0 0.13390984142043169 -0.23148500046598611 0 0.13953105822987491 -0.25028402685060758 0 0.12307433225321859 -0.24857721426736179 0 0.13373602500053811 -0.24143749780098431 0 0.14550393698035599 -0.24237677647370909 0 0.13390984142043169 -0.23148500046598611 0 0.13373602500053811 -0.24143749780098431 0 0.12307433225321859 -0.24857721426736179 0 0.1261392696030291 -0.2339588230044238 0 0.13373602500053811 -0.24143749780098431 0 0.1261392696030291 -0.2339588230044238 0 0.13390984142043169 -0.23148500046598611 0 0.13373602500053811 -0.24143749780098431 0 0.13953105822987491 -0.25028402685060758 0 0.14550393698035599 -0.24237677647370909 0 0.13373602500053811 -0.24143749780098431 0 0.15409313794904991 -0.19442147948222019 0 0.12680327115408821 -0.18836209126124401 0 0.14330412656362931 -0.18036870259427959 0 0.15409313794904991 -0.19442147948222019 0 0.1525374726540748 -0.20822575209895411 0 0.14025632511350469 -0.2090668864111786 0 0.1525374726540748 -0.20822575209895411 0 0.15302882568482909 -0.21869348973817429 0 0.14025632511350469 -0.2090668864111786 0 0.1208893059539121 -0.2071390998525228 0 0.13615360406722171 -0.2153694338674767 0 0.12680327115408821 -0.18836209126124401 0 0.14025632511350469 -0.2090668864111786 0 0.13615360406722171 -0.2153694338674767 0 0.12680327115408821 -0.18836209126124401 0 0.12801637145101399 -0.2242824711833365 0 0.13615360406722171 -0.2153694338674767 0 0.12635983332139389 -0.21621258582908121 0 0.1208893059539121 -0.2071390998525228 0 0.13615360406722171 -0.2153694338674767 0 0.12635983332139389 -0.21621258582908121 0 0.15409313794904991 -0.19442147948222019 0 0.14025632511350469 -0.2090668864111786 0 0.12680327115408821 -0.18836209126124401 0 0.13615360406722171 -0.2153694338674767 0 0.12680327115408821 -0.18836209126124401 0 0.15409313794904991 -0.19442147948222019 0 0.12680327115408821 -0.18836209126124401 0 0.12680327115408821 -0.18836209126124401 0 0.13339330227231971 -0.1725019903010353 0 0.14330412656362931 -0.18036870259427959 0 0.1197074722721775 -0.1678667064178376 0 0.12680327115408821 -0.18836209126124401 0 0.13339330227231971 -0.1725019903010353 0 0.13339330227231971 -0.1725019903010353 0 0.14330412656362931 -0.18036870259427959 0 0.1445493742268168 -0.16800082527429969 0 0.14330412656362931 -0.18036870259427959 0 0.15236873025908529 -0.17526747914972829 0 0.1445493742268168 -0.16800082527429969 0 0.14330412656362931 -0.18036870259427959 0 0.15236873025908529 -0.17526747914972829 0 0.15265702697848671 -0.18327454588986941 0 0.15409313794904991 -0.19442147948222019 0 0.14330412656362931 -0.18036870259427959 0 0.15265702697848671 -0.18327454588986941 0 0.15409313794904991 -0.19442147948222019 0 0.15265702697848671 -0.18327454588986941 0 0.16086211314218241 -0.18304052233324969 0 0.15236873025908529 -0.17526747914972829 0 0.15265702697848671 -0.18327454588986941 0 0.16086211314218241 -0.18304052233324969 0 0.151631779880672 -0.15629011991566549 0 0.1445493742268168 -0.16800082527429969 0 0.1359530756141544 -0.15895214696469581 0 0.151631779880672 -0.15629011991566549 0 0.1544471127954247 -0.1659106351480264 0 0.1623783535844204 -0.1611689167198741 0 0.151631779880672 -0.15629011991566549 0 0.1544471127954247 -0.1659106351480264 0 0.1445493742268168 -0.16800082527429969 0 0.15236873025908529 -0.17526747914972829 0 0.1544471127954247 -0.1659106351480264 0 0.1445493742268168 -0.16800082527429969 0 0.1197074722721775 -0.1678667064178376 0 0.13339330227231971 -0.1725019903010353 0 0.1359530756141544 -0.15895214696469581 0 0.13339330227231971 -0.1725019903010353 0 0.1445493742268168 -0.16800082527429969 0 0.1359530756141544 -0.15895214696469581 0 0.1359530756141544 -0.15895214696469581 0 0.13503027043397359 -0.14049106422169841 0 0.14743119776642569 -0.14630742790252441 0 0.1126116733902677 -0.147371321574431 0 0.1359530756141544 -0.15895214696469581 0 0.13503027043397359 -0.14049106422169841 0 0.11988993624089821 -0.13300561870815261 0 0.12816869832892991 -0.12343352375209631 0 0.13503027043397359 -0.14049106422169841 0 0.12816869832892991 -0.12343352375209631 0 0.14285179389995939 -0.1182192118584776 0 0.13503027043397359 -0.14049106422169841 0 0.13503027043397359 -0.14049106422169841 0 0.15744886747767939 -0.13361080686896559 0 0.13503027043397359 -0.14049106422169841 0 0.14743119776642569 -0.14630742790252441 0 0.15744886747767939 -0.13361080686896559 0 0.14285179389995939 -0.1182192118584776 0 0.13503027043397359 -0.14049106422169841 0 0.15744886747767939 -0.13361080686896559 0 0.14285179389995939 -0.1182192118584776 0 0.15744886747767939 -0.13361080686896559 0 0.151631779880672 -0.15629011991566549 0 0.1359530756141544 -0.15895214696469581 0 0.14743119776642569 -0.14630742790252441 0 0.14743119776642569 -0.14630742790252441 0 0.15552616472001429 -0.1424843318704111 0 0.15744886747767939 -0.13361080686896559 0 0.151631779880672 -0.15629011991566549 0 0.14743119776642569 -0.14630742790252441 0 0.15552616472001429 -0.1424843318704111 0 0.151631779880672 -0.15629011991566549 0 0.15552616472001429 -0.1424843318704111 0 0.16202321286984411 -0.15152566466484441 0 0.15552616472001429 -0.1424843318704111 0 0.16202321286984411 -0.15152566466484441 0 0.16414450294507599 -0.14292639146552991 0 0.15552616472001429 -0.1424843318704111 0 0.16414450294507599 -0.14292639146552991 0 0.16029399830742211 -0.13661079869952239 0 0.16202321286984411 -0.15152566466484441 0 0.16414450294507599 -0.14292639146552991 0 0.1688843918098894 -0.14840097257110621 0 0.16414450294507599 -0.14292639146552991 0 0.17176759754231649 -0.14172334304588369 0 0.1688843918098894 -0.14840097257110621 0 0.16202321286984411 -0.15152566466484441 0 0.1688843918098894 -0.14840097257110621 0 0.1706414510359136 -0.156206170762549 0 0.15744886747767939 -0.13361080686896559 0 0.16686387572006581 -0.13072134507260971 0 0.16058107896265711 -0.1196050691856473 0 0.15744886747767939 -0.13361080686896559 0 0.16686387572006581 -0.13072134507260971 0 0.15552616472001429 -0.1424843318704111 0 0.16029399830742211 -0.13661079869952239 0 0.15744886747767939 -0.13361080686896559 0 0.16029399830742211 -0.13661079869952239 0 0.15744886747767939 -0.13361080686896559 0 0.16686387572006581 -0.13072134507260971 0 0.16029399830742211 -0.13661079869952239 0 0.15744886747767939 -0.13361080686896559 0 0.16414450294507599 -0.14292639146552991 0 0.16029399830742211 -0.13661079869952239 0 0.16770696454820119 -0.13697397804472011 0 0.16770696454820119 -0.13697397804472011 0 0.16686387572006581 -0.13072134507260971 0 0.1783198174196616 -0.13347873698368951 0 0.16414450294507599 -0.14292639146552991 0 0.17176759754231649 -0.14172334304588369 0 0.16770696454820119 -0.13697397804472011 0 0.16029399830742211 -0.13661079869952239 0 0.16770696454820119 -0.13697397804472011 0 0.16686387572006581 -0.13072134507260971 0 0.17439077576098419 -0.1244542052942407 0 0.1917583289212271 -0.12819508640004221 0 0.1783198174196616 -0.13347873698368951 0 0.17439077576098419 -0.1244542052942407 0 0.16686387572006581 -0.13072134507260971 0 0.1783198174196616 -0.13347873698368951 0 0.17176759754231649 -0.14172334304588369 0 0.16770696454820119 -0.13697397804472011 0 0.1783198174196616 -0.13347873698368951 0 0.17176759754231649 -0.14172334304588369 0 0.1783198174196616 -0.13347873698368951 0 0.17919538483007741 -0.14141975873341481 0 0.1897010153286717 -0.14212080591378859 0 0.1917583289212271 -0.12819508640004221 0 0.1783198174196616 -0.13347873698368951 0 0.1897010153286717 -0.14212080591378859 0 0.1783198174196616 -0.13347873698368951 0 0.17919538483007741 -0.14141975873341481 0 0.1897010153286717 -0.14212080591378859 0 0.17759000263928759 -0.1492958721038129 0 0.18194212351519429 -0.16122625401496371 0 0.1688843918098894 -0.14840097257110621 0 0.1706414510359136 -0.156206170762549 0 0.17759000263928759 -0.1492958721038129 0 0.1706414510359136 -0.156206170762549 0 0.17759000263928759 -0.1492958721038129 0 0.18194212351519429 -0.16122625401496371 0 0.17176759754231649 -0.14172334304588369 0 0.17759000263928759 -0.1492958721038129 0 0.17919538483007741 -0.14141975873341481 0 0.17176759754231649 -0.14172334304588369 0 0.1688843918098894 -0.14840097257110621 0 0.17759000263928759 -0.1492958721038129 0 0.1897010153286717 -0.14212080591378859 0 0.17759000263928759 -0.1492958721038129 0 0.17919538483007741 -0.14141975873341481 0 0.1945894005893711 -0.16237575446012059 0 0.18009292111759659 -0.1786321249493725 0 0.1945894005893711 -0.16237575446012059 0 0.18194212351519429 -0.16122625401496371 0 0.18009292111759659 -0.1786321249493725 0 0.18194212351519429 -0.16122625401496371 0 0.18009292111759659 -0.1786321249493725 0 0.17103062179684569 -0.16561934450069299 0 0.1706414510359136 -0.156206170762549 0 0.18194212351519429 -0.16122625401496371 0 0.17103062179684569 -0.16561934450069299 0 0.1655964416458221 -0.19488849543862441 0 0.18009292111759659 -0.1786321249493725 0 0.18009292111759659 -0.1786321249493725 0 0.16086211314218241 -0.18304052233324969 0 0.16352997544925921 -0.17160650380015741 0 0.18009292111759659 -0.1786321249493725 0 0.16352997544925921 -0.17160650380015741 0 0.17103062179684569 -0.16561934450069299 0 0.1655964416458221 -0.19488849543862441 0 0.18009292111759659 -0.1786321249493725 0 0.16086211314218241 -0.18304052233324969 0 0.15236873025908529 -0.17526747914972829 0 0.16086211314218241 -0.18304052233324969 0 0.16352997544925921 -0.17160650380015741 0 0.1544471127954247 -0.1659106351480264 0 0.16352997544925921 -0.17160650380015741 0 0.1623783535844204 -0.1611689167198741 0 0.15236873025908529 -0.17526747914972829 0 0.1544471127954247 -0.1659106351480264 0 0.16352997544925921 -0.17160650380015741 0 0.151631779880672 -0.15629011991566549 0 0.16202321286984411 -0.15152566466484441 0 0.1623783535844204 -0.1611689167198741 0 0.16202321286984411 -0.15152566466484441 0 0.1706414510359136 -0.156206170762549 0 0.1623783535844204 -0.1611689167198741 0 0.1706414510359136 -0.156206170762549 0 0.1623783535844204 -0.1611689167198741 0 0.17103062179684569 -0.16561934450069299 0 0.16352997544925921 -0.17160650380015741 0 0.1623783535844204 -0.1611689167198741 0 0.17103062179684569 -0.16561934450069299 0 
</DataArray>
</Points>
<Cells>
<DataArray type="UInt32" Name="connectivity" format="ascii">
0 1 2 3 4 5 6 7 8 9 10 11 12 13 14 15 16 17 18 19 20 21 22 23 24 25 26 27 28 29 30 31 32 33 34 35 36 37 38 39 40 41 42 43 44 45 46 47 48 49 50 51 52 53 54 55 56 57 58 59 60 61 62 63 64 65 66 67 68 69 70 71 72 73 74 75 76 77 78 79 80 81 82 83 84 85 86 87 88 89 90 91 92 93 94 95 96 97 98 99 100 101 102 103 104 105 106 107 108 109 110 111 112 113 114 115 116 117 118 119 120 121 122 123 124 125 126 127 128 129 130 131 132 133 134 135 136 137 138 139 140 141 142 143 144 145 146 147 148 149 150 151 152 153 154 155 156 157 158 159 160 161 162 163 164 165 166 167 168 169 170 171 172 173 174 175 176 177 178 179 180 181 182 183 184 185 186 187 188 189 190 191 192 193 194 195 196 197 198 199 200 201 202 203 204 205 206 207 208 209 210 211 212 213 214 215 216 217 218 219 220 221 222 223 224 225 226 227 228 229 230 231 232 233 234 235 236 237 238 239 240 241 242 243 244 245 246 247 248 249 250 251 252 253 254 255 256 257 258 259 260 261 262 263 264 265 266 267 268 269 270 271 272 273 274 275 276 277 278 279 280 281 282 283 284 285 286 287 288 289 290 291 292 293 294 295 296 297 298 299 300 301 302 303 304 305 306 307 308 309 310 311 312 313 314 315 316 317 318 319 320 321 322 323 324 325 326 327 328 329 330 331 332 333 334 335 336 337 338 339 340 341 342 343 344 345 346 347 348 349 350 351 352 353 354 355 356 357 358 359 360 361 362 363 364 365 366 367 368 369 370 371 372 373 374 375 376 377 378 379 380 381 382 383 384 385 386 387 388 389 390 391 392 393 394 395 396 397 398 399 400 401 402 403 404 405 406 407 408 409 410 411 412 413 414 415 416 417 418 419 420 421 422 423 424 425 426 427 428 429 430 431 432 433 434 435 436 437 438 439 440 441 442 443 444 445 446 447 448 449 450 451 452 453 454 455 456 457 458 459 460 461 462 463 464 465 466 467 468 469 470 471 472 473 474 475 476 477 478 479 480 481 482 483 484 485 486 487 488 489 490 491 492 493 494 495 496 497 498 499 500 501 502 503 504 505 506 507 508 509 510 511 512 513 514 515 516 517 518 519 520 521 522 523 524 525 526 527 528 529 530 531 532 533 534 535 536 537 538 539 540 541 542 543 544 545 546 547 548 549 550 551 552 553 554 555 556 557 558 559 560 561 562 563 564 565 566 567 568 569 570 571 572 573 574 575 576 577 578 579 580 581 582 583 584 585 586 587 588 589 590 591 592 593 594 595 596 597 598 599 600 601 602 603 604 605 606 607 608 609 610 611 612 613 614 615 616 617 618 619 620 621 622 623 624 625 626 627 628 629 630 631 632 633 634 635 636 637 638 639 640 641 642 643 644 645 646 647 648 649 650 651 652 653 654 655 656 657 658 659 660 661 662 663 664 665 666 667 668 669 670 671 672 673 674 675 676 677 678 679 680 681 682 683 684 685 686 687 688 689 690 691 692 693 694 695 696 697 698 699 700 701 702 703 704 705 706 707 708 709 710 711 712 713 714 715 716 717 718 719 720 721 722 723 724 725 726 727 728 729 730 731 732 733 734 735 736 737 738 739 740 741 742 743 744 745 746 747 748 749 750 751 752 753 754 755 756 757 758 759 760 761 762 763 764 765 766 767 768 769 770 771 772 773 774 775 776 777 778 779 780 781 782 783 784 785 786 787 788 789 790 791 792 793 794 795 796 797 798 799 800 801 802 803 804 805 806 807 808 809 810 811 812 813 814 815 816 817 818 819 820 821 822 823 824 825 826 827 828 829 830 831 832 833 834 835 836 837 838 839 840 841 842 843 844 845 846 847 848 849 850 851 852 853 854 855 856 857 858 859 860 861 862 863 864 865 866 867 868 869 870 871 872 873 874 875 876 877 878 879 880 881 882 883 884 885 886 887 888 889 890 891 892 893 894 895 896 897 898 899 900 901 902 903 904 905 906 907 908 909 910 911 912 913 914 915 916 917 918 919 920 921 922 923 924 925 926 927 928 929 930 931 932 933 934 935 936 937 938 939 940 941 942 943 944 945 946 947 948 949 950 951 952 953 954 955 956 957 958 959 960 961 962 963 964 965 966 967 968 969 970 971 972 973 974 975 976 977 978 979 980 981 982 983 984 985 986 987 988 989 990 991 992 993 994 995 996 997 998 999 1000 1001 1002 1003 1004 1005 1006 1007 1008 1009 1010 1011 1012 1013 1014 1015 1016 1017 1018 1019 1020 1021 1022 1023 1024 1025 1026 1027 1028 1029 1030 1031 1032 1033 1034 1035 1036 1037 1038 1039 1040 1041 1042 1043 1044 1045 1046 1047 1048 1049 1050 1051 1052 1053 1054 1055 1056 1057 1058 1059 1060 1061 1062 1063 1064 1065 1066 1067 1068 1069 1070 1071 1072 1073 1074 1075 1076 1077 1078 1079 1080 1081 1082 1083 1084 1085 1086 1087 1088 1089 1090 1091 1092 1093 1094 1095 1096 1097 1098 1099 1100 1101 1102 1103 1104 1105 1106 1107 1108 1109 1110 1111 1112 1113 1114 1115 1116 1117 1118 1119 1120 1121 1122 1123 1124 1125 1126 1127 1128 1129 1130 1131 1132 1133 1134 1135 1136 1137 1138 1139 1140 1141 1142 1143 1144 1145 1146 1147 1148 1149 1150 1151 1152 1153 1154 1155 1156 1157 1158 1159 1160 1161 1162 1163 1164 1165 1166 1167 1168 1169 1170 1171 1172 1173 1174 1175 1176 1177 1178 1179 1180 1181 1182 1183 1184 1185 1186 1187 1188 1189 1190 1191 1192 1193 1194 1195 1196 1197 1198 1199 1200 1201 1202 1203 1204 1205 1206 1207 1208 1209 1210 1211 1212 1213 1214 1215 1216 1217 1218 1219 1220 1221 1222 1223 1224 1225 1226 1227 1228 1229 1230 1231 1232 1233 1234 1235 1236 1237 1238 1239 1240 1241 1242 1243 1244 1245 1246 1247 1248 1249 1250 1251 1252 1253 1254 1255 1256 1257 1258 1259 1260 1261 1262 1263 1264 1265 1266 1267 1268 1269 1270 1271 1272 1273 1274 1275 1276 1277 1278 1279 1280 1281 1282 1283 1284 1285 1286 1287 1288 1289 1290 1291 1292 1293 1294 1295 1296 1297 1298 1299 1300 1301 1302 1303 1304 1305 1306 1307 1308 1309 1310 1311 1312 1313 1314 1315 1316 1317 1318 1319 1320 1321 1322 1323 1324 1325 1326 1327 1328 1329 1330 1331 1332 1333 1334 1335 1336 1337 1338 1339 1340 1341 1342 1343 1344 1345 1346 1347 1348 1349 1350 1351 1352 1353 1354 1355 1356 1357 1358 1359 1360 1361 1362 1363 1364 1365 1366 1367 1368 1369 1370 1371 1372 1373 1374 1375 1376 1377 1378 1379 1380 1381 1382 1383 1384 1385 1386 1387 1388 1389 1390 1391 1392 1393 1394 1395 1396 1397 1398 1399 1400 1401 1402 1403 1404 1405 1406 1407 1408 1409 1410 1411 1412 1413 1414 1415 1416 1417 1418 1419 1420 1421 1422 1423 1424 1425 1426 1427 1428 1429 1430 1431 1432 1433 1434 1435 1436 1437 1438 1439 1440 1441 1442 1443 1444 1445 1446 1447 1448 1449 1450 1451 1452 1453 1454 1455 1456 1457 1458 1459 1460 1461 1462 1463 1464 1465 1466 1467 1468 1469 1470 1471 1472 1473 1474 1475 1476 1477 1478 1479 1480 1481 1482 1483 1484 1485 1486 1487 1488 1489 1490 1491 1492 1493 1494 1495 1496 1497 1498 1499 1500 1501 1502 1503 1504 1505 1506 1507 1508 1509 1510 1511 1512 1513 1514 1515 1516 1517 1518 1519 1520 1521 1522 1523 1524 1525 1526 1527 1528 1529 1530 1531 1532 1533 1534 1535 1536 1537 1538 1539 1540 1541 1542 1543 1544 1545 1546 1547 1548 1549 1550 1551 1552 1553 1554 1555 1556 1557 1558 1559 1560 1561 1562 1563 1564 1565 1566 1567 1568 1569 1570 1571 1572 1573 1574 1575 1576 1577 1578 1579 1580 1581 1582 1583 1584 1585 1586 1587 1588 1589 1590 1591 1592 1593 1594 1595 1596 1597 1598 1599 1600 1601 1602 1603 1604 1605 1606 1607 1608 1609 1610 1611 1612 1613 1614 1615 1616 1617 1618 1619 1620 1621 1622 1623 1624 1625 1626 1627 1628 1629 1630 1631 1632 1633 1634 1635 1636 1637 1638 1639 1640 1641 1642 1643 1644 1645 1646 1647 1648 1649 1650 1651 1652 1653 1654 1655 1656 1657 1658 1659 1660 1661 1662 1663 1664 1665 1666 1667 1668 1669 1670 1671 1672 1673 1674 1675 1676 1677 1678 1679 1680 1681 1682 1683 1684 1685 1686 1687 1688 1689 1690 1691 1692 1693 1694 1695 1696 1697 1698 1699 1700 1701 1702 1703 1704 1705 1706 1707 1708 1709 1710 1711 1712 1713 1714 1715 1716 1717 1718 1719 1720 1721 1722 1723 1724 1725 1726 1727 1728 1729 1730 1731 1732 1733 1734 1735 1736 1737 1738 1739 1740 1741 1742 1743 1744 1745 1746 1747 1748 1749 1750 1751 1752 1753 1754 1755 1756 1757 1758 1759 1760 1761 1762 1763 1764 1765 1766 1767 1768 1769 1770 1771 1772 1773 1774 1775 1776 1777 1778 1779 1780 1781 1782 1783 1784 1785 1786 1787 1788 1789 1790 1791 1792 1793 1794 1795 1796 1797 1798 1799 1800 1801 1802 1803 1804 1805 1806 1807 1808 1809 1810 1811 1812 1813 1814 1815 1816 1817 1818 1819 1820 1821 1822 1823 1824 1825 1826 1827 1828 1829 1830 1831 1832 1833 1834 1835 1836 1837 1838 1839 1840 1841 1842 1843 1844 1845 1846 1847 1848 1849 1850 1851 1852 1853 1854 1855 1856 1857 1858 1859 1860 1861 1862 1863 1864 1865 1866 1867 1868 1869 1870 1871 1872 1873 1874 1875 1876 1877 1878 1879 1880 1881 1882 1883 1884 1885 1886 1887 1888 1889 1890 1891 1892 1893 1894 1895 1896 1897 1898 1899 1900 1901 1902 1903 1904 1905 1906 1907 1908 1909 1910 1911 1912 1913 1914 1915 1916 1917 1918 1919 1920 1921 1922 1923 1924 1925 1926 1927 1928 1929 1930 1931 1932 1933 1934 1935 1936 1937 1938 1939 1940 1941 1942 1943 1944 1945 1946 1947 1948 1949 1950 1951 1952 1953 1954 1955 1956 1957 1958 1959 1960 1961 1962 1963 1964 1965 1966 1967 1968 1969 1970 1971 1972 1973 1974 1975 1976 1977 1978 1979 1980 1981 1982 1983 1984 1985 1986 1987 1988 1989 1990 1991 1992 1993 1994 1995 1996 1997 1998 1999 2000 2001 2002 2003 2004 2005 2006 2007 2008 2009 2010 2011 2012 2013 2014 2015 2016 2017 2018 2019 2020 2021 2022 2023 2024 2025 2026 2027 2028 2029 2030 2031 2032 2033 2034 2035 2036 2037 2038 2039 2040 2041 2042 2043 2044 2045 2046 2047 2048 2049 2050 2051 2052 2053 2054 2055 2056 2057 2058 2059 2060 2061 2062 2063 2064 2065 2066 2067 2068 2069 2070 2071 2072 2073 2074 2075 2076 2077 2078 2079 2080 2081 2082 2083 2084 2085 2086 2087 2088 2089 2090 2091 2092 2093 2094 2095 2096 2097 2098 2099 2100 2101 2102 2103 2104 2105 2106 2107 2108 2109 2110 2111 2112 2113 2114 2115 2116 2117 2118 2119 2120 2121 2122 2123 2124 2125 2126 2127 2128 2129 2130 2131 2132 2133 2134 2135 2136 2137 2138 2139 2140 2141 2142 2143 2144 2145 2146 2147 2148 2149 2150 2151 2152 2153 2154 2155 2156 2157 2158 2159 2160 2161 2162 2163 2164 2165 2166 2167 2168 2169 2170 2171 2172 2173 2174 2175 2176 2177 2178 2179 2180 2181 2182 2183 2184 2185 2186 2187 2188 2189 2190 2191 2192 2193 2194 2195 2196 2197 2198 2199 2200 2201 2202 2203 2204 2205 2206 2207 2208 2209 2210 2211 2212 2213 2214 2215 2216 2217 2218 2219 2220 2221 2222 2223 2224 2225 2226 2227 2228 2229 2230 2231 2232 2233 2234 2235 2236 2237 2238 2239 2240 2241 2242 2243 2244 2245 2246 2247 2248 2249 2250 2251 2252 2253 2254 2255 2256 2257 2258 2259 2260 2261 2262 2263 2264 2265 2266 2267 2268 2269 2270 2271 2272 2273 2274 2275 2276 2277 2278 2279 2280 2281 2282 2283 2284 2285 2286 2287 2288 2289 2290 2291 2292 2293 2294 2295 2296 2297 2298 2299 2300 2301 2302 2303 2304 2305 2306 2307 2308 2309 2310 2311 2312 2313 2314 2315 2316 2317 2318 2319 2320 2321 2322 2323 2324 2325 2326 2327 2328 2329 2330 2331 2332 2333 2334 2335 2336 2337 2338 2339 2340 2341 2342 2343 2344 2345 2346 2347 2348 2349 2350 2351 2352 2353 2354 2355 2356 2357 2358 2359 2360 2361 2362 2363 2364 2365 2366 2367 2368 2369 2370 2371 2372 2373 2374 2375 2376 2377 2378 2379 2380 2381 2382 2383 2384 2385 2386 2387 2388 2389 2390 2391 2392 2393 2394 2395 2396 2397 2398 2399 2400 2401 2402 2403 2404 2405 2406 2407 2408 2409 2410 2411 2412 2413 2414 2415 2416 2417 2418 2419 2420 2421 2422 2423 2424 2425 2426 2427 2428 2429 2430 2431 2432 2433 2434 2435 2436 2437 2438 2439 2440 2441 2442 2443 2444 2445 2446 2447 2448 2449 2450 2451 2452 2453 2454 2455 2456 2457 2458 2459 2460 2461 2462 2463 2464 2465 2466 2467 2468 2469 2470 2471 2472 2473 2474 2475 2476 2477 2478 2479 2480 2481 2482 2483 2484 2485 2486 2487 2488 2489 2490 2491 2492 2493 2494 2495 2496 2497 2498 2499 2500 2501 2502 2503 2504 2505 2506 2507 2508 2509 2510 2511 2512 2513 2514 2515 2516 2517 2518 2519 2520 2521 2522 2523 2524 2525 2526 2527 2528 2529 2530 2531 2532 2533 2534 2535 2536 2537 2538 2539 2540 2541 2542 2543 2544 2545 2546 2547 2548 2549 2550 2551 2552 2553 2554 2555 2556 2557 2558 2559 2560 2561 2562 2563 2564 2565 2566 2567 2568 2569 2570 2571 2572 2573 2574 2575 2576 2577 2578 2579 2580 2581 2582 2583 2584 2585 2586 2587 2588 2589 2590 2591 2592 2593 2594 2595 2596 2597 2598 2599 2600 2601 2602 2603 2604 2605 2606 2607 2608 2609 2610 2611 2612 2613 2614 2615 2616 2617 2618 2619 2620 2621 2622 2623 2624 2625 2626 2627 2628 2629 2630 2631 2632 2633 2634 2635 2636 2637 2638 2639 2640 2641 2642 2643 2644 2645 2646 2647 2648 2649 2650 2651 2652 2653 2654 2655 2656 2657 2658 2659 2660 2661 2662 2663 2664 2665 2666 2667 2668 2669 2670 2671 2672 2673 2674 2675 2676 2677 2678 2679 2680 2681 2682 2683 2684 2685 2686 2687 2688 2689 2690 2691 2692 2693 2694 2695 2696 2697 2698 2699 2700 2701 2702 2703 2704 2705 2706 2707 2708 2709 2710 2711 2712 2713 2714 2715 2716 2717 2718 2719 2720 2721 2722 2723 2724 2725 2726 2727 2728 2729 2730 2731 2732 2733 2734 2735 2736 2737 2738 2739 2740 2741 2742 2743 2744 2745 2746 2747 2748 2749 2750 2751 2752 2753 2754 2755 2756 2757 2758 2759 2760 2761 2762 2763 2764 2765 2766 2767 2768 2769 2770 2771 2772 2773 2774 2775 2776 2777 2778 2779 2780 2781 2782 2783 2784 2785 2786 2787 2788 2789 2790 2791 2792 2793 2794 2795 2796 2797 2798 2799 2800 2801 2802 2803 2804 2805 2806 2807 2808 2809 2810 2811 2812 2813 2814 2815 2816 2817 2818 2819 2820 2821 2822 2823 2824 2825 2826 2827 2828 2829 2830 2831 2832 2833 2834 2835 2836 2837 2838 2839 2840 2841 2842 2843 2844 2845 2846 2847 2848 2849 2850 2851 2852 2853 2854 2855 2856 2857 2858 2859 2860 2861 2862 2863 2864 2865 2866 2867 2868 2869 2870 2871 2872 2873 2874 2875 2876 2877 2878 2879 2880 2881 2882 2883 2884 2885 2886 2887 2888 2889 2890 2891 2892 2893 2894 2895 2896 2897 2898 2899 2900 2901 2902 2903 2904 2905 2906 2907 2908 2909 2910 2911 2912 2913 2914 2915 2916 2917 2918 2919 2920 2921 2922 2923 2924 2925 2926 2927 2928 2929 2930 2931 2932 2933 2934 2935 2936 2937 2938 2939 2940 2941 2942 2943 2944 2945 2946 2947 2948 2949 2950 2951 2952 2953 2954 2955 2956 2957 2958 2959 2960 2961 2962 2963 2964 2965 2966 2967 2968 2969 2970 2971 2972 2973 2974 2975 2976 2977 2978 2979 2980 2981 2982 2983 2984 2985 2986 2987 2988 2989 2990 2991 2992 2993 2994 2995 2996 2997 2998 2999 3000 3001 3002 3003 3004 3005 3006 3007 3008 3009 3010 3011 3012 3013 3014 3015 3016 3017 3018 3019 3020 3021 3022 3023 3024 3025 3026 3027 3028 3029 3030 3031 3032 3033 3034 3035 3036 3037 3038 3039 3040 3041 3042 3043 3044 3045 3046 3047 3048 3049 3050 3051 3052 3053 3054 3055 3056 3057 3058 3059 3060 3061 3062 3063 3064 3065 3066 3067 3068 3069 3070 3071 3072 3073 3074 3075 3076 3077 3078 3079 3080 3081 3082 3083 3084 3085 3086 3087 3088 3089 3090 3091 3092 3093 3094 3095 3096 3097 3098 3099 3100 3101 3102 3103 3104 3105 3106 3107 3108 3109 3110 3111 3112 3113 3114 3115 3116 3117 3118 3119 3120 3121 3122 3123 3124 3125 3126 3127 3128 3129 3130 3131 3132 3133 3134 3135 3136 3137 3138 3139 3140 3141 3142 3143 3144 3145 3146 3147 3148 3149 3150 3151 3152 3153 3154 3155 3156 3157 3158 3159 3160 3161 3162 3163 3164 3165 3166 3167 3168 3169 3170 3171 3172 3173 3174 3175 3176 3177 3178 3179 3180 3181 3182 3183 3184 3185 3186 3187 3188 3189 3190 3191 3192 3193 3194 3195 3196 3197 3198 3199 3200 3201 3202 3203 3204 3205 3206 3207 3208 3209 3210 3211 3212 3213 3214 3215 3216 3217 3218 3219 3220 3221 3222 3223 3224 3225 3226 3227 3228 3229 3230 3231 3232 3233 3234 3235 3236 3237 3238 3239 3240 3241 3242 3243 3244 3245 3246 3247 3248 3249 3250 3251 3252 3253 3254 3255 3256 3257 3258 3259 3260 3261 3262 3263 3264 3265 3266 3267 3268 3269 3270 3271 3272 3273 3274 3275 3276 3277 3278 3279 3280 3281 3282 3283 3284 3285 3286 3287 3288 3289 3290 3291 3292 3293 3294 3295 3296 3297 3298 3299 3300 3301 3302 3303 3304 3305 3306 3307 3308 3309 3310 3311 3312 3313 3314 3315 3316 3317 3318 3319 3320 3321 3322 3323 3324 3325 3326 3327 3328 3329 3330 3331 3332 3333 3334 3335 3336 3337 3338 3339 3340 3341 3342 3343 3344 3345 3346 3347 3348 3349 3350 3351 3352 3353 3354 3355 3356 3357 3358 3359 3360 3361 3362 3363 3364 3365 3366 3367 3368 3369 3370 3371 3372 3373 3374 3375 3376 3377 3378 3379 3380 3381 3382 3383 3384 3385 3386 3387 3388 3389 3390 3391 3392 3393 3394 3395 3396 3397 3398 3399 3400 3401 3402 3403 3404 3405 3406 3407 3408 3409 3410 3411 3412 3413 3414 3415 3416 3417 3418 3419 3420 3421 3422 3423 3424 3425 3426 3427 3428 3429 3430 3431 3432 3433 3434 3435 3436 3437 3438 3439 3440 3441 3442 3443 3444 3445 3446 3447 3448 3449 3450 3451 3452 3453 3454 3455 3456 3457 3458 3459 3460 3461 3462 3463 3464 3465 3466 3467 3468 3469 3470 3471 3472 3473 3474 3475 3476 3477 3478 3479 3480 3481 3482 3483 3484 3485 3486 3487 3488 3489 3490 3491 3492 3493 3494 3495 3496 3497 3498 3499 3500 3501 3502 3503 3504 3505 3506 3507 3508 3509 3510 3511 3512 3513 3514 3515 3516 3517 3518 3519 3520 3521 3522 3523 3524 3525 3526 3527 3528 3529 3530 3531 3532 3533 3534 3535 3536 3537 3538 3539 3540 3541 3542 3543 3544 3545 3546 3547 3548 3549 3550 3551 3552 3553 3554 3555 3556 3557 3558 3559 3560 3561 3562 3563 3564 3565 3566 3567 3568 3569 3570 3571 3572 3573 3574 3575 3576 3577 3578 3579 3580 3581 3582 3583 3584 3585 3586 3587 3588 3589 3590 3591 3592 3593 3594 3595 3596 3597 3598 3599 3600 3601 3602 3603 3604 3605 3606 3607 3608 3609 3610 3611 3612 3613 3614 3615 3616 3617 3618 3619 3620 3621 3622 3623 3624 3625 3626 3627 3628 3629 3630 3631 3632 3633 3634 3635 3636 3637 3638 3639 3640 3641 3642 3643 3644 3645 3646 3647 3648 3649 3650 3651 3652 3653 3654 3655 3656 3657 3658 3659 3660 3661 3662 3663 3664 3665 3666 3667 3668 3669 3670 3671 3672 3673 3674 3675 3676 3677 3678 3679 3680 3681 3682 3683 3684 3685 3686 3687 3688 3689 3690 3691 3692 3693 3694 3695 3696 3697 3698 3699 3700 3701 3702 3703 3704 3705 3706 3707 3708 3709 3710 3711 3712 3713 3714 3715 3716 3717 3718 3719 3720 3721 3722 3723 3724 3725 3726 3727 3728 3729 3730 3731 3732 3733 3734 3735 3736 3737 3738 3739 3740 3741 3742 3743 3744 3745 3746 3747 3748 3749 3750 3751 3752 3753 3754 3755 3756 3757 3758 3759 3760 3761 3762 3763 3764 3765 3766 3767 3768 3769 3770 3771 3772 3773 3774 3775 3776 3777 3778 3779 3780 3781 3782 3783 3784 3785 3786 3787 3788 3789 3790 3791 3792 3793 3794 3795 3796 3797 3798 3799 3800 3801 3802 3803 3804 3805 3806 3807 3808 3809 3810 3811 3812 3813 3814 3815 3816 3817 3818 3819 3820 3821 3822 3823 3824 3825 3826 3827 3828 3829 3830 3831 3832 3833 3834 3835 3836 3837 3838 3839 3840 3841 3842 3843 3844 3845 3846 3847 3848 3849 3850 3851 3852 3853 3854 3855 3856 3857 3858 3859 3860 3861 3862 3863 3864 3865 3866 3867 3868 3869 3870 3871 3872 3873 3874 3875 3876 3877 3878 3879 3880 3881 3882 3883 3884 3885 3886 3887 3888 3889 3890 3891 3892 3893 3894 3895 3896 3897 3898 3899 3900 3901 3902 3903 3904 3905 3906 3907 3908 3909 3910 3911 3912 3913 3914 3915 3916 3917 3918 3919 3920 3921 3922 3923 3924 3925 3926 3927 3928 3929 3930 3931 3932 3933 3934 3935 3936 3937 3938 3939 3940 3941 3942 3943 3944 3945 3946 3947 3948 3949 3950 3951 3952 3953 3954 3955 3956 3957 3958 3959 3960 3961 3962 3963 3964 3965 3966 3967 3968 3969 3970 3971 3972 3973 3974 3975 3976 3977 3978 3979 3980 3981 3982 3983 3984 3985 3986 3987 3988 3989 3990 3991 3992 3993 3994 3995 3996 3997 3998 3999 4000 4001 4002 4003 4004 4005 4006 4007 4008 4009 4010 4011 4012 4013 4014 4015 4016 4017 4018 4019 4020 4021 4022 4023 4024 4025 4026 4027 4028 4029 4030 4031 4032 4033 4034 4035 4036 4037 4038 4039 4040 4041 4042 4043 4044 4045 4046 4047 4048 4049 4050 4051 4052 4053 4054 4055 4056 4057 4058 4059 4060 4061 4062 4063 4064 4065 4066 4067 4068 4069 4070 4071 4072 4073 4074 4075 4076 4077 4078 4079 4080 4081 4082 4083 4084 4085 4086 4087 4088 4089 4090 4091 4092 4093 4094 4095 4096 4097 4098 4099 4100 4101 4102 4103 4104 4105 4106 4107 4108 4109 4110 4111 4112 4113 4114 4115 4116 4117 4118 4119 4120 4121 4122 4123 4124 4125 4126 4127 4128 4129 4130 4131 4132 4133 4134 4135 4136 4137 4138 4139 4140 4141 4142 4143 4144 4145 4146 4147 4148 4149 4150 4151 4152 4153 4154 4155 4156 4157 4158 4159 4160 4161 4162 4163 4164 4165 4166 4167 4168 4169 4170 4171 4172 4173 4174 4175 4176 4177 4178 4179 4180 4181 4182 4183 4184 4185 4186 4187 4188 4189 4190 4191 4192 4193 4194 4195 4196 4197 4198 4199 4200 4201 4202 4203 4204 4205 4206 4207 4208 4209 4210 4211 4212 4213 4214 4215 4216 4217 4218 4219 4220 4221 4222 4223 4224 4225 4226 4227 4228 4229 4230 4231 4232 4233 4234 4235 4236 4237 4238 4239 4240 4241 4242 4243 4244 4245 4246 4247 4248 4249 4250 4251 4252 4253 4254 4255 4256 4257 4258 4259 4260 4261 4262 4263 4264 4265 4266 4267 4268 4269 4270 4271 4272 4273 4274 4275 4276 4277 4278 4279 4280 4281 4282 4283 4284 4285 4286 4287 4288 4289 4290 4291 4292 4293 4294 4295 4296 4297 4298 4299 4300 4301 4302 4303 4304 4305 4306 4307 4308 4309 4310 4311 4312 4313 4314 4315 4316 4317 4318 4319 4320 4321 4322 4323 4324 4325 4326 4327 4328 4329 4330 4331 4332 4333 4334 4335 4336 4337 4338 4339 4340 4341 4342 4343 4344 4345 4346 4347 4348 4349 4350 4351 4352 4353 4354 4355 4356 4357 4358 4359 4360 4361 4362 4363 4364 4365 4366 4367 4368 4369 4370 4371 4372 4373 4374 4375 4376 4377 4378 4379 4380 4381 4382 4383 4384 4385 4386 4387 4388 4389 4390 4391 4392 4393 4394 4395 4396 4397 4398 4399 4400 4401 4402 4403 4404 4405 4406 4407 4408 4409 4410 4411 4412 4413 4414 4415 4416 4417 4418 4419 4420 4421 4422 4423 4424 4425 4426 4427 4428 4429 4430 4431 4432 4433 4434 4435 4436 4437 4438 4439 4440 4441 4442 4443 4444 4445 4446 4447 4448 4449 4450 4451 4452 4453 4454 4455 4456 4457 4458 4459 4460 4461 4462 4463 4464 4465 4466 4467 4468 4469 4470 4471 4472 4473 4474 4475 4476 4477 4478 4479 4480 4481 4482 4483 4484 4485 4486 4487 4488 4489 4490 4491 4492 4493 4494 4495 4496 4497 4498 4499 4500 4501 4502 4503 4504 4505 4506 4507 4508 4509 4510 4511 4512 4513 4514 4515 4516 4517 4518 4519 4520 4521 4522 4523 4524 4525 4526 4527 4528 4529 4530 4531 4532 4533 4534 4535 4536 4537 4538 4539 4540 4541 4542 4543 4544 4545 4546 4547 4548 4549 4550 4551 4552 4553 4554 4555 4556 4557 4558 4559 4560 4561 4562 4563 4564 4565 4566 4567 4568 4569 4570 4571 4572 4573 4574 4575 4576 4577 4578 4579 4580 4581 4582 4583 4584 4585 4586 4587 4588 4589 4590 4591 4592 4593 4594 4595 4596 4597 4598 4599 4600 4601 4602 4603 4604 4605 4606 4607 4608 4609 4610 4611 4612 4613 4614 4615 4616 4617 4618 4619 4620 4621 4622 4623 4624 4625 4626 4627 4628 4629 4630 4631 4632 4633 4634 4635 4636 4637 4638 4639 4640 4641 4642 4643 4644 4645 4646 4647 4648 4649 4650 4651 4652 4653 4654 4655 4656 4657 4658 4659 4660 4661 4662 4663 4664 4665 4666 4667 4668 4669 4670 4671 4672 4673 4674 4675 4676 4677 4678 4679 4680 4681 4682 4683 4684 4685 4686 4687 4688 4689 4690 4691 4692 4693 4694 4695 4696 4697 4698 4699 4700 4701 4702 4703 4704 4705 4706 4707 4708 4709 4710 4711 4712 4713 4714 4715 4716 4717 4718 4719 4720 4721 4722 4723 4724 4725 4726 4727 4728 4729 4730 4731 4732 4733 4734 4735 4736 4737 4738 4739 4740 4741 4742 4743 4744 4745 4746 4747 4748 4749 4750 4751 4752 4753 4754 4755 4756 4757 4758 4759 4760 4761 4762 4763 4764 4765 4766 4767 4768 4769 4770 4771 4772 4773 4774 4775 4776 4777 4778 4779 4780 4781 4782 4783 4784 4785 4786 4787 4788 4789 4790 4791 4792 4793 4794 4795 4796 4797 4798 4799 4800 4801 4802 4803 4804 4805 4806 4807 4808 4809 4810 4811 4812 4813 4814 4815 4816 4817 4818 4819 4820 4821 4822 4823 4824 4825 4826 4827 4828 4829 4830 4831 4832 4833 4834 4835 4836 4837 4838 4839 4840 4841 4842 4843 4844 4845 4846 4847 4848 4849 4850 4851 4852 4853 4854 4855 4856 4857 4858 4859 4860 4861 4862 4863 4864 4865 4866 4867 4868 4869 4870 4871 4872 4873 4874 4875 4876 4877 4878 4879 4880 4881 4882 4883 4884 4885 4886 4887 4888 4889 4890 4891 4892 4893 4894 4895 4896 4897 4898 4899 4900 4901 4902 4903 4904 4905 4906 4907 4908 4909 4910 4911 4912 4913 4914 4915 4916 4917 4918 4919 4920 4921 4922 4923 4924 4925 4926 4927 4928 4929 4930 4931 4932 4933 4934 4935 4936 4937 4938 4939 4940 4941 4942 4943 4944 4945 4946 4947 4948 4949 4950 4951 4952 4953 4954 4955 4956 4957 4958 4959 4960 4961 4962 4963 4964 4965 4966 4967 4968 4969 4970 4971 4972 4973 4974 4975 4976 4977 4978 4979 4980 4981 4982 4983 4984 4985 4986 4987 4988 4989 4990 4991 4992 4993 4994 4995 4996 4997 4998 4999 5000 5001 5002 5003 5004 5005 5006 5007 5008 5009 5010 5011 5012 5013 5014 5015 5016 5017 5018 5019 5020 5021 5022 5023 5024 5025 5026 5027 5028 5029 5030 5031 5032 5033 5034 5035 5036 5037 5038 5039 5040 5041 5042 5043 5044 5045 5046 5047 5048 5049 5050 5051 5052 5053 5054 5055 5056 5057 5058 5059 5060 5061 5062 5063 5064 5065 5066 5067 5068 5069 5070 5071 5072 5073 5074 5075 5076 5077 5078 5079 5080 5081 5082 5083 5084 5085 5086 5087 5088 5089 5090 5091 5092 5093 5094 5095 5096 5097 5098 5099 5100 5101 5102 5103 5104 5105 5106 5107 5108 5109 5110 5111 5112 5113 5114 5115 5116 5117 5118 5119 5120 5121 5122 5123 5124 5125 5126 5127 5128 5129 5130 5131 5132 5133 5134 5135 5136 5137 5138 5139 5140 5141 5142 5143 5144 5145 5146 5147 5148 5149 5150 5151 5152 5153 5154 5155 5156 5157 5158 5159 5160 5161 5162 5163 5164 5165 5166 5167 5168 5169 5170 5171 5172 5173 5174 5175 5176 5177 5178 5179 5180 5181 5182 5183 5184 5185 5186 5187 5188 5189 5190 5191 5192 5193 5194 5195 5196 5197 5198 5199 5200 5201 5202 5203 5204 5205 5206 5207 5208 5209 5210 5211 5212 5213 5214 5215 5216 5217 5218 5219 5220 5221 5222 5223 5224 5225 5226 5227 5228 5229 5230 5231 5232 5233 5234 5235 5236 5237 5238 5239 5240 5241 5242 5243 5244 5245 5246 5247 5248 5249 5250 5251 5252 5253 5254 5255 5256 5257 5258 5259 5260 5261 5262 5263 5264 5265 5266 5267 5268 5269 5270 5271 5272 5273 5274 5275 5276 5277 5278 5279 5280 5281 5282 5283 5284 5285 5286 5287 5288 5289 5290 5291 5292 5293 5294 5295 5296 5297 5298 5299 5300 5301 5302 5303 5304 5305 5306 5307 5308 5309 5310 5311 5312 5313 5314 5315 5316 5317 5318 5319 5320 5321 5322 5323 5324 5325 5326 5327 5328 5329 5330 5331 5332 5333 5334 5335 5336 5337 5338 5339 5340 5341 5342 5343 5344 5345 5346 5347 5348 5349 5350 5351 5352 5353 5354 5355 5356 5357 5358 5359 5360 5361 5362 5363 5364 5365 5366 5367 5368 5369 5370 5371 5372 5373 5374 5375 5376 5377 5378 5379 5380 5381 5382 5383 5384 5385 5386 5387 5388 5389 5390 5391 5392 5393 5394 5395 5396 5397 5398 5399 5400 5401 5402 5403 5404 5405 5406 5407 5408 5409 5410 5411 5412 5413 5414 5415 5416 5417 5418 5419 5420 5421 5422 5423 5424 5425 5426 5427 5428 5429 5430 5431 5432 5433 5434 5435 5436 5437 5438 5439 5440 5441 5442 5443 5444 5445 5446 5447 5448 5449 5450 5451 5452 5453 5454 5455 5456 5457 5458 5459 5460 5461 5462 5463 5464 5465 5466 5467 5468 5469 5470 5471 5472 5473 5474 5475 5476 5477 5478 5479 5480 5481 5482 5483 5484 5485 5486 5487 5488 5489 5490 5491 5492 5493 5494 5495 5496 5497 5498 5499 5500 5501 5502 5503 5504 5505 5506 5507 5508 5509 5510 5511 5512 5513 5514 5515 5516 5517 5518 5519 5520 5521 5522 5523 5524 5525 5526 5527 5528 5529 5530 5531 5532 5533 5534 5535 5536 5537 5538 5539 5540 5541 5542 5543 5544 5545 5546 5547 5548 5549 5550 5551 5552 5553 5554 5555 5556 5557 5558 5559 5560 5561 5562 5563 5564 5565 5566 5567 5568 5569 5570 5571 5572 5573 5574 5575 5576 5577 5578 5579 5580 5581 5582 5583 5584 5585 5586 5587 5588 5589 5590 5591 5592 5593 5594 5595 5596 5597 5598 5599 5600 5601 5602 5603 5604 5605 5606 5607 5608 5609 5610 5611 5612 5613 5614 5615 5616 5617 5618 5619 5620 5621 5622 5623 5624 5625 5626 5627 5628 5629 5630 5631 5632 5633 5634 5635 5636 5637 5638 5639 5640 5641 5642 5643 5644 5645 5646 5647 5648 5649 5650 5651 5652 5653 5654 5655 5656 5657 5658 5659 5660 5661 5662 5663 5664 5665 5666 5667 5668 5669 5670 5671 5672 5673 5674 5675 5676 5677 5678 5679 5680 5681 5682 5683 5684 5685 5686 5687 5688 5689 5690 5691 5692 5693 5694 5695 5696 5697 5698 5699 5700 5701 5702 5703 5704 5705 5706 5707 5708 5709 5710 5711 5712 5713 5714 5715 5716 5717 5718 5719 5720 5721 5722 5723 5724 5725 5726 5727 5728 5729 5730 5731 5732 5733 5734 5735 5736 5737 5738 5739 5740 5741 5742 5743 5744 5745 5746 5747 5748 5749 5750 5751 5752 5753 5754 5755 5756 5757 5758 5759 5760 5761 5762 5763 5764 5765 5766 5767 5768 5769 5770 5771 5772 5773 5774 5775 5776 5777 5778 5779 5780 5781 5782 5783 5784 5785 5786 5787 5788 5789 5790 5791 5792 5793 5794 5795 5796 5797 5798 5799 5800 5801 5802 5803 5804 5805 5806 5807 5808 5809 5810 5811 5812 5813 5814 5815 5816 5817 5818 5819 5820 5821 5822 5823 5824 5825 5826 5827 5828 5829 5830 5831 5832 5833 5834 5835 5836 5837 5838 5839 5840 5841 5842 5843 5844 5845 5846 5847 5848 5849 5850 5851 5852 5853 5854 5855 5856 5857 5858 5859 5860 5861 5862 5863 5864 5865 5866 5867 5868 5869 5870 5871 5872 5873 5874 5875 5876 5877 5878 5879 5880 5881 5882 5883 5884 5885 5886 5887 5888 5889 5890 5891 5892 5893 5894 5895 5896 5897 5898 5899 5900 5901 5902 5903 5904 5905 5906 5907 5908 5909 5910 5911 5912 5913 5914 5915 5916 5917 5918 5919 5920 5921 5922 5923 5924 5925 5926 5927 5928 5929 5930 5931 5932 5933 5934 5935 5936 5937 5938 5939 5940 5941 5942 5943 5944 5945 5946 5947 5948 5949 5950 5951 5952 5953 5954 5955 5956 5957 5958 5959 5960 5961 5962 5963 5964 5965 5966 5967 5968 5969 5970 5971 5972 5973 5974 5975 5976 5977 5978 5979 5980 5981 5982 5983 5984 5985 5986 5987 5988 5989 5990 5991 5992 5993 5994 5995 5996 5997 5998 5999 6000 6001 6002 6003 6004 6005 6006 6007 6008 6009 6010 6011 6012 6013 6014 6015 6016 6017 6018 6019 6020 6021 6022 6023 6024 6025 6026 6027 6028 6029 6030 6031 6032 6033 6034 6035 6036 6037 6038 6039 6040 6041 6042 6043 6044 6045 6046 6047 6048 6049 6050 6051 6052 6053 6054 6055 6056 6057 6058 6059 6060 6061 6062 6063 6064 6065 6066 6067 6068 6069 6070 6071 6072 6073 6074 6075 6076 6077 6078 6079 6080 6081 6082 6083 6084 6085 6086 6087 6088 6089 6090 6091 6092 6093 6094 6095 6096 6097 6098 6099 6100 6101 6102 6103 6104 6105 6106 6107 6108 6109 6110 6111 6112 6113 6114 6115 6116 6117 6118 6119 6120 6121 6122 6123 6124 6125 6126 6127 6128 6129 6130 6131 6132 6133 6134 6135 6136 6137 6138 6139 6140 6141 6142 6143 6144 6145 6146 6147 6148 6149 6150 6151 6152 6153 6154 6155 6156 6157 6158 6159 6160 6161 6162 6163 6164 6165 6166 6167 6168 6169 6170 6171 6172 6173 6174 6175 6176 6177 6178 6179 6180 6181 6182 6183 6184 6185 6186 6187 6188 6189 6190 6191 6192 6193 6194 6195 6196 6197 6198 6199 6200 6201 6202 6203 6204 6205 6206 6207 6208 6209 6210 6211 6212 6213 6214 6215 6216 6217 6218 6219 6220 6221 6222 6223 6224 6225 6226 6227 6228 6229 6230 6231 6232 6233 6234 6235 6236 6237 6238 6239 6240 6241 6242 6243 6244 6245 6246 6247 6248 6249 6250 6251 6252 6253 6254 6255 6256 6257 6258 6259 6260 6261 6262 6263 6264 6265 6266 6267 6268 6269 6270 6271 6272 6273 6274 6275 6276 6277 6278 6279 6280 6281 6282 6283 6284 6285 6286 6287 6288 6289 6290 6291 6292 6293 6294 6295 6296 6297 6298 6299 6300 6301 6302 6303 6304 6305 6306 6307 6308 6309 6310 6311 6312 6313 6314 6315 6316 6317 6318 6319 6320 6321 6322 6323 6324 6325 6326 6327 6328 6329 6330 6331 6332 6333 6334 6335 6336 6337 6338 6339 6340 6341 6342 6343 6344 6345 6346 6347 6348 6349 6350 6351 6352 6353 6354 6355 6356 6357 6358 6359 6360 6361 6362 6363 6364 6365 6366 6367 6368 6369 6370 6371 6372 6373 6374 6375 6376 6377 6378 6379 6380 6381 6382 6383 6384 6385 6386 6387 6388 6389 6390 6391 6392 6393 6394 6395 6396 6397 6398 6399 6400 6401 6402 6403 6404 6405 6406 6407 6408 6409 6410 6411 6412 6413 6414 6415 6416 6417 6418 6419 6420 6421 6422 6423 6424 6425 6426 6427 6428 6429 6430 6431 6432 6433 6434 6435 6436 6437 6438 6439 6440 6441 6442 6443 6444 6445 6446 6447 6448 6449 6450 6451 6452 6453 6454 6455 6456 6457 6458 6459 6460 6461 6462 6463 6464 6465 6466 6467 6468 6469 6470 6471 6472 6473 6474 6475 6476 6477 6478 6479 6480 6481 6482 6483 6484 6485 6486 6487 6488 6489 6490 6491 6492 6493 6494 6495 6496 6497 6498 6499 6500 6501 6502 6503 6504 6505 6506 6507 6508 6509 6510 6511 6512 6513 6514 6515 6516 6517 6518 6519 6520 6521 6522 6523 6524 6525 6526 6527 6528 6529 6530 6531 6532 6533 6534 6535 6536 6537 6538 6539 6540 6541 6542 6543 6544 6545 6546 6547 6548 6549 6550 6551 6552 6553 6554 6555 6556 6557 6558 6559 6560 6561 6562 6563 6564 6565 6566 6567 6568 6569 6570 6571 6572 6573 6574 6575 6576 6577 6578 6579 6580 6581 6582 6583 6584 6585 6586 6587 6588 6589 6590 6591 6592 6593 6594 6595 6596 6597 6598 6599 6600 6601 6602 6603 6604 6605 6606 6607 6608 6609 6610 6611 6612 6613 6614 6615 6616 6617 6618 6619 6620 6621 6622 6623 6624 6625 6626 6627 6628 6629 6630 6631 6632 6633 6634 6635 6636 6637 6638 6639 6640 6641 6642 6643 6644 6645 6646 6647 6648 6649 6650 6651 6652 6653 6654 6655 6656 6657 6658 6659 6660 6661 6662 6663 6664 6665 6666 6667 6668 6669 6670 6671 6672 6673 6674 6675 6676 6677 6678 6679 6680 6681 6682 6683 6684 6685 6686 6687 6688 6689 6690 6691 6692 6693 6694 6695 6696 6697 6698 6699 6700 6701 6702 6703 6704 6705 6706 6707 6708 6709 6710 6711 6712 6713 6714 6715 6716 6717 6718 6719 6720 6721 6722 6723 6724 6725 6726 6727 6728 6729 6730 6731 6732 6733 6734 6735 6736 6737 6738 6739 6740 6741 6742 6743 6744 6745 6746 6747 6748 6749 6750 6751 6752 6753 6754 6755 6756 6757 6758 6759 6760 6761 6762 6763 6764 6765 6766 6767 6768 6769 6770 6771 6772 6773 6774 6775 6776 6777 6778 6779 6780 6781 6782 6783 6784 6785 6786 6787 6788 6789 6790 6791 6792 6793 6794 6795 6796 6797 6798 6799 6800 6801 6802 6803 6804 6805 6806 6807 6808 6809 6810 6811 6812 6813 6814 6815 6816 6817 6818 6819 6820 6821 6822 6823 6824 6825 6826 6827 6828 6829 6830 6831 6832 6833 6834 6835 6836 6837 6838 6839 6840 6841 6842 6843 6844 6845 6846 6847 6848 6849 6850 6851 6852 6853 6854 6855 6856 6857 6858 6859 6860 6861 6862 6863 6864 6865 6866 6867 6868 6869 6870 6871 6872 6873 6874 6875 6876 6877 6878 6879 6880 6881 6882 6883 6884 6885 6886 6887 6888 6889 6890 6891 6892 6893 6894 6895 6896 6897 6898 6899 6900 6901 6902 6903 6904 6905 6906 6907 6908 6909 6910 6911 6912 6913 6914 6915 6916 6917 6918 6919 6920 6921 6922 6923 6924 6925 6926 6927 6928 6929 6930 6931 6932 6933 6934 6935 6936 6937 6938 6939 6940 6941 6942 6943 6944 6945 6946 6947 6948 6949 6950 6951 6952 6953 6954 6955 6956 6957 6958 6959 6960 6961 6962 6963 6964 6965 6966 6967 6968 6969 6970 6971 6972 6973 6974 6975 6976 6977 6978 6979 6980 6981 6982 6983 6984 6985 6986 6987 6988 6989 6990 6991 6992 6993 6994 6995 6996 6997 6998 6999 7000 7001 7002 7003 7004 7005 7006 7007 7008 7009 7010 7011 7012 7013 7014 7015 7016 7017 7018 7019 7020 7021 7022 7023 7024 7025 7026 7027 7028 7029 7030 7031 7032 7033 7034 7035 7036 7037 7038 7039 7040 7041 7042 7043 7044 7045 7046 7047 7048 7049 7050 7051 7052 7053 7054 7055 7056 7057 7058 7059 7060 7061 7062 7063 7064 7065 7066 7067 7068 7069 7070 7071 7072 7073 7074 7075 7076 7077 7078 7079 7080 7081 7082 7083 7084 7085 7086 7087 7088 7089 7090 7091 7092 7093 7094 7095 7096 7097 7098 7099 7100 7101 7102 7103 7104 7105 7106 7107 7108 7109 7110 7111 7112 7113 7114 7115 7116 7117 7118 7119 7120 7121 7122 7123 7124 7125 7126 7127 7128 7129 7130 7131 7132 7133 7134 7135 7136 7137 7138 7139 7140 7141 7142 7143 7144 7145 7146 7147 7148 7149 7150 7151 7152 7153 7154 7155 7156 7157 7158 7159 7160 7161 7162 7163 7164 7165 7166 7167 7168 7169 7170 7171 7172 7173 7174 7175 7176 7177 7178 7179 7180 7181 7182 7183 7184 7185 7186 7187 7188 7189 7190 7191 7192 7193 7194 7195 7196 7197 7198 7199 7200 7201 7202 7203 7204 7205 7206 7207 7208 7209 7210 7211 7212 7213 7214 7215 7216 7217 7218 7219 7220 7221 7222 7223 7224 7225 7226 7227 7228 7229 7230 7231 7232 7233 7234 7235 7236 7237 7238 7239 7240 7241 7242 7243 7244 7245 7246 7247 7248 7249 7250 7251 7252 7253 7254 7255 7256 7257 7258 7259 7260 7261 7262 7263 7264 7265 7266 7267 7268 7269 7270 7271 7272 7273 7274 7275 7276 7277 7278 7279 7280 7281 7282 7283 7284 7285 7286 7287 7288 7289 7290 7291 7292 7293 7294 7295 7296 7297 7298 7299 7300 7301 7302 7303 7304 7305 7306 7307 7308 7309 7310 7311 7312 7313 7314 7315 7316 7317 7318 7319 7320 7321 7322 7323 7324 7325 7326 7327 7328 7329 7330 7331 7332 7333 7334 7335 7336 7337 7338 7339 7340 7341 7342 7343 7344 7345 7346 7347 7348 7349 7350 7351 7352 7353 7354 7355 7356 7357 7358 7359 7360 7361 7362 7363 7364 7365 7366 7367 7368 7369 7370 7371 7372 7373 7374 7375 7376 7377 7378 7379 7380 7381 7382 7383 7384 7385 7386 7387 7388 7389 7390 7391 7392 7393 7394 7395 7396 7397 7398 7399 7400 7401 7402 7403 7404 7405 7406 7407 7408 7409 7410 7411 7412 7413 7414 7415 7416 7417 7418 7419 7420 7421 7422 7423 7424 7425 7426 7427 7428 7429 7430 7431 7432 7433 7434 7435 7436 7437 7438 7439 7440 7441 7442 7443 7444 7445 7446 7447 7448 7449 7450 7451 7452 7453 7454 7455 7456 7457 7458 7459 7460 7461 7462 7463 7464 7465 7466 7467 7468 7469 7470 7471 7472 7473 7474 7475 7476 7477 7478 7479 7480 7481 7482 7483 7484 7485 7486 7487 7488 7489 7490 7491 7492 7493 7494 7495 7496 7497 7498 7499 7500 7501 7502 7503 7504 7505 7506 7507 7508 7509 7510 7511 7512 7513 7514 7515 7516 7517 7518 7519 7520 7521 7522 7523 7524 7525 7526 7527 7528 7529 7530 7531 7532 7533 7534 7535 7536 7537 7538 7539 7540 7541 7542 7543 7544 7545 7546 7547 7548 7549 7550 7551 7552 7553 7554 7555 7556 7557 7558 7559 7560 7561 7562 7563 7564 7565 7566 7567 7568 7569 7570 7571 7572 7573 7574 7575 7576 7577 7578 7579 7580 7581 7582 7583 7584 7585 7586 7587 7588 7589 7590 7591 7592 7593 7594 7595 7596 7597 7598 7599 7600 7601 7602 7603 7604 7605 7606 7607 7608 7609 7610 7611 7612 7613 7614 7615 7616 7617 7618 7619 7620 7621 7622 7623 7624 7625 7626 7627 7628 7629 7630 7631 7632 7633 7634 7635 7636 7637 7638 7639 7640 7641 7642 7643 7644 7645 7646 7647 7648 7649 7650 7651 7652 7653 7654 7655 7656 7657 7658 7659 7660 7661 7662 7663 7664 7665 7666 7667 7668 7669 7670 7671 7672 7673 7674 7675 7676 7677 7678 7679 7680 7681 7682 7683 7684 7685 7686 7687 7688 7689 7690 7691 7692 7693 7694 7695 7696 7697 7698 7699 7700 7701 7702 7703 7704 7705 7706 7707 7708 7709 7710 7711 7712 7713 7714 7715 7716 7717 7718 7719 7720 7721 7722 7723 7724 7725 7726 7727 7728 7729 7730 7731 7732 7733 7734 7735 7736 7737 7738 7739 7740 7741 7742 7743 7744 7745 7746 7747 7748 7749 7750 7751 7752 7753 7754 7755 7756 7757 7758 7759 7760 7761 7762 7763 7764 7765 7766 7767 7768 7769 7770 7771 7772 7773 7774 7775 7776 7777 7778 7779 7780 7781 7782 7783 7784 7785 7786 7787 7788 7789 7790 7791 7792 7793 7794 7795 7796 7797 7798 7799 7800 7801 7802 7803 7804 7805 7806 7807 7808 7809 7810 7811 7812 7813 7814 7815 7816 7817 7818 7819 7820 7821 7822 7823 7824 7825 7826 7827 7828 7829 7830 7831 7832 7833 7834 7835 7836 7837 7838 7839 7840 7841 7842 7843 7844 7845 7846 7847 7848 7849 7850 7851 7852 7853 7854 7855 7856 7857 7858 7859 7860 7861 7862 7863 7864 7865 7866 7867 7868 7869 7870 7871 7872 7873 7874 7875 7876 7877 7878 7879 7880 7881 7882 7883 7884 7885 7886 7887 7888 7889 7890 7891 7892 7893 7894 7895 7896 7897 7898 7899 7900 7901 7902 7903 7904 7905 7906 7907 7908 7909 7910 7911 7912 7913 7914 7915 7916 7917 7918 7919 7920 7921 7922 7923 7924 7925 7926 7927 7928 7929 7930 7931 7932 7933 7934 7935 7936 7937 7938 7939 7940 7941 7942 7943 7944 7945 7946 7947 7948 7949 7950 7951 7952 7953 7954 7955 7956 7957 7958 7959 7960 7961 7962 7963 7964 7965 7966 7967 7968 7969 7970 7971 7972 7973 7974 7975 7976 7977 7978 7979 7980 7981 7982 7983 7984 7985 7986 7987 7988 7989 7990 7991 7992 7993 7994 7995 7996 7997 7998 7999 8000 8001 8002 8003 8004 8005 8006 8007 8008 8009 8010 8011 8012 8013 8014 8015 8016 8017 8018 8019 8020 8021 8022 8023 8024 8025 8026 8027 8028 8029 8030 8031 8032 8033 8034 8035 8036 8037 8038 8039 8040 8041 8042 8043 8044 8045 8046 8047 8048 8049 8050 8051 8052 8053 8054 8055 8056 8057 8058 8059 8060 8061 8062 8063 8064 8065 8066 8067 8068 8069 8070 8071 8072 8073 8074 8075 8076 8077 8078 8079 8080 8081 8082 8083 8084 8085 8086 8087 8088 8089 8090 8091 8092 8093 8094 8095 8096 8097 8098 8099 8100 8101 8102 8103 8104 8105 8106 8107 8108 8109 8110 8111 8112 8113 8114 8115 8116 8117 8118 8119 8120 8121 8122 8123 8124 8125 8126 8127 8128 8129 8130 8131 8132 8133 8134 8135 8136 8137 8138 8139 8140 8141 8142 8143 8144 8145 8146 8147 8148 8149 8150 8151 8152 8153 8154 8155 8156 8157 8158 8159 8160 8161 8162 8163 8164 8165 8166 8167 8168 8169 8170 8171 8172 8173 8174 8175 8176 8177 8178 8179 8180 8181 8182 8183 8184 8185 8186 8187 8188 8189 8190 8191 8192 8193 8194 8195 8196 8197 8198 8199 8200 8201 8202 8203 8204 8205 8206 8207 8208 8209 8210 8211 8212 8213 8214 8215 8216 8217 8218 8219 8220 8221 8222 8223 8224 8225 8226 8227 8228 8229 8230 8231 8232 8233 8234 8235 8236 8237 8238 8239 8240 8241 8242 8243 8244 8245 8246 8247 8248 8249 8250 8251 8252 8253 8254 8255 8256 8257 8258 8259 8260 8261 8262 8263 8264 8265 8266 8267 8268 8269 8270 8271 8272 8273 8274 8275 8276 8277 8278 8279 8280 8281 8282 8283 8284 8285 8286 8287 8288 8289 8290 8291 8292 8293 8294 8295 8296 8297 8298 8299 8300 8301 8302 8303 8304 8305 8306 8307 8308 8309 8310 8311 8312 8313 8314 8315 8316 8317 8318 8319 8320 8321 8322 8323 8324 8325 8326 8327 8328 8329 8330 8331 8332 8333 8334 8335 8336 8337 8338 8339 8340 8341 8342 8343 8344 8345 8346 8347 8348 8349 8350 8351 8352 8353 8354 8355 8356 8357 8358 8359 8360 8361 8362 8363 8364 8365 8366 8367 8368 8369 8370 8371 8372 8373 8374 8375 8376 8377 8378 8379 8380 8381 8382 8383 8384 8385 8386 8387 8388 8389 8390 8391 8392 8393 8394 8395 8396 8397 8398 8399 8400 8401 8402 8403 8404 8405 8406 8407 8408 8409 8410 8411 8412 8413 8414 8415 8416 8417 8418 8419 8420 8421 8422 8423 8424 8425 8426 8427 8428 8429 8430 8431 8432 8433 8434 8435 8436 8437 8438 8439 8440 8441 8442 8443 8444 8445 8446 8447 8448 8449 8450 8451 8452 8453 8454 8455 8456 8457 8458 8459 8460 8461 8462 8463 8464 8465 8466 8467 8468 8469 8470 8471 8472 8473 8474 8475 8476 8477 8478 8479 8480 8481 8482 8483 8484 8485 8486 8487 8488 8489 8490 8491 8492 8493 8494 8495 8496 8497 8498 8499 8500 8501 8502 8503 8504 8505 8506 8507 8508 8509 8510 8511 8512 8513 8514 8515 8516 8517 8518 8519 8520 8521 8522 8523 8524 8525 8526 8527 8528 8529 8530 8531 8532 8533 8534 8535 8536 8537 8538 8539 8540 8541 8542 8543 8544 8545 8546 8547 8548 8549 8550 8551 8552 8553 8554 8555 8556 8557 8558 8559 8560 8561 8562 8563 8564 8565 8566 8567 8568 8569 8570 8571 8572 8573 8574 8575 8576 8577 8578 8579 8580 8581 8582 8583 8584 8585 8586 8587 8588 8589 8590 8591 8592 8593 8594 8595 8596 8597 8598 8599 8600 8601 8602 8603 8604 8605 8606 8607 8608 8609 8610 8611 8612 8613 8614 8615 8616 8617 8618 8619 8620 8621 8622 8623 8624 8625 8626 8627 8628 8629 8630 8631 8632 8633 8634 8635 8636 8637 8638 8639 8640 8641 8642 8643 8644 8645 8646 8647 8648 8649 8650 8651 8652 8653 8654 8655 8656 8657 8658 8659 8660 8661 8662 8663 8664 8665 8666 8667 8668 8669 8670 8671 8672 8673 8674 8675 8676 8677 8678 8679 8680 8681 8682 8683 8684 8685 8686 8687 8688 8689 8690 8691 8692 8693 8694 8695 8696 8697 8698 8699 8700 8701 8702 8703 8704 8705 8706 8707 8708 8709 8710 8711 8712 8713 8714 8715 8716 8717 8718 8719 8720 8721 8722 8723 8724 8725 8726 8727 8728 8729 8730 8731 8732 8733 8734 8735 8736 8737 8738 8739 8740 8741 8742 8743 8744 8745 8746 8747 8748 8749 8750 8751 8752 8753 8754 8755 8756 8757 8758 8759 8760 8761 8762 8763 8764 8765 8766 8767 8768 8769 8770 8771 8772 8773 8774 8775 8776 8777 8778 8779 8780 8781 8782 8783 8784 8785 8786 8787 8788 8789 8790 8791 8792 8793 8794 8795 8796 8797 8798 8799 8800 8801 8802 8803 8804 8805 8806 8807 8808 8809 8810 8811 8812 8813 8814 8815 8816 8817 8818 8819 8820 8821 8822 8823 8824 8825 8826 8827 8828 8829 8830 8831 8832 8833 8834 8835 8836 8837 8838 8839 8840 8841 8842 8843 8844 8845 8846 8847 8848 8849 8850 8851 8852 8853 8854 8855 8856 8857 8858 8859 8860 8861 8862 8863 8864 8865 8866 8867 8868 8869 8870 8871 8872 8873 8874 8875 8876 8877 8878 8879 8880 8881 8882 8883 8884 8885 8886 8887 8888 8889 8890 8891 8892 8893 8894 8895 8896 8897 8898 8899 8900 8901 8902 8903 8904 8905 8906 8907 8908 8909 8910 8911 8912 8913 8914 8915 8916 8917 8918 8919 8920 8921 8922 8923 8924 8925 8926 8927 8928 8929 8930 8931 8932 8933 8934 8935 8936 8937 8938 8939 8940 8941 8942 8943 8944 8945 8946 8947 8948 8949 8950 8951 8952 8953 8954 8955 8956 8957 8958 8959 8960 8961 8962 8963 8964 8965 8966 8967 8968 8969 8970 8971 8972 8973 8974 8975 8976 8977 8978 8979 8980 8981 8982 8983 8984 8985 8986 8987 8988 8989 8990 8991 8992 8993 8994 8995 8996 8997 8998 8999 9000 9001 9002 9003 9004 9005 9006 9007 9008 9009 9010 9011 9012 9013 9014 9015 9016 9017 9018 9019 9020 9021 9022 9023 9024 9025 9026 9027 9028 9029 9030 9031 9032 9033 9034 9035 9036 9037 9038 9039 9040 9041 9042 9043 9044 9045 9046 9047 9048 9049 9050 9051 9052 9053 9054 9055 9056 9057 9058 9059 9060 9061 9062 9063 9064 9065 9066 9067 9068 9069 9070 9071 9072 9073 9074 9075 9076 9077 9078 9079 9080 9081 9082 9083 9084 9085 9086 9087 9088 9089 9090 9091 9092 9093 9094 9095 9096 9097 9098 9099 9100 9101 9102 9103 9104 9105 9106 9107 9108 9109 9110 9111 9112 9113 9114 9115 9116 9117 9118 9119 9120 9121 9122 9123 9124 9125 9126 9127 9128 9129 9130 9131 9132 9133 9134 9135 9136 9137 9138 9139 9140 9141 9142 9143 9144 9145 9146 9147 9148 9149 9150 9151 9152 9153 9154 9155 9156 9157 9158 9159 9160 9161 9162 9163 9164 9165 9166 9167 9168 9169 9170 9171 9172 9173 9174 9175 9176 9177 9178 9179 9180 9181 9182 9183 9184 9185 9186 9187 9188 9189 9190 9191 9192 9193 9194 9195 9196 9197 9198 9199 9200 9201 9202 9203 9204 9205 9206 9207 9208 9209 9210 9211 9212 9213 9214 9215 9216 9217 9218 9219 9220 9221 9222 9223 9224 9225 9226 9227 9228 9229 9230 9231 9232 9233 9234 9235 9236 9237 9238 9239 9240 9241 9242 9243 9244 9245 9246 9247 9248 9249 9250 9251 9252 9253 9254 9255 9256 9257 9258 9259 9260 9261 9262 9263 9264 9265 9266 9267 9268 9269 9270 9271 9272 9273 9274 9275 9276 9277 9278 9279 9280 9281 9282 9283 9284 9285 9286 9287 9288 9289 9290 9291 9292 9293 9294 9295 9296 9297 9298 9299 9300 9301 9302 9303 9304 9305 9306 9307 9308 9309 9310 9311 9312 9313 9314 9315 9316 9317 9318 9319 9320 9321 9322 9323 9324 9325 9326 9327 9328 9329 9330 9331 9332 9333 9334 9335 9336 9337 9338 9339 9340 9341 9342 9343 9344 9345 9346 9347 9348 9349 9350 9351 9352 9353 9354 9355 9356 9357 9358 9359 9360 9361 9362 9363 9364 9365 9366 9367 9368 9369 9370 9371 9372 9373 9374 9375 9376 9377 9378 9379 9380 9381 9382 9383 9384 9385 9386 9387 9388 9389 9390 9391 9392 9393 9394 9395 9396 9397 9398 9399 9400 9401 9402 9403 9404 9405 9406 9407 9408 9409 9410 9411 9412 9413 9414 9415 9416 9417 9418 9419 9420 9421 9422 9423 9424 9425 9426 9427 9428 9429 9430 9431 9432 9433 9434 9435 9436 9437 9438 9439 9440 9441 9442 9443 9444 9445 9446 9447 9448 9449 9450 9451 9452 9453 9454 9455 9456 9457 9458 9459 9460 9461 9462 9463 9464 9465 9466 9467 9468 9469 9470 9471 9472 9473 9474 9475 9476 9477 9478 9479 9480 9481 9482 9483 9484 9485 9486 9487 9488 9489 9490 9491 9492 9493 9494 9495 9496 9497 9498 9499 9500 9501 9502 9503 9504 9505 9506 9507 9508 9509 9510 9511 9512 9513 9514 9515 9516 9517 9518 9519 9520 9521 9522 9523 9524 9525 9526 9527 9528 9529 9530 9531 9532 9533 9534 9535 9536 9537 9538 9539 9540 9541 9542 9543 9544 9545 9546 9547 9548 9549 9550 9551 9552 9553 9554 9555 9556 9557 9558 9559 9560 9561 9562 9563 9564 9565 9566 9567 9568 9569 9570 9571 9572 9573 9574 9575 9576 9577 9578 9579 9580 9581 9582 9583 9584 9585 9586 9587 9588 9589 9590 9591 9592 9593 9594 9595 9596 9597 9598 9599 9600 9601 9602 9603 9604 9605 9606 9607 9608 9609 9610 9611 9612 9613 9614 9615 9616 9617 9618 9619 9620 9621 9622 9623 9624 9625 9626 9627 9628 9629 9630 9631 9632 9633 9634 9635 9636 9637 9638 9639 9640 9641 9642 9643 9644 9645 9646 9647 9648 9649 9650 9651 9652 9653 9654 9655 9656 9657 9658 9659 9660 9661 9662 9663 9664 9665 9666 9667 9668 9669 9670 9671 9672 9673 9674 9675 9676 9677 9678 9679 9680 9681 9682 9683 9684 9685 9686 9687 9688 9689 9690 9691 9692 9693 9694 9695 9696 9697 9698 9699 9700 9701 9702 9703 9704 9705 9706 9707 9708 9709 9710 9711 9712 9713 9714 9715 9716 9717 9718 9719 9720 9721 9722 9723 9724 9725 9726 9727 9728 9729 9730 9731 9732 9733 9734 9735 9736 9737 9738 9739 9740 9741 9742 9743 9744 9745 9746 9747 9748 9749 9750 9751 9752 9753 9754 9755 9756 9757 9758 9759 9760 9761 9762 9763 9764 9765 9766 9767 9768 9769 9770 9771 9772 9773 9774 9775 9776 9777 9778 9779 9780 9781 9782 9783 9784 9785 9786 9787 9788 9789 9790 9791 9792 9793 9794 9795 9796 9797 9798 9799 9800 9801 9802 9803 9804 9805 9806 9807 9808 9809 9810 9811 9812 9813 9814 9815 9816 9817 9818 9819 9820 9821 9822 9823 9824 9825 9826 9827 9828 9829 9830 9831 9832 9833 9834 9835 9836 9837 9838 9839 9840 9841 9842 9843 9844 9845 9846 9847 9848 9849 9850 9851 9852 9853 9854 9855 9856 9857 9858 9859 9860 9861 9862 9863 9864 9865 9866 9867 9868 9869 9870 9871 9872 9873 9874 9875 9876 9877 9878 9879 9880 9881 9882 9883 9884 9885 9886 9887 9888 9889 9890 9891 9892 9893 9894 9895 9896 9897 9898 9899 9900 9901 9902 9903 9904 9905 9906 9907 9908 9909 9910 9911 9912 9913 9914 9915 9916 9917 9918 9919 9920 9921 9922 9923 9924 9925 9926 9927 9928 9929 9930 9931 9932 9933 9934 9935 9936 9937 9938 9939 9940 9941 9942 9943 9944 9945 9946 9947 9948 9949 9950 9951 9952 9953 9954 9955 9956 9957 9958 9959 9960 9961 9962 9963 9964 9965 9966 9967 9968 9969 9970 9971 9972 9973 9974 9975 9976 9977 9978 9979 9980 9981 9982 9983 9984 9985 9986 9987 9988 9989 9990 9991 9992 9993 9994 9995 9996 9997 9998 9999 10000 10001 10002 10003 10004 10005 10006 10007 10008 10009 10010 10011 10012 10013 10014 10015 10016 10017 10018 10019 10020 10021 10022 10023 10024 10025 10026 10027 10028 10029 10030 10031 10032 10033 10034 10035 10036 10037 10038 10039 10040 10041 10042 10043 10044 10045 10046 10047 10048 10049 10050 10051 10052 10053 10054 10055 10056 10057 10058 10059 10060 10061 10062 10063 10064 10065 10066 10067 10068 10069 10070 10071 10072 10073 10074 10075 10076 10077 10078 10079 10080 10081 10082 10083 10084 10085 10086 10087 10088 10089 10090 10091 10092 10093 10094 10095 10096 10097 10098 10099 10100 10101 10102 10103 10104 10105 10106 10107 10108 10109 10110 10111 10112 10113 10114 10115 10116 10117 10118 10119 10120 10121 10122 10123 10124 10125 10126 10127 10128 10129 10130 10131 10132 10133 10134 10135 10136 10137 10138 10139 10140 10141 10142 10143 10144 10145 10146 10147 10148 10149 10150 10151 10152 10153 10154 10155 10156 10157 10158 10159 10160 10161 10162 10163 10164 10165 10166 10167 10168 10169 10170 10171 10172 10173 10174 10175 10176 10177 10178 10179 10180 10181 10182 10183 10184 10185 10186 10187 10188 10189 10190 10191 10192 10193 10194 10195 10196 10197 10198 10199 10200 10201 10202 10203 10204 10205 10206 10207 10208 10209 10210 10211 10212 10213 10214 10215 10216 10217 10218 10219 10220 10221 10222 10223 10224 10225 10226 10227 10228 10229 10230 10231 10232 10233 10234 10235 10236 10237 10238 10239 10240 10241 10242 10243 10244 10245 10246 10247 10248 10249 10250 10251 10252 10253 10254 10255 10256 10257 10258 10259 10260 10261 10262 10263 10264 10265 10266 10267 10268 10269 10270 10271 10272 10273 10274 10275 10276 10277 10278 10279 10280 10281 10282 10283 10284 10285 10286 10287 10288 10289 10290 10291 10292 10293 10294 10295 10296 10297 10298 10299 10300 10301 10302 10303 10304 10305 10306 10307 10308 10309 10310 10311 10312 10313 10314 10315 10316 10317 10318 10319 10320 10321 10322 10323 10324 10325 10326 10327 10328 10329 10330 10331 10332 10333 10334 10335 10336 10337 10338 10339 10340 10341 10342 10343 10344 10345 10346 10347 10348 10349 10350 10351 10352 10353 10354 10355 10356 10357 10358 10359 10360 10361 10362 10363 10364 10365 10366 10367 10368 10369 10370 10371 10372 10373 10374 10375 10376 10377 10378 10379 10380 10381 10382 10383 10384 10385 10386 10387 10388 10389 10390 10391 10392 10393 10394 10395 10396 10397 10398 10399 10400 10401 10402 10403 10404 10405 10406 10407 10408 10409 10410 10411 10412 10413 10414 10415 10416 10417 10418 10419 10420 10421 10422 10423 10424 10425 10426 10427 10428 10429 10430 10431 10432 10433 10434 10435 10436 10437 10438 10439 10440 10441 10442 10443 10444 10445 10446 10447 10448 10449 10450 10451 10452 10453 10454 10455 10456 10457 10458 10459 10460 10461 10462 10463 10464 10465 10466 10467 10468 10469 10470 10471 10472 10473 10474 10475 10476 10477 10478 10479 10480 10481 10482 10483 10484 10485 10486 10487 10488 10489 10490 10491 10492 10493 10494 10495 10496 10497 10498 10499 10500 10501 10502 10503 10504 10505 10506 10507 10508 10509 10510 10511 10512 10513 10514 10515 10516 10517 10518 10519 10520 10521 10522 10523 10524 10525 10526 10527 10528 10529 10530 10531 10532 10533 10534 10535 10536 10537 10538 10539 10540 10541 10542 10543 10544 10545 10546 10547 10548 10549 10550 10551 10552 10553 10554 10555 10556 10557 10558 10559 10560 10561 10562 10563 10564 10565 10566 10567 10568 10569 10570 10571 10572 10573 10574 10575 10576 10577 10578 10579 10580 10581 10582 10583 10584 10585 10586 10587 10588 10589 10590 10591 10592 10593 10594 10595 10596 10597 10598 10599 10600 10601 10602 10603 10604 10605 10606 10607 10608 10609 10610 10611 10612 10613 10614 10615 10616 10617 10618 10619 10620 10621 10622 10623 10624 10625 10626 10627 10628 10629 10630 10631 10632 10633 10634 10635 10636 10637 10638 10639 10640 10641 10642 10643 10644 10645 10646 10647 10648 10649 10650 10651 10652 10653 10654 10655 10656 10657 10658 10659 10660 10661 10662 10663 10664 10665 10666 10667 10668 10669 10670 10671 10672 10673 10674 10675 10676 10677 10678 10679 10680 10681 10682 10683 10684 10685 10686 10687 10688 10689 10690 10691 10692 10693 10694 10695 10696 10697 10698 10699 10700 10701 10702 10703 10704 10705 10706 10707 10708 10709 10710 10711 10712 10713 10714 10715 10716 10717 10718 10719 10720 10721 10722 10723 10724 10725 10726 10727 10728 10729 10730 10731 10732 10733 10734 10735 10736 10737 10738 10739 10740 10741 10742 10743 10744 10745 10746 10747 10748 10749 10750 10751 10752 10753 10754 10755 10756 10757 10758 10759 10760 10761 10762 10763 10764 10765 10766 10767 10768 10769 10770 10771 10772 10773 10774 10775 10776 10777 10778 10779 10780 10781 10782 10783 10784 10785 10786 10787 10788 10789 10790 10791 10792 10793 10794 10795 10796 10797 10798 10799 10800 10801 10802 10803 10804 10805 10806 10807 10808 10809 10810 10811 10812 10813 10814 10815 10816 10817 10818 10819 10820 10821 10822 10823 10824 10825 10826 10827 10828 10829 10830 10831 10832 10833 10834 10835 10836 10837 10838 10839 10840 10841 10842 10843 10844 10845 10846 10847 10848 10849 10850 10851 10852 10853 10854 10855 10856 10857 10858 10859 10860 10861 10862 10863 10864 10865 10866 10867 10868 10869 10870 10871 10872 10873 10874 10875 10876 10877 10878 10879 10880 10881 10882 10883 10884 10885 10886 10887 10888 10889 10890 10891 10892 10893 10894 10895 10896 10897 10898 10899 10900 10901 10902 10903 10904 10905 10906 10907 10908 10909 10910 10911 10912 10913 10914 10915 10916 10917 10918 10919 10920 10921 10922 10923 10924 10925 10926 10927 10928 10929 10930 10931 10932 10933 10934 10935 10936 10937 10938 10939 10940 10941 10942 10943 10944 10945 10946 10947 10948 10949 10950 10951 10952 10953 10954 10955 10956 10957 10958 10959 10960 10961 10962 10963 10964 10965 10966 10967 10968 10969 10970 10971 10972 10973 10974 10975 10976 10977 10978 10979 10980 10981 10982 10983 10984 10985 10986 10987 10988 10989 10990 10991 10992 10993 10994 10995 10996 10997 10998 10999 11000 11001 11002 11003 11004 11005 11006 11007 11008 11009 11010 11011 11012 11013 11014 11015 11016 11017 11018 11019 11020 11021 11022 11023 11024 11025 11026 11027 11028 11029 11030 11031 11032 11033 11034 11035 11036 11037 11038 11039 11040 11041 11042 11043 11044 11045 11046 11047 11048 11049 11050 11051 11052 11053 11054 11055 11056 11057 11058 11059 11060 11061 11062 11063 11064 11065 11066 11067 11068 11069 11070 11071 11072 11073 11074 11075 11076 11077 11078 11079 11080 11081 11082 11083 11084 11085 11086 11087 11088 11089 11090 11091 11092 11093 11094 11095 11096 11097 11098 11099 11100 11101 11102 11103 11104 11105 11106 11107 11108 11109 11110 11111 11112 11113 11114 11115 11116 11117 11118 11119 11120 11121 11122 11123 11124 11125 11126 11127 11128 11129 11130 11131 11132 11133 11134 11135 11136 11137 11138 11139 11140 11141 11142 11143 11144 11145 11146 11147 11148 11149 11150 11151 11152 11153 11154 11155 11156 11157 11158 11159 11160 11161 11162 11163 11164 11165 11166 11167 11168 11169 11170 11171 11172 11173 11174 11175 11176 11177 11178 11179 11180 11181 11182 11183 11184 11185 11186 11187 11188 11189 11190 11191 11192 11193 11194 11195 11196 11197 11198 11199 11200 11201 11202 11203 11204 11205 11206 11207 11208 11209 11210 11211 11212 11213 11214 11215 11216 11217 11218 11219 11220 11221 11222 11223 11224 11225 11226 11227 11228 11229 11230 11231 11232 11233 11234 11235 11236 11237 11238 11239 11240 11241 11242 11243 11244 11245 11246 11247 11248 11249 11250 11251 11252 11253 11254 11255 11256 11257 11258 11259 11260 11261 11262 11263 11264 11265 11266 11267 11268 11269 11270 11271 11272 11273 11274 11275 11276 11277 11278 11279 11280 11281 11282 11283 11284 11285 11286 11287 11288 11289 11290 11291 11292 11293 11294 11295 11296 11297 11298 11299 11300 11301 11302 11303 11304 11305 11306 11307 11308 11309 11310 11311 11312 11313 11314 11315 11316 11317 11318 11319 11320 11321 11322 11323 11324 11325 11326 11327 11328 11329 11330 11331 11332 11333 11334 11335 11336 11337 11338 11339 11340 11341 11342 11343 11344 11345 11346 11347 11348 11349 11350 11351 11352 11353 11354 11355 11356 11357 11358 11359 11360 11361 11362 11363 11364 11365 11366 11367 11368 11369 11370 11371 11372 11373 11374 11375 11376 11377 11378 11379 11380 11381 11382 11383 11384 11385 11386 11387 11388 11389 11390 11391 11392 11393 11394 11395 11396 11397 11398 11399 11400 11401 11402 11403 11404 11405 11406 11407 11408 11409 11410 11411 11412 11413 11414 11415 11416 11417 11418 11419 11420 11421 11422 11423 11424 11425 11426 11427 11428 11429 11430 11431 11432 11433 11434 11435 11436 11437 11438 11439 11440 11441 11442 11443 11444 11445 11446 11447 11448 11449 11450 11451 11452 11453 11454 11455 11456 11457 11458 11459 11460 11461 11462 11463 11464 11465 11466 11467 11468 11469 11470 11471 11472 11473 11474 11475 11476 11477 11478 11479 11480 11481 11482 11483 11484 11485 11486 11487 11488 11489 11490 11491 11492 11493 11494 11495 11496 11497 11498 11499 11500 11501 11502 11503 11504 11505 11506 11507 11508 11509 11510 11511 11512 11513 11514 11515 11516 11517 11518 11519 11520 11521 11522 11523 11524 11525 11526 11527 11528 11529 11530 11531 11532 11533 11534 11535 11536 11537 11538 11539 11540 11541 11542 11543 11544 11545 11546 11547 11548 11549 11550 11551 11552 11553 11554 11555 11556 11557 11558 11559 11560 11561 11562 11563 11564 11565 11566 11567 11568 11569 11570 11571 11572 11573 11574 11575 11576 11577 11578 11579 11580 11581 11582 11583 11584 11585 11586 11587 11588 11589 11590 11591 11592 11593 11594 11595 11596 11597 11598 11599 11600 11601 11602 11603 11604 11605 11606 11607 11608 11609 11610 11611 11612 11613 11614 11615 11616 11617 11618 11619 11620 11621 11622 11623 11624 11625 11626 11627 11628 11629 11630 11631 11632 11633 11634 11635 11636 11637 11638 11639 11640 11641 11642 11643 11644 11645 11646 11647 11648 11649 11650 11651 11652 11653 11654 11655 11656 11657 11658 11659 11660 11661 11662 11663 11664 11665 11666 11667 11668 11669 11670 11671 11672 11673 11674 11675 11676 11677 11678 11679 11680 11681 11682 11683 11684 11685 11686 11687 11688 11689 11690 11691 11692 11693 11694 11695 11696 11697 11698 11699 11700 11701 11702 11703 11704 11705 11706 11707 11708 11709 11710 11711 11712 11713 11714 11715 11716 11717 11718 11719 11720 11721 11722 11723 11724 11725 11726 11727 11728 11729 11730 11731 11732 11733 11734 11735 11736 11737 11738 11739 11740 11741 11742 11743 11744 11745 11746 11747 11748 11749 11750 11751 11752 11753 11754 11755 11756 11757 11758 11759 11760 11761 11762 11763 11764 11765 11766 11767 11768 11769 11770 11771 11772 11773 11774 11775 11776 11777 11778 11779 11780 11781 11782 11783 11784 11785 11786 11787 11788 11789 11790 11791 11792 11793 11794 11795 11796 11797 11798 11799 11800 11801 11802 11803 11804 11805 11806 11807 11808 11809 11810 11811 11812 11813 11814 11815 11816 11817 11818 11819 11820 11821 11822 11823 11824 11825 11826 11827 11828 11829 11830 11831 11832 11833 11834 11835 11836 11837 11838 11839 11840 11841 11842 11843 11844 11845 11846 11847 11848 11849 11850 11851 11852 11853 11854 11855 11856 11857 11858 11859 11860 11861 11862 11863 11864 11865 11866 11867 11868 11869 11870 11871 11872 11873 11874 11875 11876 11877 11878 11879 11880 11881 11882 11883 11884 11885 11886 11887 11888 11889 11890 11891 11892 11893 11894 11895 11896 11897 11898 11899 11900 11901 11902 11903 11904 11905 11906 11907 11908 11909 11910 11911 11912 11913 11914 11915 11916 11917 11918 11919 11920 11921 11922 11923 11924 11925 11926 11927 11928 11929 11930 11931 11932 11933 11934 11935 11936 11937 11938 11939 11940 11941 11942 11943 11944 11945 11946 11947 11948 11949 11950 11951 11952 11953 11954 11955 11956 11957 11958 11959 11960 11961 11962 11963 11964 11965 11966 11967 11968 11969 11970 11971 11972 11973 11974 11975 11976 11977 11978 11979 11980 11981 11982 11983 11984 11985 11986 11987 11988 11989 11990 11991 11992 11993 11994 11995 11996 11997 11998 11999 12000 12001 12002 12003 12004 12005 12006 12007 12008 12009 12010 12011 12012 12013 12014 12015 12016 12017 12018 12019 12020 12021 12022 12023 12024 12025 12026 12027 12028 12029 12030 12031 12032 12033 12034 12035 12036 12037 12038 12039 12040 12041 12042 12043 12044 12045 12046 12047 12048 12049 12050 12051 12052 12053 12054 12055 12056 12057 12058 12059 12060 12061 12062 12063 12064 12065 12066 12067 12068 12069 12070 12071 12072 12073 12074 12075 12076 12077 12078 12079 12080 12081 12082 12083 12084 12085 12086 12087 12088 12089 12090 12091 12092 12093 12094 12095 12096 12097 12098 12099 12100 12101 12102 12103 12104 12105 12106 12107 12108 12109 12110 12111 12112 12113 12114 12115 12116 12117 12118 12119 12120 12121 12122 12123 12124 12125 12126 12127 12128 12129 12130 12131 12132 12133 12134 12135 12136 12137 12138 12139 12140 12141 12142 12143 12144 12145 12146 12147 12148 12149 12150 12151 12152 12153 12154 12155 12156 12157 12158 12159 12160 12161 12162 12163 12164 12165 12166 12167 12168 12169 12170 12171 12172 12173 12174 12175 12176 12177 12178 12179 12180 12181 12182 12183 12184 12185 12186 12187 12188 12189 12190 12191 12192 12193 12194 12195 12196 12197 12198 12199 12200 12201 12202 12203 12204 12205 12206 12207 12208 12209 12210 12211 12212 12213 12214 12215 12216 12217 12218 12219 12220 12221 12222 12223 12224 12225 12226 12227 12228 12229 12230 12231 12232 12233 12234 12235 12236 12237 12238 12239 12240 12241 12242 12243 12244 12245 12246 12247 12248 12249 12250 12251 12252 12253 12254 12255 12256 12257 12258 12259 12260 12261 12262 12263 12264 12265 12266 12267 12268 12269 12270 12271 12272 12273 12274 12275 12276 12277 12278 12279 12280 12281 12282 12283 12284 12285 12286 12287 12288 12289 12290 12291 12292 12293 12294 12295 12296 12297 12298 12299 12300 12301 12302 12303 12304 12305 12306 12307 12308 12309 12310 12311 12312 12313 12314 12315 12316 12317 12318 12319 12320 12321 12322 12323 12324 12325 12326 12327 12328 12329 12330 12331 12332 12333 12334 12335 12336 12337 12338 12339 12340 12341 12342 12343 12344 12345 12346 12347 12348 12349 12350 12351 12352 12353 12354 12355 12356 12357 12358 12359 12360 12361 12362 12363 12364 12365 12366 12367 12368 12369 12370 12371 12372 12373 12374 12375 12376 12377 12378 12379 12380 12381 12382 12383 12384 12385 12386 12387 12388 12389 12390 12391 12392 12393 12394 12395 12396 12397 12398 12399 12400 12401 12402 12403 12404 12405 12406 12407 12408 12409 12410 12411 12412 12413 12414 12415 12416 12417 12418 12419 12420 12421 12422 12423 12424 12425 12426 12427 12428 12429 12430 12431 12432 12433 12434 12435 12436 12437 12438 12439 12440 12441 12442 12443 12444 12445 12446 12447 12448 12449 12450 12451 12452 12453 12454 12455 12456 12457 12458 12459 12460 12461 12462 12463 12464 12465 12466 12467 12468 12469 12470 12471 12472 12473 12474 12475 12476 12477 12478 12479 12480 12481 12482 12483 12484 12485 12486 12487 12488 12489 12490 12491 12492 12493 12494 12495 12496 12497 12498 12499 12500 12501 12502 12503 12504 12505 12506 12507 12508 12509 12510 12511 12512 12513 12514 12515 12516 12517 12518 12519 12520 12521 12522 12523 12524 12525 12526 12527 12528 12529 12530 12531 12532 12533 12534 12535 12536 12537 12538 12539 12540 12541 12542 12543 12544 12545 12546 12547 12548 12549 12550 12551 12552 12553 12554 12555 12556 12557 12558 12559 12560 12561 12562 12563 12564 12565 12566 12567 12568 12569 12570 12571 12572 12573 12574 12575 12576 12577 12578 12579 12580 12581 12582 12583 12584 12585 12586 12587 12588 12589 12590 12591 12592 12593 12594 12595 12596 12597 12598 12599 12600 12601 12602 12603 12604 12605 12606 12607 12608 12609 12610 12611 12612 12613 12614 12615 12616 12617 12618 12619 12620 12621 12622 12623 12624 12625 12626 12627 12628 12629 12630 12631 12632 12633 12634 12635 12636 12637 12638 12639 12640 12641 12642 12643 12644 12645 12646 12647 12648 12649 12650 12651 12652 12653 12654 12655 12656 12657 12658 12659 12660 12661 12662 12663 12664 12665 12666 12667 12668 12669 12670 12671 12672 12673 12674 12675 12676 12677 12678 12679 12680 12681 12682 12683 12684 12685 12686 12687 12688 12689 12690 12691 12692 12693 12694 12695 12696 12697 12698 12699 12700 12701 12702 12703 12704 12705 12706 12707 12708 12709 12710 12711 12712 12713 12714 12715 12716 12717 12718 12719 12720 12721 12722 12723 12724 12725 12726 12727 12728 12729 12730 12731 12732 12733 12734 12735 12736 12737 12738 12739 12740 12741 12742 12743 12744 12745 12746 12747 12748 12749 12750 12751 12752 12753 12754 12755 12756 12757 12758 12759 12760 12761 12762 12763 12764 12765 12766 12767 12768 12769 12770 12771 12772 12773 12774 12775 12776 12777 12778 12779 12780 12781 12782 12783 12784 12785 12786 12787 12788 12789 12790 12791 12792 12793 12794 12795 12796 12797 12798 12799 12800 12801 12802 12803 12804 12805 12806 12807 12808 12809 12810 12811 12812 12813 12814 12815 12816 12817 12818 12819 12820 12821 12822 12823 12824 12825 12826 12827 12828 12829 12830 12831 12832 12833 12834 12835 12836 12837 12838 12839 12840 12841 12842 12843 12844 12845 12846 12847 12848 12849 12850 12851 12852 12853 12854 12855 12856 12857 12858 12859 12860 12861 12862 12863 12864 12865 12866 12867 12868 12869 12870 12871 12872 12873 12874 12875 12876 12877 12878 12879 12880 12881 12882 12883 12884 12885 12886 12887 12888 12889 12890 12891 12892 12893 12894 12895 12896 12897 12898 12899 12900 12901 12902 12903 12904 12905 12906 12907 12908 12909 12910 12911 12912 12913 12914 12915 12916 12917 12918 12919 12920 12921 12922 12923 12924 12925 12926 12927 12928 12929 12930 12931 12932 12933 12934 12935 12936 12937 12938 12939 12940 12941 12942 12943 12944 12945 12946 12947 12948 12949 12950 12951 12952 12953 12954 12955 12956 12957 12958 12959 12960 12961 12962 12963 12964 12965 12966 12967 12968 12969 12970 12971 12972 12973 12974 12975 12976 12977 12978 12979 12980 12981 12982 12983 12984 12985 12986 12987 12988 12989 12990 12991 12992 12993 12994 12995 12996 12997 12998 12999 13000 13001 13002 13003 13004 13005 13006 13007 13008 13009 13010 13011 13012 13013 13014 13015 13016 13017 13018 13019 13020 13021 13022 13023 13024 13025 13026 13027 13028 13029 13030 13031 13032 13033 13034 13035 13036 13037 13038 13039 13040 13041 13042 13043 13044 13045 13046 13047 13048 13049 13050 13051 13052 13053 13054 13055 13056 13057 13058 13059 13060 13061 13062 13063 13064 13065 13066 13067 13068 13069 13070 13071 13072 13073 13074 13075 13076 13077 13078 13079 13080 13081 13082 13083 13084 13085 13086 13087 13088 13089 13090 13091 13092 13093 13094 13095 13096 13097 13098 13099 13100 13101 13102 13103 13104 13105 13106 13107 13108 13109 13110 13111 13112 13113 13114 13115 13116 13117 13118 13119 13120 13121 13122 13123 13124 13125 13126 13127 13128 13129 13130 13131 13132 13133 13134 13135 13136 13137 13138 13139 13140 13141 13142 13143 13144 13145 13146 13147 13148 13149 13150 13151 13152 13153 13154 13155 13156 13157 13158 13159 13160 13161 13162 13163 13164 13165 13166 13167 13168 13169 13170 13171 13172 13173 13174 13175 13176 13177 13178 13179 13180 13181 13182 13183 13184 13185 13186 13187 13188 13189 13190 13191 13192 13193 13194 13195 13196 13197 13198 13199 13200 13201 13202 13203 13204 13205 13206 13207 13208 13209 13210 13211 13212 13213 13214 13215 13216 13217 13218 13219 13220 13221 13222 13223 13224 13225 13226 13227 13228 13229 13230 13231 13232 13233 13234 13235 13236 13237 13238 13239 13240 13241 13242 13243 13244 13245 13246 13247 13248 13249 13250 13251 13252 13253 13254 13255 13256 13257 13258 13259 13260 13261 13262 13263 13264 13265 13266 13267 13268 13269 13270 13271 13272 13273 13274 13275 13276 13277 13278 13279 13280 13281 13282 13283 13284 13285 13286 13287 13288 13289 13290 13291 13292 13293 13294 13295 13296 13297 13298 13299 13300 13301 13302 13303 13304 13305 13306 13307 13308 13309 13310 13311 13312 13313 13314 13315 13316 13317 13318 13319 13320 13321 13322 13323 13324 13325 13326 13327 13328 13329 13330 13331 13332 13333 13334 13335 13336 13337 13338 13339 13340 13341 13342 13343 13344 13345 13346 13347 13348 13349 13350 13351 13352 13353 13354 13355 13356 13357 13358 13359 13360 13361 13362 13363 13364 13365 13366 13367 13368 13369 13370 13371 13372 13373 13374 13375 13376 13377 13378 13379 13380 13381 13382 13383 13384 13385 13386 13387 13388 13389 13390 13391 13392 13393 13394 13395 13396 13397 13398 13399 13400 13401 13402 13403 13404 13405 13406 13407 13408 13409 13410 13411 13412 13413 13414 13415 13416 13417 13418 13419 13420 13421 13422 13423 13424 13425 13426 13427 13428 13429 13430 13431 13432 13433 13434 13435 13436 13437 13438 13439 13440 13441 13442 13443 13444 13445 13446 13447 13448 13449 13450 13451 13452 13453 13454 13455 13456 13457 13458 13459 13460 13461 13462 13463 13464 13465 13466 13467 13468 13469 13470 13471 13472 13473 13474 13475 13476 13477 13478 13479 13480 13481 13482 13483 13484 13485 13486 13487 13488 13489 13490 13491 13492 13493 13494 13495 13496 13497 13498 13499 13500 13501 13502 13503 13504 13505 13506 13507 13508 13509 13510 13511 13512 13513 13514 13515 13516 13517 13518 13519 13520 13521 13522 13523 13524 13525 13526 13527 13528 13529 13530 13531 13532 13533 13534 13535 13536 13537 13538 13539 13540 13541 13542 13543 13544 13545 13546 13547 13548 13549 13550 13551 13552 13553 13554 13555 13556 13557 13558 13559 13560 13561 13562 13563 13564 13565 13566 13567 13568 13569 13570 13571 13572 13573 13574 13575 13576 13577 13578 13579 13580 13581 13582 13583 13584 13585 13586 13587 13588 13589 13590 13591 13592 13593 13594 13595 13596 13597 13598 13599 13600 13601 13602 13603 13604 13605 13606 13607 13608 13609 13610 13611 13612 13613 13614 13615 13616 13617 13618 13619 13620 13621 13622 13623 13624 13625 13626 13627 13628 13629 13630 13631 13632 13633 13634 13635 13636 13637 13638 13639 13640 13641 13642 13643 13644 13645 13646 13647 13648 13649 13650 13651 13652 13653 13654 13655 13656 13657 13658 13659 13660 13661 13662 13663 13664 13665 13666 13667 13668 13669 13670 13671 13672 13673 13674 13675 13676 13677 13678 13679 13680 13681 13682 13683 13684 13685 13686 13687 13688 13689 13690 13691 13692 13693 13694 13695 13696 13697 13698 13699 13700 13701 13702 13703 13704 13705 13706 13707 13708 13709 13710 13711 13712 13713 13714 13715 13716 13717 13718 13719 13720 13721 13722 13723 13724 13725 13726 13727 13728 13729 13730 13731 13732 13733 13734 13735 13736 13737 13738 13739 13740 13741 13742 13743 13744 13745 13746 13747 13748 13749 13750 13751 13752 13753 13754 13755 13756 13757 13758 13759 13760 13761 13762 13763 13764 13765 13766 13767 13768 13769 13770 13771 13772 13773 13774 13775 13776 13777 13778 13779 13780 13781 13782 13783 13784 13785 13786 13787 13788 13789 13790 13791 13792 13793 13794 13795 13796 13797 13798 13799 13800 13801 13802 13803 13804 13805 13806 13807 13808 13809 13810 13811 13812 13813 13814 13815 13816 13817 13818 13819 13820 13821 13822 13823 13824 13825 13826 13827 13828 13829 13830 13831 13832 13833 13834 13835 13836 13837 13838 13839 13840 13841 13842 13843 13844 13845 13846 13847 13848 13849 13850 13851 13852 13853 13854 13855 13856 13857 13858 13859 13860 13861 13862 13863 13864 13865 13866 13867 13868 13869 13870 13871 13872 13873 13874 13875 13876 13877 13878 13879 13880 13881 13882 13883 13884 13885 13886 13887 13888 13889 13890 13891 13892 13893 13894 13895 13896 13897 13898 13899 13900 13901 13902 13903 13904 13905 13906 13907 13908 13909 13910 13911 13912 13913 13914 13915 13916 13917 13918 13919 13920 13921 13922 13923 13924 13925 13926 13927 13928 13929 13930 13931 13932 13933 13934 13935 13936 13937 13938 13939 13940 13941 13942 13943 13944 13945 13946 13947 13948 13949 13950 13951 13952 13953 13954 13955 13956 13957 13958 13959 13960 13961 13962 13963 13964 13965 13966 13967 13968 13969 13970 13971 13972 13973 13974 13975 13976 13977 13978 13979 13980 13981 13982 13983 13984 13985 13986 13987 13988 13989 13990 13991 13992 13993 13994 13995 13996 13997 13998 13999 14000 14001 14002 14003 14004 14005 14006 14007 14008 14009 14010 14011 14012 14013 14014 14015 14016 14017 14018 14019 14020 14021 14022 14023 14024 14025 14026 14027 14028 14029 14030 14031 14032 14033 14034 14035 14036 14037 14038 14039 14040 14041 14042 14043 14044 14045 14046 14047 14048 14049 14050 14051 14052 14053 14054 14055 14056 14057 14058 14059 14060 14061 14062 14063 14064 14065 14066 14067 14068 14069 14070 14071 14072 14073 14074 14075 14076 14077 14078 14079 14080 14081 14082 14083 14084 14085 14086 14087 14088 14089 14090 14091 14092 14093 14094 14095 14096 14097 14098 14099 14100 14101 14102 14103 14104 14105 14106 14107 14108 14109 14110 14111 14112 14113 14114 14115 14116 14117 14118 14119 14120 14121 14122 14123 14124 14125 14126 14127 14128 14129 14130 14131 14132 14133 14134 14135 14136 14137 14138 14139 14140 14141 14142 14143 14144 14145 14146 14147 14148 14149 14150 14151 14152 14153 14154 14155 14156 14157 14158 14159 14160 14161 14162 14163 14164 14165 14166 14167 14168 14169 14170 14171 14172 14173 14174 14175 14176 14177 14178 14179 14180 14181 14182 14183 14184 14185 14186 14187 14188 14189 14190 14191 14192 14193 14194 14195 14196 14197 14198 14199 14200 14201 14202 14203 14204 14205 14206 14207 14208 14209 14210 14211 14212 14213 14214 14215 14216 14217 14218 14219 14220 14221 14222 14223 14224 14225 14226 14227 14228 14229 14230 14231 14232 14233 14234 14235 14236 14237 14238 14239 14240 14241 14242 14243 14244 14245 14246 14247 14248 14249 14250 14251 14252 14253 14254 14255 14256 14257 14258 14259 14260 14261 14262 14263 14264 14265 14266 14267 14268 14269 14270 14271 14272 14273 14274 14275 14276 14277 14278 14279 14280 14281 14282 14283 14284 14285 14286 14287 14288 14289 14290 14291 14292 14293 14294 14295 14296 14297 14298 14299 14300 14301 14302 14303 14304 14305 14306 14307 14308 14309 14310 14311 14312 14313 14314 14315 14316 14317 14318 14319 14320 14321 14322 14323 14324 14325 14326 14327 14328 14329 14330 14331 14332 14333 14334 14335 14336 14337 14338 14339 14340 14341 14342 14343 14344 14345 14346 14347 14348 14349 14350 14351 14352 14353 14354 14355 14356 14357 14358 14359 14360 14361 14362 14363 14364 14365 14366 14367 14368 14369 14370 14371 14372 14373 14374 14375 14376 14377 14378 14379 14380 14381 14382 14383 14384 14385 14386 14387 14388 14389 14390 14391 14392 14393 14394 14395 14396 14397 14398 14399 14400 14401 14402 14403 14404 14405 14406 14407 14408 14409 14410 14411 14412 14413 14414 14415 14416 14417 14418 14419 14420 14421 14422 14423 14424 14425 14426 14427 14428 14429 14430 14431 14432 14433 14434 14435 14436 14437 14438 14439 14440 14441 14442 14443 14444 14445 14446 14447 14448 14449 14450 14451 14452 14453 14454 14455 14456 14457 14458 14459 14460 14461 14462 14463 14464 14465 14466 14467 14468 14469 14470 14471 14472 14473 14474 14475 14476 14477 14478 14479 14480 14481 14482 14483 14484 14485 14486 14487 14488 14489 14490 14491 14492 14493 14494 14495 14496 14497 14498 14499 14500 14501 14502 14503 14504 14505 14506 14507 14508 14509 14510 14511 14512 14513 14514 14515 14516 14517 14518 14519 14520 14521 14522 14523 14524 14525 14526 14527 14528 14529 14530 14531 14532 14533 14534 14535 14536 14537 14538 14539 14540 14541 14542 14543 14544 14545 14546 14547 14548 14549 14550 14551 14552 14553 14554 14555 14556 14557 14558 14559 14560 14561 14562 14563 14564 14565 14566 14567 14568 14569 14570 14571 14572 14573 14574 14575 14576 14577 14578 14579 14580 14581 14582 14583 14584 14585 14586 14587 14588 14589 14590 14591 14592 14593 14594 14595 14596 14597 14598 14599 14600 14601 14602 14603 14604 14605 14606 14607 14608 14609 14610 14611 14612 14613 14614 14615 14616 14617 14618 14619 14620 14621 14622 14623 14624 14625 14626 14627 14628 14629 14630 14631 14632 14633 14634 14635 14636 14637 14638 14639 14640 14641 14642 14643 14644 14645 14646 14647 14648 14649 14650 14651 14652 14653 14654 14655 14656 14657 14658 14659 14660 14661 14662 14663 14664 14665 14666 14667 14668 14669 14670 14671 14672 14673 14674 14675 14676 14677 14678 14679 14680 14681 14682 14683 14684 14685 14686 14687 14688 14689 14690 14691 14692 14693 14694 14695 14696 14697 14698 14699 14700 14701 14702 14703 14704 14705 14706 14707 14708 14709 14710 14711 14712 14713 14714 14715 14716 14717 14718 14719 14720 14721 14722 14723 14724 14725 14726 14727 14728 14729 14730 14731 14732 14733 14734 14735 14736 14737 14738 14739 14740 14741 14742 14743 14744 14745 14746 14747 14748 14749 14750 14751 14752 14753 14754 14755 14756 14757 14758 14759 14760 14761 14762 14763 14764 14765 14766 14767 14768 14769 14770 14771 14772 14773 14774 14775 14776 14777 14778 14779 14780 14781 14782 14783 14784 14785 14786 14787 14788 14789 14790 14791 14792 14793 14794 14795 14796 14797 14798 14799 14800 14801 14802 14803 14804 14805 14806 14807 14808 14809 14810 14811 14812 14813 14814 14815 14816 14817 14818 14819 14820 14821 14822 14823 14824 14825 14826 14827 14828 14829 14830 14831 14832 14833 14834 14835 14836 14837 14838 14839 14840 14841 14842 14843 14844 14845 14846 14847 14848 14849 14850 14851 14852 14853 14854 14855 14856 14857 14858 14859 14860 14861 14862 14863 14864 14865 14866 14867 14868 14869 14870 14871 14872 14873 14874 14875 14876 14877 14878 14879 14880 14881 14882 14883 14884 14885 14886 14887 14888 14889 14890 14891 14892 14893 14894 14895 14896 14897 14898 14899 14900 14901 14902 14903 14904 14905 14906 14907 14908 14909 14910 14911 14912 14913 14914 14915 14916 14917 14918 14919 14920 14921 14922 14923 14924 14925 14926 14927 14928 14929 14930 14931 14932 14933 14934 14935 14936 14937 14938 14939 14940 14941 14942 14943 14944 14945 14946 14947 14948 14949 14950 14951 14952 14953 14954 14955 14956 14957 14958 14959 14960 14961 14962 14963 14964 14965 14966 14967 14968 14969 14970 14971 14972 14973 14974 14975 14976 14977 14978 14979 14980 14981 14982 14983 14984 14985 14986 14987 14988 14989 14990 14991 14992 14993 14994 14995 14996 14997 14998 14999 15000 15001 15002 15003 15004 15005 15006 15007 15008 15009 15010 15011 15012 15013 15014 15015 15016 15017 15018 15019 15020 15021 15022 15023 15024 15025 15026 15027 15028 15029 15030 15031 15032 15033 15034 15035 15036 15037 15038 15039 15040 15041 15042 15043 15044 15045 15046 15047 15048 15049 15050 15051 15052 15053 15054 15055 15056 15057 15058 15059 15060 15061 15062 15063 15064 15065 15066 15067 15068 15069 15070 15071 15072 15073 15074 15075 15076 15077 15078 15079 15080 15081 15082 15083 15084 15085 15086 15087 15088 15089 15090 15091 15092 15093 15094 15095 15096 15097 15098 15099 15100 15101 15102 15103 15104 15105 15106 15107 15108 15109 15110 15111 15112 15113 15114 15115 15116 15117 15118 15119 15120 15121 15122 15123 15124 15125 15126 15127 15128 15129 15130 15131 15132 15133 15134 15135 15136 15137 15138 15139 15140 15141 15142 15143 15144 15145 15146 15147 15148 15149 15150 15151 15152 15153 15154 15155 15156 15157 15158 15159 15160 15161 15162 15163 15164 15165 15166 15167 15168 15169 15170 15171 15172 15173 15174 15175 15176 15177 15178 15179 15180 15181 15182 15183 15184 15185 15186 15187 15188 15189 15190 15191 15192 15193 15194 15195 15196 15197 15198 15199 15200 15201 15202 15203 15204 15205 15206 15207 15208 15209 15210 15211 15212 15213 15214 15215 15216 15217 15218 15219 15220 15221 15222 15223 15224 15225 15226 15227 15228 15229 15230 15231 15232 15233 15234 15235 15236 15237 15238 15239 15240 15241 15242 15243 15244 15245 15246 15247 15248 15249 15250 15251 15252 15253 15254 15255 15256 15257 15258 15259 15260 15261 15262 15263 15264 15265 15266 15267 15268 15269 15270 15271 15272 15273 15274 15275 15276 15277 15278 15279 15280 15281 15282 15283 15284 15285 15286 15287 15288 15289 15290 15291 15292 15293 15294 15295 15296 15297 15298 15299 15300 15301 15302 15303 15304 15305 15306 15307 15308 15309 15310 15311 15312 15313 15314 15315 15316 15317 15318 15319 15320 15321 15322 15323 15324 15325 15326 15327 15328 15329 15330 15331 15332 15333 15334 15335 15336 15337 15338 15339 15340 15341 15342 15343 15344 15345 15346 15347 15348 15349 15350 15351 15352 15353 15354 15355 15356 15357 15358 15359 15360 15361 15362 15363 15364 15365 15366 15367 15368 15369 15370 15371 15372 15373 15374 15375 15376 15377 15378 15379 15380 15381 15382 15383 15384 15385 15386 15387 15388 15389 15390 15391 15392 15393 15394 15395 15396 15397 15398 15399 15400 15401 15402 15403 15404 15405 15406 15407 15408 15409 15410 15411 15412 15413 15414 15415 15416 15417 15418 15419 15420 15421 15422 15423 15424 15425 15426 15427 15428 15429 15430 15431 15432 15433 15434 15435 15436 15437 15438 15439 15440 15441 15442 15443 15444 15445 15446 15447 15448 15449 15450 15451 15452 15453 15454 15455 15456 15457 15458 15459 15460 15461 15462 15463 15464 15465 15466 15467 15468 15469 15470 15471 15472 15473 15474 15475 15476 15477 15478 15479 15480 15481 15482 15483 15484 15485 15486 15487 15488 15489 15490 15491 15492 15493 15494 15495 15496 15497 15498 15499 15500 15501 15502 15503 15504 15505 15506 15507 15508 15509 15510 15511 15512 15513 15514 15515 15516 15517 15518 15519 15520 15521 15522 15523 15524 15525 15526 15527 15528 15529 15530 15531 15532 15533 15534 15535 15536 15537 15538 15539 15540 15541 15542 15543 15544 15545 15546 15547 15548 15549 15550 15551 15552 15553 15554 15555 15556 15557 15558 15559 15560 15561 15562 15563 15564 15565 15566 15567 15568 15569 15570 15571 15572 15573 15574 15575 15576 15577 15578 15579 15580 15581 15582 15583 15584 15585 15586 15587 15588 15589 15590 15591 15592 15593 15594 15595 15596 15597 15598 15599 15600 15601 15602 15603 15604 15605 15606 15607 15608 15609 15610 15611 15612 15613 15614 15615 15616 15617 15618 15619 15620 15621 15622 15623 15624 15625 15626 15627 15628 15629 15630 15631 15632 15633 15634 15635 15636 15637 15638 15639 15640 15641 15642 15643 15644 15645 15646 15647 15648 15649 15650 15651 15652 15653 15654 15655 15656 15657 15658 15659 15660 15661 15662 15663 15664 15665 15666 15667 15668 15669 15670 15671 15672 15673 15674 15675 15676 15677 15678 15679 15680 15681 15682 15683 15684 15685 15686 15687 15688 15689 15690 15691 15692 15693 15694 15695 15696 15697 15698 15699 15700 15701 15702 15703 15704 15705 15706 15707 15708 15709 15710 15711 15712 15713 15714 15715 15716 15717 15718 15719 15720 15721 15722 15723 15724 15725 15726 15727 15728 15729 15730 15731 15732 15733 15734 15735 15736 15737 15738 15739 15740 15741 15742 15743 15744 15745 15746 15747 15748 15749 15750 15751 15752 15753 15754 15755 15756 15757 15758 15759 15760 15761 15762 15763 15764 15765 15766 15767 15768 15769 15770 15771 15772 15773 15774 15775 15776 15777 15778 15779 15780 15781 15782 15783 15784 15785 15786 15787 15788 15789 15790 15791 15792 15793 15794 15795 15796 15797 15798 15799 15800 15801 15802 15803 15804 15805 15806 15807 15808 15809 15810 15811 15812 15813 15814 15815 15816 15817 15818 15819 15820 15821 15822 15823 15824 15825 15826 15827 15828 15829 15830 15831 15832 15833 15834 15835 15836 15837 15838 15839 15840 15841 15842 15843 15844 15845 15846 15847 15848 15849 15850 15851 15852 15853 15854 15855 15856 15857 15858 15859 15860 15861 15862 15863 15864 15865 15866 15867 15868 15869 15870 15871 15872 15873 15874 15875 15876 15877 15878 15879 15880 15881 15882 15883 15884 15885 15886 15887 15888 15889 15890 15891 15892 15893 15894 15895 15896 15897 15898 15899 15900 15901 15902 15903 15904 15905 15906 15907 15908 15909 15910 15911 15912 15913 15914 15915 15916 15917 15918 15919 15920 15921 15922 15923 15924 15925 15926 15927 15928 15929 15930 15931 15932 15933 15934 15935 15936 15937 15938 15939 15940 15941 15942 15943 15944 15945 15946 15947 15948 15949 15950 15951 15952 15953 15954 15955 15956 15957 15958 15959 15960 15961 15962 15963 15964 15965 15966 15967 15968 15969 15970 15971 15972 15973 15974 15975 15976 15977 15978 15979 15980 15981 15982 15983 15984 15985 15986 15987 15988 15989 15990 15991 15992 15993 15994 15995 15996 15997 15998 15999 16000 16001 16002 16003 16004 16005 16006 16007 16008 16009 16010 16011 16012 16013 16014 16015 16016 16017 16018 16019 16020 16021 16022 16023 16024 16025 16026 16027 16028 16029 16030 16031 16032 16033 16034 16035 16036 16037 16038 16039 16040 16041 16042 16043 16044 16045 16046 16047 16048 16049 16050 16051 16052 16053 16054 16055 16056 16057 16058 16059 16060 16061 16062 16063 16064 16065 16066 16067 16068 16069 16070 16071 16072 16073 16074 16075 16076 16077 16078 16079 16080 16081 16082 16083 16084 16085 16086 16087 16088 16089 16090 16091 16092 16093 16094 16095 16096 16097 16098 16099 16100 16101 16102 16103 16104 16105 16106 16107 16108 16109 16110 16111 16112 16113 16114 16115 16116 16117 16118 16119 16120 16121 16122 16123 16124 16125 16126 16127 16128 16129 16130 16131 16132 16133 16134 16135 16136 16137 16138 16139 16140 16141 16142 16143 16144 16145 16146 16147 16148 16149 16150 16151 16152 16153 16154 16155 16156 16157 16158 16159 16160 16161 16162 16163 16164 16165 16166 16167 16168 16169 16170 16171 16172 16173 16174 16175 16176 16177 16178 16179 16180 16181 16182 16183 16184 16185 16186 16187 16188 16189 16190 16191 16192 16193 16194 16195 16196 16197 16198 16199 16200 16201 16202 16203 16204 16205 16206 16207 16208 16209 16210 16211 16212 16213 16214 16215 16216 16217 16218 16219 16220 16221 16222 16223 16224 16225 16226 16227 16228 16229 16230 16231 16232 16233 16234 16235 16236 16237 16238 16239 16240 16241 16242 16243 16244 16245 16246 16247 16248 16249 16250 16251 16252 16253 16254 16255 16256 16257 16258 16259 16260 16261 16262 16263 16264 16265 16266 16267 16268 16269 16270 16271 16272 16273 16274 16275 16276 16277 16278 16279 16280 16281 16282 16283 16284 16285 16286 16287 16288 16289 16290 16291 16292 16293 16294 16295 16296 16297 16298 16299 16300 16301 16302 16303 16304 16305 16306 16307 16308 16309 16310 16311 16312 16313 16314 16315 16316 16317 16318 16319 16320 16321 16322 16323 16324 16325 16326 16327 16328 16329 16330 16331 16332 16333 16334 16335 16336 16337 16338 16339 16340 16341 16342 16343 16344 16345 16346 16347 16348 16349 16350 16351 16352 16353 16354 16355 16356 16357 16358 16359 16360 16361 16362 16363 16364 16365 16366 16367 16368 16369 16370 16371 16372 16373 16374 16375 16376 16377 16378 16379 16380 16381 16382 16383 16384 16385 16386 16387 16388 16389 16390 16391 16392 16393 16394 16395 16396 16397 16398 16399 16400 16401 16402 16403 16404 16405 16406 16407 16408 16409 16410 16411 16412 16413 16414 16415 16416 16417 16418 16419 16420 16421 16422 16423 16424 16425 16426 16427 16428 16429 16430 16431 16432 16433 16434 16435 16436 16437 16438 16439 16440 16441 16442 16443 16444 16445 16446 16447 16448 16449 16450 16451 16452 16453 16454 16455 16456 16457 16458 16459 16460 16461 16462 16463 16464 16465 16466 16467 16468 16469 16470 16471 16472 16473 16474 16475 16476 16477 16478 16479 16480 16481 16482 16483 16484 16485 16486 16487 16488 16489 16490 16491 16492 16493 16494 16495 16496 16497 16498 16499 16500 16501 16502 16503 16504 16505 16506 16507 16508 16509 16510 16511 16512 16513 16514 16515 16516 16517 16518 16519 16520 16521 16522 16523 16524 16525 16526 16527 16528 16529 16530 16531 16532 16533 16534 16535 16536 16537 16538 16539 16540 16541 16542 16543 16544 16545 16546 16547 16548 16549 16550 16551 16552 16553 16554 16555 16556 16557 16558 16559 16560 16561 16562 16563 16564 16565 16566 16567 16568 16569 16570 16571 16572 16573 16574 16575 16576 16577 16578 16579 16580 16581 16582 16583 16584 16585 16586 16587 16588 16589 16590 16591 16592 16593 16594 16595 16596 16597 16598 16599 16600 16601 16602 16603 16604 16605 16606 16607 16608 16609 16610 16611 16612 16613 16614 16615 16616 16617 16618 16619 16620 16621 16622 16623 16624 16625 16626 16627 16628 16629 16630 16631 16632 16633 16634 16635 16636 16637 16638 16639 16640 16641 16642 16643 16644 16645 16646 16647 16648 16649 16650 16651 16652 16653 16654 16655 16656 16657 16658 16659 16660 16661 16662 16663 16664 16665 16666 16667 16668 16669 16670 16671 16672 16673 16674 16675 16676 16677 16678 16679 16680 16681 16682 16683 16684 16685 16686 16687 16688 16689 16690 16691 16692 16693 16694 16695 16696 16697 16698 16699 16700 16701 16702 16703 16704 16705 16706 16707 16708 16709 16710 16711 16712 16713 16714 16715 16716 16717 16718 16719 16720 16721 16722 16723 16724 16725 16726 16727 16728 16729 16730 16731 16732 16733 16734 16735 16736 16737 16738 16739 16740 16741 16742 16743 16744 16745 16746 16747 16748 16749 16750 16751 16752 16753 16754 16755 16756 16757 16758 16759 16760 16761 16762 16763 16764 16765 16766 16767 16768 16769 16770 16771 16772 16773 16774 16775 16776 16777 16778 16779 16780 16781 16782 16783 16784 16785 16786 16787 16788 16789 16790 16791 16792 16793 16794 16795 16796 16797 16798 16799 16800 16801 16802 16803 16804 16805 16806 16807 16808 16809 16810 16811 16812 16813 16814 16815 16816 16817 16818 16819 16820 16821 16822 16823 16824 16825 16826 16827 16828 16829 16830 16831 16832 16833 16834 16835 16836 16837 16838 16839 16840 16841 16842 16843 16844 16845 16846 16847 16848 16849 16850 16851 16852 16853 16854 16855 16856 16857 16858 16859 16860 16861 16862 16863 16864 16865 16866 16867 16868 16869 16870 16871 16872 16873 16874 16875 16876 16877 16878 16879 16880 16881 16882 16883 16884 16885 16886 16887 16888 16889 16890 16891 16892 16893 16894 16895 16896 16897 16898 16899 16900 16901 16902 16903 16904 16905 16906 16907 16908 16909 16910 16911 16912 16913 16914 16915 16916 16917 16918 16919 16920 16921 16922 16923 16924 16925 16926 16927 16928 16929 16930 16931 16932 16933 16934 16935 16936 16937 16938 16939 16940 16941 16942 16943 16944 16945 16946 16947 16948 16949 16950 16951 16952 16953 16954 16955 16956 16957 16958 16959 16960 16961 16962 16963 16964 16965 16966 16967 16968 16969 16970 16971 16972 16973 16974 16975 16976 16977 16978 16979 16980 16981 16982 16983 16984 16985 16986 16987 16988 16989 16990 16991 16992 16993 16994 16995 16996 16997 16998 16999 17000 17001 17002 17003 17004 17005 17006 17007 17008 17009 17010 17011 17012 17013 17014 17015 17016 17017 17018 17019 17020 17021 17022 17023 17024 17025 17026 17027 17028 17029 17030 17031 17032 17033 17034 17035 17036 17037 17038 17039 17040 17041 17042 17043 17044 17045 17046 17047 17048 17049 17050 17051 17052 17053 17054 17055 17056 17057 17058 17059 17060 17061 17062 17063 17064 17065 17066 17067 17068 17069 17070 17071 17072 17073 17074 17075 17076 17077 17078 17079 17080 17081 17082 17083 17084 17085 17086 17087 17088 17089 17090 17091 17092 17093 17094 17095 17096 17097 17098 17099 17100 17101 17102 17103 17104 17105 17106 17107 17108 17109 17110 17111 17112 17113 17114 17115 17116 17117 17118 17119 17120 17121 17122 17123 17124 17125 17126 17127 17128 17129 17130 17131 17132 17133 17134 17135 17136 17137 17138 17139 17140 17141 17142 17143 17144 17145 17146 17147 17148 17149 17150 17151 17152 17153 17154 17155 17156 17157 17158 17159 17160 17161 17162 17163 17164 17165 17166 17167 17168 17169 17170 17171 17172 17173 17174 17175 17176 17177 17178 17179 17180 17181 17182 17183 17184 17185 17186 17187 17188 17189 17190 17191 17192 17193 17194 17195 17196 17197 17198 17199 17200 17201 17202 17203 17204 17205 17206 17207 17208 17209 17210 17211 17212 17213 17214 17215 17216 17217 17218 17219 17220 17221 17222 17223 17224 17225 17226 17227 17228 17229 17230 17231 17232 17233 17234 17235 17236 17237 17238 17239 17240 17241 17242 17243 17244 17245 17246 17247 17248 17249 17250 17251 17252 17253 17254 17255 17256 17257 17258 17259 17260 17261 17262 17263 17264 17265 17266 17267 17268 17269 17270 17271 17272 17273 17274 17275 17276 17277 17278 17279 17280 17281 17282 17283 17284 17285 17286 17287 17288 17289 17290 17291 17292 17293 17294 17295 17296 17297 17298 17299 17300 17301 17302 17303 17304 17305 17306 17307 17308 17309 17310 17311 17312 17313 17314 17315 17316 17317 17318 17319 17320 17321 17322 17323 17324 17325 17326 17327 17328 17329 17330 17331 17332 17333 17334 17335 17336 17337 17338 17339 17340 17341 17342 17343 17344 17345 17346 17347 17348 17349 17350 17351 17352 17353 17354 17355 17356 17357 17358 17359 17360 17361 17362 17363 17364 17365 17366 17367 17368 17369 17370 17371 17372 17373 17374 17375 17376 17377 17378 17379 17380 17381 17382 17383 17384 17385 17386 17387 17388 17389 17390 17391 17392 17393 17394 17395 17396 17397 17398 17399 17400 17401 17402 17403 17404 17405 17406 17407 17408 17409 17410 17411 17412 17413 17414 17415 17416 17417 17418 17419 17420 17421 17422 17423 17424 17425 17426 17427 17428 17429 17430 17431 17432 17433 17434 17435 17436 17437 17438 17439 17440 17441 17442 17443 17444 17445 17446 17447 17448 17449 17450 17451 17452 17453 17454 17455 17456 17457 17458 17459 17460 17461 17462 17463 17464 17465 17466 17467 17468 17469 17470 17471 17472 17473 17474 17475 17476 17477 17478 17479 17480 17481 17482 17483 17484 17485 17486 17487 17488 17489 17490 17491 17492 17493 17494 17495 17496 17497 17498 17499 17500 17501 17502 17503 17504 17505 17506 17507 17508 17509 17510 17511 17512 17513 17514 17515 17516 17517 17518 17519 17520 17521 17522 17523 17524 17525 17526 17527 17528 17529 17530 17531 17532 17533 17534 17535 17536 17537 17538 17539 17540 17541 17542 17543 17544 17545 17546 17547 17548 17549 17550 17551 17552 17553 17554 17555 17556 17557 17558 17559 17560 17561 17562 17563 17564 17565 17566 17567 17568 17569 17570 17571 17572 17573 17574 17575 17576 17577 17578 17579 17580 17581 17582 17583 17584 17585 17586 17587 17588 17589 17590 17591 17592 17593 17594 17595 17596 17597 17598 17599 17600 17601 17602 17603 17604 17605 17606 17607 17608 17609 17610 17611 17612 17613 17614 17615 17616 17617 17618 17619 17620 17621 17622 17623 17624 17625 17626 17627 17628 17629 17630 17631 17632 17633 17634 17635 17636 17637 17638 17639 17640 17641 17642 17643 17644 17645 17646 17647 17648 17649 17650 17651 17652 17653 17654 17655 17656 17657 17658 17659 17660 17661 17662 17663 17664 17665 17666 17667 17668 17669 17670 17671 17672 17673 17674 17675 17676 17677 17678 17679 17680 17681 17682 17683 17684 17685 17686 17687 17688 17689 17690 17691 17692 17693 17694 17695 17696 17697 17698 17699 17700 17701 17702 17703 17704 17705 17706 17707 17708 17709 17710 17711 17712 17713 17714 17715 17716 17717 17718 17719 17720 17721 17722 17723 17724 17725 17726 17727 17728 17729 17730 17731 17732 17733 17734 17735 17736 17737 17738 17739 17740 17741 17742 17743 17744 17745 17746 17747 17748 17749 17750 17751 17752 17753 17754 17755 17756 17757 17758 17759 17760 17761 17762 17763 17764 17765 17766 17767 17768 17769 17770 17771 17772 17773 17774 17775 17776 17777 17778 17779 17780 17781 17782 17783 17784 17785 17786 17787 17788 17789 17790 17791 17792 17793 17794 17795 17796 17797 17798 17799 17800 17801 17802 17803 17804 17805 17806 17807 17808 17809 17810 17811 17812 17813 17814 17815 17816 17817 17818 17819 17820 17821 17822 17823 17824 17825 17826 17827 17828 17829 17830 17831 17832 17833 17834 17835 17836 17837 17838 17839 17840 17841 17842 17843 17844 17845 17846 17847 17848 17849 17850 17851 17852 17853 17854 17855 17856 17857 17858 17859 17860 17861 17862 17863 17864 17865 17866 17867 17868 17869 17870 17871 17872 17873 17874 17875 17876 17877 17878 17879 17880 17881 17882 17883 17884 17885 17886 17887 17888 17889 17890 17891 17892 17893 17894 17895 17896 17897 17898 17899 17900 17901 17902 17903 17904 17905 17906 17907 17908 17909 17910 17911 17912 17913 17914 17915 17916 17917 17918 17919 17920 17921 17922 17923 17924 17925 17926 17927 17928 17929 17930 17931 17932 17933 17934 17935 17936 17937 17938 17939 17940 17941 17942 17943 17944 17945 17946 17947 17948 17949 17950 17951 17952 17953 17954 17955 17956 17957 17958 17959 17960 17961 17962 17963 17964 17965 17966 17967 17968 17969 17970 17971 17972 17973 17974 17975 17976 17977 17978 17979 17980 17981 17982 17983 17984 17985 17986 17987 17988 17989 17990 17991 17992 17993 17994 17995 17996 17997 17998 17999 18000 18001 18002 18003 18004 18005 18006 18007 18008 18009 18010 18011 18012 18013 18014 18015 18016 18017 18018 18019 18020 18021 18022 18023 18024 18025 18026 18027 18028 18029 18030 18031 18032 18033 18034 18035 18036 18037 18038 18039 18040 18041 18042 18043 18044 18045 18046 18047 18048 18049 18050 18051 18052 18053 18054 18055 18056 18057 18058 18059 18060 18061 18062 18063 18064 18065 18066 18067 18068 18069 18070 18071 18072 18073 18074 18075 18076 18077 18078 18079 18080 18081 18082 18083 18084 18085 18086 18087 18088 18089 18090 18091 18092 18093 18094 18095 18096 18097 18098 18099 18100 18101 18102 18103 18104 18105 18106 18107 18108 18109 18110 18111 18112 18113 18114 18115 18116 18117 18118 18119 18120 18121 18122 18123 18124 18125 18126 18127 18128 18129 18130 18131 18132 18133 18134 18135 18136 18137 18138 18139 18140 18141 18142 18143 18144 18145 18146 18147 18148 18149 18150 18151 18152 18153 18154 18155 18156 18157 18158 18159 18160 18161 18162 18163 18164 18165 18166 18167 18168 18169 18170 18171 18172 18173 18174 18175 18176 18177 18178 18179 18180 18181 18182 18183 18184 18185 18186 18187 18188 18189 18190 18191 18192 18193 18194 18195 18196 18197 18198 18199 18200 18201 18202 18203 18204 18205 18206 18207 18208 18209 18210 18211 18212 18213 18214 18215 18216 18217 18218 18219 18220 18221 18222 18223 18224 18225 18226 18227 18228 18229 18230 18231 18232 18233 18234 18235 18236 18237 18238 18239 18240 18241 18242 18243 18244 18245 18246 18247 18248 18249 18250 18251 18252 18253 18254 18255 18256 18257 18258 18259 18260 18261 18262 18263 18264 18265 18266 18267 18268 18269 18270 18271 18272 18273 18274 18275 18276 18277 18278 18279 18280 18281 18282 18283 18284 18285 18286 18287 18288 18289 18290 18291 18292 18293 18294 18295 18296 18297 18298 18299 18300 18301 18302 18303 18304 18305 18306 18307 18308 18309 18310 18311 18312 18313 18314 18315 18316 18317 18318 18319 18320 18321 18322 18323 18324 18325 18326 18327 18328 18329 18330 18331 18332 18333 18334 18335 18336 18337 18338 18339 18340 18341 18342 18343 18344 18345 18346 18347 18348 18349 18350 18351 18352 18353 18354 18355 18356 18357 18358 18359 18360 18361 18362 18363 18364 18365 18366 18367 18368 18369 18370 18371 18372 18373 18374 18375 18376 18377 18378 18379 18380 18381 18382 18383 18384 18385 18386 18387 18388 18389 18390 18391 18392 18393 18394 18395 18396 18397 18398 18399 18400 18401 18402 18403 18404 18405 18406 18407 18408 18409 18410 18411 18412 18413 18414 18415 18416 18417 18418 18419 18420 18421 18422 18423 18424 18425 18426 18427 18428 18429 18430 18431 18432 18433 18434 18435 18436 18437 18438 18439 18440 18441 18442 18443 18444 18445 18446 18447 18448 18449 18450 18451 18452 18453 18454 18455 18456 18457 18458 18459 18460 18461 18462 18463 18464 18465 18466 18467 18468 18469 18470 18471 18472 18473 18474 18475 18476 18477 18478 18479 18480 18481 18482 18483 18484 18485 18486 18487 18488 18489 18490 18491 18492 18493 18494 18495 18496 18497 18498 18499 18500 18501 18502 18503 18504 18505 18506 18507 18508 18509 18510 18511 18512 18513 18514 18515 18516 18517 18518 18519 18520 18521 18522 18523 18524 18525 18526 18527 18528 18529 18530 18531 18532 18533 18534 18535 18536 18537 18538 18539 18540 18541 18542 18543 18544 18545 18546 18547 18548 18549 18550 18551 18552 18553 18554 18555 18556 18557 18558 18559 18560 18561 18562 18563 18564 18565 18566 18567 18568 18569 18570 18571 18572 18573 18574 18575 18576 18577 18578 18579 18580 18581 18582 18583 18584 18585 18586 18587 18588 18589 18590 18591 18592 18593 18594 18595 18596 18597 18598 18599 18600 18601 18602 18603 18604 18605 18606 18607 18608 18609 18610 18611 18612 18613 18614 18615 18616 18617 18618 18619 18620 18621 18622 18623 18624 18625 18626 18627 18628 18629 18630 18631 18632 18633 18634 18635 18636 18637 18638 18639 18640 18641 18642 18643 18644 18645 18646 18647 18648 18649 18650 18651 18652 18653 18654 18655 18656 18657 18658 18659 18660 18661 18662 18663 18664 18665 18666 18667 18668 18669 18670 18671 18672 18673 18674 18675 18676 18677 18678 18679 18680 18681 18682 18683 18684 18685 18686 18687 18688 18689 18690 18691 18692 18693 18694 18695 18696 18697 18698 18699 18700 18701 18702 18703 18704 18705 18706 18707 18708 18709 18710 18711 18712 18713 18714 18715 18716 18717 18718 18719 18720 18721 18722 18723 18724 18725 18726 18727 18728 18729 18730 18731 18732 18733 18734 18735 18736 18737 18738 18739 18740 18741 18742 18743 18744 18745 18746 18747 18748 18749 18750 18751 18752 18753 18754 18755 18756 18757 18758 18759 18760 18761 18762 18763 18764 18765 18766 18767 18768 18769 18770 18771 18772 18773 18774 18775 18776 18777 18778 18779 18780 18781 18782 18783 18784 18785 18786 18787 18788 18789 18790 18791 18792 18793 18794 18795 18796 18797 18798 18799 18800 18801 18802 18803 18804 18805 18806 18807 18808 18809 18810 18811 18812 18813 18814 18815 18816 18817 18818 18819 18820 18821 18822 18823 18824 18825 18826 18827 18828 18829 18830 18831 18832 18833 18834 18835 18836 18837 18838 18839 18840 18841 18842 18843 18844 18845 18846 18847 18848 18849 18850 18851 18852 18853 18854 18855 18856 18857 18858 18859 18860 18861 18862 18863 18864 18865 18866 18867 18868 18869 18870 18871 18872 18873 18874 18875 18876 18877 18878 18879 18880 18881 18882 18883 18884 18885 18886 18887 18888 18889 18890 18891 18892 18893 18894 18895 18896 18897 18898 18899 18900 18901 18902 18903 18904 18905 18906 18907 18908 18909 18910 18911 18912 18913 18914 18915 18916 18917 18918 18919 18920 18921 18922 18923 18924 18925 18926 18927 18928 18929 18930 18931 18932 18933 18934 18935 18936 18937 18938 18939 18940 18941 18942 18943 18944 18945 18946 18947 18948 18949 18950 18951 18952 18953 18954 18955 18956 18957 18958 18959 18960 18961 18962 18963 18964 18965 18966 18967 18968 18969 18970 18971 18972 18973 18974 18975 18976 18977 18978 18979 18980 18981 18982 18983 18984 18985 18986 18987 18988 18989 18990 18991 18992 18993 18994 18995 18996 18997 18998 18999 19000 19001 19002 19003 19004 19005 19006 19007 19008 19009 19010 19011 19012 19013 19014 19015 19016 19017 19018 19019 19020 19021 19022 19023 19024 19025 19026 19027 19028 19029 19030 19031 19032 19033 19034 19035 19036 19037 19038 19039 19040 19041 19042 19043 19044 19045 19046 19047 19048 19049 19050 19051 19052 19053 19054 19055 19056 19057 19058 19059 19060 19061 19062 19063 19064 19065 19066 19067 19068 19069 19070 19071 19072 19073 19074 19075 19076 19077 19078 19079 19080 19081 19082 19083 19084 19085 19086 19087 19088 19089 19090 19091 19092 19093 19094 19095 19096 19097 19098 19099 19100 19101 19102 19103 19104 19105 19106 19107 19108 19109 19110 19111 19112 19113 19114 19115 19116 19117 19118 19119 19120 19121 19122 19123 19124 19125 19126 19127 19128 19129 19130 19131 19132 19133 19134 19135 19136 19137 19138 19139 19140 19141 19142 19143 19144 19145 19146 19147 19148 19149 19150 19151 19152 19153 19154 19155 19156 19157 19158 19159 19160 19161 19162 19163 19164 19165 19166 19167 19168 19169 19170 19171 19172 19173 19174 19175 19176 19177 19178 19179 19180 19181 19182 19183 19184 19185 19186 19187 19188 19189 19190 19191 19192 19193 19194 19195 19196 19197 19198 19199 19200 19201 19202 19203 19204 19205 19206 19207 19208 19209 19210 19211 19212 19213 19214 19215 19216 19217 19218 19219 19220 19221 19222 19223 19224 19225 19226 19227 19228 19229 19230 19231 19232 19233 19234 19235 19236 19237 19238 19239 19240 19241 19242 19243 19244 19245 19246 19247 19248 19249 19250 19251 19252 19253 19254 19255 19256 19257 19258 19259 19260 19261 19262 19263 19264 19265 19266 19267 19268 19269 19270 19271 19272 19273 19274 19275 19276 19277 19278 19279 19280 19281 19282 19283 19284 19285 19286 19287 19288 19289 19290 19291 19292 19293 19294 19295 19296 19297 19298 19299 19300 19301 19302 19303 19304 19305 19306 19307 19308 19309 19310 19311 19312 19313 19314 19315 19316 19317 19318 19319 19320 19321 19322 19323 19324 19325 19326 19327 19328 19329 19330 19331 19332 19333 19334 19335 19336 19337 19338 19339 19340 19341 19342 19343 19344 19345 19346 19347 19348 19349 19350 19351 19352 19353 19354 19355 19356 19357 19358 19359 19360 19361 19362 19363 19364 19365 19366 19367 19368 19369 19370 19371 19372 19373 19374 19375 19376 19377 19378 19379 19380 19381 19382 19383 19384 19385 19386 19387 19388 19389 19390 19391 19392 19393 19394 19395 19396 19397 19398 19399 19400 19401 19402 19403 19404 19405 19406 19407 19408 19409 19410 19411 19412 19413 19414 19415 19416 19417 19418 19419 19420 19421 19422 19423 19424 19425 19426 19427 19428 19429 19430 19431 19432 19433 19434 19435 19436 19437 19438 19439 19440 19441 19442 19443 19444 19445 19446 19447 19448 19449 19450 19451 19452 19453 19454 19455 19456 19457 19458 19459 19460 19461 19462 19463 19464 19465 19466 19467 19468 19469 19470 19471 19472 19473 19474 19475 19476 19477 19478 19479 19480 19481 19482 19483 19484 19485 19486 19487 19488 19489 19490 19491 19492 19493 19494 19495 19496 19497 19498 19499 19500 19501 19502 19503 19504 19505 19506 19507 19508 19509 19510 19511 19512 19513 19514 19515 19516 19517 19518 19519 19520 19521 19522 19523 19524 19525 19526 19527 19528 19529 19530 19531 19532 19533 19534 19535 19536 19537 19538 19539 19540 19541 19542 19543 19544 19545 19546 19547 19548 19549 19550 19551 19552 19553 19554 19555 19556 19557 19558 19559 19560 19561 19562 19563 19564 19565 19566 19567 19568 19569 19570 19571 19572 19573 19574 19575 19576 19577 19578 19579 19580 19581 19582 19583 19584 19585 19586 19587 19588 19589 19590 19591 19592 19593 19594 19595 19596 19597 19598 19599 19600 19601 19602 19603 19604 19605 19606 19607 19608 19609 19610 19611 19612 19613 19614 19615 19616 19617 19618 19619 19620 19621 19622 19623 19624 19625 19626 19627 19628 19629 19630 19631 19632 19633 19634 19635 19636 19637 19638 19639 19640 19641 19642 19643 19644 19645 19646 19647 19648 19649 19650 19651 19652 19653 19654 19655 19656 19657 19658 19659 19660 19661 19662 19663 19664 19665 19666 19667 19668 19669 19670 19671 19672 19673 19674 19675 19676 19677 19678 19679 19680 19681 19682 19683 19684 19685 19686 19687 19688 19689 19690 19691 19692 19693 19694 19695 19696 19697 19698 19699 19700 19701 19702 19703 19704 19705 19706 19707 19708 19709 19710 19711 19712 19713 19714 19715 19716 19717 19718 19719 19720 19721 19722 19723 19724 19725 19726 19727 19728 19729 19730 19731 19732 19733 19734 19735 19736 19737 19738 19739 19740 19741 19742 19743 19744 19745 19746 19747 19748 19749 19750 19751 19752 19753 19754 19755 19756 19757 19758 19759 19760 19761 19762 19763 19764 19765 19766 19767 19768 19769 19770 19771 19772 19773 19774 19775 19776 19777 19778 19779 19780 19781 19782 19783 19784 19785 19786 19787 19788 19789 19790 19791 19792 19793 19794 19795 19796 19797 19798 19799 19800 19801 19802 19803 19804 19805 19806 19807 19808 19809 19810 19811 19812 19813 19814 19815 19816 19817 19818 19819 19820 19821 19822 19823 19824 19825 19826 19827 19828 19829 19830 19831 19832 19833 19834 19835 19836 19837 19838 19839 19840 19841 19842 19843 19844 19845 19846 19847 19848 19849 19850 19851 19852 19853 19854 19855 19856 19857 19858 19859 19860 19861 19862 19863 19864 19865 19866 19867 19868 19869 19870 19871 19872 19873 19874 19875 19876 19877 19878 19879 19880 19881 19882 19883 19884 19885 19886 19887 19888 19889 19890 19891 19892 19893 19894 19895 19896 19897 19898 19899 19900 19901 19902 19903 19904 19905 19906 19907 19908 19909 19910 19911 19912 19913 19914 19915 19916 19917 19918 19919 19920 19921 19922 19923 19924 19925 19926 19927 19928 19929 19930 19931 19932 19933 19934 19935 19936 19937 19938 19939 19940 19941 19942 19943 19944 19945 19946 19947 19948 19949 19950 19951 19952 19953 19954 19955 19956 19957 19958 19959 19960 19961 19962 19963 19964 19965 19966 19967 19968 19969 19970 19971 19972 19973 19974 19975 19976 19977 19978 19979 19980 19981 19982 19983 19984 19985 19986 19987 19988 19989 19990 19991 19992 19993 19994 19995 19996 19997 19998 19999 20000 20001 20002 20003 20004 20005 20006 20007 20008 20009 20010 20011 20012 20013 20014 20015 20016 20017 20018 20019 20020 20021 20022 20023 20024 20025 20026 20027 20028 20029 20030 20031 20032 20033 20034 20035 20036 20037 20038 20039 20040 20041 20042 20043 20044 20045 20046 20047 20048 20049 20050 20051 20052 20053 20054 20055 20056 20057 20058 20059 20060 20061 20062 20063 20064 20065 20066 20067 20068 20069 20070 20071 20072 20073 20074 20075 20076 20077 20078 20079 20080 20081 20082 20083 20084 20085 20086 20087 20088 20089 20090 20091 20092 20093 20094 20095 20096 20097 20098 20099 20100 20101 20102 20103 20104 20105 20106 20107 20108 20109 20110 20111 20112 20113 20114 20115 20116 20117 20118 20119 20120 20121 20122 20123 20124 20125 20126 20127 20128 20129 20130 20131 20132 20133 20134 20135 20136 20137 20138 20139 20140 20141 20142 20143 20144 20145 20146 20147 20148 20149 20150 20151 20152 20153 20154 20155 20156 20157 20158 20159 20160 20161 20162 20163 20164 20165 20166 20167 20168 20169 20170 20171 20172 20173 20174 20175 20176 20177 20178 20179 20180 20181 20182 20183 20184 20185 20186 20187 20188 20189 20190 20191 20192 20193 20194 20195 20196 20197 20198 20199 20200 20201 20202 20203 20204 20205 20206 20207 20208 20209 20210 20211 20212 20213 20214 20215 20216 20217 20218 20219 20220 20221 20222 20223 20224 20225 20226 20227 20228 20229 20230 20231 20232 20233 20234 20235 20236 20237 20238 20239 20240 20241 20242 20243 20244 20245 20246 20247 20248 20249 20250 20251 20252 20253 20254 20255 20256 20257 20258 20259 20260 20261 20262 20263 20264 20265 20266 20267 20268 20269 20270 20271 20272 20273 20274 20275 20276 20277 20278 20279 20280 20281 20282 20283 20284 20285 20286 20287 20288 20289 20290 20291 20292 20293 20294 20295 20296 20297 20298 20299 20300 20301 20302 20303 20304 20305 20306 20307 20308 20309 20310 20311 20312 20313 20314 20315 20316 20317 20318 20319 20320 20321 20322 20323 20324 20325 20326 20327 20328 20329 20330 20331 20332 20333 20334 20335 20336 20337 20338 20339 20340 20341 20342 20343 20344 20345 20346 20347 20348 20349 20350 20351 20352 20353 20354 20355 20356 20357 20358 20359 20360 20361 20362 20363 20364 20365 20366 20367 20368 20369 20370 20371 20372 20373 20374 20375 20376 20377 20378 20379 20380 20381 20382 20383 20384 20385 20386 20387 20388 20389 20390 20391 20392 20393 20394 20395 20396 20397 20398 20399 20400 20401 20402 20403 20404 20405 20406 20407 20408 20409 20410 20411 20412 20413 20414 20415 20416 20417 20418 20419 20420 20421 20422 20423 20424 20425 20426 20427 20428 20429 20430 20431 20432 20433 20434 20435 20436 20437 20438 20439 20440 20441 20442 20443 20444 20445 20446 20447 20448 20449 20450 20451 20452 20453 20454 20455 20456 20457 20458 20459 20460 20461 20462 20463 20464 20465 20466 20467 20468 20469 20470 20471 20472 20473 20474 20475 20476 20477 20478 20479 20480 20481 20482 20483 20484 20485 20486 20487 20488 20489 20490 20491 20492 20493 20494 20495 20496 20497 20498 20499 20500 20501 20502 20503 20504 20505 20506 20507 20508 20509 20510 20511 20512 20513 20514 20515 20516 20517 20518 20519 20520 20521 20522 20523 20524 20525 20526 20527 20528 20529 20530 20531 20532 20533 20534 20535 20536 20537 20538 20539 20540 20541 20542 20543 20544 20545 20546 20547 20548 20549 20550 20551 20552 20553 20554 20555 20556 20557 20558 20559 20560 20561 20562 20563 20564 20565 20566 20567 20568 20569 20570 20571 20572 20573 20574 20575 20576 20577 20578 20579 20580 20581 20582 20583 20584 20585 20586 20587 20588 20589 20590 20591 20592 20593 20594 20595 20596 20597 20598 20599 20600 20601 20602 20603 20604 20605 20606 20607 20608 20609 20610 20611 20612 20613 20614 20615 20616 20617 20618 20619 20620 20621 20622 20623 20624 20625 20626 20627 20628 20629 20630 20631 20632 20633 20634 20635 20636 20637 20638 20639 20640 20641 20642 20643 20644 20645 20646 20647 20648 20649 20650 20651 20652 20653 20654 20655 20656 20657 20658 20659 20660 20661 20662 20663 20664 20665 20666 20667 20668 20669 20670 20671 20672 20673 20674 20675 20676 20677 20678 20679 20680 20681 20682 20683 20684 20685 20686 20687 20688 20689 20690 20691 20692 20693 20694 20695 20696 20697 20698 20699 20700 20701 20702 20703 20704 20705 20706 20707 20708 20709 20710 20711 20712 20713 20714 20715 20716 20717 20718 20719 20720 20721 20722 20723 20724 20725 20726 20727 20728 20729 20730 20731 20732 20733 20734 20735 20736 20737 20738 20739 20740 20741 20742 20743 20744 20745 20746 20747 20748 20749 20750 20751 20752 20753 20754 20755 20756 20757 20758 20759 20760 20761 20762 20763 20764 20765 20766 20767 20768 20769 20770 20771 20772 20773 20774 20775 20776 20777 20778 20779 20780 20781 20782 20783 20784 20785 20786 20787 20788 20789 20790 20791 20792 20793 20794 20795 20796 20797 20798 20799 20800 20801 20802 20803 20804 20805 20806 20807 20808 20809 20810 20811 20812 20813 20814 20815 20816 20817 20818 20819 20820 20821 20822 20823 20824 20825 20826 20827 20828 20829 20830 20831 20832 20833 20834 20835 20836 20837 20838 20839 20840 20841 20842 20843 20844 20845 20846 20847 20848 20849 20850 20851 20852 20853 20854 20855 20856 20857 20858 20859 20860 20861 20862 20863 20864 20865 20866 20867 20868 20869 20870 20871 20872 20873 20874 20875 20876 20877 20878 20879 20880 20881 20882 20883 20884 20885 20886 20887 20888 20889 20890 20891 20892 20893 20894 20895 20896 20897 20898 20899 20900 20901 20902 20903 20904 20905 20906 20907 20908 20909 20910 20911 20912 20913 20914 20915 20916 20917 20918 20919 20920 20921 20922 20923 20924 20925 20926 20927 20928 20929 20930 20931 20932 20933 20934 20935 20936 20937 20938 20939 20940 20941 20942 20943 20944 20945 20946 20947 20948 20949 20950 20951 20952 20953 20954 20955 20956 20957 20958 20959 20960 20961 20962 20963 20964 20965 20966 20967 20968 20969 20970 20971 20972 20973 20974 20975 20976 20977 20978 20979 20980 20981 20982 20983 20984 20985 20986 20987 20988 20989 20990 20991 20992 20993 20994 20995 20996 20997 20998 20999 21000 21001 21002 21003 21004 21005 21006 21007 21008 21009 21010 21011 21012 21013 21014 21015 21016 21017 21018 21019 21020 21021 21022 21023 21024 21025 21026 21027 21028 21029 21030 21031 21032 21033 21034 21035 21036 21037 21038 21039 21040 21041 21042 21043 21044 21045 21046 21047 21048 21049 21050 21051 21052 21053 21054 21055 21056 21057 21058 21059 21060 21061 21062 21063 21064 21065 21066 21067 21068 21069 21070 21071 21072 21073 21074 21075 21076 21077 21078 21079 21080 21081 21082 21083 21084 21085 21086 21087 21088 21089 21090 21091 21092 21093 21094 21095 21096 21097 21098 21099 21100 21101 21102 21103 21104 21105 21106 21107 21108 21109 21110 21111 21112 21113 21114 21115 21116 21117 21118 21119 21120 21121 21122 21123 21124 21125 21126 21127 21128 21129 21130 21131 21132 21133 21134 21135 21136 21137 21138 21139 21140 21141 21142 21143 21144 21145 21146 21147 21148 21149 21150 21151 21152 21153 21154 21155 21156 21157 21158 21159 21160 21161 21162 21163 21164 21165 21166 21167 21168 21169 21170 21171 21172 21173 21174 21175 21176 21177 21178 21179 21180 21181 21182 21183 21184 21185 21186 21187 21188 21189 21190 21191 21192 21193 21194 21195 21196 21197 21198 21199 21200 21201 21202 21203 21204 21205 21206 21207 21208 21209 21210 21211 21212 21213 21214 21215 21216 21217 21218 21219 21220 21221 21222 21223 21224 21225 21226 21227 21228 21229 21230 21231 21232 21233 21234 21235 21236 21237 21238 21239 21240 21241 21242 21243 21244 21245 21246 21247 21248 21249 21250 21251 21252 21253 21254 21255 21256 21257 21258 21259 21260 21261 21262 21263 21264 21265 21266 21267 21268 21269 21270 21271 21272 21273 21274 21275 21276 21277 21278 21279 21280 21281 21282 21283 21284 21285 21286 21287 21288 21289 21290 21291 21292 21293 21294 21295 21296 21297 21298 21299 21300 21301 21302 21303 21304 21305 21306 21307 21308 21309 21310 21311 21312 21313 21314 21315 21316 21317 21318 21319 21320 21321 21322 21323 21324 21325 21326 21327 21328 21329 21330 21331 21332 21333 21334 21335 21336 21337 21338 21339 21340 21341 21342 21343 21344 21345 21346 21347 21348 21349 21350 21351 21352 21353 21354 21355 21356 21357 21358 21359 21360 21361 21362 21363 21364 21365 21366 21367 21368 21369 21370 21371 21372 21373 21374 21375 21376 21377 21378 21379 21380 21381 21382 21383 21384 21385 21386 21387 21388 21389 21390 21391 21392 21393 21394 21395 21396 21397 21398 21399 21400 21401 21402 21403 21404 21405 21406 21407 21408 21409 21410 21411 21412 21413 21414 21415 21416 21417 21418 21419 21420 21421 21422 21423 21424 21425 21426 21427 21428 21429 21430 21431 21432 21433 21434 21435 21436 21437 21438 21439 21440 21441 21442 21443 21444 21445 21446 21447 21448 21449 21450 21451 21452 21453 21454 21455 21456 21457 21458 21459 21460 21461 21462 21463 21464 21465 21466 21467 21468 21469 21470 21471 21472 21473 21474 21475 21476 21477 21478 21479 21480 21481 21482 21483 21484 21485 21486 21487 21488 21489 21490 21491 21492 21493 21494 21495 21496 21497 21498 21499 21500 21501 21502 21503 21504 21505 21506 21507 21508 21509 21510 21511 21512 21513 21514 21515 21516 21517 21518 21519 21520 21521 21522 21523 21524 21525 21526 21527 21528 21529 21530 21531 21532 21533 21534 21535 21536 21537 21538 21539 21540 21541 21542 21543 21544 21545 21546 21547 21548 21549 21550 21551 21552 21553 21554 21555 21556 21557 21558 21559 21560 21561 21562 21563 21564 21565 21566 21567 21568 21569 21570 21571 21572 21573 21574 21575 21576 21577 21578 21579 21580 21581 21582 21583 21584 21585 21586 21587 21588 21589 21590 21591 21592 21593 21594 21595 21596 21597 21598 21599 21600 21601 21602 21603 21604 21605 21606 21607 21608 21609 21610 21611 21612 21613 21614 21615 21616 21617 21618 21619 21620 21621 21622 21623 21624 21625 21626 21627 21628 21629 21630 21631 21632 21633 21634 21635 21636 21637 21638 21639 21640 21641 21642 21643 21644 21645 21646 21647 21648 21649 21650 21651 21652 21653 21654 21655 21656 21657 21658 21659 21660 21661 21662 21663 21664 21665 21666 21667 21668 21669 21670 21671 21672 21673 21674 21675 21676 21677 21678 21679 21680 21681 21682 21683 21684 21685 21686 21687 21688 21689 21690 21691 21692 21693 21694 21695 21696 21697 21698 21699 21700 21701 21702 21703 21704 21705 21706 21707 21708 21709 21710 21711 21712 21713 21714 21715 21716 21717 21718 21719 21720 21721 21722 21723 21724 21725 21726 21727 21728 21729 21730 21731 21732 21733 21734 21735 21736 21737 21738 21739 21740 21741 21742 21743 21744 21745 21746 21747 21748 21749 21750 21751 21752 21753 21754 21755 21756 21757 21758 21759 21760 21761 21762 21763 21764 21765 21766 21767 21768 21769 21770 21771 21772 21773 21774 21775 21776 21777 21778 21779 21780 21781 21782 21783 21784 21785 21786 21787 21788 21789 21790 21791 21792 21793 21794 21795 21796 21797 21798 21799 21800 21801 21802 21803 21804 21805 21806 21807 21808 21809 21810 21811 21812 21813 21814 21815 21816 21817 21818 21819 21820 21821 21822 21823 21824 21825 21826 21827 21828 21829 21830 21831 21832 21833 21834 21835 21836 21837 21838 21839 21840 21841 21842 21843 21844 21845 21846 21847 21848 21849 21850 21851 21852 21853 21854 21855 21856 21857 21858 21859 21860 21861 21862 21863 21864 21865 21866 21867 21868 21869 21870 21871 21872 21873 21874 21875 21876 21877 21878 21879 21880 21881 21882 21883 21884 21885 21886 21887 21888 21889 21890 21891 21892 21893 21894 21895 21896 21897 21898 21899 21900 21901 21902 21903 21904 21905 21906 21907 21908 21909 21910 21911 21912 21913 21914 21915 21916 21917 21918 21919 21920 21921 21922 21923 21924 21925 21926 21927 21928 21929 21930 21931 21932 21933 21934 21935 21936 21937 21938 21939 21940 21941 21942 21943 21944 21945 21946 21947 21948 21949 21950 21951 21952 21953 21954 21955 21956 21957 21958 21959 21960 21961 21962 21963 21964 21965 21966 21967 21968 21969 21970 21971 21972 21973 21974 21975 21976 21977 21978 21979 21980 21981 21982 21983 21984 21985 21986 21987 21988 21989 21990 21991 21992 21993 21994 21995 21996 21997 21998 21999 22000 22001 22002 22003 22004 22005 22006 22007 22008 22009 22010 22011 22012 22013 22014 22015 22016 22017 22018 22019 22020 22021 22022 22023 22024 22025 22026 22027 22028 22029 22030 22031 22032 22033 22034 22035 22036 22037 22038 22039 22040 22041 22042 22043 22044 22045 22046 22047 22048 22049 22050 22051 22052 22053 22054 22055 22056 22057 22058 22059 22060 22061 22062 22063 22064 22065 22066 22067 22068 22069 22070 22071 22072 22073 22074 22075 22076 22077 22078 22079 22080 22081 22082 22083 22084 22085 22086 22087 22088 22089 22090 22091 22092 22093 22094 22095 22096 22097 22098 22099 22100 22101 22102 22103 22104 22105 22106 22107 22108 22109 22110 22111 22112 22113 22114 22115 22116 22117 22118 22119 22120 22121 22122 22123 22124 22125 22126 22127 22128 22129 22130 22131 22132 22133 22134 22135 22136 22137 22138 22139 22140 22141 22142 22143 22144 22145 22146 22147 22148 22149 22150 22151 22152 22153 22154 22155 22156 22157 22158 22159 22160 22161 22162 22163 22164 22165 22166 22167 22168 22169 22170 22171 22172 22173 22174 22175 22176 22177 22178 22179 22180 22181 22182 22183 22184 22185 22186 22187 22188 22189 22190 22191 22192 22193 22194 22195 22196 22197 22198 22199 22200 22201 22202 22203 22204 22205 22206 22207 22208 22209 22210 22211 22212 22213 22214 22215 22216 22217 22218 22219 22220 22221 22222 22223 22224 22225 22226 22227 22228 22229 22230 22231 22232 22233 22234 22235 22236 22237 22238 22239 22240 22241 22242 22243 22244 22245 22246 22247 22248 22249 22250 22251 22252 22253 22254 22255 22256 22257 22258 22259 22260 22261 22262 22263 22264 22265 22266 22267 22268 22269 22270 22271 22272 22273 22274 22275 22276 22277 22278 22279 22280 22281 22282 22283 22284 22285 22286 22287 22288 22289 22290 22291 22292 22293 22294 22295 22296 22297 22298 22299 22300 22301 22302 22303 22304 22305 22306 22307 22308 22309 22310 22311 22312 22313 22314 22315 22316 22317 22318 22319 22320 22321 22322 22323 22324 22325 22326 22327 22328 22329 22330 22331 22332 22333 22334 22335 22336 22337 22338 22339 22340 22341 22342 22343 22344 22345 22346 22347 22348 22349 22350 22351 22352 22353 22354 22355 22356 22357 22358 22359 22360 22361 22362 22363 22364 22365 22366 22367 22368 22369 22370 22371 22372 22373 22374 22375 22376 22377 22378 22379 22380 22381 22382 22383 22384 22385 22386 22387 22388 22389 22390 22391 22392 22393 22394 22395 22396 22397 22398 22399 22400 22401 22402 22403 22404 22405 22406 22407 22408 22409 22410 22411 22412 22413 22414 22415 22416 22417 22418 22419 22420 22421 22422 22423 22424 22425 22426 22427 22428 22429 22430 22431 22432 22433 22434 22435 22436 22437 22438 22439 22440 22441 22442 22443 22444 22445 22446 22447 22448 22449 22450 22451 22452 22453 22454 22455 22456 22457 22458 22459 22460 22461 22462 22463 22464 22465 22466 22467 22468 22469 22470 22471 22472 22473 22474 22475 22476 22477 22478 22479 22480 22481 22482 22483 22484 22485 22486 22487 22488 22489 22490 22491 22492 22493 22494 22495 22496 22497 22498 22499 22500 22501 22502 22503 22504 22505 22506 22507 22508 22509 22510 22511 22512 22513 22514 22515 22516 22517 22518 22519 22520 22521 22522 22523 22524 22525 22526 22527 22528 22529 22530 22531 22532 22533 22534 22535 22536 22537 22538 22539 22540 22541 22542 22543 22544 22545 22546 22547 22548 22549 22550 22551 22552 22553 22554 22555 22556 22557 22558 22559 22560 22561 22562 22563 22564 22565 22566 22567 22568 22569 22570 22571 22572 22573 22574 22575 22576 22577 22578 22579 22580 22581 22582 22583 22584 22585 22586 22587 22588 22589 22590 22591 22592 22593 22594 22595 22596 22597 22598 22599 22600 22601 22602 22603 22604 22605 22606 22607 22608 22609 22610 22611 22612 22613 22614 22615 22616 22617 22618 22619 22620 22621 22622 22623 22624 22625 22626 22627 22628 22629 22630 22631 22632 22633 22634 22635 22636 22637 22638 22639 22640 22641 22642 22643 22644 22645 22646 22647 22648 22649 22650 22651 22652 22653 22654 22655 22656 22657 22658 22659 22660 22661 22662 22663 22664 22665 22666 22667 22668 22669 22670 22671 22672 22673 22674 22675 22676 22677 22678 22679 22680 22681 22682 22683 22684 22685 22686 22687 22688 22689 22690 22691 22692 22693 22694 22695 22696 22697 22698 22699 22700 22701 22702 22703 22704 22705 22706 22707 22708 22709 22710 22711 22712 22713 22714 22715 22716 22717 22718 22719 22720 22721 22722 22723 22724 22725 22726 22727 22728 22729 22730 22731 22732 22733 22734 22735 22736 22737 22738 22739 22740 22741 22742 22743 22744 22745 22746 22747 22748 22749 22750 22751 22752 22753 22754 22755 22756 22757 22758 22759 22760 22761 22762 22763 22764 22765 22766 22767 22768 22769 22770 22771 22772 22773 22774 22775 22776 22777 22778 22779 22780 22781 22782 22783 22784 22785 22786 22787 22788 22789 22790 22791 22792 22793 22794 22795 22796 22797 22798 22799 22800 22801 22802 22803 22804 22805 22806 22807 22808 22809 22810 22811 22812 22813 22814 22815 22816 22817 22818 22819 22820 22821 22822 22823 22824 22825 22826 22827 22828 22829 22830 22831 22832 22833 22834 22835 22836 22837 22838 22839 22840 22841 22842 22843 22844 22845 22846 22847 22848 22849 22850 22851 22852 22853 22854 22855 22856 22857 22858 22859 22860 22861 22862 22863 22864 22865 22866 22867 22868 22869 22870 22871 22872 22873 22874 22875 22876 22877 22878 22879 22880 22881 22882 22883 22884 22885 22886 22887 22888 22889 22890 22891 22892 22893 22894 22895 22896 22897 22898 22899 22900 22901 22902 22903 22904 22905 22906 22907 22908 22909 22910 22911 22912 22913 22914 22915 22916 22917 22918 22919 22920 22921 22922 22923 22924 22925 22926 22927 22928 22929 22930 22931 22932 22933 22934 22935 22936 22937 22938 22939 22940 22941 22942 22943 22944 22945 22946 22947 22948 22949 22950 22951 22952 22953 22954 22955 22956 22957 22958 22959 22960 22961 22962 22963 22964 22965 22966 22967 22968 22969 22970 22971 22972 22973 22974 22975 22976 22977 22978 22979 22980 22981 22982 22983 22984 22985 22986 22987 22988 22989 22990 22991 22992 22993 22994 22995 22996 22997 22998 22999 23000 23001 23002 23003 23004 23005 23006 23007 23008 23009 23010 23011 23012 23013 23014 23015 23016 23017 23018 23019 23020 23021 23022 23023 23024 23025 23026 23027 23028 23029 23030 23031 23032 23033 23034 23035 23036 23037 23038 23039 23040 23041 23042 23043 23044 23045 23046 23047 23048 23049 23050 23051 23052 23053 23054 23055 23056 23057 23058 23059 23060 23061 23062 23063 23064 23065 23066 23067 23068 23069 23070 23071 23072 23073 23074 23075 23076 23077 23078 23079 23080 23081 23082 23083 23084 23085 23086 23087 23088 23089 23090 23091 23092 23093 23094 23095 23096 23097 23098 23099 23100 23101 23102 23103 23104 23105 23106 23107 23108 23109 23110 23111 23112 23113 23114 23115 23116 23117 23118 23119 23120 23121 23122 23123 23124 23125 23126 23127 23128 23129 23130 23131 23132 23133 23134 23135 23136 23137 23138 23139 23140 23141 23142 23143 23144 23145 23146 23147 23148 23149 23150 23151 23152 23153 23154 23155 23156 23157 23158 23159 23160 23161 23162 23163 23164 23165 23166 23167 23168 23169 23170 23171 23172 23173 23174 23175 23176 23177 23178 23179 23180 23181 23182 23183 23184 23185 23186 23187 23188 23189 23190 23191 23192 23193 23194 23195 23196 23197 23198 23199 23200 23201 23202 23203 23204 23205 23206 23207 23208 23209 23210 23211 23212 23213 23214 23215 23216 23217 23218 23219 23220 23221 23222 23223 23224 23225 23226 23227 23228 23229 23230 23231 23232 23233 23234 23235 23236 23237 23238 23239 23240 23241 23242 23243 23244 23245 23246 23247 23248 23249 23250 23251 23252 23253 23254 23255 23256 23257 23258 23259 23260 23261 23262 23263 23264 23265 23266 23267 23268 23269 23270 23271 23272 23273 23274 23275 23276 23277 23278 23279 23280 23281 23282 23283 23284 23285 23286 23287 23288 23289 23290 23291 23292 23293 23294 23295 23296 23297 23298 23299 23300 23301 23302 23303 23304 23305 23306 23307 23308 23309 23310 23311 23312 23313 23314 23315 23316 23317 23318 23319 23320 23321 23322 23323 23324 23325 23326 23327 23328 23329 23330 23331 23332 23333 23334 23335 23336 23337 23338 23339 23340 23341 23342 23343 23344 23345 23346 23347 23348 23349 23350 23351 23352 23353 23354 23355 23356 23357 23358 23359 23360 23361 23362 23363 23364 23365 23366 23367 23368 23369 23370 23371 23372 23373 23374 23375 23376 23377 23378 23379 23380 23381 23382 23383 23384 23385 23386 23387 23388 23389 23390 23391 23392 23393 23394 23395 23396 23397 23398 23399 23400 23401 23402 23403 23404 23405 23406 23407 23408 23409 23410 23411 23412 23413 23414 23415 23416 23417 23418 23419 23420 23421 23422 23423 23424 23425 23426 23427 23428 23429 23430 23431 23432 23433 23434 23435 23436 23437 23438 23439 23440 23441 23442 23443 23444 23445 23446 23447 23448 23449 23450 23451 23452 23453 23454 23455 23456 23457 23458 23459 23460 23461 23462 23463 23464 23465 23466 23467 23468 23469 23470 23471 23472 23473 23474 23475 23476 23477 23478 23479 23480 23481 23482 23483 23484 23485 23486 23487 23488 23489 23490 23491 23492 23493 23494 23495 23496 23497 23498 23499 23500 23501 23502 23503 23504 23505 23506 23507 23508 23509 23510 23511 23512 23513 23514 23515 23516 23517 23518 23519 23520 23521 23522 23523 23524 23525 23526 23527 23528 23529 23530 23531 23532 23533 23534 23535 23536 23537 23538 23539 23540 23541 23542 23543 23544 23545 23546 23547 23548 23549 23550 23551 23552 23553 23554 23555 23556 23557 23558 23559 23560 23561 23562 23563 23564 23565 23566 23567 23568 23569 23570 23571 23572 23573 23574 23575 23576 23577 23578 23579 23580 23581 23582 23583 23584 23585 23586 23587 23588 23589 23590 23591 23592 23593 23594 23595 23596 23597 23598 23599 23600 23601 23602 23603 23604 23605 23606 23607 23608 23609 23610 23611 23612 23613 23614 23615 23616 23617 23618 23619 23620 23621 23622 23623 23624 23625 23626 23627 23628 23629 23630 23631 23632 23633 23634 23635 23636 23637 23638 23639 23640 23641 23642 23643 23644 23645 23646 23647 23648 23649 23650 23651 23652 23653 23654 23655 23656 23657 23658 23659 23660 23661 23662 23663 23664 23665 23666 23667 23668 23669 23670 23671 23672 23673 23674 23675 23676 23677 23678 23679 23680 23681 23682 23683 23684 23685 23686 23687 23688 23689 23690 23691 23692 23693 23694 23695 23696 23697 23698 23699 23700 23701 23702 23703 23704 23705 23706 23707 23708 23709 23710 23711 23712 23713 23714 23715 23716 23717 23718 23719 23720 23721 23722 23723 23724 23725 23726 23727 23728 23729 23730 23731 23732 23733 23734 23735 23736 23737 23738 23739 23740 23741 23742 23743 23744 23745 23746 23747 23748 23749 23750 23751 23752 23753 23754 23755 23756 23757 23758 23759 23760 23761 23762 23763 23764 23765 23766 23767 23768 23769 23770 23771 23772 23773 23774 23775 23776 23777 23778 23779 23780 23781 23782 23783 23784 23785 23786 23787 23788 23789 23790 23791 23792 23793 23794 23795 23796 23797 23798 23799 23800 23801 23802 23803 23804 23805 23806 23807 23808 23809 23810 23811 23812 23813 23814 23815 23816 23817 23818 23819 23820 23821 23822 23823 23824 23825 23826 23827 23828 23829 23830 23831 23832 23833 23834 23835 23836 23837 23838 23839 23840 23841 23842 23843 23844 23845 23846 23847 23848 23849 23850 23851 23852 23853 23854 23855 23856 23857 23858 23859 23860 23861 23862 23863 23864 23865 23866 23867 23868 23869 23870 23871 23872 23873 23874 23875 23876 23877 23878 23879 23880 23881 23882 23883 23884 23885 23886 23887 23888 23889 23890 23891 23892 23893 23894 23895 23896 23897 23898 23899 23900 23901 23902 23903 23904 23905 23906 23907 23908 23909 23910 23911 23912 23913 23914 23915 23916 23917 23918 23919 23920 23921 23922 23923 23924 23925 23926 23927 23928 23929 23930 23931 23932 23933 23934 23935 23936 23937 23938 23939 23940 23941 23942 23943 23944 23945 23946 23947 23948 23949 23950 23951 23952 23953 23954 23955 23956 23957 23958 23959 23960 23961 23962 23963 23964 23965 23966 23967 23968 23969 23970 23971 23972 23973 23974 23975 23976 23977 23978 23979 23980 23981 23982 23983 23984 23985 23986 23987 23988 23989 23990 23991 23992 23993 23994 23995 23996 23997 23998 23999 24000 24001 24002 24003 24004 24005 24006 24007 24008 24009 24010 24011 24012 24013 24014 24015 24016 24017 24018 24019 24020 24021 24022 24023 24024 24025 24026 24027 24028 24029 24030 24031 24032 24033 24034 24035 24036 24037 24038 24039 24040 24041 24042 24043 24044 24045 24046 24047 24048 24049 24050 24051 24052 24053 24054 24055 24056 24057 24058 24059 24060 24061 24062 24063 24064 24065 24066 24067 24068 24069 24070 24071 24072 24073 24074 24075 24076 24077 24078 24079 24080 24081 24082 24083 24084 24085 24086 24087 24088 24089 24090 24091 24092 24093 24094 24095 24096 24097 24098 24099 24100 24101 24102 24103 24104 24105 24106 24107 24108 24109 24110 24111 24112 24113 24114 24115 24116 24117 24118 24119 24120 24121 24122 24123 24124 24125 24126 24127 24128 24129 24130 24131 24132 24133 24134 24135 24136 24137 24138 24139 24140 24141 24142 24143 24144 24145 24146 24147 24148 24149 24150 24151 24152 24153 24154 24155 24156 24157 24158 24159 24160 24161 24162 24163 24164 24165 24166 24167 24168 24169 24170 24171 24172 24173 24174 24175 24176 24177 24178 24179 24180 24181 24182 24183 24184 24185 24186 24187 24188 24189 24190 24191 24192 24193 24194 24195 24196 24197 24198 24199 24200 24201 24202 24203 24204 24205 24206 24207 24208 24209 24210 24211 24212 24213 24214 24215 24216 24217 24218 24219 24220 24221 24222 24223 24224 24225 24226 24227 24228 24229 24230 24231 24232 24233 24234 24235 24236 24237 24238 24239 24240 24241 24242 24243 24244 24245 24246 24247 24248 24249 24250 24251 24252 24253 24254 24255 24256 24257 24258 24259 24260 24261 24262 24263 24264 24265 24266 24267 24268 24269 24270 24271 24272 24273 24274 24275 24276 24277 24278 24279 24280 24281 24282 24283 24284 24285 24286 24287 24288 24289 24290 24291 24292 24293 24294 24295 24296 24297 24298 24299 24300 24301 24302 24303 24304 24305 24306 24307 24308 24309 24310 24311 24312 24313 24314 24315 24316 24317 24318 24319 24320 24321 24322 24323 24324 24325 24326 24327 24328 24329 24330 24331 24332 24333 24334 24335 24336 24337 24338 24339 24340 24341 24342 24343 24344 24345 24346 24347 24348 24349 24350 24351 24352 24353 24354 24355 24356 24357 24358 24359 24360 24361 24362 24363 24364 24365 24366 24367 24368 24369 24370 24371 24372 24373 24374 24375 24376 24377 24378 24379 24380 24381 24382 24383 24384 24385 24386 24387 24388 24389 24390 24391 24392 24393 24394 24395 24396 24397 24398 24399 24400 24401 24402 24403 24404 24405 24406 24407 24408 24409 24410 24411 24412 24413 24414 24415 24416 24417 24418 24419 24420 24421 24422 24423 24424 24425 24426 24427 24428 24429 24430 24431 24432 24433 24434 24435 24436 24437 24438 24439 24440 24441 24442 24443 24444 24445 24446 24447 24448 24449 24450 24451 24452 24453 24454 24455 24456 24457 24458 24459 24460 24461 24462 24463 24464 24465 24466 24467 24468 24469 24470 24471 24472 24473 24474 24475 24476 24477 24478 24479 24480 24481 24482 24483 24484 24485 24486 24487 24488 24489 24490 24491 24492 24493 24494 24495 24496 24497 24498 24499 24500 24501 24502 24503 24504 24505 24506 24507 24508 24509 24510 24511 24512 24513 24514 24515 24516 24517 24518 24519 24520 24521 24522 24523 24524 24525 24526 24527 24528 24529 24530 24531 24532 24533 24534 24535 24536 24537 24538 24539 24540 24541 24542 24543 24544 24545 24546 24547 24548 24549 24550 24551 24552 24553 24554 24555 24556 24557 24558 24559 24560 24561 24562 24563 24564 24565 24566 24567 24568 24569 24570 24571 24572 24573 24574 24575 24576 24577 24578 24579 24580 24581 24582 24583 24584 24585 24586 24587 24588 24589 24590 24591 24592 24593 24594 24595 24596 24597 24598 24599 24600 24601 24602 24603 24604 24605 24606 24607 24608 24609 24610 24611 24612 24613 24614 24615 24616 24617 24618 24619 24620 24621 24622 24623 24624 24625 24626 24627 24628 24629 24630 24631 24632 24633 24634 24635 24636 24637 24638 24639 24640 24641 24642 24643 24644 24645 24646 24647 24648 24649 24650 24651 24652 24653 24654 24655 24656 24657 24658 24659 24660 24661 24662 24663 24664 24665 24666 24667 24668 24669 24670 24671 24672 24673 24674 24675 24676 24677 24678 24679 24680 24681 24682 24683 24684 24685 24686 24687 24688 24689 24690 24691 24692 24693 24694 24695 24696 24697 24698 24699 24700 24701 24702 24703 24704 24705 24706 24707 24708 24709 24710 24711 24712 24713 24714 24715 24716 24717 24718 24719 24720 24721 24722 24723 24724 24725 24726 24727 24728 24729 24730 24731 24732 24733 24734 24735 24736 24737 24738 24739 24740 24741 24742 24743 24744 24745 24746 24747 24748 24749 24750 24751 24752 24753 24754 24755 24756 24757 24758 24759 24760 24761 24762 24763 24764 24765 24766 24767 24768 24769 24770 24771 24772 24773 24774 24775 24776 24777 24778 24779 24780 24781 24782 24783 24784 24785 24786 24787 24788 24789 24790 24791 24792 24793 24794 24795 24796 24797 24798 24799 24800 24801 24802 24803 24804 24805 24806 24807 24808 24809 24810 24811 24812 24813 24814 24815 24816 24817 24818 24819 24820 24821 24822 24823 24824 24825 24826 24827 24828 24829 24830 24831 24832 24833 24834 24835 24836 24837 24838 24839 24840 24841 24842 24843 24844 24845 24846 24847 24848 24849 24850 24851 24852 24853 24854 24855 24856 24857 24858 24859 24860 24861 24862 24863 24864 24865 24866 24867 24868 24869 24870 24871 24872 24873 24874 24875 24876 24877 24878 24879 24880 24881 24882 24883 24884 24885 24886 24887 24888 24889 24890 24891 24892 24893 24894 24895 24896 24897 24898 24899 24900 24901 24902 24903 24904 24905 24906 24907 24908 24909 24910 24911 24912 24913 24914 24915 24916 24917 24918 24919 24920 24921 24922 24923 24924 24925 24926 24927 24928 24929 24930 24931 24932 24933 24934 24935 24936 24937 24938 24939 24940 24941 24942 24943 24944 24945 24946 24947 24948 24949 24950 24951 24952 24953 24954 24955 24956 24957 24958 24959 24960 24961 24962 24963 24964 24965 24966 24967 24968 24969 24970 24971 24972 24973 24974 24975 24976 24977 24978 24979 24980 24981 24982 24983 24984 24985 24986 24987 24988 24989 24990 24991 24992 24993 24994 24995 24996 24997 24998 24999 25000 25001 25002 25003 25004 25005 25006 25007 25008 25009 25010 25011 25012 25013 25014 25015 25016 25017 25018 25019 25020 25021 25022 25023 25024 25025 25026 25027 25028 25029 25030 25031 25032 25033 25034 25035 25036 25037 25038 25039 25040 25041 25042 25043 25044 25045 25046 25047 25048 25049 25050 25051 25052 25053 25054 25055 25056 25057 25058 25059 25060 25061 25062 25063 25064 25065 25066 25067 25068 25069 25070 25071 25072 25073 25074 25075 25076 25077 25078 25079 25080 25081 25082 25083 25084 25085 25086 25087 25088 25089 25090 25091 25092 25093 25094 25095 25096 25097 25098 25099 25100 25101 25102 25103 25104 25105 25106 25107 25108 25109 25110 25111 25112 25113 25114 25115 25116 25117 25118 25119 25120 25121 25122 25123 25124 25125 25126 25127 25128 25129 25130 25131 25132 25133 25134 25135 25136 25137 25138 25139 25140 25141 25142 25143 25144 25145 25146 25147 25148 25149 25150 25151 25152 25153 25154 25155 25156 25157 25158 25159 25160 25161 25162 25163 25164 25165 25166 25167 25168 25169 25170 25171 25172 25173 25174 25175 25176 25177 25178 25179 25180 25181 25182 25183 25184 25185 25186 25187 25188 25189 25190 25191 25192 25193 25194 25195 25196 25197 25198 25199 25200 25201 25202 25203 25204 25205 25206 25207 25208 25209 25210 25211 25212 25213 25214 25215 25216 25217 25218 25219 25220 25221 25222 25223 25224 25225 25226 25227 25228 25229 25230 25231 25232 25233 25234 25235 25236 25237 25238 25239 25240 25241 25242 25243 25244 25245 25246 25247 25248 25249 25250 25251 25252 25253 25254 25255 25256 25257 25258 25259 25260 25261 25262 25263 25264 25265 25266 25267 25268 25269 25270 25271 25272 25273 25274 25275 25276 25277 25278 25279 25280 25281 25282 25283 25284 25285 25286 25287 25288 25289 25290 25291 25292 25293 25294 25295 25296 25297 25298 25299 25300 25301 25302 25303 25304 25305 25306 25307 25308 25309 25310 25311 25312 25313 25314 25315 25316 25317 25318 25319 25320 25321 25322 25323 25324 25325 25326 25327 25328 25329 25330 25331 25332 25333 25334 25335 25336 25337 25338 25339 25340 25341 25342 25343 25344 25345 25346 25347 25348 25349 25350 25351 25352 25353 25354 25355 25356 25357 25358 25359 25360 25361 25362 25363 25364 25365 25366 25367 25368 25369 25370 25371 25372 25373 25374 25375 25376 25377 25378 25379 25380 25381 25382 25383 25384 25385 25386 25387 25388 25389 25390 25391 25392 25393 25394 25395 25396 25397 25398 25399 25400 25401 25402 25403 25404 25405 25406 25407 25408 25409 25410 25411 25412 25413 25414 25415 25416 25417 25418 25419 25420 25421 25422 25423 25424 25425 25426 25427 25428 25429 25430 25431 25432 25433 25434 25435 25436 25437 25438 25439 25440 25441 25442 25443 25444 25445 25446 25447 25448 25449 25450 25451 25452 25453 25454 25455 25456 25457 25458 25459 25460 25461 25462 25463 25464 25465 25466 25467 25468 25469 25470 25471 25472 25473 25474 25475 25476 25477 25478 25479 25480 25481 25482 25483 25484 25485 25486 25487 25488 25489 25490 25491 25492 25493 25494 25495 25496 25497 25498 25499 25500 25501 25502 25503 25504 25505 25506 25507 25508 25509 25510 25511 25512 25513 25514 25515 25516 25517 25518 25519 25520 25521 25522 25523 25524 25525 25526 25527 25528 25529 25530 25531 25532 25533 25534 25535 25536 25537 25538 25539 25540 25541 25542 25543 25544 25545 25546 25547 25548 25549 25550 25551 25552 25553 25554 25555 25556 25557 25558 25559 25560 25561 25562 25563 25564 25565 25566 25567 25568 25569 25570 25571 25572 25573 25574 25575 25576 25577 25578 25579 25580 25581 25582 25583 25584 25585 25586 25587 25588 25589 25590 25591 25592 25593 25594 25595 25596 25597 25598 25599 25600 25601 25602 25603 25604 25605 25606 25607 25608 25609 25610 25611 25612 25613 25614 25615 25616 25617 25618 25619 25620 25621 25622 25623 25624 25625 25626 25627 25628 25629 25630 25631 25632 25633 25634 25635 25636 25637 25638 25639 25640 25641 25642 25643 25644 25645 25646 25647 25648 25649 25650 25651 25652 25653 25654 25655 25656 25657 25658 25659 25660 25661 25662 25663 25664 25665 25666 25667 25668 25669 25670 25671 25672 25673 25674 25675 25676 25677 25678 25679 25680 25681 25682 25683 25684 25685 25686 25687 25688 25689 25690 25691 25692 25693 25694 25695 25696 25697 25698 25699 25700 25701 25702 25703 25704 25705 25706 25707 25708 25709 25710 25711 25712 25713 25714 25715 25716 25717 25718 25719 25720 25721 25722 25723 25724 25725 25726 25727 25728 25729 25730 25731 25732 25733 25734 25735 25736 25737 25738 25739 25740 25741 25742 25743 25744 25745 25746 25747 25748 25749 25750 25751 25752 25753 25754 25755 25756 25757 25758 25759 25760 25761 25762 25763 25764 25765 25766 25767 25768 25769 25770 25771 25772 25773 25774 25775 25776 25777 25778 25779 25780 25781 25782 25783 25784 25785 25786 25787 25788 25789 25790 25791 25792 25793 25794 25795 25796 25797 25798 25799 25800 25801 25802 25803 25804 25805 25806 25807 25808 25809 25810 25811 25812 25813 25814 25815 25816 25817 25818 25819 25820 25821 25822 25823 25824 25825 25826 25827 25828 25829 25830 25831 25832 25833 25834 25835 25836 25837 25838 25839 25840 25841 25842 25843 25844 25845 25846 25847 25848 25849 25850 25851 25852 25853 25854 25855 25856 25857 25858 25859 25860 25861 25862 25863 25864 25865 25866 25867 25868 25869 25870 25871 25872 25873 25874 25875 25876 25877 25878 25879 25880 25881 25882 25883 25884 25885 25886 25887 25888 25889 25890 25891 25892 25893 25894 25895 25896 25897 25898 25899 25900 25901 25902 25903 25904 25905 25906 25907 25908 25909 25910 25911 25912 25913 25914 25915 25916 25917 25918 25919 25920 25921 25922 25923 25924 25925 25926 25927 25928 25929 25930 25931 25932 25933 25934 25935 25936 25937 25938 25939 25940 25941 25942 25943 25944 25945 25946 25947 25948 25949 25950 25951 25952 25953 25954 25955 25956 25957 25958 25959 25960 25961 25962 25963 25964 25965 25966 25967 25968 25969 25970 25971 25972 25973 25974 25975 25976 25977 25978 25979 25980 25981 25982 25983 25984 25985 25986 25987 25988 25989 25990 25991 25992 25993 25994 25995 25996 25997 25998 25999 26000 26001 26002 26003 26004 26005 26006 26007 26008 26009 26010 26011 26012 26013 26014 26015 26016 26017 26018 26019 26020 26021 26022 26023 26024 26025 26026 26027 26028 26029 26030 26031 26032 26033 26034 26035 26036 26037 26038 26039 26040 26041 26042 26043 26044 26045 26046 26047 26048 26049 26050 26051 26052 26053 26054 26055 26056 26057 26058 26059 26060 26061 26062 26063 26064 26065 26066 26067 26068 26069 26070 26071 26072 26073 26074 26075 26076 26077 26078 26079 26080 26081 26082 26083 26084 26085 26086 26087 26088 26089 26090 26091 26092 26093 26094 26095 26096 26097 26098 26099 26100 26101 26102 26103 26104 26105 26106 26107 26108 26109 26110 26111 26112 26113 26114 26115 26116 26117 26118 26119 26120 26121 26122 26123 26124 26125 26126 26127 26128 26129 26130 26131 26132 26133 26134 26135 26136 26137 26138 26139 26140 26141 26142 26143 26144 26145 26146 26147 26148 26149 26150 26151 26152 26153 26154 26155 26156 26157 26158 26159 26160 26161 26162 26163 26164 26165 26166 26167 26168 26169 26170 26171 26172 26173 26174 26175 26176 26177 26178 26179 26180 26181 26182 26183 26184 26185 26186 26187 26188 26189 26190 26191 26192 26193 26194 26195 26196 26197 26198 26199 26200 26201 26202 26203 26204 26205 26206 26207 26208 26209 26210 26211 26212 26213 26214 26215 26216 26217 26218 26219 26220 26221 26222 26223 26224 26225 26226 26227 26228 26229 26230 26231 26232 26233 26234 26235 26236 26237 26238 26239 26240 26241 26242 26243 26244 26245 26246 26247 26248 26249 26250 26251 26252 26253 26254 26255 26256 26257 26258 26259 26260 26261 26262 26263 26264 26265 26266 26267 26268 26269 26270 26271 26272 26273 26274 26275 26276 26277 26278 26279 26280 26281 26282 26283 26284 26285 26286 26287 26288 26289 26290 26291 26292 26293 26294 26295 26296 26297 26298 26299 26300 26301 26302 26303 26304 26305 26306 26307 26308 26309 26310 26311 26312 26313 26314 26315 26316 26317 26318 26319 26320 26321 26322 26323 26324 26325 26326 26327 26328 26329 26330 26331 26332 26333 26334 26335 26336 26337 26338 26339 26340 26341 26342 26343 26344 26345 26346 26347 26348 26349 26350 26351 26352 26353 26354 26355 26356 26357 26358 26359 26360 26361 26362 26363 26364 26365 26366 26367 26368 26369 26370 26371 26372 26373 26374 26375 26376 26377 26378 26379 26380 26381 26382 26383 26384 26385 26386 26387 26388 26389 26390 26391 26392 26393 26394 26395 26396 26397 26398 26399 26400 26401 26402 26403 26404 26405 26406 26407 26408 26409 26410 26411 26412 26413 26414 26415 26416 26417 26418 26419 26420 26421 26422 26423 26424 26425 26426 26427 26428 26429 26430 26431 26432 26433 26434 26435 26436 26437 26438 26439 26440 26441 26442 26443 26444 26445 26446 26447 26448 26449 26450 26451 26452 26453 26454 26455 26456 26457 26458 26459 26460 26461 26462 26463 26464 26465 26466 26467 26468 26469 26470 26471 26472 26473 26474 26475 26476 26477 26478 26479 26480 26481 26482 26483 26484 26485 26486 26487 26488 26489 26490 26491 26492 26493 26494 26495 26496 26497 26498 26499 26500 26501 26502 26503 26504 26505 26506 26507 26508 26509 26510 26511 26512 26513 26514 26515 26516 26517 26518 26519 26520 26521 26522 26523 26524 26525 26526 26527 26528 26529 26530 26531 26532 26533 26534 26535 26536 26537 26538 26539 26540 26541 26542 26543 26544 26545 26546 26547 26548 26549 26550 26551 26552 26553 26554 26555 26556 26557 26558 26559 26560 26561 26562 26563 26564 26565 26566 26567 26568 26569 26570 26571 26572 26573 26574 26575 26576 26577 26578 26579 26580 26581 26582 26583 26584 26585 26586 26587 26588 26589 26590 26591 26592 26593 26594 26595 26596 26597 26598 26599 26600 26601 26602 26603 26604 26605 26606 26607 26608 26609 26610 26611 26612 26613 26614 26615 26616 26617 26618 26619 26620 26621 26622 26623 26624 26625 26626 26627 26628 26629 26630 26631 26632 26633 26634 26635 26636 26637 26638 26639 26640 26641 26642 26643 26644 26645 26646 26647 26648 26649 26650 26651 26652 26653 26654 26655 26656 26657 26658 26659 26660 26661 26662 26663 26664 26665 26666 26667 26668 26669 26670 26671 26672 26673 26674 26675 26676 26677 26678 26679 26680 26681 26682 26683 26684 26685 26686 26687 26688 26689 26690 26691 26692 26693 26694 26695 26696 26697 26698 26699 26700 26701 26702 26703 26704 26705 26706 26707 26708 26709 26710 26711 26712 26713 26714 26715 26716 26717 26718 26719 26720 26721 26722 26723 26724 26725 26726 26727 26728 26729 26730 26731 26732 26733 26734 26735 26736 26737 26738 26739 26740 26741 26742 26743 26744 26745 26746 26747 26748 26749 26750 26751 26752 26753 26754 26755 26756 26757 26758 26759 26760 26761 26762 26763 26764 26765 26766 26767 26768 26769 26770 26771 26772 26773 26774 26775 26776 26777 26778 26779 26780 26781 26782 26783 26784 26785 26786 26787 26788 26789 26790 26791 26792 26793 26794 26795 26796 26797 26798 26799 26800 26801 26802 26803 26804 26805 26806 26807 26808 26809 26810 26811 26812 26813 26814 26815 26816 26817 26818 26819 26820 26821 26822 26823 26824 26825 26826 26827 26828 26829 26830 26831 26832 26833 26834 26835 26836 26837 26838 26839 26840 26841 26842 26843 26844 26845 26846 26847 26848 26849 26850 26851 26852 26853 26854 26855 26856 26857 26858 26859 26860 26861 26862 26863 26864 26865 26866 26867 26868 26869 26870 26871 26872 26873 26874 26875 26876 26877 26878 26879 26880 26881 26882 26883 26884 26885 26886 26887 26888 26889 26890 26891 26892 26893 26894 26895 26896 26897 26898 26899 26900 26901 26902 26903 26904 26905 26906 26907 26908 26909 26910 26911 26912 26913 26914 26915 26916 26917 26918 26919 26920 26921 26922 26923 26924 26925 26926 26927 26928 26929 26930 26931 26932 26933 26934 26935 26936 26937 26938 26939 26940 26941 26942 26943 26944 26945 26946 26947 26948 26949 26950 26951 26952 26953 26954 26955 26956 26957 26958 26959 26960 26961 26962 26963 26964 26965 26966 26967 26968 26969 26970 26971 26972 26973 26974 26975 26976 26977 26978 26979 26980 26981 26982 26983 26984 26985 26986 26987 26988 26989 26990 26991 26992 26993 26994 26995 26996 26997 26998 26999 27000 27001 27002 27003 27004 27005 27006 27007 27008 27009 27010 27011 27012 27013 27014 27015 27016 27017 27018 27019 27020 27021 27022 27023 27024 27025 27026 27027 27028 27029 27030 27031 27032 27033 27034 27035 27036 27037 27038 27039 27040 27041 27042 27043 27044 27045 27046 27047 27048 27049 27050 27051 27052 27053 27054 27055 27056 27057 27058 27059 27060 27061 27062 27063 27064 27065 27066 27067 27068 27069 27070 27071 27072 27073 27074 27075 27076 27077 27078 27079 27080 27081 27082 27083 27084 27085 27086 27087 27088 27089 27090 27091 27092 27093 27094 27095 27096 27097 27098 27099 27100 27101 27102 27103 27104 27105 27106 27107 27108 27109 27110 27111 27112 27113 27114 27115 27116 27117 27118 27119 27120 27121 27122 27123 27124 27125 27126 27127 27128 27129 27130 27131 27132 27133 27134 27135 27136 27137 27138 27139 27140 27141 27142 27143 27144 27145 27146 27147 27148 27149 27150 27151 27152 27153 27154 27155 27156 27157 27158 27159 27160 27161 27162 27163 27164 27165 27166 27167 27168 27169 27170 27171 27172 27173 27174 27175 27176 27177 27178 27179 27180 27181 27182 27183 27184 27185 27186 27187 27188 27189 27190 27191 27192 27193 27194 27195 27196 27197 27198 27199 27200 27201 27202 27203 27204 27205 27206 27207 27208 27209 27210 27211 27212 27213 27214 27215 27216 27217 27218 27219 27220 27221 27222 27223 27224 27225 27226 27227 27228 27229 27230 27231 27232 27233 27234 27235 27236 27237 27238 27239 27240 27241 27242 27243 27244 27245 27246 27247 27248 27249 27250 27251 27252 27253 27254 27255 27256 27257 27258 27259 27260 27261 27262 27263 27264 27265 27266 27267 27268 27269 27270 27271 27272 27273 27274 27275 27276 27277 27278 27279 27280 27281 27282 27283 27284 27285 27286 27287 27288 27289 27290 27291 27292 27293 27294 27295 27296 27297 27298 27299 27300 27301 27302 27303 27304 27305 27306 27307 27308 27309 27310 27311 27312 27313 27314 27315 27316 27317 27318 27319 27320 27321 27322 27323 27324 27325 27326 27327 27328 27329 27330 27331 27332 27333 27334 27335 27336 27337 27338 27339 27340 27341 27342 27343 27344 27345 27346 27347 27348 27349 27350 27351 27352 27353 27354 27355 27356 27357 27358 27359 27360 27361 27362 27363 27364 27365 27366 27367 27368 27369 27370 27371 27372 27373 27374 27375 27376 27377 27378 27379 27380 27381 27382 27383 27384 27385 27386 27387 27388 27389 27390 27391 27392 27393 27394 27395 27396 27397 27398 27399 27400 27401 27402 27403 27404 27405 27406 27407 27408 27409 27410 27411 27412 27413 27414 27415 27416 27417 27418 27419 27420 27421 27422 27423 27424 27425 27426 27427 27428 27429 27430 27431 27432 27433 27434 27435 27436 27437 27438 27439 27440 27441 27442 27443 27444 27445 27446 27447 27448 27449 27450 27451 27452 27453 27454 27455 27456 27457 27458 27459 27460 27461 27462 27463 27464 27465 27466 27467 27468 27469 27470 27471 27472 27473 27474 27475 27476 27477 27478 27479 27480 27481 27482 27483 27484 27485 27486 27487 27488 27489 27490 27491 27492 27493 27494 27495 27496 27497 27498 27499 27500 27501 27502 27503 27504 27505 27506 27507 27508 27509 27510 27511 27512 27513 27514 27515 27516 27517 27518 27519 27520 27521 27522 27523 27524 27525 27526 27527 27528 27529 27530 27531 27532 27533 27534 27535 27536 27537 27538 27539 27540 27541 27542 27543 27544 27545 27546 27547 27548 27549 27550 27551 27552 27553 27554 27555 27556 27557 27558 27559 27560 27561 27562 27563 27564 27565 27566 27567 27568 27569 27570 27571 27572 27573 27574 27575 27576 27577 27578 27579 27580 27581 27582 27583 27584 27585 27586 27587 27588 27589 27590 27591 27592 27593 27594 27595 27596 27597 27598 27599 27600 27601 27602 27603 27604 27605 27606 27607 27608 27609 27610 27611 27612 27613 27614 27615 27616 27617 27618 27619 27620 27621 27622 27623 27624 27625 27626 27627 27628 27629 27630 27631 27632 27633 27634 27635 27636 27637 27638 27639 27640 27641 27642 27643 27644 27645 27646 27647 27648 27649 27650 27651 27652 27653 27654 27655 27656 27657 27658 27659 27660 27661 27662 27663 27664 27665 27666 27667 27668 27669 27670 27671 27672 27673 27674 27675 27676 27677 27678 27679 27680 27681 27682 27683 27684 27685 27686 27687 27688 27689 27690 27691 27692 27693 27694 27695 27696 27697 27698 27699 27700 27701 27702 27703 27704 27705 27706 27707 27708 27709 27710 27711 27712 27713 27714 27715 27716 27717 27718 27719 27720 27721 27722 27723 27724 27725 27726 27727 27728 27729 27730 27731 27732 27733 27734 27735 27736 27737 27738 27739 27740 27741 27742 27743 27744 27745 27746 27747 27748 27749 27750 27751 27752 27753 27754 27755 27756 27757 27758 27759 27760 27761 27762 27763 27764 27765 27766 27767 27768 27769 27770 27771 27772 27773 27774 27775 27776 27777 27778 27779 27780 27781 27782 27783 27784 27785 27786 27787 27788 27789 27790 27791 27792 27793 27794 27795 27796 27797 27798 27799 27800 27801 27802 27803 27804 27805 27806 27807 27808 27809 27810 27811 27812 27813 27814 27815 27816 27817 27818 27819 27820 27821 27822 27823 27824 27825 27826 27827 27828 27829 27830 27831 27832 27833 27834 27835 27836 27837 27838 27839 27840 27841 27842 27843 27844 27845 27846 27847 27848 27849 27850 27851 27852 27853 27854 27855 27856 27857 27858 27859 27860 27861 27862 27863 27864 27865 27866 27867 27868 27869 27870 27871 27872 27873 27874 27875 27876 27877 27878 27879 27880 27881 27882 27883 27884 27885 27886 27887 27888 27889 27890 27891 27892 27893 27894 27895 27896 27897 27898 27899 27900 27901 27902 27903 27904 27905 27906 27907 27908 27909 27910 27911 27912 27913 27914 27915 27916 27917 27918 27919 27920 27921 27922 27923 27924 27925 27926 27927 27928 27929 27930 27931 27932 27933 27934 27935 27936 27937 27938 27939 27940 27941 27942 27943 27944 27945 27946 27947 27948 27949 27950 27951 27952 27953 27954 27955 27956 27957 27958 27959 27960 27961 27962 27963 27964 27965 27966 27967 27968 27969 27970 27971 27972 27973 27974 27975 27976 27977 27978 27979 27980 27981 27982 27983 27984 27985 27986 27987 27988 27989 27990 27991 27992 27993 27994 27995 27996 27997 27998 27999 28000 28001 28002 28003 28004 28005 28006 28007 28008 28009 28010 28011 28012 28013 28014 28015 28016 28017 28018 28019 28020 28021 28022 28023 28024 28025 28026 28027 28028 28029 28030 28031 28032 28033 28034 28035 28036 28037 28038 28039 28040 28041 28042 28043 28044 28045 28046 28047 28048 28049 28050 28051 28052 28053 28054 28055 28056 28057 28058 28059 28060 28061 28062 28063 28064 28065 28066 28067 28068 28069 28070 28071 28072 28073 28074 28075 28076 28077 28078 28079 28080 28081 28082 28083 28084 28085 28086 28087 28088 28089 28090 28091 28092 28093 28094 28095 28096 28097 28098 28099 28100 28101 28102 28103 28104 28105 28106 28107 28108 28109 28110 28111 28112 28113 28114 28115 28116 28117 28118 28119 28120 28121 28122 28123 28124 28125 28126 28127 28128 28129 28130 28131 28132 28133 28134 28135 28136 28137 28138 28139 28140 28141 28142 28143 28144 28145 28146 28147 28148 28149 28150 28151 28152 28153 28154 28155 28156 28157 28158 28159 28160 28161 28162 28163 28164 28165 28166 28167 28168 28169 28170 28171 28172 28173 28174 28175 28176 28177 28178 28179 28180 28181 28182 28183 28184 28185 28186 28187 28188 28189 28190 28191 28192 28193 28194 28195 28196 28197 28198 28199 28200 28201 28202 28203 28204 28205 28206 28207 28208 28209 28210 28211 28212 28213 28214 28215 28216 28217 28218 28219 28220 28221 28222 28223 28224 28225 28226 28227 28228 28229 28230 28231 28232 28233 28234 28235 28236 28237 28238 28239 28240 28241 28242 28243 28244 28245 28246 28247 28248 28249 28250 28251 28252 28253 28254 28255 28256 28257 28258 28259 28260 28261 28262 28263 28264 28265 28266 28267 28268 28269 28270 28271 28272 28273 28274 28275 28276 28277 28278 28279 28280 28281 28282 28283 28284 28285 28286 28287 28288 28289 28290 28291 28292 28293 28294 28295 28296 28297 28298 28299 28300 28301 28302 28303 28304 28305 28306 28307 28308 28309 28310 28311 28312 28313 28314 28315 28316 28317 28318 28319 28320 28321 28322 28323 28324 28325 28326 28327 28328 28329 28330 28331 28332 28333 28334 28335 28336 28337 28338 28339 28340 28341 28342 28343 28344 28345 28346 28347 28348 28349 28350 28351 28352 28353 28354 28355 28356 28357 28358 28359 28360 28361 28362 28363 28364 28365 28366 28367 28368 28369 28370 28371 28372 28373 28374 28375 28376 28377 28378 28379 28380 28381 28382 28383 28384 28385 28386 28387 28388 28389 28390 28391 28392 28393 28394 28395 28396 28397 28398 28399 28400 28401 28402 28403 28404 28405 28406 28407 28408 28409 28410 28411 28412 28413 28414 28415 28416 28417 28418 28419 28420 28421 28422 28423 28424 28425 28426 28427 28428 28429 28430 28431 28432 28433 28434 28435 28436 28437 28438 28439 28440 28441 28442 28443 28444 28445 28446 28447 28448 28449 28450 28451 28452 28453 28454 28455 28456 28457 28458 28459 28460 28461 28462 28463 28464 28465 28466 28467 28468 28469 28470 28471 28472 28473 28474 28475 28476 28477 28478 28479 28480 28481 28482 28483 28484 28485 28486 28487 28488 28489 28490 28491 28492 28493 28494 28495 28496 28497 28498 28499 28500 28501 28502 28503 28504 28505 28506 28507 28508 28509 28510 28511 28512 28513 28514 28515 28516 28517 28518 28519 28520 28521 28522 28523 28524 28525 28526 28527 28528 28529 28530 28531 28532 28533 28534 28535 28536 28537 28538 28539 28540 28541 28542 28543 28544 28545 28546 28547 28548 28549 28550 28551 28552 28553 28554 28555 28556 28557 28558 28559 28560 28561 28562 28563 28564 28565 28566 28567 28568 28569 28570 28571 28572 28573 28574 28575 28576 28577 28578 28579 28580 28581 28582 28583 28584 28585 28586 28587 28588 28589 28590 28591 28592 28593 28594 28595 28596 28597 28598 28599 28600 28601 28602 28603 28604 28605 28606 28607 28608 28609 28610 28611 28612 28613 28614 28615 28616 28617 28618 28619 28620 28621 28622 28623 28624 28625 28626 28627 28628 28629 28630 28631 28632 28633 28634 28635 28636 28637 28638 28639 28640 28641 28642 28643 28644 28645 28646 28647 28648 28649 28650 28651 28652 28653 28654 28655 28656 28657 28658 28659 28660 28661 28662 28663 28664 28665 28666 28667 28668 28669 28670 28671 28672 28673 28674 28675 28676 28677 28678 28679 28680 28681 28682 28683 28684 28685 28686 28687 28688 28689 28690 28691 28692 28693 28694 28695 28696 28697 28698 28699 28700 28701 28702 28703 28704 28705 28706 28707 28708 28709 28710 28711 28712 28713 28714 28715 28716 28717 28718 28719 28720 28721 28722 28723 28724 28725 28726 28727 28728 28729 28730 28731 28732 28733 28734 28735 28736 28737 28738 28739 28740 28741 28742 28743 28744 28745 28746 28747 28748 28749 28750 28751 28752 28753 28754 28755 28756 28757 28758 28759 28760 28761 28762 28763 28764 28765 28766 28767 28768 28769 28770 28771 28772 28773 28774 28775 28776 28777 28778 28779 28780 28781 28782 28783 28784 28785 28786 28787 28788 28789 28790 28791 28792 28793 28794 28795 28796 28797 28798 28799 28800 28801 28802 28803 28804 28805 28806 28807 28808 28809 28810 28811 28812 28813 28814 28815 28816 28817 28818 28819 28820 28821 28822 28823 28824 28825 28826 28827 28828 28829 28830 28831 28832 28833 28834 28835 28836 28837 28838 28839 28840 28841 28842 28843 28844 28845 28846 28847 28848 28849 28850 28851 28852 28853 28854 28855 28856 28857 28858 28859 28860 28861 28862 28863 28864 28865 28866 28867 28868 28869 28870 28871 28872 28873 28874 28875 28876 28877 28878 28879 28880 28881 28882 28883 28884 28885 28886 28887 28888 28889 28890 28891 28892 28893 28894 28895 28896 28897 28898 28899 28900 28901 28902 28903 28904 28905 28906 28907 28908 28909 28910 28911 28912 28913 28914 28915 28916 28917 28918 28919 28920 28921 28922 28923 28924 28925 28926 28927 28928 28929 28930 28931 28932 28933 28934 28935 28936 28937 28938 28939 28940 28941 28942 28943 28944 28945 28946 28947 28948 28949 28950 28951 28952 28953 28954 28955 28956 28957 28958 28959 28960 28961 28962 28963 28964 28965 28966 28967 28968 28969 28970 28971 28972 28973 28974 28975 28976 28977 28978 28979 28980 28981 28982 28983 28984 28985 28986 28987 28988 28989 28990 28991 28992 28993 28994 28995 28996 28997 28998 28999 29000 29001 29002 29003 29004 29005 29006 29007 29008 29009 29010 29011 29012 29013 29014 29015 29016 29017 29018 29019 29020 29021 29022 29023 29024 29025 29026 29027 29028 29029 29030 29031 29032 29033 29034 29035 29036 29037 29038 29039 29040 29041 29042 29043 29044 29045 29046 29047 29048 29049 29050 29051 29052 29053 29054 29055 29056 29057 29058 29059 29060 29061 29062 29063 29064 29065 29066 29067 29068 29069 29070 29071 29072 29073 29074 29075 29076 29077 29078 29079 29080 29081 29082 29083 29084 29085 29086 29087 29088 29089 29090 29091 29092 29093 29094 29095 29096 29097 29098 29099 29100 29101 29102 29103 29104 29105 29106 29107 29108 29109 29110 29111 29112 29113 29114 29115 29116 29117 29118 29119 29120 29121 29122 29123 29124 29125 29126 29127 29128 29129 29130 29131 29132 29133 29134 29135 29136 29137 29138 29139 29140 29141 29142 29143 29144 29145 29146 29147 29148 29149 29150 29151 29152 29153 29154 29155 29156 29157 29158 29159 29160 29161 29162 29163 29164 29165 29166 29167 29168 29169 29170 29171 29172 29173 29174 29175 29176 29177 29178 29179 29180 29181 29182 29183 29184 29185 29186 29187 29188 29189 29190 29191 29192 29193 29194 29195 29196 29197 29198 29199 29200 29201 29202 29203 29204 29205 29206 29207 29208 29209 29210 29211 29212 29213 29214 29215 29216 29217 29218 29219 29220 29221 29222 29223 29224 29225 29226 29227 29228 29229 29230 29231 29232 29233 29234 29235 29236 29237 29238 29239 29240 29241 29242 29243 29244 29245 29246 29247 29248 29249 29250 29251 29252 29253 29254 29255 29256 29257 29258 29259 29260 29261 29262 29263 29264 29265 29266 29267 29268 29269 29270 29271 29272 29273 29274 29275 29276 29277 29278 29279 29280 29281 29282 29283 29284 29285 29286 29287 29288 29289 29290 29291 29292 29293 29294 29295 29296 29297 29298 29299 29300 29301 29302 29303 29304 29305 29306 29307 29308 29309 29310 29311 29312 29313 29314 29315 29316 29317 29318 29319 29320 29321 29322 29323 29324 29325 29326 29327 29328 29329 29330 29331 29332 29333 29334 29335 29336 29337 29338 29339 29340 29341 29342 29343 29344 29345 29346 29347 29348 29349 29350 29351 29352 29353 29354 29355 29356 29357 29358 29359 29360 29361 29362 29363 29364 29365 29366 29367 29368 29369 29370 29371 29372 29373 29374 29375 29376 29377 29378 29379 29380 29381 29382 29383 29384 29385 29386 29387 29388 29389 29390 29391 29392 29393 29394 29395 29396 29397 29398 29399 29400 29401 29402 29403 29404 29405 29406 29407 29408 29409 29410 29411 29412 29413 29414 29415 29416 29417 29418 29419 29420 29421 29422 29423 29424 29425 29426 29427 29428 29429 29430 29431 29432 29433 29434 29435 29436 29437 29438 29439 29440 29441 29442 29443 29444 29445 29446 29447 29448 29449 29450 29451 29452 29453 29454 29455 29456 29457 29458 29459 29460 29461 29462 29463 29464 29465 29466 29467 29468 29469 29470 29471 29472 29473 29474 29475 29476 29477 29478 29479 29480 29481 29482 29483 29484 29485 29486 29487 29488 29489 29490 29491 29492 29493 29494 29495 29496 29497 29498 29499 29500 29501 29502 29503 29504 29505 29506 29507 29508 29509 29510 29511 29512 29513 29514 29515 29516 29517 29518 29519 29520 29521 29522 29523 29524 29525 29526 29527 29528 29529 29530 29531 29532 29533 29534 29535 29536 29537 29538 29539 29540 29541 29542 29543 29544 29545 29546 29547 29548 29549 29550 29551 29552 29553 29554 29555 29556 29557 29558 29559 29560 29561 29562 29563 29564 29565 29566 29567 29568 29569 29570 29571 29572 29573 29574 29575 29576 29577 29578 29579 29580 29581 29582 29583 29584 29585 29586 29587 29588 29589 29590 29591 29592 29593 29594 29595 29596 29597 29598 29599 29600 29601 29602 29603 29604 29605 29606 29607 29608 29609 29610 29611 29612 29613 29614 29615 29616 29617 29618 29619 29620 29621 29622 29623 29624 29625 29626 29627 29628 29629 29630 29631 29632 29633 29634 29635 29636 29637 29638 29639 29640 29641 29642 29643 29644 29645 29646 29647 29648 29649 29650 29651 29652 29653 29654 29655 29656 29657 29658 29659 29660 29661 29662 29663 29664 29665 29666 29667 29668 29669 29670 29671 29672 29673 29674 29675 29676 29677 29678 29679 29680 29681 29682 29683 29684 29685 29686 29687 29688 29689 29690 29691 29692 29693 29694 29695 29696 29697 29698 29699 29700 29701 29702 29703 29704 29705 29706 29707 29708 29709 29710 29711 29712 29713 29714 29715 29716 29717 29718 29719 29720 29721 29722 29723 29724 29725 29726 29727 29728 29729 29730 29731 29732 29733 29734 29735 29736 29737 29738 29739 29740 29741 29742 29743 29744 29745 29746 29747 29748 29749 29750 29751 29752 29753 29754 29755 29756 29757 29758 29759 29760 29761 29762 29763 29764 29765 29766 29767 29768 29769 29770 29771 29772 29773 29774 29775 29776 29777 29778 29779 29780 29781 29782 29783 29784 29785 29786 29787 29788 29789 29790 29791 29792 29793 29794 29795 29796 29797 29798 29799 29800 29801 29802 29803 29804 29805 29806 29807 29808 29809 29810 29811 29812 29813 29814 29815 29816 29817 29818 29819 29820 29821 29822 29823 29824 29825 29826 29827 29828 29829 29830 29831 29832 29833 29834 29835 29836 29837 29838 29839 29840 29841 29842 29843 29844 29845 29846 29847 29848 29849 29850 29851 29852 29853 29854 29855 29856 29857 29858 29859 29860 29861 29862 29863 29864 29865 29866 29867 29868 29869 29870 29871 29872 29873 29874 29875 29876 29877 29878 29879 29880 29881 29882 29883 29884 29885 29886 29887 29888 29889 29890 29891 29892 29893 29894 29895 29896 29897 29898 29899 29900 29901 29902 29903 29904 29905 29906 29907 29908 29909 29910 29911 29912 29913 29914 29915 29916 29917 29918 29919 29920 29921 29922 29923 29924 29925 29926 29927 29928 29929 29930 29931 29932 29933 29934 29935 29936 29937 29938 29939 29940 29941 29942 29943 29944 29945 29946 29947 29948 29949 29950 29951 29952 29953 29954 29955 29956 29957 29958 29959 29960 29961 29962 29963 29964 29965 29966 29967 29968 29969 29970 29971 29972 29973 29974 29975 29976 29977 29978 29979 29980 29981 29982 29983 29984 29985 29986 29987 29988 29989 29990 29991 29992 29993 29994 29995 29996 29997 29998 29999 30000 30001 30002 30003 30004 30005 30006 30007 30008 30009 30010 30011 30012 30013 30014 30015 30016 30017 30018 30019 30020 30021 30022 30023 30024 30025 30026 30027 30028 30029 30030 30031 30032 30033 30034 30035 30036 30037 30038 30039 30040 30041 30042 30043 30044 30045 30046 30047 30048 30049 30050 30051 30052 30053 30054 30055 30056 30057 30058 30059 30060 30061 30062 30063 30064 30065 30066 30067 30068 30069 30070 30071 30072 30073 30074 30075 30076 30077 30078 30079 30080 30081 30082 30083 30084 30085 30086 30087 30088 30089 30090 30091 30092 30093 30094 30095 30096 30097 30098 30099 30100 30101 30102 30103 30104 30105 30106 30107 30108 30109 30110 30111 30112 30113 30114 30115 30116 30117 30118 30119 30120 30121 30122 30123 30124 30125 30126 30127 30128 30129 30130 30131 30132 30133 30134 30135 30136 30137 30138 30139 30140 30141 30142 30143 30144 30145 30146 30147 30148 30149 30150 30151 30152 30153 30154 30155 30156 30157 30158 30159 30160 30161 30162 30163 30164 30165 30166 30167 30168 30169 30170 30171 30172 30173 30174 30175 30176 30177 30178 30179 30180 30181 30182 30183 30184 30185 30186 30187 30188 30189 30190 30191 30192 30193 30194 30195 30196 30197 30198 30199 30200 30201 30202 30203 30204 30205 30206 30207 30208 30209 30210 30211 30212 30213 30214 30215 30216 30217 30218 30219 30220 30221 30222 30223 30224 30225 30226 30227 30228 30229 30230 30231 30232 30233 30234 30235 30236 30237 30238 30239 30240 30241 30242 30243 30244 30245 30246 30247 30248 30249 30250 30251 30252 30253 30254 30255 30256 30257 30258 30259 30260 30261 30262 30263 30264 30265 30266 30267 30268 30269 30270 30271 30272 30273 30274 30275 30276 30277 30278 30279 30280 30281 30282 30283 30284 30285 30286 30287 30288 30289 30290 30291 30292 30293 30294 30295 30296 30297 30298 30299 30300 30301 30302 30303 30304 30305 30306 30307 30308 30309 30310 30311 30312 30313 30314 30315 30316 30317 30318 30319 30320 30321 30322 30323 30324 30325 30326 30327 30328 30329 30330 30331 30332 30333 30334 30335 30336 30337 30338 30339 30340 30341 30342 30343 30344 30345 30346 30347 30348 30349 30350 30351 30352 30353 30354 30355 30356 30357 30358 30359 30360 30361 30362 30363 30364 30365 30366 30367 30368 30369 30370 30371 30372 30373 30374 30375 30376 30377 30378 30379 30380 30381 30382 30383 30384 30385 30386 30387 30388 30389 30390 30391 30392 30393 30394 30395 30396 30397 30398 30399 30400 30401 30402 30403 30404 30405 30406 30407 30408 30409 30410 30411 30412 30413 30414 30415 30416 30417 30418 30419 30420 30421 30422 30423 30424 30425 30426 30427 30428 30429 30430 30431 30432 30433 30434 30435 30436 30437 30438 30439 30440 30441 30442 30443 30444 30445 30446 30447 30448 30449 30450 30451 30452 30453 30454 30455 30456 30457 30458 30459 30460 30461 30462 30463 30464 30465 30466 30467 30468 30469 30470 30471 30472 30473 30474 30475 30476 30477 30478 30479 30480 30481 30482 30483 30484 30485 30486 30487 30488 30489 30490 30491 30492 30493 30494 30495 30496 30497 30498 30499 30500 30501 30502 30503 30504 30505 30506 30507 30508 30509 30510 30511 30512 30513 30514 30515 30516 30517 30518 30519 30520 30521 30522 30523 30524 30525 30526 30527 30528 30529 30530 30531 30532 30533 30534 30535 30536 30537 30538 30539 30540 30541 30542 30543 30544 30545 30546 30547 30548 30549 30550 30551 30552 30553 30554 30555 30556 30557 30558 30559 30560 30561 30562 30563 30564 30565 30566 30567 30568 30569 30570 30571 30572 30573 30574 30575 30576 30577 30578 30579 30580 30581 30582 30583 30584 30585 30586 30587 30588 30589 30590 30591 30592 30593 30594 30595 30596 30597 30598 30599 30600 30601 30602 30603 30604 30605 30606 30607 30608 30609 30610 30611 30612 30613 30614 30615 30616 30617 30618 30619 30620 30621 30622 30623 30624 30625 30626 30627 30628 30629 30630 30631 30632 30633 30634 30635 30636 30637 30638 30639 30640 30641 30642 30643 30644 30645 30646 30647 30648 30649 30650 30651 30652 30653 30654 30655 30656 30657 30658 30659 30660 30661 30662 30663 30664 30665 30666 30667 30668 30669 30670 30671 30672 30673 30674 30675 30676 30677 30678 30679 30680 30681 30682 30683 30684 30685 30686 30687 30688 30689 30690 30691 30692 30693 30694 30695 30696 30697 30698 30699 30700 30701 30702 30703 30704 30705 30706 30707 30708 30709 30710 30711 30712 30713 30714 30715 30716 30717 30718 30719 30720 30721 30722 30723 30724 30725 30726 30727 30728 30729 30730 30731 30732 30733 30734 30735 30736 30737 30738 30739 30740 30741 30742 30743 30744 30745 30746 30747 30748 30749 30750 30751 30752 30753 30754 30755 30756 30757 30758 30759 30760 30761 30762 30763 30764 30765 30766 30767 30768 30769 30770 30771 30772 30773 30774 30775 30776 30777 30778 30779 30780 30781 30782 30783 30784 30785 30786 30787 30788 30789 30790 30791 30792 30793 30794 30795 30796 30797 30798 30799 30800 30801 30802 30803 30804 30805 30806 30807 30808 30809 30810 30811 30812 30813 30814 30815 30816 30817 30818 30819 30820 30821 30822 30823 30824 30825 30826 30827 30828 30829 30830 30831 30832 30833 30834 30835 30836 30837 30838 30839 30840 30841 30842 30843 30844 30845 30846 30847 30848 30849 30850 30851 30852 30853 30854 30855 30856 30857 30858 30859 30860 30861 30862 30863 30864 30865 30866 30867 30868 30869 30870 30871 30872 30873 30874 30875 30876 30877 30878 30879 30880 30881 30882 30883 30884 30885 30886 30887 30888 30889 30890 30891 30892 30893 30894 30895 30896 30897 30898 30899 30900 30901 30902 30903 30904 30905 30906 30907 30908 30909 30910 30911 30912 30913 30914 30915 30916 30917 30918 30919 30920 30921 30922 30923 30924 30925 30926 30927 30928 30929 30930 30931 30932 30933 30934 30935 30936 30937 30938 30939 30940 30941 30942 30943 30944 30945 30946 30947 30948 30949 30950 30951 30952 30953 30954 30955 30956 30957 
</DataArray>
<DataArray type="UInt32" Name="offsets" format="ascii">
3 6 9 12 15 18 21 24 27 30 33 36 39 42 45 48 51 54 57 60 63 66 69 72 75 78 81 84 87 89 92 95 97 99 102 105 108 111 114 117 120 123 126 129 132 135 138 141 144 146 149 152 155 158 160 163 166 169 172 175 178 181 184 187 189 192 195 198 200 203 206 209 212 215 218 221 224 227 230 233 236 239 242 245 247 250 253 255 258 261 263 266 268 270 273 276 279 282 285 288 291 293 296 298 301 304 307 309 312 315 318 321 324 327 330 333 336 339 342 345 348 351 354 357 360 363 366 369 372 375 377 379 382 385 388 391 394 397 400 403 406 409 412 415 418 420 423 426 429 432 435 438 441 444 447 450 452 455 458 461 463 466 468 470 473 476 479 481 484 487 490 493 495 498 501 504 507 510 513 516 519 522 525 528 530 533 536 538 541 544 547 550 553 556 559 562 565 568 571 573 576 579 582 585 588 591 593 596 599 602 605 607 610 613 616 619 622 625 628 631 634 637 640 643 646 649 652 655 658 661 664 666 669 672 675 678 681 684 687 690 693 696 699 702 705 708 711 714 717 720 723 726 729 732 735 738 741 744 747 750 753 756 759 762 765 768 771 774 777 780 783 786 789 792 795 797 800 803 805 808 810 813 816 819 822 825 828 831 834 837 840 843 846 848 851 854 857 860 863 866 869 872 875 878 881 884 887 890 893 896 899 902 905 908 911 914 917 920 922 924 927 930 933 936 938 941 944 947 950 953 956 958 961 964 966 969 972 975 978 980 983 985 988 991 994 997 999 1002 1005 1007 1010 1013 1016 1019 1022 1024 1026 1029 1031 1034 1037 1040 1043 1046 1049 1052 1055 1058 1061 1064 1067 1070 1073 1076 1079 1082 1085 1088 1090 1093 1095 1098 1100 1103 1106 1109 1111 1114 1117 1120 1123 1125 1128 1131 1134 1136 1139 1141 1143 1146 1148 1151 1154 1157 1159 1162 1164 1166 1169 1172 1175 1178 1181 1184 1187 1190 1193 1196 1199 1202 1205 1208 1211 1213 1216 1218 1221 1224 1227 1230 1232 1235 1237 1240 1242 1245 1248 1251 1253 1256 1259 1262 1265 1268 1271 1274 1277 1280 1283 1286 1289 1292 1295 1298 1301 1304 1307 1310 1313 1316 1319 1322 1325 1328 1331 1334 1337 1340 1343 1346 1349 1352 1355 1357 1360 1363 1366 1369 1372 1375 1378 1381 1384 1387 1390 1393 1396 1399 1402 1405 1408 1411 1414 1417 1420 1423 1426 1429 1432 1435 1438 1441 1444 1446 1449 1452 1455 1458 1461 1464 1467 1470 1473 1475 1478 1480 1483 1486 1489 1491 1494 1497 1500 1503 1506 1509 1511 1514 1516 1519 1522 1525 1528 1531 1534 1537 1540 1543 1546 1549 1552 1555 1558 1561 1564 1567 1570 1573 1576 1579 1582 1585 1587 1590 1593 1596 1598 1601 1604 1606 1609 1612 1615 1618 1621 1624 1627 1630 1633 1636 1639 1642 1645 1648 1651 1654 1657 1660 1663 1666 1669 1672 1675 1678 1681 1684 1686 1689 1691 1694 1697 1700 1703 1706 1708 1711 1714 1717 1720 1723 1726 1728 1731 1733 1736 1739 1741 1744 1747 1749 1752 1755 1758 1761 1764 1767 1770 1773 1775 1778 1780 1782 1785 1788 1791 1794 1797 1800 1803 1806 1809 1812 1815 1818 1821 1824 1826 1828 1831 1834 1836 1839 1842 1844 1847 1850 1853 1855 1858 1861 1863 1866 1869 1871 1874 1876 1879 1881 1884 1887 1890 1893 1896 1899 1902 1905 1908 1911 1914 1917 1920 1923 1926 1929 1932 1935 1938 1941 1944 1947 1950 1953 1956 1959 1962 1965 1968 1971 1974 1977 1980 1983 1986 1989 1992 1995 1998 2001 2004 2006 2009 2012 2015 2018 2021 2023 2026 2028 2031 2034 2036 2039 2042 2045 2047 2050 2053 2056 2059 2062 2065 2068 2071 2074 2077 2080 2083 2086 2089 2092 2095 2098 2101 2104 2107 2110 2113 2116 2119 2122 2125 2128 2131 2134 2137 2140 2143 2146 2149 2152 2155 2158 2161 2164 2167 2170 2173 2176 2179 2182 2185 2188 2191 2194 2197 2200 2203 2206 2209 2212 2215 2218 2221 2223 2226 2229 2232 2235 2238 2241 2244 2247 2250 2253 2256 2259 2262 2265 2268 2271 2274 2277 2280 2283 2286 2289 2292 2295 2297 2300 2303 2306 2309 2311 2314 2317 2320 2323 2326 2328 2331 2334 2337 2340 2342 2344 2347 2350 2352 2355 2358 2361 2363 2366 2369 2371 2374 2376 2379 2382 2385 2388 2391 2394 2397 2400 2403 2406 2409 2412 2415 2418 2421 2424 2427 2430 2433 2436 2439 2442 2445 2447 2450 2453 2456 2458 2461 2464 2467 2470 2473 2476 2479 2482 2485 2488 2491 2494 2497 2500 2503 2506 2509 2512 2515 2518 2521 2524 2527 2530 2532 2535 2538 2541 2544 2547 2550 2553 2556 2559 2562 2565 2568 2571 2574 2577 2580 2583 2586 2589 2592 2595 2598 2600 2603 2606 2609 2611 2614 2617 2620 2623 2626 2629 2632 2635 2638 2641 2644 2647 2650 2653 2656 2659 2662 2665 2668 2671 2674 2677 2680 2683 2686 2689 2692 2694 2696 2699 2702 2705 2708 2711 2713 2716 2718 2721 2724 2726 2728 2731 2734 2737 2740 2743 2746 2748 2751 2754 2757 2760 2763 2766 2769 2771 2773 2776 2779 2782 2785 2788 2791 2794 2797 2800 2803 2806 2809 2812 2815 2818 2821 2824 2826 2829 2832 2835 2838 2841 2844 2847 2850 2853 2856 2859 2861 2864 2867 2870 2873 2876 2879 2882 2885 2888 2891 2894 2897 2900 2903 2906 2909 2912 2915 2918 2921 2924 2927 2930 2932 2935 2938 2941 2944 2947 2950 2953 2956 2959 2962 2965 2968 2971 2974 2977 2980 2983 2986 2989 2992 2995 2998 3001 3004 3007 3009 3012 3015 3018 3020 3023 3026 3029 3031 3034 3037 3040 3042 3045 3048 3050 3053 3056 3059 3062 3065 3068 3071 3074 3077 3079 3082 3085 3088 3090 3093 3096 3099 3101 3103 3106 3109 3112 3115 3118 3121 3124 3127 3130 3132 3135 3138 3140 3143 3145 3148 3151 3154 3157 3160 3163 3166 3169 3171 3173 3176 3179 3182 3185 3188 3191 3194 3197 3200 3203 3206 3209 3212 3215 3218 3221 3224 3227 3230 3233 3236 3239 3241 3244 3247 3250 3253 3256 3259 3262 3265 3267 3270 3273 3276 3279 3281 3284 3287 3290 3293 3295 3297 3300 3303 3306 3309 3312 3314 3317 3320 3323 3325 3328 3331 3334 3337 3340 3343 3346 3349 3352 3355 3357 3360 3362 3365 3368 3370 3373 3376 3379 3382 3385 3387 3390 3393 3396 3399 3402 3405 3408 3410 3413 3416 3419 3422 3425 3428 3431 3433 3436 3439 3442 3444 3447 3450 3453 3456 3459 3461 3464 3467 3470 3473 3476 3479 3482 3484 3487 3490 3493 3495 3498 3500 3503 3505 3508 3511 3513 3516 3519 3522 3524 3527 3530 3533 3536 3539 3541 3544 3547 3550 3553 3556 3559 3562 3564 3567 3570 3572 3575 3578 3580 3583 3586 3588 3591 3594 3596 3598 3600 3603 3606 3609 3611 3614 3617 3619 3621 3624 3626 3629 3632 3635 3637 3640 3643 3646 3649 3652 3654 3657 3660 3663 3666 3669 3672 3675 3678 3680 3683 3686 3689 3692 3695 3698 3700 3703 3706 3708 3711 3714 3717 3720 3723 3726 3729 3732 3735 3738 3741 3744 3747 3750 3753 3756 3759 3762 3765 3768 3771 3774 3777 3780 3782 3785 3788 3791 3793 3796 3799 3802 3805 3808 3810 3813 3816 3819 3821 3824 3827 3830 3833 3836 3839 3842 3845 3848 3851 3854 3857 3860 3863 3866 3869 3872 3875 3878 3881 3884 3886 3889 3892 3894 3897 3900 3903 3906 3909 3912 3915 3918 3921 3924 3927 3930 3933 3936 3939 3942 3944 3947 3950 3953 3955 3958 3961 3964 3967 3970 3973 3976 3979 3981 3984 3986 3989 3992 3994 3997 4000 4003 4006 4009 4012 4014 4017 4020 4023 4026 4029 4032 4034 4037 4040 4043 4046 4049 4052 4055 4058 4061 4063 4066 4068 4071 4074 4077 4080 4083 4086 4089 4092 4095 4097 4100 4103 4106 4109 4111 4114 4117 4120 4123 4126 4129 4132 4135 4138 4141 4144 4147 4150 4153 4156 4159 4162 4164 4167 4170 4173 4175 4178 4180 4183 4186 4189 4192 4195 4198 4201 4204 4207 4210 4213 4216 4219 4222 4225 4228 4230 4233 4235 4238 4241 4244 4246 4249 4252 4255 4258 4261 4264 4267 4270 4273 4275 4278 4280 4283 4286 4289 4292 4295 4298 4301 4304 4307 4310 4313 4316 4318 4321 4324 4327 4330 4333 4336 4339 4342 4345 4348 4350 4353 4356 4358 4361 4364 4367 4370 4373 4376 4379 4382 4385 4387 4390 4393 4396 4399 4402 4405 4408 4411 4414 4417 4419 4422 4425 4427 4430 4433 4436 4438 4441 4444 4447 4450 4453 4456 4459 4462 4465 4468 4471 4474 4477 4480 4483 4486 4489 4492 4495 4498 4501 4503 4506 4509 4512 4515 4518 4520 4522 4525 4527 4530 4533 4536 4539 4542 4545 4548 4551 4554 4557 4560 4563 4566 4569 4572 4575 4578 4581 4584 4587 4590 4592 4595 4598 4601 4604 4607 4610 4613 4616 4619 4622 4625 4628 4631 4634 4637 4640 4643 4646 4649 4652 4655 4658 4661 4664 4667 4670 4673 4676 4679 4682 4685 4688 4691 4694 4697 4700 4703 4706 4709 4712 4715 4717 4720 4723 4726 4729 4731 4733 4736 4739 4742 4744 4747 4750 4753 4756 4759 4762 4765 4768 4771 4774 4777 4780 4783 4786 4789 4792 4795 4798 4800 4803 4806 4809 4812 4815 4818 4821 4823 4826 4828 4830 4833 4836 4839 4842 4844 4847 4850 4853 4856 4859 4861 4864 4866 4869 4872 4875 4878 4881 4884 4887 4890 4893 4896 4899 4902 4904 4907 4910 4912 4914 4916 4918 4921 4924 4927 4929 4932 4934 4937 4940 4942 4945 4948 4950 4953 4956 4959 4962 4965 4968 4971 4973 4976 4979 4981 4984 4987 4990 4993 4996 4998 5001 5003 5005 5008 5011 5013 5016 5018 5021 5024 5027 5030 5032 5035 5038 5041 5044 5046 5049 5052 5055 5058 5060 5063 5066 5069 5072 5075 5078 5080 5083 5086 5088 5091 5093 5096 5099 5102 5104 5107 5110 5112 5115 5118 5121 5123 5126 5129 5132 5135 5138 5141 5144 5147 5149 5152 5155 5158 5160 5163 5166 5168 5171 5174 5177 5180 5183 5186 5189 5191 5194 5197 5200 5203 5206 5209 5212 5215 5218 5220 5223 5226 5228 5231 5234 5237 5239 5242 5245 5248 5250 5253 5255 5258 5261 5264 5267 5270 5273 5276 5279 5282 5285 5288 5291 5294 5296 5299 5302 5305 5308 5311 5313 5315 5318 5321 5324 5327 5330 5333 5336 5339 5342 5345 5347 5349 5352 5355 5358 5361 5363 5365 5368 5370 5373 5375 5378 5380 5383 5385 5388 5390 5393 5395 5398 5401 5404 5407 5409 5411 5414 5416 5418 5421 5424 5426 5429 5431 5434 5437 5440 5442 5445 5448 5451 5454 5457 5460 5462 5464 5467 5470 5473 5475 5477 5480 5482 5485 5488 5491 5494 5497 5500 5502 5505 5507 5510 5513 5515 5518 5521 5524 5527 5530 5533 5536 5538 5541 5544 5547 5550 5553 5556 5559 5562 5564 5567 5570 5573 5576 5579 5582 5585 5587 5590 5593 5595 5598 5601 5604 5607 5610 5613 5616 5618 5621 5623 5626 5629 5632 5634 5637 5640 5643 5646 5649 5652 5655 5658 5661 5663 5666 5669 5672 5675 5678 5681 5684 5687 5689 5692 5695 5698 5701 5704 5707 5710 5713 5716 5719 5722 5725 5727 5730 5732 5735 5738 5741 5744 5747 5750 5753 5756 5758 5760 5763 5766 5769 5772 5775 5777 5779 5782 5785 5788 5791 5794 5797 5800 5803 5806 5809 5812 5815 5818 5821 5824 5826 5828 5830 5833 5836 5838 5841 5844 5847 5850 5852 5855 5858 5861 5864 5866 5869 5872 5875 5877 5880 5883 5886 5889 5892 5895 5898 5901 5904 5907 5910 5913 5916 5919 5922 5925 5928 5930 5933 5936 5939 5942 5945 5947 5950 5953 5956 5959 5962 5964 5967 5970 5972 5975 5978 5981 5984 5987 5990 5992 5995 5998 6001 6004 6007 6010 6013 6016 6019 6022 6025 6027 6030 6032 6035 6038 6040 6043 6046 6049 6052 6055 6058 6061 6063 6066 6069 6071 6073 6076 6079 6082 6084 6087 6090 6092 6094 6097 6099 6102 6105 6108 6110 6113 6116 6119 6121 6124 6127 6130 6133 6136 6138 6141 6144 6147 6150 6152 6155 6158 6161 6164 6167 6169 6172 6175 6178 6181 6183 6185 6188 6191 6194 6197 6200 6203 6206 6208 6211 6214 6217 6220 6222 6225 6227 6230 6233 6236 6239 6242 6245 6248 6251 6254 6257 6260 6263 6266 6269 6272 6274 6277 6280 6283 6286 6288 6291 6294 6296 6299 6302 6305 6308 6311 6314 6316 6319 6322 6325 6328 6331 6334 6337 6340 6343 6346 6349 6352 6355 6358 6361 6364 6367 6370 6372 6374 6377 6380 6383 6386 6389 6392 6395 6398 6401 6404 6407 6410 6413 6416 6419 6422 6425 6428 6431 6434 6437 6440 6443 6446 6448 6451 6454 6457 6459 6462 6465 6468 6471 6473 6476 6479 6482 6485 6487 6490 6493 6496 6499 6502 6505 6508 6511 6514 6517 6520 6523 6526 6529 6532 6535 6538 6541 6544 6547 6550 6553 6556 6559 6562 6565 6568 6571 6574 6577 6580 6583 6586 6589 6592 6595 6598 6601 6604 6607 6609 6612 6615 6618 6621 6624 6627 6630 6633 6636 6639 6642 6645 6648 6651 6654 6657 6660 6663 6666 6669 6672 6675 6678 6681 6684 6687 6689 6692 6695 6698 6701 6704 6707 6709 6712 6715 6718 6721 6724 6727 6730 6733 6736 6739 6741 6744 6747 6750 6753 6756 6759 6762 6765 6768 6771 6774 6777 6780 6783 6786 6789 6792 6795 6798 6801 6804 6807 6810 6813 6815 6818 6821 6824 6827 6830 6833 6836 6839 6842 6845 6847 6850 6853 6856 6859 6862 6865 6868 6870 6873 6876 6879 6882 6885 6888 6890 6893 6896 6899 6901 6904 6907 6910 6913 6916 6919 6922 6925 6928 6931 6934 6936 6938 6941 6944 6947 6950 6952 6954 6957 6959 6962 6965 6968 6971 6974 6976 6979 6982 6984 6987 6990 6992 6995 6997 7000 7003 7006 7008 7011 7014 7017 7020 7022 7025 7028 7031 7034 7037 7040 7043 7046 7049 7052 7055 7058 7061 7064 7067 7070 7073 7075 7078 7081 7084 7087 7090 7093 7096 7098 7101 7104 7107 7110 7113 7116 7119 7122 7125 7128 7131 7134 7137 7140 7142 7145 7148 7151 7153 7156 7158 7161 7163 7166 7169 7171 7174 7177 7180 7183 7186 7189 7192 7195 7198 7201 7204 7207 7210 7213 7216 7218 7221 7224 7227 7229 7231 7234 7236 7239 7241 7244 7247 7250 7253 7256 7258 7261 7263 7266 7269 7271 7274 7277 7280 7282 7285 7288 7290 7292 7295 7298 7300 7303 7306 7309 7311 7314 7317 7320 7323 7326 7329 7332 7335 7338 7341 7344 7347 7349 7351 7354 7357 7360 7363 7366 7369 7372 7375 7378 7380 7383 7386 7389 7392 7394 7397 7400 7403 7406 7409 7412 7415 7418 7421 7424 7427 7430 7433 7436 7439 7442 7445 7448 7451 7454 7457 7460 7463 7466 7469 7471 7473 7476 7479 7481 7484 7486 7489 7492 7495 7498 7500 7503 7505 7508 7510 7513 7516 7518 7521 7524 7527 7530 7532 7535 7538 7541 7543 7546 7549 7551 7554 7557 7560 7563 7566 7569 7572 7575 7578 7580 7582 7585 7588 7591 7593 7596 7599 7602 7605 7608 7610 7613 7616 7618 7621 7624 7627 7630 7633 7636 7639 7642 7645 7648 7650 7652 7655 7658 7660 7663 7666 7669 7672 7675 7678 7681 7684 7687 7690 7692 7694 7697 7700 7703 7706 7709 7711 7714 7717 7720 7723 7726 7729 7731 7733 7736 7739 7742 7745 7748 7751 7754 7757 7760 7763 7766 7769 7772 7775 7778 7780 7783 7786 7789 7791 7794 7797 7799 7802 7804 7807 7810 7812 7815 7818 7821 7824 7827 7830 7833 7835 7838 7841 7844 7846 7849 7852 7855 7858 7861 7864 7867 7870 7873 7876 7879 7881 7884 7887 7890 7893 7896 7899 7901 7904 7907 7910 7912 7915 7917 7920 7923 7926 7929 7932 7935 7938 7941 7943 7946 7949 7952 7955 7958 7961 7964 7967 7969 7972 7975 7978 7981 7984 7986 7989 7992 7995 7998 8001 8004 8007 8010 8012 8015 8018 8021 8024 8027 8030 8033 8036 8039 8042 8044 8047 8050 8052 8055 8058 8060 8063 8066 8068 8071 8074 8077 8080 8083 8085 8088 8091 8094 8097 8100 8103 8106 8109 8112 8114 8117 8120 8123 8126 8129 8132 8135 8138 8140 8143 8146 8149 8152 8155 8158 8161 8163 8166 8169 8172 8174 8177 8180 8183 8186 8189 8192 8195 8198 8201 8204 8207 8210 8213 8216 8219 8222 8225 8228 8231 8234 8237 8240 8243 8246 8249 8252 8255 8258 8261 8264 8267 8270 8273 8276 8279 8282 8284 8287 8290 8293 8296 8299 8302 8305 8308 8310 8313 8316 8319 8322 8324 8327 8330 8332 8335 8338 8341 8344 8347 8350 8353 8356 8359 8362 8365 8368 8371 8374 8377 8380 8383 8386 8389 8392 8395 8398 8401 8404 8406 8409 8411 8414 8417 8420 8423 8426 8428 8430 8433 8435 8438 8440 8443 8445 8448 8451 8454 8457 8460 8463 8466 8469 8471 8474 8476 8479 8482 8484 8486 8489 8492 8495 8497 8500 8503 8506 8509 8511 8514 8517 8520 8523 8526 8529 8532 8534 8537 8540 8543 8546 8549 8551 8554 8557 8559 8562 8565 8568 8571 8574 8577 8579 8582 8585 8588 8591 8594 8597 8600 8603 8606 8609 8611 8614 8617 8620 8623 8626 8629 8632 8634 8637 8640 8643 8646 8649 8651 8653 8656 8659 8662 8665 8667 8670 8673 8675 8678 8681 8683 8686 8689 8692 8695 8698 8701 8704 8707 8710 8712 8715 8717 8720 8722 8725 8727 8730 8733 8736 8739 8742 8745 8747 8750 8752 8755 8758 8761 8764 8767 8770 8773 8775 8778 8781 8784 8787 8790 8793 8796 8799 8802 8805 8808 8811 8813 8816 8819 8822 8825 8828 8831 8834 8837 8840 8843 8846 8849 8852 8855 8858 8861 8863 8865 8868 8871 8874 8877 8880 8883 8886 8888 8891 8894 8897 8900 8903 8906 8909 8912 8915 8918 8920 8923 8926 8929 8932 8935 8937 8940 8943 8946 8949 8952 8955 8958 8961 8964 8967 8970 8973 8976 8979 8982 8985 8988 8991 8994 8997 9000 9003 9006 9009 9012 9015 9018 9021 9024 9027 9029 9032 9035 9038 9041 9044 9047 9050 9053 9056 9058 9061 9064 9067 9070 9073 9076 9079 9082 9084 9087 9090 9093 9096 9099 9102 9105 9108 9111 9114 9117 9120 9123 9126 9129 9132 9135 9138 9141 9144 9147 9150 9153 9156 9159 9162 9165 9168 9171 9174 9177 9180 9183 9186 9189 9192 9195 9198 9200 9203 9206 9209 9211 9214 9216 9219 9222 9225 9228 9230 9233 9236 9239 9242 9245 9248 9251 9254 9257 9260 9263 9266 9269 9272 9275 9278 9281 9284 9287 9290 9292 9295 9298 9301 9304 9307 9309 9312 9315 9318 9320 9323 9326 9328 9330 9333 9336 9339 9342 9345 9348 9350 9353 9356 9358 9361 9364 9366 9369 9371 9374 9376 9378 9381 9383 9385 9388 9390 9393 9396 9399 9401 9404 9407 9409 9412 9414 9417 9420 9423 9426 9428 9430 9433 9436 9438 9441 9444 9447 9450 9453 9456 9458 9461 9464 9466 9469 9471 9473 9476 9479 9482 9485 9487 9490 9493 9496 9499 9502 9505 9508 9511 9513 9516 9519 9522 9525 9528 9531 9534 9537 9540 9543 9546 9549 9552 9555 9558 9561 9564 9567 9570 9573 9576 9579 9582 9584 9587 9590 9593 9596 9599 9602 9605 9608 9610 9613 9616 9619 9621 9624 9627 9630 9632 9634 9636 9639 9642 9645 9648 9651 9654 9656 9659 9662 9665 9668 9671 9674 9677 9680 9682 9684 9687 9690 9693 9696 9699 9702 9705 9708 9711 9714 9717 9720 9723 9726 9729 9732 9735 9738 9741 9744 9747 9750 9753 9756 9759 9762 9765 9768 9771 9774 9777 9780 9782 9785 9788 9790 9793 9796 9799 9802 9805 9808 9811 9814 9817 9820 9823 9826 9828 9831 9834 9837 9840 9843 9846 9849 9852 9855 9858 9861 9864 9867 9870 9873 9876 9879 9881 9884 9887 9890 9892 9894 9897 9900 9903 9906 9909 9912 9915 9918 9921 9924 9927 9930 9933 9936 9939 9942 9945 9948 9951 9953 9956 9959 9962 9965 9968 9971 9974 9977 9980 9983 9985 9988 9991 9994 9997 10000 10003 10006 10008 10011 10014 10017 10019 10022 10025 10028 10031 10034 10037 10040 10042 10045 10048 10051 10054 10057 10060 10063 10065 10068 10071 10074 10076 10079 10082 10085 10088 10091 10094 10097 10100 10102 10105 10108 10111 10114 10116 10119 10122 10125 10128 10131 10134 10137 10139 10142 10144 10147 10150 10153 10156 10159 10162 10164 10167 10170 10173 10176 10179 10182 10185 10187 10190 10193 10196 10199 10202 10205 10208 10211 10214 10217 10220 10223 10225 10228 10231 10233 10235 10238 10241 10244 10247 10250 10253 10255 10258 10261 10263 10266 10269 10272 10275 10278 10281 10283 10286 10289 10292 10295 10298 10301 10304 10307 10310 10313 10315 10318 10321 10324 10327 10330 10333 10336 10339 10342 10345 10347 10350 10353 10356 10358 10361 10364 10367 10370 10373 10376 10379 10382 10385 10387 10390 10393 10396 10398 10401 10404 10407 10410 10412 10415 10418 10420 10423 10425 10427 10430 10433 10436 10439 10442 10445 10448 10451 10454 10457 10460 10463 10466 10468 10471 10474 10477 10480 10483 10486 10489 10492 10495 10498 10501 10504 10507 10510 10513 10516 10519 10522 10525 10528 10531 10534 10537 10540 10542 10545 10548 10551 10554 10557 10559 10562 10565 10568 10571 10573 10575 10578 10581 10584 10587 10590 10593 10596 10599 10602 10605 10607 10610 10613 10616 10619 10622 10625 10628 10631 10634 10637 10640 10643 10646 10649 10652 10655 10658 10661 10664 10667 10670 10673 10676 10679 10682 10685 10688 10691 10694 10697 10700 10702 10705 10708 10711 10714 10717 10719 10722 10725 10728 10731 10734 10737 10740 10743 10746 10749 10752 10755 10758 10761 10764 10767 10770 10773 10776 10779 10782 10785 10788 10791 10794 10797 10800 10803 10806 10809 10812 10815 10818 10821 10823 10826 10829 10832 10835 10838 10841 10844 10846 10849 10852 10855 10858 10861 10864 10867 10870 10872 10875 10878 10881 10884 10887 10890 10893 10896 10899 10902 10905 10908 10911 10914 10917 10920 10923 10926 10929 10932 10935 10938 10941 10944 10947 10950 10953 10956 10959 10962 10965 10968 10971 10974 10977 10980 10983 10986 10989 10992 10995 10998 11001 11004 11007 11010 11013 11016 11019 11022 11025 11028 11031 11034 11037 11040 11043 11046 11049 11052 11055 11058 11061 11064 11067 11070 11073 11076 11079 11082 11085 11088 11091 11094 11096 11099 11102 11105 11108 11111 11114 11117 11120 11123 11126 11128 11130 11133 11135 11138 11141 11144 11147 11150 11153 11156 11159 11162 11165 11168 11170 11173 11175 11178 11181 11184 11187 11190 11193 11196 11199 11202 11205 11208 11211 11214 11217 11220 11223 11226 11229 11232 11235 11238 11241 11244 11247 11250 11253 11256 11259 11262 11265 11268 11271 11274 11276 11279 11281 11284 11287 11290 11293 11296 11299 11302 11305 11308 11311 11314 11317 11320 11323 11326 11329 11332 11335 11338 11341 11344 11347 11350 11353 11356 11359 11362 11365 11368 11371 11374 11377 11380 11383 11386 11389 11392 11395 11398 11400 11403 11406 11409 11412 11415 11418 11421 11424 11427 11430 11433 11436 11439 11442 11445 11448 11451 11454 11457 11460 11463 11466 11469 11472 11475 11478 11481 11484 11487 11490 11493 11496 11499 11502 11504 11507 11510 11513 11515 11518 11521 11524 11527 11530 11533 11536 11539 11542 11545 11548 11551 11554 11557 11560 11563 11566 11568 11571 11573 11576 11579 11582 11584 11587 11590 11593 11596 11599 11602 11605 11608 11611 11614 11617 11620 11623 11626 11629 11632 11635 11638 11641 11644 11647 11650 11653 11656 11659 11662 11665 11668 11671 11674 11677 11680 11683 11685 11687 11690 11693 11696 11699 11702 11705 11708 11711 11713 11716 11719 11722 11725 11728 11731 11734 11737 11740 11743 11746 11749 11751 11754 11757 11760 11763 11765 11768 11770 11773 11775 11778 11781 11784 11787 11790 11793 11795 11798 11800 11803 11806 11809 11812 11815 11818 11821 11824 11827 11830 11833 11836 11838 11841 11844 11846 11849 11852 11854 11857 11860 11863 11866 11869 11872 11875 11878 11881 11884 11887 11890 11893 11896 11899 11902 11905 11907 11910 11913 11916 11919 11922 11925 11927 11930 11933 11936 11939 11942 11944 11947 11949 11952 11954 11957 11960 11963 11965 11968 11970 11973 11976 11979 11981 11984 11987 11990 11993 11996 11999 12002 12004 12007 12010 12013 12016 12018 12021 12024 12027 12030 12032 12035 12038 12041 12043 12046 12049 12052 12055 12058 12061 12064 12067 12069 12071 12074 12077 12079 12082 12085 12087 12089 12092 12095 12097 12099 12102 12105 12108 12110 12113 12116 12119 12122 12124 12127 12129 12132 12135 12138 12140 12143 12146 12149 12152 12155 12158 12161 12164 12167 12169 12172 12174 12177 12179 12182 12185 12188 12191 12194 12196 12199 12201 12204 12207 12210 12213 12216 12219 12222 12225 12228 12231 12234 12237 12240 12243 12246 12249 12252 12254 12257 12260 12263 12266 12269 12272 12275 12277 12280 12282 12285 12288 12290 12293 12296 12298 12300 12303 12306 12308 12311 12314 12317 12320 12323 12325 12327 12330 12333 12336 12339 12342 12345 12348 12351 12353 12356 12359 12362 12364 12367 12370 12373 12376 12379 12382 12385 12388 12391 12394 12397 12400 12403 12405 12408 12411 12413 12416 12419 12421 12424 12427 12430 12432 12435 12438 12441 12444 12447 12450 12453 12456 12459 12461 12464 12467 12470 12473 12476 12479 12481 12484 12487 12490 12493 12496 12498 12501 12503 12506 12509 12512 12515 12517 12520 12523 12525 12528 12531 12534 12536 12539 12542 12545 12548 12551 12554 12556 12558 12561 12563 12566 12569 12572 12575 12578 12581 12584 12587 12589 12591 12594 12597 12600 12603 12606 12609 12611 12614 12617 12620 12623 12626 12629 12632 12635 12638 12640 12643 12646 12649 12652 12655 12658 12661 12664 12667 12670 12673 12676 12679 12682 12685 12688 12691 12694 12697 12700 12703 12705 12708 12711 12714 12717 12720 12723 12726 12728 12731 12734 12737 12740 12743 12746 12749 12752 12755 12758 12761 12764 12767 12770 12773 12776 12779 12782 12785 12788 12790 12793 12796 12798 12801 12804 12807 12810 12812 12815 12818 12820 12823 12825 12828 12831 12833 12836 12838 12841 12844 12847 12850 12852 12855 12858 12861 12864 12866 12869 12872 12875 12877 12880 12883 12886 12889 12892 12895 12898 12901 12904 12907 12910 12913 12916 12919 12921 12924 12926 12928 12931 12934 12937 12940 12943 12946 12949 12952 12954 12957 12960 12963 12966 12969 12972 12975 12978 12981 12984 12987 12990 12993 12996 12999 13002 13005 13008 13010 13013 13016 13019 13022 13024 13027 13030 13032 13035 13038 13041 13044 13047 13050 13053 13056 13059 13062 13065 13068 13071 13074 13077 13080 13083 13086 13089 13092 13095 13098 13101 13104 13107 13110 13113 13116 13118 13121 13124 13127 13130 13133 13136 13139 13142 13145 13148 13151 13154 13157 13160 13163 13166 13169 13172 13175 13178 13181 13184 13187 13190 13193 13196 13199 13202 13205 13208 13211 13214 13217 13220 13223 13226 13229 13232 13235 13238 13241 13244 13246 13249 13252 13254 13257 13260 13263 13266 13269 13272 13275 13278 13281 13284 13287 13290 13293 13296 13299 13302 13305 13308 13311 13314 13317 13320 13323 13326 13328 13331 13333 13336 13339 13342 13344 13347 13350 13353 13356 13359 13362 13365 13367 13369 13372 13375 13378 13380 13383 13386 13388 13391 13394 13397 13400 13403 13406 13409 13412 13415 13418 13421 13423 13426 13429 13432 13434 13437 13440 13443 13446 13448 13451 13454 13457 13460 13463 13466 13469 13472 13475 13478 13481 13484 13487 13490 13493 13496 13499 13502 13505 13508 13510 13513 13516 13519 13522 13525 13527 13530 13532 13535 13538 13540 13543 13546 13549 13552 13555 13558 13561 13564 13567 13570 13573 13576 13579 13581 13584 13587 13590 13593 13596 13599 13601 13604 13607 13610 13613 13616 13619 13622 13625 13627 13630 13633 13636 13639 13642 13645 13648 13651 13654 13657 13660 13663 13665 13668 13671 13674 13677 13679 13682 13684 13686 13689 13691 13694 13697 13700 13703 13706 13709 13712 13715 13718 13721 13724 13727 13730 13733 13735 13738 13741 13743 13746 13749 13751 13754 13756 13758 13761 13763 13766 13769 13772 13774 13777 13780 13782 13785 13788 13790 13793 13795 13798 13801 13804 13807 13810 13813 13816 13818 13821 13824 13827 13829 13832 13835 13838 13840 13842 13845 13847 13850 13853 13856 13859 13862 13865 13868 13871 13874 13877 13880 13883 13886 13889 13892 13895 13898 13901 13904 13907 13910 13913 13916 13919 13921 13924 13927 13930 13932 13935 13938 13941 13943 13946 13949 13951 13954 13957 13960 13963 13966 13969 13972 13975 13978 13981 13984 13986 13989 13992 13995 13998 14000 14003 14006 14009 14012 14014 14017 14020 14022 14024 14027 14030 14033 14036 14039 14042 14045 14047 14049 14052 14055 14058 14061 14064 14067 14070 14072 14075 14078 14080 14083 14085 14088 14090 14092 14094 14097 14100 14103 14106 14109 14112 14115 14117 14120 14123 14126 14129 14131 14134 14137 14140 14143 14146 14149 14151 14154 14157 14160 14163 14166 14169 14172 14175 14178 14181 14184 14187 14190 14193 14195 14198 14201 14203 14205 14208 14211 14214 14216 14219 14222 14225 14227 14230 14233 14236 14239 14242 14245 14248 14251 14254 14257 14260 14263 14266 14269 14272 14275 14278 14281 14284 14287 14290 14293 14296 14299 14302 14305 14307 14310 14313 14315 14318 14320 14323 14326 14329 14332 14335 14337 14340 14343 14346 14349 14352 14355 14358 14361 14364 14366 14368 14371 14374 14376 14379 14382 14385 14388 14391 14394 14397 14400 14403 14406 14409 14412 14415 14418 14421 14424 14427 14430 14433 14436 14439 14442 14445 14448 14451 14454 14457 14460 14463 14466 14469 14472 14475 14478 14481 14484 14487 14490 14493 14496 14499 14502 14505 14508 14511 14514 14517 14520 14523 14526 14529 14532 14535 14538 14541 14544 14547 14550 14553 14556 14559 14562 14565 14568 14570 14573 14576 14579 14582 14585 14587 14590 14593 14596 14599 14602 14605 14608 14611 14614 14617 14620 14623 14626 14629 14632 14634 14637 14639 14642 14645 14648 14651 14654 14657 14660 14663 14666 14669 14672 14675 14678 14681 14684 14687 14690 14693 14696 14699 14702 14705 14708 14711 14714 14717 14720 14723 14726 14729 14732 14735 14738 14741 14744 14747 14750 14753 14756 14759 14762 14765 14768 14771 14774 14777 14780 14783 14786 14789 14792 14795 14798 14801 14804 14807 14810 14813 14816 14819 14822 14825 14828 14831 14834 14837 14840 14843 14846 14849 14852 14855 14858 14861 14864 14867 14870 14873 14876 14879 14882 14885 14888 14891 14894 14897 14900 14903 14906 14909 14912 14915 14918 14921 14924 14927 14930 14933 14936 14939 14942 14945 14948 14951 14954 14957 14960 14963 14966 14969 14972 14975 14978 14981 14984 14987 14990 14993 14996 14999 15001 15004 15007 15010 15013 15016 15019 15022 15025 15028 15031 15034 15036 15039 15042 15045 15047 15050 15053 15056 15059 15062 15065 15068 15071 15074 15077 15080 15083 15086 15088 15091 15094 15097 15100 15103 15106 15109 15112 15115 15118 15121 15124 15127 15130 15132 15135 15138 15141 15144 15147 15150 15152 15155 15157 15159 15162 15165 15168 15170 15173 15175 15178 15181 15184 15187 15190 15193 15196 15199 15202 15205 15208 15211 15214 15217 15219 15222 15225 15228 15231 15234 15237 15240 15243 15246 15249 15252 15255 15258 15261 15264 15267 15270 15273 15276 15279 15282 15285 15288 15291 15294 15297 15300 15303 15306 15309 15312 15315 15318 15321 15324 15327 15329 15331 15333 15336 15339 15341 15343 15346 15348 15351 15354 15357 15360 15363 15366 15369 15371 15374 15376 15379 15382 15385 15388 15391 15394 15397 15400 15403 15405 15407 15410 15413 15416 15419 15422 15425 15427 15430 15433 15435 15438 15440 15443 15446 15448 15451 15454 15457 15459 15461 15463 15465 15467 15470 15473 15476 15479 15481 15484 15486 15489 15492 15494 15496 15498 15501 15504 15506 15508 15511 15514 15516 15518 15521 15523 15526 15529 15532 15534 15536 15539 15542 15544 15547 15549 15552 15555 15558 15560 15562 15565 15567 15570 15573 15576 15579 15582 15585 15588 15591 15594 15597 15600 15603 15606 15609 15612 15615 15618 15621 15623 15626 15629 15632 15634 15637 15640 15643 15645 15647 15650 15652 15655 15658 15660 15663 15666 15669 15672 15675 15678 15681 15684 15686 15689 15692 15695 15698 15701 15704 15707 15709 15712 15715 15717 15720 15723 15726 15729 15732 15735 15738 15741 15744 15747 15750 15753 15756 15759 15761 15764 15767 15769 15772 15775 15778 15781 15783 15786 15789 15792 15795 15798 15801 15804 15806 15809 15812 15815 15818 15821 15824 15827 15829 15832 15835 15837 15840 15843 15846 15849 15852 15855 15857 15860 15863 15865 15868 15871 15874 15877 15880 15883 15886 15889 15892 15895 15898 15900 15903 15906 15908 15911 15914 15917 15920 15923 15925 15927 15930 15933 15936 15939 15942 15945 15948 15951 15954 15957 15959 15962 15965 15968 15971 15974 15977 15980 15983 15985 15988 15991 15994 15996 15999 16002 16005 16008 16011 16014 16017 16020 16023 16026 16029 16032 16035 16038 16041 16044 16047 16050 16053 16056 16059 16062 16065 16068 16071 16074 16077 16080 16083 16086 16089 16092 16095 16097 16100 16103 16106 16108 16111 16113 16116 16118 16120 16123 16126 16129 16131 16134 16137 16139 16142 16145 16148 16151 16154 16157 16160 16163 16166 16169 16172 16175 16178 16181 16184 16187 16190 16193 16196 16199 16202 16205 16207 16210 16213 16216 16218 16221 16224 16227 16229 16232 16235 16238 16240 16243 16245 16248 16251 16254 16257 16259 16262 16264 16266 16269 16272 16274 16277 16280 16283 16286 16289 16292 16295 16298 16301 16304 16307 16309 16312 16315 16318 16321 16324 16327 16330 16333 16336 16339 16341 16344 16347 16350 16353 16356 16359 16362 16365 16368 16371 16374 16377 16380 16383 16386 16388 16391 16394 16397 16400 16403 16405 16408 16410 16413 16416 16419 16421 16423 16426 16429 16432 16435 16437 16440 16443 16446 16449 16452 16455 16458 16461 16463 16466 16469 16472 16475 16478 16481 16484 16487 16490 16493 16496 16499 16502 16505 16508 16511 16514 16517 16520 16523 16525 16528 16531 16534 16537 16540 16543 16546 16549 16552 16555 16558 16561 16564 16567 16570 16572 16575 16578 16581 16584 16587 16589 16592 16595 16598 16601 16604 16607 16610 16612 16615 16618 16621 16624 16626 16629 16632 16635 16638 16641 16644 16647 16650 16653 16656 16659 16661 16664 16667 16670 16672 16675 16678 16681 16684 16687 16690 16693 16696 16699 16702 16705 16708 16711 16714 16717 16720 16723 16726 16729 16732 16735 16738 16741 16744 16747 16750 16753 16756 16759 16762 16765 16768 16771 16774 16777 16780 16783 16786 16788 16791 16794 16797 16800 16803 16805 16808 16811 16814 16817 16820 16823 16826 16829 16832 16835 16838 16841 16844 16847 16850 16853 16856 16859 16862 16865 16868 16871 16874 16877 16880 16883 16886 16889 16892 16895 16898 16901 16904 16907 16909 16911 16914 16916 16919 16921 16924 16927 16930 16933 16935 16938 16940 16942 16945 16948 16951 16954 16957 16960 16963 16966 16969 16972 16975 16978 16981 16984 16987 16990 16993 16996 16999 17002 17005 17008 17011 17014 17017 17020 17023 17026 17029 17032 17035 17038 17041 17044 17047 17050 17053 17056 17059 17062 17065 17068 17071 17074 17077 17079 17082 17085 17088 17091 17094 17097 17100 17103 17106 17109 17111 17114 17116 17119 17122 17125 17128 17130 17133 17136 17139 17142 17145 17148 17151 17154 17157 17160 17163 17166 17168 17171 17174 17177 17180 17183 17186 17189 17192 17195 17198 17201 17204 17207 17210 17212 17215 17218 17221 17223 17226 17229 17232 17235 17238 17241 17244 17247 17250 17253 17255 17258 17260 17263 17266 17269 17272 17275 17278 17281 17284 17286 17289 17292 17294 17296 17299 17302 17305 17308 17311 17314 17317 17320 17323 17326 17329 17332 17335 17337 17340 17343 17345 17348 17351 17353 17356 17359 17362 17365 17367 17369 17372 17374 17377 17380 17383 17385 17388 17391 17394 17397 17400 17403 17406 17409 17412 17415 17417 17420 17423 17425 17428 17431 17434 17437 17440 17443 17446 17448 17451 17454 17457 17460 17463 17466 17469 17472 17475 17478 17481 17484 17487 17490 17493 17496 17498 17501 17504 17506 17509 17512 17515 17518 17521 17524 17527 17530 17533 17536 17539 17542 17544 17547 17550 17552 17555 17558 17561 17564 17567 17570 17573 17576 17579 17581 17584 17587 17590 17593 17596 17599 17601 17604 17606 17609 17612 17615 17618 17621 17624 17626 17629 17631 17634 17637 17640 17643 17646 17649 17652 17655 17658 17661 17664 17667 17670 17673 17676 17679 17682 17685 17688 17691 17694 17697 17700 17703 17706 17709 17712 17715 17718 17721 17723 17726 17729 17732 17735 17738 17741 17744 17747 17750 17753 17756 17759 17762 17765 17768 17771 17774 17777 17780 17783 17786 17789 17791 17794 17797 17800 17803 17806 17809 17812 17815 17818 17821 17824 17827 17830 17833 17836 17839 17842 17845 17848 17851 17854 17857 17860 17863 17866 17869 17871 17873 17876 17879 17882 17885 17888 17891 17894 17897 17899 17902 17905 17908 17911 17914 17916 17919 17922 17925 17928 17931 17934 17937 17940 17942 17944 17947 17950 17953 17956 17959 17962 17965 17968 17971 17973 17976 17978 17980 17983 17986 17989 17991 17994 17997 18000 18003 18006 18009 18012 18015 18017 18020 18023 18026 18029 18032 18035 18038 18041 18044 18047 18050 18053 18056 18059 18062 18065 18068 18071 18074 18077 18080 18082 18085 18088 18091 18094 18097 18100 18103 18106 18109 18111 18114 18117 18119 18122 18125 18128 18131 18134 18137 18139 18142 18145 18148 18151 18154 18157 18160 18163 18166 18169 18172 18175 18178 18181 18184 18187 18190 18192 18195 18198 18201 18204 18207 18210 18213 18216 18219 18222 18224 18227 18230 18233 18236 18239 18242 18245 18248 18251 18254 18257 18259 18261 18263 18266 18269 18272 18275 18278 18281 18283 18286 18289 18292 18295 18297 18300 18303 18306 18309 18312 18315 18318 18321 18324 18327 18330 18333 18336 18339 18342 18345 18348 18350 18353 18356 18359 18362 18365 18368 18371 18374 18377 18380 18383 18386 18389 18392 18395 18398 18401 18404 18407 18410 18413 18416 18419 18422 18425 18428 18431 18434 18436 18439 18442 18444 18447 18450 18453 18456 18459 18462 18465 18468 18471 18473 18476 18479 18482 18484 18487 18490 18493 18496 18499 18502 18505 18508 18510 18513 18516 18519 18522 18525 18528 18531 18534 18537 18540 18543 18546 18549 18552 18555 18558 18561 18564 18567 18570 18573 18576 18579 18582 18584 18586 18589 18592 18595 18598 18601 18604 18606 18609 18612 18615 18618 18621 18624 18627 18630 18633 18636 18639 18642 18644 18647 18650 18653 18656 18659 18662 18665 18668 18671 18674 18677 18680 18683 18686 18689 18692 18695 18698 18701 18704 18707 18710 18713 18716 18719 18722 18725 18728 18731 18734 18736 18739 18742 18745 18748 18751 18754 18757 18760 18763 18766 18769 18771 18774 18777 18780 18783 18785 18788 18791 18794 18797 18800 18803 18805 18808 18811 18814 18817 18820 18823 18826 18829 18831 18834 18837 18840 18842 18845 18847 18850 18853 18855 18858 18861 18864 18867 18870 18873 18876 18879 18882 18885 18888 18891 18894 18897 18900 18903 18906 18909 18912 18915 18918 18921 18923 18925 18928 18930 18933 18936 18939 18942 18945 18948 18950 18953 18956 18959 18962 18965 18968 18971 18974 18977 18980 18983 18986 18989 18992 18995 18997 19000 19002 19005 19008 19011 19014 19016 19019 19022 19025 19028 19031 19034 19037 19040 19042 19045 19048 19051 19054 19057 19060 19063 19066 19069 19072 19075 19078 19081 19083 19086 19089 19091 19094 19096 19099 19102 19105 19108 19111 19114 19117 19120 19123 19126 19129 19132 19134 19137 19140 19143 19146 19148 19151 19153 19156 19159 19162 19164 19167 19169 19172 19174 19177 19180 19183 19186 19188 19191 19194 19197 19199 19202 19205 19208 19211 19214 19216 19219 19222 19224 19227 19229 19232 19235 19238 19241 19243 19246 19249 19252 19255 19257 19260 19263 19265 19268 19271 19274 19277 19280 19283 19286 19289 19292 19295 19298 19301 19304 19307 19310 19313 19316 19319 19322 19325 19328 19331 19334 19337 19339 19342 19345 19348 19351 19353 19356 19359 19362 19365 19368 19371 19374 19377 19380 19383 19386 19389 19392 19394 19397 19399 19402 19405 19408 19411 19414 19417 19419 19422 19425 19428 19431 19433 19436 19438 19441 19444 19447 19450 19453 19456 19459 19462 19465 19468 19471 19474 19477 19480 19483 19486 19489 19492 19495 19498 19501 19504 19507 19510 19513 19515 19518 19521 19524 19526 19529 19532 19535 19538 19541 19544 19547 19550 19552 19555 19558 19561 19564 19567 19570 19573 19576 19579 19582 19585 19588 19591 19594 19597 19599 19602 19605 19607 19610 19613 19616 19619 19622 19625 19628 19631 19634 19637 19640 19642 19645 19648 19651 19653 19656 19659 19662 19665 19668 19671 19674 19677 19680 19683 19686 19689 19691 19693 19696 19699 19702 19705 19708 19711 19713 19716 19719 19722 19725 19728 19731 19734 19737 19740 19743 19746 19749 19752 19755 19758 19760 19763 19766 19769 19772 19775 19778 19781 19784 19787 19790 19792 19795 19798 19801 19804 19807 19810 19813 19816 19819 19821 19824 19826 19829 19832 19835 19837 19840 19843 19845 19848 19851 19854 19857 19860 19863 19866 19869 19872 19874 19877 19880 19883 19886 19889 19891 19894 19897 19899 19902 19905 19908 19911 19914 19916 19919 19921 19924 19926 19928 19931 19934 19937 19940 19942 19945 19948 19951 19954 19957 19960 19962 19965 19968 19971 19974 19977 19980 19983 19986 19989 19992 19995 19998 20001 20004 20007 20010 20013 20016 20019 20021 20024 20027 20030 20033 20036 20039 20042 20045 20048 20051 20053 20056 20059 20062 20065 20067 20070 20073 20076 20079 20082 20084 20087 20090 20093 20096 20099 20102 20105 20108 20111 20113 20116 20118 20121 20123 20125 20127 20130 20133 20136 20139 20141 20144 20146 20148 20151 20153 20156 20159 20161 20163 20166 20168 20171 20174 20177 20180 20183 20186 20188 20191 20194 20196 20199 20202 20204 20207 20210 20213 20215 20218 20221 20224 20226 20229 20232 20235 20238 20241 20244 20247 20250 20253 20256 20259 20262 20265 20268 20271 20274 20276 20278 20281 20283 20286 20289 20291 20294 20297 20300 20302 20304 20307 20310 20313 20316 20319 20322 20325 20328 20331 20334 20336 20339 20342 20344 20347 20350 20353 20355 20358 20361 20364 20366 20368 20371 20373 20376 20379 20382 20384 20387 20390 20392 20395 20398 20401 20404 20407 20410 20412 20415 20418 20421 20424 20427 20430 20432 20435 20438 20441 20444 20447 20450 20453 20455 20458 20461 20464 20466 20469 20472 20475 20477 20480 20483 20485 20488 20491 20493 20496 20498 20501 20503 20506 20508 20511 20513 20516 20519 20522 20524 20527 20530 20533 20536 20538 20540 20542 20545 20547 20550 20553 20556 20559 20562 20565 20567 20569 20572 20575 20578 20581 20584 20586 20589 20592 20595 20598 20601 20604 20607 20610 20613 20616 20619 20622 20625 20628 20630 20633 20636 20638 20641 20644 20647 20649 20652 20655 20658 20661 20664 20666 20669 20672 20675 20678 20680 20683 20686 20689 20692 20695 20698 20701 20704 20707 20710 20713 20716 20719 20722 20725 20728 20731 20734 20736 20739 20742 20744 20747 20750 20753 20756 20758 20761 20764 20766 20769 20772 20775 20778 20781 20784 20786 20789 20792 20795 20798 20801 20804 20806 20809 20812 20815 20818 20821 20824 20826 20829 20832 20835 20838 20841 20844 20847 20850 20853 20856 20859 20862 20865 20868 20871 20874 20877 20880 20883 20886 20889 20892 20895 20898 20901 20904 20907 20909 20912 20915 20918 20920 20923 20926 20929 20932 20934 20937 20940 20943 20946 20949 20951 20953 20956 20959 20962 20965 20968 20971 20974 20976 20979 20982 20985 20988 20991 20994 20997 21000 21003 21006 21009 21012 21015 21018 21021 21023 21026 21028 21031 21034 21036 21039 21042 21045 21048 21051 21054 21057 21060 21063 21066 21068 21071 21074 21077 21080 21083 21086 21089 21092 21095 21097 21100 21103 21106 21109 21112 21115 21118 21121 21124 21127 21130 21133 21136 21139 21142 21145 21148 21151 21154 21157 21160 21163 21166 21169 21172 21175 21178 21181 21184 21187 21190 21193 21196 21199 21202 21205 21208 21211 21214 21217 21220 21223 21226 21229 21232 21235 21238 21241 21244 21247 21250 21253 21256 21259 21262 21265 21268 21270 21273 21276 21279 21282 21285 21288 21291 21293 21296 21299 21302 21305 21308 21311 21313 21316 21319 21321 21324 21327 21330 21333 21336 21339 21342 21345 21348 21351 21354 21357 21360 21363 21366 21369 21372 21375 21378 21381 21384 21387 21390 21393 21395 21398 21401 21404 21407 21410 21413 21415 21418 21421 21424 21427 21430 21433 21436 21439 21442 21445 21448 21451 21454 21457 21460 21463 21466 21469 21471 21474 21477 21480 21483 21485 21488 21491 21494 21497 21499 21502 21505 21508 21511 21514 21517 21520 21523 21526 21529 21532 21534 21537 21540 21543 21546 21549 21552 21555 21558 21561 21564 21567 21569 21572 21575 21578 21581 21584 21587 21590 21593 21596 21599 21602 21605 21608 21611 21614 21617 21620 21623 21626 21629 21632 21635 21638 21641 21644 21647 21650 21653 21656 21659 21662 21665 21668 21671 21674 21677 21680 21683 21686 21689 21692 21695 21698 21701 21704 21707 21710 21713 21716 21719 21722 21725 21728 21731 21734 21737 21740 21743 21746 21749 21751 21753 21756 21759 21762 21765 21768 21771 21774 21777 21779 21782 21785 21788 21791 21794 21797 21800 21803 21806 21809 21812 21815 21818 21821 21823 21825 21828 21831 21834 21836 21839 21841 21844 21847 21850 21852 21855 21858 21861 21864 21867 21869 21871 21873 21876 21879 21882 21884 21887 21890 21893 21896 21899 21902 21905 21908 21911 21914 21917 21920 21923 21925 21928 21931 21933 21936 21939 21942 21945 21948 21951 21954 21957 21960 21963 21966 21969 21972 21975 21978 21981 21984 21987 21990 21993 21996 21999 22002 22005 22008 22011 22014 22017 22020 22023 22025 22028 22031 22034 22037 22039 22042 22045 22048 22051 22054 22057 22060 22063 22066 22069 22072 22075 22078 22081 22084 22087 22090 22093 22096 22099 22102 22105 22108 22111 22114 22117 22120 22123 22126 22129 22131 22134 22137 22140 22143 22146 22148 22151 22154 22157 22160 22163 22166 22169 22172 22175 22178 22181 22184 22187 22190 22193 22196 22199 22202 22205 22208 22211 22214 22217 22220 22223 22226 22229 22232 22235 22238 22240 22243 22246 22249 22252 22255 22258 22261 22264 22267 22270 22273 22276 22279 22282 22285 22288 22291 22294 22297 22300 22303 22306 22309 22312 22315 22318 22321 22324 22327 22329 22332 22335 22338 22341 22344 22347 22350 22353 22356 22359 22361 22364 22367 22369 22372 22375 22378 22380 22383 22386 22389 22392 22395 22398 22401 22404 22407 22410 22412 22415 22417 22420 22423 22426 22429 22432 22434 22437 22440 22443 22445 22448 22451 22454 22457 22459 22462 22464 22467 22470 22473 22476 22478 22481 22484 22487 22489 22492 22494 22497 22500 22503 22505 22508 22511 22514 22517 22520 22522 22525 22528 22530 22533 22536 22539 22542 22545 22548 22551 22554 22557 22560 22563 22566 22569 22572 22575 22577 22580 22583 22586 22589 22592 22595 22597 22599 22602 22604 22607 22610 22612 22615 22618 22621 22624 22626 22629 22632 22635 22638 22641 22644 22646 22649 22652 22655 22658 22660 22663 22666 22669 22672 22675 22677 22679 22682 22685 22688 22690 22693 22696 22698 22701 22704 22707 22710 22713 22715 22718 22721 22724 22727 22730 22733 22736 22739 22742 22745 22748 22751 22754 22757 22760 22763 22766 22769 22772 22775 22778 22780 22783 22786 22789 22792 22795 22798 22801 22804 22807 22810 22813 22816 22818 22821 22824 22827 22830 22833 22835 22838 22841 22844 22846 22849 22852 22855 22858 22860 22863 22865 22867 22870 22872 22875 22878 22881 22884 22887 22890 22893 22896 22899 22902 22905 22908 22910 22913 22916 22919 22922 22925 22927 22930 22932 22935 22938 22941 22944 22947 22950 22953 22956 22959 22962 22965 22968 22971 22974 22977 22980 22983 22986 22989 22992 22994 22997 23000 23003 23006 23009 23012 23015 23018 23021 23024 23027 23029 23032 23035 23037 23040 23043 23046 23049 23052 23055 23058 23061 23064 23067 23070 23073 23076 23079 23082 23085 23088 23091 23094 23097 23100 23103 23106 23109 23112 23115 23118 23121 23124 23127 23130 23133 23136 23139 23142 23144 23147 23150 23153 23156 23159 23162 23165 23167 23169 23172 23175 23178 23181 23183 23186 23189 23191 23194 23197 23200 23203 23205 23207 23210 23212 23215 23218 23220 23223 23225 23227 23230 23233 23236 23239 23242 23245 23248 23251 23254 23257 23260 23263 23266 23269 23271 23274 23277 23280 23282 23285 23287 23290 23293 23296 23299 23302 23305 23308 23311 23314 23317 23320 23323 23325 23328 23331 23333 23336 23339 23341 23344 23347 23350 23353 23356 23359 23362 23365 23368 23371 23374 23377 23380 23383 23386 23389 23391 23394 23396 23399 23401 23404 23407 23410 23413 23416 23419 23422 23425 23427 23430 23433 23436 23439 23442 23445 23448 23451 23454 23457 23460 23463 23466 23469 23472 23475 23478 23480 23483 23486 23489 23492 23495 23498 23501 23504 23507 23510 23513 23516 23519 23522 23525 23527 23529 23532 23535 23538 23541 23543 23546 23548 23551 23554 23556 23559 23562 23565 23568 23571 23573 23576 23578 23581 23583 23586 23589 23592 23595 23597 23600 23603 23606 23609 23612 23614 23617 23620 23623 23626 23629 23632 23635 23638 23641 23644 23647 23650 23653 23656 23659 23662 23665 23668 23671 23674 23677 23680 23683 23686 23689 23692 23695 23698 23701 23704 23707 23710 23712 23715 23717 23719 23722 23725 23728 23731 23734 23736 23739 23742 23745 23748 23750 23753 23756 23758 23761 23763 23766 23769 23772 23775 23777 23780 23783 23786 23789 23792 23795 23798 23801 23804 23807 23809 23812 23815 23818 23821 23824 23827 23830 23833 23836 23839 23842 23845 23848 23851 23854 23857 23860 23863 23866 23869 23872 23874 23877 23880 23883 23886 23888 23891 23894 23897 23900 23903 23906 23908 23911 23913 23916 23919 23922 23925 23927 23930 23933 23936 23939 23942 23945 23948 23951 23954 23957 23960 23963 23966 23969 23972 23975 23977 23980 23983 23986 23988 23991 23994 23996 23999 24002 24005 24008 24010 24013 24016 24019 24022 24024 24026 24029 24032 24035 24038 24041 24044 24047 24050 24053 24056 24059 24062 24065 24068 24071 24074 24077 24080 24083 24086 24089 24092 24095 24098 24101 24104 24107 24110 24112 24115 24118 24121 24124 24127 24130 24133 24136 24139 24142 24145 24148 24150 24153 24156 24159 24162 24165 24168 24171 24174 24177 24180 24183 24185 24188 24191 24193 24196 24198 24201 24204 24207 24209 24212 24215 24218 24221 24224 24226 24229 24232 24235 24237 24240 24243 24246 24249 24252 24255 24258 24261 24264 24267 24270 24273 24276 24279 24282 24285 24288 24291 24294 24297 24300 24303 24306 24309 24312 24315 24318 24321 24324 24327 24330 24333 24336 24339 24342 24345 24348 24351 24354 24357 24360 24363 24366 24369 24372 24375 24378 24381 24384 24387 24390 24393 24396 24399 24402 24405 24408 24411 24414 24417 24420 24423 24426 24429 24432 24435 24438 24441 24444 24447 24450 24453 24456 24459 24462 24465 24468 24471 24474 24476 24479 24482 24485 24488 24491 24494 24497 24500 24503 24506 24509 24512 24515 24518 24521 24524 24527 24530 24533 24536 24539 24542 24545 24548 24551 24554 24557 24560 24563 24566 24569 24572 24575 24578 24581 24584 24587 24590 24593 24596 24599 24602 24605 24607 24609 24611 24614 24617 24620 24622 24625 24628 24631 24634 24637 24640 24643 24646 24648 24651 24654 24657 24659 24662 24665 24668 24670 24673 24676 24678 24681 24683 24686 24689 24692 24695 24698 24701 24704 24707 24710 24713 24716 24719 24722 24725 24728 24731 24734 24737 24739 24742 24745 24748 24751 24754 24756 24759 24762 24765 24768 24770 24773 24776 24779 24782 24785 24788 24791 24794 24797 24800 24802 24805 24808 24811 24813 24816 24818 24821 24824 24827 24829 24832 24835 24838 24841 24844 24846 24849 24852 24854 24857 24860 24863 24866 24869 24872 24875 24878 24881 24883 24886 24889 24892 24895 24898 24901 24904 24907 24910 24913 24916 24919 24922 24924 24927 24930 24933 24936 24939 24942 24945 24948 24951 24954 24957 24960 24963 24965 24968 24971 24974 24977 24980 24982 24985 24988 24991 24994 24997 25000 25003 25006 25009 25012 25015 25018 25021 25024 25026 25029 25032 25035 25038 25041 25044 25047 25050 25052 25055 25058 25061 25064 25067 25070 25073 25075 25078 25081 25084 25087 25090 25093 25096 25099 25102 25105 25107 25110 25113 25116 25119 25122 25125 25128 25131 25134 25137 25140 25143 25146 25149 25152 25155 25157 25160 25163 25165 25168 25170 25173 25176 25179 25182 25185 25188 25191 25194 25197 25200 25203 25206 25209 25212 25215 25218 25221 25224 25227 25230 25233 25236 25239 25242 25245 25248 25251 25254 25257 25260 25263 25266 25269 25272 25275 25278 25281 25284 25287 25290 25293 25296 25299 25302 25305 25308 25311 25314 25317 25320 25323 25326 25329 25332 25335 25338 25341 25344 25346 25348 25351 25354 25357 25360 25363 25366 25369 25372 25375 25378 25381 25384 25387 25390 25393 25396 25399 25402 25405 25408 25411 25414 25417 25420 25423 25426 25429 25432 25435 25438 25441 25444 25447 25450 25453 25456 25459 25462 25465 25468 25471 25474 25477 25480 25483 25486 25489 25492 25495 25498 25501 25504 25507 25510 25513 25516 25519 25522 25525 25528 25531 25534 25536 25538 25541 25544 25547 25550 25553 25556 25559 25562 25565 25568 25571 25574 25577 25579 25582 25585 25588 25591 25594 25597 25600 25603 25606 25609 25612 25615 25618 25621 25624 25627 25630 25633 25636 25639 25642 25645 25648 25651 25654 25657 25660 25663 25666 25669 25672 25675 25678 25681 25684 25687 25690 25693 25696 25698 25701 25704 25707 25709 25712 25715 25718 25721 25723 25726 25729 25732 25735 25738 25741 25744 25747 25750 25753 25756 25758 25761 25764 25767 25770 25773 25776 25779 25782 25785 25787 25789 25792 25795 25798 25801 25804 25807 25809 25812 25815 25818 25821 25824 25827 25830 25833 25836 25839 25842 25845 25848 25851 25854 25857 25860 25863 25866 25869 25872 25874 25877 25880 25883 25886 25889 25892 25895 25898 25901 25904 25907 25910 25913 25916 25918 25921 25924 25926 25929 25932 25935 25938 25941 25944 25947 25949 25951 25954 25957 25960 25963 25966 25968 25971 25974 25977 25980 25982 25985 25988 25991 25994 25997 26000 26002 26005 26008 26011 26014 26017 26020 26023 26026 26029 26031 26034 26037 26040 26043 26045 26048 26050 26053 26056 26058 26061 26064 26067 26069 26072 26075 26078 26081 26084 26086 26089 26092 26095 26098 26101 26103 26105 26108 26111 26113 26116 26119 26122 26125 26128 26131 26134 26137 26139 26142 26145 26147 26150 26152 26155 26158 26161 26164 26167 26170 26173 26176 26178 26181 26184 26187 26190 26193 26196 26199 26202 26205 26208 26211 26214 26217 26220 26223 26226 26229 26232 26235 26238 26240 26243 26246 26249 26251 26253 26256 26259 26262 26265 26268 26270 26273 26276 26278 26281 26284 26287 26290 26293 26296 26299 26302 26305 26308 26311 26314 26317 26320 26323 26326 26329 26332 26335 26337 26340 26343 26345 26348 26351 26354 26357 26360 26363 26366 26369 26371 26374 26377 26379 26382 26385 26388 26391 26394 26396 26398 26401 26403 26406 26409 26412 26415 26418 26421 26424 26427 26429 26432 26435 26438 26441 26443 26446 26449 26452 26455 26458 26460 26463 26466 26469 26472 26475 26478 26481 26483 26486 26489 26492 26495 26498 26501 26503 26506 26509 26511 26514 26517 26520 26522 26524 26527 26530 26532 26535 26538 26541 26544 26547 26550 26553 26556 26558 26561 26563 26565 26568 26571 26574 26577 26580 26583 26586 26589 26592 26595 26598 26601 26603 26606 26609 26612 26615 26617 26620 26623 26626 26629 26632 26635 26638 26641 26644 26647 26650 26653 26656 26659 26662 26665 26667 26669 26672 26675 26678 26681 26684 26687 26690 26693 26696 26699 26702 26705 26708 26711 26713 26715 26718 26721 26724 26727 26730 26733 26736 26739 26742 26745 26747 26750 26753 26756 26759 26762 26765 26768 26770 26773 26776 26779 26782 26785 26787 26790 26792 26794 26797 26800 26803 26806 26809 26812 26815 26818 26821 26824 26826 26829 26832 26835 26838 26841 26844 26847 26850 26853 26856 26859 26862 26865 26867 26870 26873 26876 26878 26881 26884 26887 26890 26893 26896 26899 26902 26905 26908 26911 26914 26917 26920 26923 26926 26929 26932 26935 26938 26941 26944 26947 26950 26953 26956 26959 26962 26965 26968 26971 26974 26977 26980 26983 26986 26989 26992 26995 26998 27001 27004 27007 27010 27012 27015 27018 27020 27023 27026 27029 27032 27035 27038 27041 27043 27046 27049 27052 27055 27057 27060 27063 27066 27069 27072 27075 27078 27081 27084 27087 27089 27092 27095 27098 27101 27103 27106 27109 27111 27114 27117 27120 27123 27126 27129 27132 27135 27138 27141 27144 27147 27150 27153 27156 27159 27162 27164 27166 27169 27172 27175 27178 27181 27184 27187 27190 27193 27195 27197 27199 27202 27205 27207 27210 27213 27216 27219 27222 27225 27228 27231 27234 27237 27240 27242 27245 27247 27250 27253 27256 27259 27262 27265 27267 27270 27273 27276 27279 27282 27285 27288 27291 27294 27297 27300 27303 27305 27308 27311 27314 27317 27320 27322 27324 27327 27330 27333 27336 27339 27342 27345 27348 27351 27353 27356 27359 27362 27365 27367 27370 27373 27376 27379 27382 27385 27388 27391 27394 27397 27400 27403 27406 27409 27412 27415 27418 27421 27424 27427 27430 27433 27436 27439 27442 27445 27448 27451 27454 27457 27459 27462 27465 27468 27471 27474 27477 27480 27482 27485 27488 27491 27494 27497 27500 27503 27506 27509 27512 27515 27518 27521 27524 27527 27530 27533 27536 27539 27542 27545 27548 27550 27553 27556 27559 27562 27565 27567 27570 27573 27576 27579 27582 27584 27587 27589 27592 27595 27597 27600 27603 27606 27609 27612 27615 27618 27621 27624 27627 27630 27633 27636 27639 27642 27645 27648 27651 27653 27656 27659 27662 27665 27668 27671 27673 27676 27679 27682 27685 27688 27690 27693 27696 27699 27701 27704 27707 27710 27713 27715 27718 27720 27722 27725 27728 27731 27733 27735 27738 27741 27743 27746 27748 27751 27753 27756 27759 27761 27763 27766 27769 27771 27774 27777 27779 27782 27785 27787 27789 27792 27795 27797 27800 27803 27806 27808 27811 27814 27816 27818 27821 27823 27826 27829 27832 27835 27837 27840 27843 27846 27849 27851 27854 27857 27859 27862 27865 27867 27870 27873 27876 27879 27882 27885 27888 27890 27893 27896 27898 27901 27904 27907 27910 27912 27915 27918 27921 27923 27926 27929 27932 27935 27938 27940 27943 27946 27949 27952 27955 27958 27961 27964 27967 27970 27972 27974 27977 27980 27983 27985 27988 27991 27993 27996 27999 28002 28005 28008 28010 28013 28015 28017 28020 28023 28025 28028 28031 28034 28036 28039 28041 28043 28046 28048 28050 28053 28056 28059 28061 28064 28066 28069 28071 28074 28076 28079 28081 28084 28086 28088 28091 28094 28097 28100 28103 28106 28108 28110 28113 28115 28117 28120 28123 28126 28129 28131 28134 28137 28140 28143 28145 28148 28151 28154 28157 28160 28162 28165 28168 28171 28174 28177 28180 28183 28186 28189 28191 28194 28197 28200 28203 28205 28208 28210 28212 28215 28218 28221 28224 28226 28229 28232 28235 28238 28241 28243 28246 28248 28251 28254 28257 28260 28263 28266 28269 28272 28275 28278 28280 28283 28286 28289 28292 28294 28297 28300 28303 28306 28309 28312 28315 28318 28321 28323 28326 28329 28332 28335 28338 28341 28344 28347 28350 28353 28356 28359 28362 28365 28368 28371 28374 28377 28380 28383 28386 28389 28392 28394 28397 28400 28403 28406 28409 28412 28415 28418 28420 28423 28426 28429 28432 28435 28437 28440 28443 28446 28449 28452 28455 28458 28461 28464 28467 28470 28473 28476 28479 28482 28485 28488 28491 28494 28497 28500 28503 28506 28509 28512 28515 28517 28520 28523 28525 28528 28531 28534 28537 28540 28543 28545 28548 28551 28553 28556 28559 28562 28565 28568 28570 28573 28576 28579 28582 28585 28588 28591 28594 28596 28599 28602 28605 28607 28610 28612 28615 28618 28621 28624 28626 28629 28632 28635 28638 28640 28643 28646 28649 28652 28654 28657 28660 28662 28665 28668 28671 28674 28676 28679 28682 28684 28687 28690 28693 28696 28699 28702 28705 28707 28710 28713 28716 28719 28721 28724 28727 28730 28733 28736 28739 28742 28745 28748 28750 28753 28756 28758 28761 28763 28765 28768 28771 28774 28777 28780 28783 28786 28789 28791 28794 28797 28800 28803 28806 28809 28812 28815 28818 28821 28824 28827 28829 28832 28835 28837 28840 28843 28846 28849 28852 28854 28857 28860 28863 28866 28869 28871 28874 28877 28879 28882 28885 28887 28890 28893 28896 28899 28902 28905 28908 28911 28914 28917 28919 28922 28925 28928 28930 28932 28935 28938 28940 28943 28946 28949 28952 28954 28957 28960 28962 28965 28968 28971 28974 28977 28980 28983 28986 28989 28992 28994 28997 29000 29003 29006 29009 29012 29015 29018 29020 29023 29026 29029 29032 29035 29038 29041 29044 29047 29050 29053 29056 29059 29062 29065 29068 29071 29074 29077 29080 29083 29085 29088 29091 29094 29097 29100 29103 29106 29109 29112 29114 29117 29120 29123 29125 29128 29131 29134 29136 29139 29142 29145 29148 29151 29154 29157 29160 29163 29166 29169 29172 29175 29178 29181 29184 29187 29190 29193 29196 29199 29202 29204 29207 29210 29213 29215 29218 29220 29223 29226 29229 29231 29234 29237 29239 29241 29244 29246 29249 29252 29255 29258 29261 29264 29266 29269 29271 29274 29276 29279 29282 29284 29287 29290 29292 29295 29298 29301 29304 29307 29310 29313 29316 29319 29321 29324 29326 29329 29332 29335 29338 29341 29343 29346 29349 29351 29354 29357 29360 29363 29366 29369 29372 29375 29378 29381 29383 29385 29387 29389 29392 29394 29397 29400 29403 29405 29408 29410 29413 29416 29419 29421 29423 29426 29429 29432 29434 29437 29440 29442 29444 29447 29449 29452 29455 29458 29461 29464 29467 29470 29473 29476 29479 29482 29485 29488 29491 29494 29497 29500 29503 29506 29509 29512 29514 29516 29519 29522 29525 29528 29531 29534 29536 29539 29541 29544 29547 29550 29553 29556 29559 29562 29565 29568 29571 29574 29577 29580 29583 29586 29589 29592 29595 29598 29601 29604 29607 29610 29613 29616 29619 29622 29624 29627 29630 29633 29636 29639 29641 29644 29646 29649 29652 29655 29658 29661 29664 29667 29670 29673 29675 29678 29681 29684 29687 29690 29693 29696 29699 29701 29703 29706 29709 29711 29713 29716 29719 29722 29725 29728 29731 29734 29737 29739 29742 29745 29748 29751 29754 29757 29760 29763 29766 29769 29772 29775 29778 29781 29784 29787 29790 29793 29795 29798 29801 29804 29807 29810 29813 29816 29818 29821 29824 29827 29830 29833 29836 29839 29842 29845 29847 29850 29852 29855 29857 29860 29863 29865 29868 29871 29874 29877 29880 29883 29886 29889 29892 29895 29898 29900 29903 29906 29909 29912 29915 29918 29921 29924 29927 29929 29932 29935 29938 29941 29944 29947 29950 29953 29956 29959 29962 29965 29968 29971 29974 29977 29979 29982 29985 29988 29991 29994 29997 29999 30002 30005 30007 30010 30013 30016 30019 30022 30025 30028 30031 30034 30037 30040 30043 30046 30049 30052 30055 30058 30061 30064 30067 30070 30072 30075 30077 30079 30082 30085 30088 30091 30093 30096 30099 30102 30105 30108 30111 30114 30117 30119 30122 30125 30128 30131 30133 30135 30138 30141 30144 30147 30150 30153 30156 30159 30162 30165 30168 30170 30172 30175 30178 30181 30184 30187 30190 30192 30195 30198 30201 30204 30207 30209 30212 30214 30217 30220 30222 30225 30227 30230 30233 30236 30239 30242 30245 30247 30250 30253 30256 30259 30262 30265 30268 30271 30274 30277 30280 30283 30286 30288 30291 30294 30297 30300 30302 30305 30308 30310 30313 30316 30319 30322 30325 30328 30331 30334 30337 30339 30342 30345 30348 30351 30354 30357 30360 30363 30365 30368 30371 30374 30377 30380 30383 30386 30389 30392 30395 30398 30401 30403 30406 30409 30411 30414 30417 30420 30423 30426 30429 30432 30435 30438 30441 30443 30446 30449 30452 30455 30458 30461 30464 30466 30469 30472 30475 30477 30480 30483 30486 30489 30492 30495 30498 30501 30503 30505 30508 30510 30513 30515 30518 30521 30524 30527 30530 30533 30536 30539 30542 30545 30548 30551 30554 30557 30559 30562 30565 30568 30571 30573 30576 30578 30580 30583 30586 30589 30592 30595 30598 30601 30604 30607 30610 30613 30616 30619 30622 30624 30627 30630 30633 30636 30639 30642 30645 30648 30650 30653 30656 30659 30662 30665 30668 30671 30674 30677 30680 30683 30686 30689 30692 30695 30698 30700 30702 30705 30708 30711 30714 30717 30720 30723 30726 30729 30732 30735 30738 30741 30744 30747 30750 30753 30756 30759 30761 30763 30766 30769 30772 30775 30778 30781 30784 30787 30790 30793 30796 30799 30802 30805 30808 30811 30814 30817 30819 30822 30825 30827 30830 30833 30836 30839 30842 30845 30848 30851 30854 30856 30859 30862 30865 30867 30870 30873 30876 30879 30882 30885 30888 30891 30894 30897 30900 30903 30906 30909 30912 30915 30917 30920 30923 30926 30928 30931 30934 30937 30940 30943 30946 30949 30952 30955 30958 
</DataArray>
<DataArray type="UInt32" Name="types" format="ascii">
5 5 5 5 5 5 5 5 5 5 5 5 5 5 5 5 5 5 5 5 5 5 5 5 5 5 5 5 5 3 5 5 3 3 5 5 5 5 5 5 5 5 5 5 5 5 5 5 5 3 5 5 5 5 3 5 5 5 5 5 5 5 5 5 3 5 5 5 3 5 5 5 5 5 5 5 5 5 5 5 5 5 5 5 3 5 5 3 5 5 3 5 3 3 5 5 5 5 5 5 5 3 5 3 5 5 5 3 5 5 5 5 5 5 5 5 5 5 5 5 5 5 5 5 5 5 5 5 5 5 3 3 5 5 5 5 5 5 5 5 5 5 5 5 5 3 5 5 5 5 5 5 5 5 5 5 3 5 5 5 3 5 3 3 5 5 5 3 5 5 5 5 3 5 5 5 5 5 5 5 5 5 5 5 3 5 5 3 5 5 5 5 5 5 5 5 5 5 5 3 5 5 5 5 5 5 3 5 5 5 5 3 5 5 5 5 5 5 5 5 5 5 5 5 5 5 5 5 5 5 5 3 5 5 5 5 5 5 5 5 5 5 5 5 5 5 5 5 5 5 5 5 5 5 5 5 5 5 5 5 5 5 5 5 5 5 5 5 5 5 5 5 5 5 5 3 5 5 3 5 3 5 5 5 5 5 5 5 5 5 5 5 5 3 5 5 5 5 5 5 5 5 5 5 5 5 5 5 5 5 5 5 5 5 5 5 5 5 3 3 5 5 5 5 3 5 5 5 5 5 5 3 5 5 3 5 5 5 5 3 5 3 5 5 5 5 3 5 5 3 5 5 5 5 5 3 3 5 3 5 5 5 5 5 5 5 5 5 5 5 5 5 5 5 5 5 5 5 3 5 3 5 3 5 5 5 3 5 5 5 5 3 5 5 5 3 5 3 3 5 3 5 5 5 3 5 3 3 5 5 5 5 5 5 5 5 5 5 5 5 5 5 5 3 5 3 5 5 5 5 3 5 3 5 3 5 5 5 3 5 5 5 5 5 5 5 5 5 5 5 5 5 5 5 5 5 5 5 5 5 5 5 5 5 5 5 5 5 5 5 5 5 5 3 5 5 5 5 5 5 5 5 5 5 5 5 5 5 5 5 5 5 5 5 5 5 5 5 5 5 5 5 5 3 5 5 5 5 5 5 5 5 5 3 5 3 5 5 5 3 5 5 5 5 5 5 3 5 3 5 5 5 5 5 5 5 5 5 5 5 5 5 5 5 5 5 5 5 5 5 5 5 3 5 5 5 3 5 5 3 5 5 5 5 5 5 5 5 5 5 5 5 5 5 5 5 5 5 5 5 5 5 5 5 5 5 3 5 3 5 5 5 5 5 3 5 5 5 5 5 5 3 5 3 5 5 3 5 5 3 5 5 5 5 5 5 5 5 3 5 3 3 5 5 5 5 5 5 5 5 5 5 5 5 5 5 3 3 5 5 3 5 5 3 5 5 5 3 5 5 3 5 5 3 5 3 5 3 5 5 5 5 5 5 5 5 5 5 5 5 5 5 5 5 5 5 5 5 5 5 5 5 5 5 5 5 5 5 5 5 5 5 5 5 5 5 5 5 5 3 5 5 5 5 5 3 5 3 5 5 3 5 5 5 3 5 5 5 5 5 5 5 5 5 5 5 5 5 5 5 5 5 5 5 5 5 5 5 5 5 5 5 5 5 5 5 5 5 5 5 5 5 5 5 5 5 5 5 5 5 5 5 5 5 5 5 5 5 5 5 5 5 5 3 5 5 5 5 5 5 5 5 5 5 5 5 5 5 5 5 5 5 5 5 5 5 5 5 3 5 5 5 5 3 5 5 5 5 5 3 5 5 5 5 3 3 5 5 3 5 5 5 3 5 5 3 5 3 5 5 5 5 5 5 5 5 5 5 5 5 5 5 5 5 5 5 5 5 5 5 5 3 5 5 5 3 5 5 5 5 5 5 5 5 5 5 5 5 5 5 5 5 5 5 5 5 5 5 5 5 3 5 5 5 5 5 5 5 5 5 5 5 5 5 5 5 5 5 5 5 5 5 5 3 5 5 5 3 5 5 5 5 5 5 5 5 5 5 5 5 5 5 5 5 5 5 5 5 5 5 5 5 5 5 5 3 3 5 5 5 5 5 3 5 3 5 5 3 3 5 5 5 5 5 5 3 5 5 5 5 5 5 5 3 3 5 5 5 5 5 5 5 5 5 5 5 5 5 5 5 5 5 3 5 5 5 5 5 5 5 5 5 5 5 3 5 5 5 5 5 5 5 5 5 5 5 5 5 5 5 5 5 5 5 5 5 5 5 3 5 5 5 5 5 5 5 5 5 5 5 5 5 5 5 5 5 5 5 5 5 5 5 5 5 3 5 5 5 3 5 5 5 3 5 5 5 3 5 5 3 5 5 5 5 5 5 5 5 5 3 5 5 5 3 5 5 5 3 3 5 5 5 5 5 5 5 5 5 3 5 5 3 5 3 5 5 5 5 5 5 5 5 3 3 5 5 5 5 5 5 5 5 5 5 5 5 5 5 5 5 5 5 5 5 5 5 3 5 5 5 5 5 5 5 5 3 5 5 5 5 3 5 5 5 5 3 3 5 5 5 5 5 3 5 5 5 3 5 5 5 5 5 5 5 5 5 5 3 5 3 5 5 3 5 5 5 5 5 3 5 5 5 5 5 5 5 3 5 5 5 5 5 5 5 3 5 5 5 3 5 5 5 5 5 3 5 5 5 5 5 5 5 3 5 5 5 3 5 3 5 3 5 5 3 5 5 5 3 5 5 5 5 5 3 5 5 5 5 5 5 5 3 5 5 3 5 5 3 5 5 3 5 5 3 3 3 5 5 5 3 5 5 3 3 5 3 5 5 5 3 5 5 5 5 5 3 5 5 5 5 5 5 5 5 3 5 5 5 5 5 5 3 5 5 3 5 5 5 5 5 5 5 5 5 5 5 5 5 5 5 5 5 5 5 5 5 5 5 5 3 5 5 5 3 5 5 5 5 5 3 5 5 5 3 5 5 5 5 5 5 5 5 5 5 5 5 5 5 5 5 5 5 5 5 5 3 5 5 3 5 5 5 5 5 5 5 5 5 5 5 5 5 5 5 5 3 5 5 5 3 5 5 5 5 5 5 5 5 3 5 3 5 5 3 5 5 5 5 5 5 3 5 5 5 5 5 5 3 5 5 5 5 5 5 5 5 5 3 5 3 5 5 5 5 5 5 5 5 5 3 5 5 5 5 3 5 5 5 5 5 5 5 5 5 5 5 5 5 5 5 5 5 3 5 5 5 3 5 3 5 5 5 5 5 5 5 5 5 5 5 5 5 5 5 5 3 5 3 5 5 5 3 5 5 5 5 5 5 5 5 5 3 5 3 5 5 5 5 5 5 5 5 5 5 5 5 3 5 5 5 5 5 5 5 5 5 5 3 5 5 3 5 5 5 5 5 5 5 5 5 3 5 5 5 5 5 5 5 5 5 5 3 5 5 3 5 5 5 3 5 5 5 5 5 5 5 5 5 5 5 5 5 5 5 5 5 5 5 5 5 3 5 5 5 5 5 3 3 5 3 5 5 5 5 5 5 5 5 5 5 5 5 5 5 5 5 5 5 5 5 5 3 5 5 5 5 5 5 5 5 5 5 5 5 5 5 5 5 5 5 5 5 5 5 5 5 5 5 5 5 5 5 5 5 5 5 5 5 5 5 5 5 5 3 5 5 5 5 3 3 5 5 5 3 5 5 5 5 5 5 5 5 5 5 5 5 5 5 5 5 5 5 3 5 5 5 5 5 5 5 3 5 3 3 5 5 5 5 3 5 5 5 5 5 3 5 3 5 5 5 5 5 5 5 5 5 5 5 5 3 5 5 3 3 3 3 5 5 5 3 5 3 5 5 3 5 5 3 5 5 5 5 5 5 5 3 5 5 3 5 5 5 5 5 3 5 3 3 5 5 3 5 3 5 5 5 5 3 5 5 5 5 3 5 5 5 5 3 5 5 5 5 5 5 3 5 5 3 5 3 5 5 5 3 5 5 3 5 5 5 3 5 5 5 5 5 5 5 5 3 5 5 5 3 5 5 3 5 5 5 5 5 5 5 3 5 5 5 5 5 5 5 5 5 3 5 5 3 5 5 5 3 5 5 5 3 5 3 5 5 5 5 5 5 5 5 5 5 5 5 5 3 5 5 5 5 5 3 3 5 5 5 5 5 5 5 5 5 5 3 3 5 5 5 5 3 3 5 3 5 3 5 3 5 3 5 3 5 3 5 5 5 5 3 3 5 3 3 5 5 3 5 3 5 5 5 3 5 5 5 5 5 5 3 3 5 5 5 3 3 5 3 5 5 5 5 5 5 3 5 3 5 5 3 5 5 5 5 5 5 5 3 5 5 5 5 5 5 5 5 3 5 5 5 5 5 5 5 3 5 5 3 5 5 5 5 5 5 5 3 5 3 5 5 5 3 5 5 5 5 5 5 5 5 5 3 5 5 5 5 5 5 5 5 3 5 5 5 5 5 5 5 5 5 5 5 5 3 5 3 5 5 5 5 5 5 5 5 3 3 5 5 5 5 5 3 3 5 5 5 5 5 5 5 5 5 5 5 5 5 5 5 3 3 3 5 5 3 5 5 5 5 3 5 5 5 5 3 5 5 5 3 5 5 5 5 5 5 5 5 5 5 5 5 5 5 5 5 5 3 5 5 5 5 5 3 5 5 5 5 5 3 5 5 3 5 5 5 5 5 5 3 5 5 5 5 5 5 5 5 5 5 5 3 5 3 5 5 3 5 5 5 5 5 5 5 3 5 5 3 3 5 5 5 3 5 5 3 3 5 3 5 5 5 3 5 5 5 3 5 5 5 5 5 3 5 5 5 5 3 5 5 5 5 5 3 5 5 5 5 3 3 5 5 5 5 5 5 5 3 5 5 5 5 3 5 3 5 5 5 5 5 5 5 5 5 5 5 5 5 5 5 3 5 5 5 5 3 5 5 3 5 5 5 5 5 5 3 5 5 5 5 5 5 5 5 5 5 5 5 5 5 5 5 5 5 3 3 5 5 5 5 5 5 5 5 5 5 5 5 5 5 5 5 5 5 5 5 5 5 5 5 3 5 5 5 3 5 5 5 5 3 5 5 5 5 3 5 5 5 5 5 5 5 5 5 5 5 5 5 5 5 5 5 5 5 5 5 5 5 5 5 5 5 5 5 5 5 5 5 5 5 5 5 5 5 5 3 5 5 5 5 5 5 5 5 5 5 5 5 5 5 5 5 5 5 5 5 5 5 5 5 5 5 3 5 5 5 5 5 5 3 5 5 5 5 5 5 5 5 5 5 3 5 5 5 5 5 5 5 5 5 5 5 5 5 5 5 5 5 5 5 5 5 5 5 5 3 5 5 5 5 5 5 5 5 5 5 3 5 5 5 5 5 5 5 3 5 5 5 5 5 5 3 5 5 5 3 5 5 5 5 5 5 5 5 5 5 5 3 3 5 5 5 5 3 3 5 3 5 5 5 5 5 3 5 5 3 5 5 3 5 3 5 5 5 3 5 5 5 5 3 5 5 5 5 5 5 5 5 5 5 5 5 5 5 5 5 5 3 5 5 5 5 5 5 5 3 5 5 5 5 5 5 5 5 5 5 5 5 5 5 3 5 5 5 3 5 3 5 3 5 5 3 5 5 5 5 5 5 5 5 5 5 5 5 5 5 5 3 5 5 5 3 3 5 3 5 3 5 5 5 5 5 3 5 3 5 5 3 5 5 5 3 5 5 3 3 5 5 3 5 5 5 3 5 5 5 5 5 5 5 5 5 5 5 5 3 3 5 5 5 5 5 5 5 5 5 3 5 5 5 5 3 5 5 5 5 5 5 5 5 5 5 5 5 5 5 5 5 5 5 5 5 5 5 5 5 5 3 3 5 5 3 5 3 5 5 5 5 3 5 3 5 3 5 5 3 5 5 5 5 3 5 5 5 3 5 5 3 5 5 5 5 5 5 5 5 5 3 3 5 5 5 3 5 5 5 5 5 3 5 5 3 5 5 5 5 5 5 5 5 5 5 3 3 5 5 3 5 5 5 5 5 5 5 5 5 5 3 3 5 5 5 5 5 3 5 5 5 5 5 5 3 3 5 5 5 5 5 5 5 5 5 5 5 5 5 5 5 3 5 5 5 3 5 5 3 5 3 5 5 3 5 5 5 5 5 5 5 3 5 5 5 3 5 5 5 5 5 5 5 5 5 5 5 3 5 5 5 5 5 5 3 5 5 5 3 5 3 5 5 5 5 5 5 5 5 3 5 5 5 5 5 5 5 5 3 5 5 5 5 5 3 5 5 5 5 5 5 5 5 3 5 5 5 5 5 5 5 5 5 5 3 5 5 3 5 5 3 5 5 3 5 5 5 5 5 3 5 5 5 5 5 5 5 5 5 3 5 5 5 5 5 5 5 5 3 5 5 5 5 5 5 5 3 5 5 5 3 5 5 5 5 5 5 5 5 5 5 5 5 5 5 5 5 5 5 5 5 5 5 5 5 5 5 5 5 5 5 5 5 5 5 5 5 3 5 5 5 5 5 5 5 5 3 5 5 5 5 3 5 5 3 5 5 5 5 5 5 5 5 5 5 5 5 5 5 5 5 5 5 5 5 5 5 5 5 3 5 3 5 5 5 5 5 3 3 5 3 5 3 5 3 5 5 5 5 5 5 5 5 3 5 3 5 5 3 3 5 5 5 3 5 5 5 5 3 5 5 5 5 5 5 5 3 5 5 5 5 5 3 5 5 3 5 5 5 5 5 5 3 5 5 5 5 5 5 5 5 5 5 3 5 5 5 5 5 5 5 3 5 5 5 5 5 3 3 5 5 5 5 3 5 5 3 5 5 3 5 5 5 5 5 5 5 5 5 3 5 3 5 3 5 3 5 5 5 5 5 5 3 5 3 5 5 5 5 5 5 5 3 5 5 5 5 5 5 5 5 5 5 5 5 3 5 5 5 5 5 5 5 5 5 5 5 5 5 5 5 5 3 3 5 5 5 5 5 5 5 3 5 5 5 5 5 5 5 5 5 5 3 5 5 5 5 5 3 5 5 5 5 5 5 5 5 5 5 5 5 5 5 5 5 5 5 5 5 5 5 5 5 5 5 5 5 5 5 3 5 5 5 5 5 5 5 5 5 3 5 5 5 5 5 5 5 5 3 5 5 5 5 5 5 5 5 5 5 5 5 5 5 5 5 5 5 5 5 5 5 5 5 5 5 5 5 5 5 5 5 5 5 5 5 5 5 3 5 5 5 3 5 3 5 5 5 5 3 5 5 5 5 5 5 5 5 5 5 5 5 5 5 5 5 5 5 5 5 3 5 5 5 5 5 3 5 5 5 3 5 5 3 3 5 5 5 5 5 5 3 5 5 3 5 5 3 5 3 5 3 3 5 3 3 5 3 5 5 5 3 5 5 3 5 3 5 5 5 5 3 3 5 5 3 5 5 5 5 5 5 3 5 5 3 5 3 3 5 5 5 5 3 5 5 5 5 5 5 5 5 3 5 5 5 5 5 5 5 5 5 5 5 5 5 5 5 5 5 5 5 5 5 5 5 3 5 5 5 5 5 5 5 5 3 5 5 5 3 5 5 5 3 3 3 5 5 5 5 5 5 3 5 5 5 5 5 5 5 5 3 3 5 5 5 5 5 5 5 5 5 5 5 5 5 5 5 5 5 5 5 5 5 5 5 5 5 5 5 5 5 5 5 5 3 5 5 3 5 5 5 5 5 5 5 5 5 5 5 5 3 5 5 5 5 5 5 5 5 5 5 5 5 5 5 5 5 5 3 5 5 5 3 3 5 5 5 5 5 5 5 5 5 5 5 5 5 5 5 5 5 5 5 3 5 5 5 5 5 5 5 5 5 5 3 5 5 5 5 5 5 5 3 5 5 5 3 5 5 5 5 5 5 5 3 5 5 5 5 5 5 5 3 5 5 5 3 5 5 5 5 5 5 5 5 3 5 5 5 5 3 5 5 5 5 5 5 5 3 5 3 5 5 5 5 5 5 3 5 5 5 5 5 5 5 3 5 5 5 5 5 5 5 5 5 5 5 5 3 5 5 3 3 5 5 5 5 5 5 3 5 5 3 5 5 5 5 5 5 3 5 5 5 5 5 5 5 5 5 5 3 5 5 5 5 5 5 5 5 5 5 3 5 5 5 3 5 5 5 5 5 5 5 5 5 3 5 5 5 3 5 5 5 5 3 5 5 3 5 3 3 5 5 5 5 5 5 5 5 5 5 5 5 5 3 5 5 5 5 5 5 5 5 5 5 5 5 5 5 5 5 5 5 5 5 5 5 5 5 3 5 5 5 5 5 3 5 5 5 5 3 3 5 5 5 5 5 5 5 5 5 5 3 5 5 5 5 5 5 5 5 5 5 5 5 5 5 5 5 5 5 5 5 5 5 5 5 5 5 5 5 5 5 5 3 5 5 5 5 5 3 5 5 5 5 5 5 5 5 5 5 5 5 5 5 5 5 5 5 5 5 5 5 5 5 5 5 5 5 5 5 5 5 5 5 3 5 5 5 5 5 5 5 3 5 5 5 5 5 5 5 5 3 5 5 5 5 5 5 5 5 5 5 5 5 5 5 5 5 5 5 5 5 5 5 5 5 5 5 5 5 5 5 5 5 5 5 5 5 5 5 5 5 5 5 5 5 5 5 5 5 5 5 5 5 5 5 5 5 5 5 5 5 5 5 5 5 5 5 5 5 5 5 5 5 5 5 3 5 5 5 5 5 5 5 5 5 5 3 3 5 3 5 5 5 5 5 5 5 5 5 5 5 3 5 3 5 5 5 5 5 5 5 5 5 5 5 5 5 5 5 5 5 5 5 5 5 5 5 5 5 5 5 5 5 5 5 5 5 3 5 3 5 5 5 5 5 5 5 5 5 5 5 5 5 5 5 5 5 5 5 5 5 5 5 5 5 5 5 5 5 5 5 5 5 5 5 5 5 5 5 3 5 5 5 5 5 5 5 5 5 5 5 5 5 5 5 5 5 5 5 5 5 5 5 5 5 5 5 5 5 5 5 5 5 5 3 5 5 5 3 5 5 5 5 5 5 5 5 5 5 5 5 5 5 5 5 5 3 5 3 5 5 5 3 5 5 5 5 5 5 5 5 5 5 5 5 5 5 5 5 5 5 5 5 5 5 5 5 5 5 5 5 5 5 5 5 5 3 3 5 5 5 5 5 5 5 5 3 5 5 5 5 5 5 5 5 5 5 5 5 3 5 5 5 5 3 5 3 5 3 5 5 5 5 5 5 3 5 3 5 5 5 5 5 5 5 5 5 5 5 5 3 5 5 3 5 5 3 5 5 5 5 5 5 5 5 5 5 5 5 5 5 5 5 5 3 5 5 5 5 5 5 3 5 5 5 5 5 3 5 3 5 3 5 5 5 3 5 3 5 5 5 3 5 5 5 5 5 5 5 3 5 5 5 5 3 5 5 5 5 3 5 5 5 3 5 5 5 5 5 5 5 5 3 3 5 5 3 5 5 3 3 5 5 3 3 5 5 5 3 5 5 5 5 3 5 3 5 5 5 3 5 5 5 5 5 5 5 5 5 3 5 3 5 3 5 5 5 5 5 3 5 3 5 5 5 5 5 5 5 5 5 5 5 5 5 5 5 5 5 3 5 5 5 5 5 5 5 3 5 3 5 5 3 5 5 3 3 5 5 3 5 5 5 5 5 3 3 5 5 5 5 5 5 5 5 3 5 5 5 3 5 5 5 5 5 5 5 5 5 5 5 5 5 3 5 5 3 5 5 3 5 5 5 3 5 5 5 5 5 5 5 5 5 3 5 5 5 5 5 5 3 5 5 5 5 5 3 5 3 5 5 5 5 3 5 5 3 5 5 5 3 5 5 5 5 5 5 3 3 5 3 5 5 5 5 5 5 5 5 3 3 5 5 5 5 5 5 3 5 5 5 5 5 5 5 5 5 3 5 5 5 5 5 5 5 5 5 5 5 5 5 5 5 5 5 5 5 5 5 3 5 5 5 5 5 5 5 3 5 5 5 5 5 5 5 5 5 5 5 5 5 5 5 5 5 5 5 5 3 5 5 3 5 5 5 5 3 5 5 3 5 3 5 5 3 5 3 5 5 5 5 3 5 5 5 5 3 5 5 5 3 5 5 5 5 5 5 5 5 5 5 5 5 5 5 3 5 3 3 5 5 5 5 5 5 5 5 3 5 5 5 5 5 5 5 5 5 5 5 5 5 5 5 5 5 5 3 5 5 5 5 3 5 5 3 5 5 5 5 5 5 5 5 5 5 5 5 5 5 5 5 5 5 5 5 5 5 5 5 5 5 5 5 3 5 5 5 5 5 5 5 5 5 5 5 5 5 5 5 5 5 5 5 5 5 5 5 5 5 5 5 5 5 5 5 5 5 5 5 5 5 5 5 5 5 5 3 5 5 3 5 5 5 5 5 5 5 5 5 5 5 5 5 5 5 5 5 5 5 5 5 5 5 5 3 5 3 5 5 5 3 5 5 5 5 5 5 5 3 3 5 5 5 3 5 5 3 5 5 5 5 5 5 5 5 5 5 5 3 5 5 5 3 5 5 5 5 3 5 5 5 5 5 5 5 5 5 5 5 5 5 5 5 5 5 5 5 5 3 5 5 5 5 5 3 5 3 5 5 3 5 5 5 5 5 5 5 5 5 5 5 5 5 3 5 5 5 5 5 5 3 5 5 5 5 5 5 5 5 3 5 5 5 5 5 5 5 5 5 5 5 5 3 5 5 5 5 3 5 3 3 5 3 5 5 5 5 5 5 5 5 5 5 5 5 5 5 3 5 5 3 5 5 3 5 3 3 5 3 5 5 5 3 5 5 3 5 5 3 5 3 5 5 5 5 5 5 5 3 5 5 5 3 5 5 5 3 3 5 3 5 5 5 5 5 5 5 5 5 5 5 5 5 5 5 5 5 5 5 5 5 5 5 5 3 5 5 5 3 5 5 5 3 5 5 3 5 5 5 5 5 5 5 5 5 5 5 3 5 5 5 5 3 5 5 5 5 3 5 5 3 3 5 5 5 5 5 5 5 3 3 5 5 5 5 5 5 5 3 5 5 3 5 3 5 3 3 3 5 5 5 5 5 5 5 3 5 5 5 5 3 5 5 5 5 5 5 3 5 5 5 5 5 5 5 5 5 5 5 5 5 5 3 5 5 3 3 5 5 5 3 5 5 5 3 5 5 5 5 5 5 5 5 5 5 5 5 5 5 5 5 5 5 5 5 5 5 5 5 5 5 3 5 5 3 5 3 5 5 5 5 5 3 5 5 5 5 5 5 5 5 5 3 3 5 5 3 5 5 5 5 5 5 5 5 5 5 5 5 5 5 5 5 5 5 5 5 5 5 5 5 5 5 5 5 5 5 5 5 5 5 5 5 5 5 5 5 5 5 5 5 5 5 5 5 5 5 5 5 5 5 5 5 5 5 5 5 5 5 5 5 3 5 5 5 5 5 3 5 5 5 5 5 5 5 5 5 5 5 5 5 5 5 3 5 3 5 5 5 5 5 5 5 5 5 5 5 5 5 5 5 5 5 5 5 5 5 5 5 5 5 5 5 5 5 5 5 5 5 5 5 5 5 5 5 5 5 5 5 5 5 5 5 5 5 5 5 5 5 5 5 5 5 5 5 5 5 5 5 5 5 5 5 5 5 5 5 5 5 5 5 5 5 5 5 5 5 5 5 5 5 5 5 5 5 5 5 5 5 5 5 5 5 5 5 5 5 5 5 5 5 5 5 5 5 5 5 5 5 5 5 5 5 5 5 5 3 5 5 5 5 5 5 5 5 5 5 5 3 5 5 5 3 5 5 5 5 5 5 5 5 5 5 5 5 5 3 5 5 5 5 5 5 5 5 5 5 5 5 5 5 3 5 5 5 5 5 5 3 5 3 3 5 5 5 3 5 3 5 5 5 5 5 5 5 5 5 5 5 5 5 5 3 5 5 5 5 5 5 5 5 5 5 5 5 5 5 5 5 5 5 5 5 5 5 5 5 5 5 5 5 5 5 5 5 5 5 5 5 3 3 3 5 5 3 3 5 3 5 5 5 5 5 5 5 3 5 3 5 5 5 5 5 5 5 5 5 3 3 5 5 5 5 5 5 3 5 5 3 5 3 5 5 3 5 5 5 3 3 3 3 3 5 5 5 5 3 5 3 5 5 3 3 3 5 5 3 3 5 5 3 3 5 3 5 5 5 3 3 5 5 3 5 3 5 5 5 3 3 5 3 5 5 5 5 5 5 5 5 5 5 5 5 5 5 5 5 5 5 3 5 5 5 3 5 5 5 3 3 5 3 5 5 3 5 5 5 5 5 5 5 5 3 5 5 5 5 5 5 5 3 5 5 3 5 5 5 5 5 5 5 5 5 5 5 5 5 5 3 5 5 3 5 5 5 5 3 5 5 5 5 5 5 5 3 5 5 5 5 5 5 5 3 5 5 3 5 5 5 5 5 5 3 5 5 3 5 5 5 5 5 5 5 5 5 5 5 3 5 5 3 5 5 5 5 5 3 3 5 5 5 5 5 5 5 5 5 5 3 5 5 5 5 5 5 5 5 3 5 5 5 3 5 5 5 5 5 5 5 5 5 5 5 5 5 5 5 5 5 5 5 5 5 5 5 5 5 5 5 5 5 5 5 5 5 3 5 5 5 3 5 3 5 3 3 5 5 5 3 5 5 3 5 5 5 5 5 5 5 5 5 5 5 5 5 5 5 5 5 5 5 5 5 5 3 5 5 5 3 5 5 5 3 5 5 5 3 5 3 5 5 5 5 3 5 3 3 5 5 3 5 5 5 5 5 5 5 5 5 5 5 3 5 5 5 5 5 5 5 5 5 5 3 5 5 5 5 5 5 5 5 5 5 5 5 5 5 5 3 5 5 5 5 5 3 5 3 5 5 5 3 3 5 5 5 5 3 5 5 5 5 5 5 5 5 3 5 5 5 5 5 5 5 5 5 5 5 5 5 5 5 5 5 5 5 5 3 5 5 5 5 5 5 5 5 5 5 5 5 5 5 5 3 5 5 5 5 5 3 5 5 5 5 5 5 5 3 5 5 5 5 3 5 5 5 5 5 5 5 5 5 5 5 3 5 5 5 3 5 5 5 5 5 5 5 5 5 5 5 5 5 5 5 5 5 5 5 5 5 5 5 5 5 5 5 5 5 5 5 5 5 5 5 5 5 5 3 5 5 5 5 5 3 5 5 5 5 5 5 5 5 5 5 5 5 5 5 5 5 5 5 5 5 5 5 5 5 5 5 5 5 5 5 5 5 5 5 3 3 5 3 5 3 5 5 5 5 3 5 3 3 5 5 5 5 5 5 5 5 5 5 5 5 5 5 5 5 5 5 5 5 5 5 5 5 5 5 5 5 5 5 5 5 5 5 5 5 5 5 5 5 5 5 5 5 5 3 5 5 5 5 5 5 5 5 5 5 3 5 3 5 5 5 5 3 5 5 5 5 5 5 5 5 5 5 5 5 3 5 5 5 5 5 5 5 5 5 5 5 5 5 5 3 5 5 5 3 5 5 5 5 5 5 5 5 5 5 3 5 3 5 5 5 5 5 5 5 5 3 5 5 3 3 5 5 5 5 5 5 5 5 5 5 5 5 5 3 5 5 3 5 5 3 5 5 5 5 3 3 5 3 5 5 5 3 5 5 5 5 5 5 5 5 5 5 3 5 5 3 5 5 5 5 5 5 5 3 5 5 5 5 5 5 5 5 5 5 5 5 5 5 5 5 3 5 5 3 5 5 5 5 5 5 5 5 5 5 5 5 3 5 5 3 5 5 5 5 5 5 5 5 5 3 5 5 5 5 5 5 3 5 3 5 5 5 5 5 5 3 5 3 5 5 5 5 5 5 5 5 5 5 5 5 5 5 5 5 5 5 5 5 5 5 5 5 5 5 5 5 5 5 3 5 5 5 5 5 5 5 5 5 5 5 5 5 5 5 5 5 5 5 5 5 5 3 5 5 5 5 5 5 5 5 5 5 5 5 5 5 5 5 5 5 5 5 5 5 5 5 5 5 3 3 5 5 5 5 5 5 5 5 3 5 5 5 5 5 3 5 5 5 5 5 5 5 5 3 3 5 5 5 5 5 5 5 5 5 3 5 3 3 5 5 5 3 5 5 5 5 5 5 5 5 3 5 5 5 5 5 5 5 5 5 5 5 5 5 5 5 5 5 5 5 5 5 3 5 5 5 5 5 5 5 5 5 3 5 5 3 5 5 5 5 5 5 3 5 5 5 5 5 5 5 5 5 5 5 5 5 5 5 5 5 3 5 5 5 5 5 5 5 5 5 5 3 5 5 5 5 5 5 5 5 5 5 5 3 3 3 5 5 5 5 5 5 3 5 5 5 5 3 5 5 5 5 5 5 5 5 5 5 5 5 5 5 5 5 5 3 5 5 5 5 5 5 5 5 5 5 5 5 5 5 5 5 5 5 5 5 5 5 5 5 5 5 5 5 3 5 5 3 5 5 5 5 5 5 5 5 5 3 5 5 5 3 5 5 5 5 5 5 5 5 3 5 5 5 5 5 5 5 5 5 5 5 5 5 5 5 5 5 5 5 5 5 5 5 5 3 3 5 5 5 5 5 5 3 5 5 5 5 5 5 5 5 5 5 5 5 3 5 5 5 5 5 5 5 5 5 5 5 5 5 5 5 5 5 5 5 5 5 5 5 5 5 5 5 5 5 5 3 5 5 5 5 5 5 5 5 5 5 5 3 5 5 5 5 3 5 5 5 5 5 5 3 5 5 5 5 5 5 5 5 3 5 5 5 3 5 3 5 5 3 5 5 5 5 5 5 5 5 5 5 5 5 5 5 5 5 5 5 5 5 5 5 3 3 5 3 5 5 5 5 5 5 3 5 5 5 5 5 5 5 5 5 5 5 5 5 5 5 3 5 3 5 5 5 5 3 5 5 5 5 5 5 5 5 3 5 5 5 5 5 5 5 5 5 5 5 5 5 3 5 5 3 5 3 5 5 5 5 5 5 5 5 5 5 5 5 3 5 5 5 5 3 5 3 5 5 5 3 5 3 5 3 5 5 5 5 3 5 5 5 3 5 5 5 5 5 3 5 5 3 5 3 5 5 5 5 3 5 5 5 5 3 5 5 3 5 5 5 5 5 5 5 5 5 5 5 5 5 5 5 5 5 5 5 5 5 5 5 5 3 5 5 5 5 3 5 5 5 5 5 5 5 5 5 5 5 5 5 3 5 3 5 5 5 5 5 5 3 5 5 5 5 3 5 3 5 5 5 5 5 5 5 5 5 5 5 5 5 5 5 5 5 5 5 5 5 5 5 5 5 3 5 5 5 3 5 5 5 5 5 5 5 5 3 5 5 5 5 5 5 5 5 5 5 5 5 5 5 5 3 5 5 3 5 5 5 5 5 5 5 5 5 5 5 3 5 5 5 3 5 5 5 5 5 5 5 5 5 5 5 5 3 3 5 5 5 5 5 5 3 5 5 5 5 5 5 5 5 5 5 5 5 5 5 5 3 5 5 5 5 5 5 5 5 5 5 3 5 5 5 5 5 5 5 5 5 3 5 3 5 5 5 3 5 5 3 5 5 5 5 5 5 5 5 5 3 5 5 5 5 5 3 5 5 3 5 5 5 5 5 3 5 3 5 3 3 5 5 5 5 3 5 5 5 5 5 5 3 5 5 5 5 5 5 5 5 5 5 5 5 5 5 5 5 5 5 5 3 5 5 5 5 5 5 5 5 5 5 3 5 5 5 5 3 5 5 5 5 5 3 5 5 5 5 5 5 5 5 5 3 5 3 5 3 3 3 5 5 5 5 3 5 3 3 5 3 5 5 3 3 5 3 5 5 5 5 5 5 3 5 5 3 5 5 3 5 5 5 3 5 5 5 3 5 5 5 5 5 5 5 5 5 5 5 5 5 5 5 5 3 3 5 3 5 5 3 5 5 5 3 3 5 5 5 5 5 5 5 5 5 5 3 5 5 3 5 5 5 3 5 5 5 3 3 5 3 5 5 5 3 5 5 3 5 5 5 5 5 5 3 5 5 5 5 5 5 3 5 5 5 5 5 5 5 3 5 5 5 3 5 5 5 3 5 5 3 5 5 3 5 3 5 3 5 3 5 3 5 5 5 3 5 5 5 5 3 3 3 5 3 5 5 5 5 5 5 3 3 5 5 5 5 5 3 5 5 5 5 5 5 5 5 5 5 5 5 5 5 3 5 5 3 5 5 5 3 5 5 5 5 5 3 5 5 5 5 3 5 5 5 5 5 5 5 5 5 5 5 5 5 5 5 5 5 5 3 5 5 3 5 5 5 5 3 5 5 3 5 5 5 5 5 5 3 5 5 5 5 5 5 3 5 5 5 5 5 5 3 5 5 5 5 5 5 5 5 5 5 5 5 5 5 5 5 5 5 5 5 5 5 5 5 5 5 5 3 5 5 5 3 5 5 5 5 3 5 5 5 5 5 3 3 5 5 5 5 5 5 5 3 5 5 5 5 5 5 5 5 5 5 5 5 5 5 5 3 5 3 5 5 3 5 5 5 5 5 5 5 5 5 5 3 5 5 5 5 5 5 5 5 5 3 5 5 5 5 5 5 5 5 5 5 5 5 5 5 5 5 5 5 5 5 5 5 5 5 5 5 5 5 5 5 5 5 5 5 5 5 5 5 5 5 5 5 5 5 5 5 5 5 5 5 5 5 5 5 5 5 5 3 5 5 5 5 5 5 5 3 5 5 5 5 5 5 3 5 5 3 5 5 5 5 5 5 5 5 5 5 5 5 5 5 5 5 5 5 5 5 5 5 5 5 3 5 5 5 5 5 5 3 5 5 5 5 5 5 5 5 5 5 5 5 5 5 5 5 5 5 3 5 5 5 5 3 5 5 5 5 3 5 5 5 5 5 5 5 5 5 5 5 3 5 5 5 5 5 5 5 5 5 5 5 3 5 5 5 5 5 5 5 5 5 5 5 5 5 5 5 5 5 5 5 5 5 5 5 5 5 5 5 5 5 5 5 5 5 5 5 5 5 5 5 5 5 5 5 5 5 5 5 5 5 5 5 5 5 5 5 5 5 5 5 5 3 3 5 5 5 5 5 5 5 5 3 5 5 5 5 5 5 5 5 5 5 5 5 5 5 3 3 5 5 5 3 5 3 5 5 5 3 5 5 5 5 5 3 3 3 5 5 5 3 5 5 5 5 5 5 5 5 5 5 5 5 5 3 5 5 3 5 5 5 5 5 5 5 5 5 5 5 5 5 5 5 5 5 5 5 5 5 5 5 5 5 5 5 5 5 5 3 5 5 5 5 3 5 5 5 5 5 5 5 5 5 5 5 5 5 5 5 5 5 5 5 5 5 5 5 5 5 5 5 5 5 5 3 5 5 5 5 5 3 5 5 5 5 5 5 5 5 5 5 5 5 5 5 5 5 5 5 5 5 5 5 5 5 5 5 5 5 5 5 3 5 5 5 5 5 5 5 5 5 5 5 5 5 5 5 5 5 5 5 5 5 5 5 5 5 5 5 5 5 3 5 5 5 5 5 5 5 5 5 5 3 5 5 3 5 5 5 3 5 5 5 5 5 5 5 5 5 5 3 5 3 5 5 5 5 5 3 5 5 5 3 5 5 5 5 3 5 3 5 5 5 5 3 5 5 5 3 5 3 5 5 5 3 5 5 5 5 5 3 5 5 3 5 5 5 5 5 5 5 5 5 5 5 5 5 5 5 3 5 5 5 5 5 5 3 3 5 3 5 5 3 5 5 5 5 3 5 5 5 5 5 5 3 5 5 5 5 3 5 5 5 5 5 3 3 5 5 5 3 5 5 3 5 5 5 5 5 3 5 5 5 5 5 5 5 5 5 5 5 5 5 5 5 5 5 5 5 5 5 3 5 5 5 5 5 5 5 5 5 5 5 5 3 5 5 5 5 5 3 5 5 5 3 5 5 5 5 3 5 3 3 5 3 5 5 5 5 5 5 5 5 5 5 5 5 3 5 5 5 5 5 3 5 3 5 5 5 5 5 5 5 5 5 5 5 5 5 5 5 5 5 5 5 5 3 5 5 5 5 5 5 5 5 5 5 5 3 5 5 3 5 5 5 5 5 5 5 5 5 5 5 5 5 5 5 5 5 5 5 5 5 5 5 5 5 5 5 5 5 5 5 5 5 5 5 3 5 5 5 5 5 5 5 3 3 5 5 5 5 3 5 5 3 5 5 5 5 3 3 5 3 5 5 3 5 3 3 5 5 5 5 5 5 5 5 5 5 5 5 5 5 3 5 5 5 3 5 3 5 5 5 5 5 5 5 5 5 5 5 5 3 5 5 3 5 5 3 5 5 5 5 5 5 5 5 5 5 5 5 5 5 5 5 3 5 3 5 3 5 5 5 5 5 5 5 5 3 5 5 5 5 5 5 5 5 5 5 5 5 5 5 5 5 5 3 5 5 5 5 5 5 5 5 5 5 5 5 5 5 5 3 3 5 5 5 5 3 5 3 5 5 3 5 5 5 5 5 3 5 3 5 3 5 5 5 5 3 5 5 5 5 5 3 5 5 5 5 5 5 5 5 5 5 5 5 5 5 5 5 5 5 5 5 5 5 5 5 5 5 5 5 5 5 5 5 3 5 3 3 5 5 5 5 5 3 5 5 5 5 3 5 5 3 5 3 5 5 5 5 3 5 5 5 5 5 5 5 5 5 5 3 5 5 5 5 5 5 5 5 5 5 5 5 5 5 5 5 5 5 5 5 5 3 5 5 5 5 3 5 5 5 5 5 5 3 5 3 5 5 5 5 3 5 5 5 5 5 5 5 5 5 5 5 5 5 5 5 5 3 5 5 5 3 5 5 3 5 5 5 5 3 5 5 5 5 3 3 5 5 5 5 5 5 5 5 5 5 5 5 5 5 5 5 5 5 5 5 5 5 5 5 5 5 5 5 3 5 5 5 5 5 5 5 5 5 5 5 5 3 5 5 5 5 5 5 5 5 5 5 5 3 5 5 3 5 3 5 5 5 3 5 5 5 5 5 3 5 5 5 3 5 5 5 5 5 5 5 5 5 5 5 5 5 5 5 5 5 5 5 5 5 5 5 5 5 5 5 5 5 5 5 5 5 5 5 5 5 5 5 5 5 5 5 5 5 5 5 5 5 5 5 5 5 5 5 5 5 5 5 5 5 5 5 5 5 5 5 5 5 5 5 5 5 5 5 5 5 5 5 3 5 5 5 5 5 5 5 5 5 5 5 5 5 5 5 5 5 5 5 5 5 5 5 5 5 5 5 5 5 5 5 5 5 5 5 5 5 5 5 5 5 5 5 3 3 3 5 5 5 3 5 5 5 5 5 5 5 5 3 5 5 5 3 5 5 5 3 5 5 3 5 3 5 5 5 5 5 5 5 5 5 5 5 5 5 5 5 5 5 5 3 5 5 5 5 5 3 5 5 5 5 3 5 5 5 5 5 5 5 5 5 5 3 5 5 5 3 5 3 5 5 5 3 5 5 5 5 5 3 5 5 3 5 5 5 5 5 5 5 5 5 3 5 5 5 5 5 5 5 5 5 5 5 5 5 3 5 5 5 5 5 5 5 5 5 5 5 5 5 3 5 5 5 5 5 3 5 5 5 5 5 5 5 5 5 5 5 5 5 5 3 5 5 5 5 5 5 5 5 3 5 5 5 5 5 5 5 3 5 5 5 5 5 5 5 5 5 5 3 5 5 5 5 5 5 5 5 5 5 5 5 5 5 5 5 3 5 5 3 5 3 5 5 5 5 5 5 5 5 5 5 5 5 5 5 5 5 5 5 5 5 5 5 5 5 5 5 5 5 5 5 5 5 5 5 5 5 5 5 5 5 5 5 5 5 5 5 5 5 5 5 5 5 5 5 5 5 5 5 3 3 5 5 5 5 5 5 5 5 5 5 5 5 5 5 5 5 5 5 5 5 5 5 5 5 5 5 5 5 5 5 5 5 5 5 5 5 5 5 5 5 5 5 5 5 5 5 5 5 5 5 5 5 5 5 5 5 5 5 5 5 5 5 3 3 5 5 5 5 5 5 5 5 5 5 5 5 5 3 5 5 5 5 5 5 5 5 5 5 5 5 5 5 5 5 5 5 5 5 5 5 5 5 5 5 5 5 5 5 5 5 5 5 5 5 5 5 5 3 5 5 5 3 5 5 5 5 3 5 5 5 5 5 5 5 5 5 5 5 3 5 5 5 5 5 5 5 5 5 3 3 5 5 5 5 5 5 3 5 5 5 5 5 5 5 5 5 5 5 5 5 5 5 5 5 5 5 5 5 3 5 5 5 5 5 5 5 5 5 5 5 5 5 5 3 5 5 3 5 5 5 5 5 5 5 3 3 5 5 5 5 5 3 5 5 5 5 3 5 5 5 5 5 5 3 5 5 5 5 5 5 5 5 5 3 5 5 5 5 3 5 3 5 5 3 5 5 5 3 5 5 5 5 5 3 5 5 5 5 5 3 3 5 5 3 5 5 5 5 5 5 5 5 3 5 5 3 5 3 5 5 5 5 5 5 5 5 3 5 5 5 5 5 5 5 5 5 5 5 5 5 5 5 5 5 5 5 5 3 5 5 5 3 3 5 5 5 5 5 3 5 5 3 5 5 5 5 5 5 5 5 5 5 5 5 5 5 5 5 5 5 5 3 5 5 3 5 5 5 5 5 5 5 5 3 5 5 3 5 5 5 5 5 3 3 5 3 5 5 5 5 5 5 5 5 3 5 5 5 5 3 5 5 5 5 5 3 5 5 5 5 5 5 5 3 5 5 5 5 5 5 3 5 5 3 5 5 5 3 3 5 5 3 5 5 5 5 5 5 5 5 3 5 3 3 5 5 5 5 5 5 5 5 5 5 5 5 3 5 5 5 5 3 5 5 5 5 5 5 5 5 5 5 5 5 5 5 5 5 3 3 5 5 5 5 5 5 5 5 5 5 5 5 5 5 3 3 5 5 5 5 5 5 5 5 5 5 3 5 5 5 5 5 5 5 3 5 5 5 5 5 3 5 3 3 5 5 5 5 5 5 5 5 5 5 3 5 5 5 5 5 5 5 5 5 5 5 5 5 3 5 5 5 3 5 5 5 5 5 5 5 5 5 5 5 5 5 5 5 5 5 5 5 5 5 5 5 5 5 5 5 5 5 5 5 5 5 5 5 5 5 5 5 5 5 5 5 5 3 5 5 3 5 5 5 5 5 5 5 3 5 5 5 5 3 5 5 5 5 5 5 5 5 5 5 3 5 5 5 5 3 5 5 3 5 5 5 5 5 5 5 5 5 5 5 5 5 5 5 5 5 3 3 5 5 5 5 5 5 5 5 5 3 3 3 5 5 3 5 5 5 5 5 5 5 5 5 5 5 3 5 3 5 5 5 5 5 5 3 5 5 5 5 5 5 5 5 5 5 5 5 3 5 5 5 5 5 3 3 5 5 5 5 5 5 5 5 5 3 5 5 5 5 3 5 5 5 5 5 5 5 5 5 5 5 5 5 5 5 5 5 5 5 5 5 5 5 5 5 5 5 5 5 5 3 5 5 5 5 5 5 5 3 5 5 5 5 5 5 5 5 5 5 5 5 5 5 5 5 5 5 5 5 5 5 3 5 5 5 5 5 3 5 5 5 5 5 3 5 3 5 5 3 5 5 5 5 5 5 5 5 5 5 5 5 5 5 5 5 5 5 3 5 5 5 5 5 5 3 5 5 5 5 5 3 5 5 5 3 5 5 5 5 3 5 3 3 5 5 5 3 3 5 5 3 5 3 5 3 5 5 3 3 5 5 3 5 5 3 5 5 3 3 5 5 3 5 5 5 3 5 5 3 3 5 3 5 5 5 5 3 5 5 5 5 3 5 5 3 5 5 3 5 5 5 5 5 5 5 3 5 5 3 5 5 5 5 3 5 5 5 3 5 5 5 5 5 3 5 5 5 5 5 5 5 5 5 5 3 3 5 5 5 3 5 5 3 5 5 5 5 5 3 5 3 3 5 5 3 5 5 5 3 5 3 3 5 3 3 5 5 5 3 5 3 5 3 5 3 5 3 5 3 3 5 5 5 5 5 5 3 3 5 3 3 5 5 5 5 3 5 5 5 5 3 5 5 5 5 5 3 5 5 5 5 5 5 5 5 5 3 5 5 5 5 3 5 3 3 5 5 5 5 3 5 5 5 5 5 3 5 3 5 5 5 5 5 5 5 5 5 5 3 5 5 5 5 3 5 5 5 5 5 5 5 5 5 3 5 5 5 5 5 5 5 5 5 5 5 5 5 5 5 5 5 5 5 5 5 5 5 3 5 5 5 5 5 5 5 5 3 5 5 5 5 5 3 5 5 5 5 5 5 5 5 5 5 5 5 5 5 5 5 5 5 5 5 5 5 5 5 5 5 3 5 5 3 5 5 5 5 5 5 3 5 5 3 5 5 5 5 5 3 5 5 5 5 5 5 5 5 3 5 5 5 3 5 3 5 5 5 5 3 5 5 5 5 3 5 5 5 5 3 5 5 3 5 5 5 5 3 5 5 3 5 5 5 5 5 5 5 3 5 5 5 5 3 5 5 5 5 5 5 5 5 5 3 5 5 3 5 3 3 5 5 5 5 5 5 5 5 3 5 5 5 5 5 5 5 5 5 5 5 5 3 5 5 3 5 5 5 5 5 3 5 5 5 5 5 3 5 5 3 5 5 3 5 5 5 5 5 5 5 5 5 5 3 5 5 5 3 3 5 5 3 5 5 5 5 3 5 5 3 5 5 5 5 5 5 5 5 5 5 3 5 5 5 5 5 5 5 5 3 5 5 5 5 5 5 5 5 5 5 5 5 5 5 5 5 5 5 5 5 5 3 5 5 5 5 5 5 5 5 5 3 5 5 5 3 5 5 5 3 5 5 5 5 5 5 5 5 5 5 5 5 5 5 5 5 5 5 5 5 5 5 3 5 5 5 3 5 3 5 5 5 3 5 5 3 3 5 3 5 5 5 5 5 5 3 5 3 5 3 5 5 3 5 5 3 5 5 5 5 5 5 5 5 5 3 5 3 5 5 5 5 5 3 5 5 3 5 5 5 5 5 5 5 5 5 5 3 3 3 3 5 3 5 5 5 3 5 3 5 5 5 3 3 5 5 5 3 5 5 3 3 5 3 5 5 5 5 5 5 5 5 5 5 5 5 5 5 5 5 5 5 5 5 5 3 3 5 5 5 5 5 5 3 5 3 5 5 5 5 5 5 5 5 5 5 5 5 5 5 5 5 5 5 5 5 5 5 5 5 5 5 5 3 5 5 5 5 5 3 5 3 5 5 5 5 5 5 5 5 5 3 5 5 5 5 5 5 5 5 3 3 5 5 3 3 5 5 5 5 5 5 5 5 3 5 5 5 5 5 5 5 5 5 5 5 5 5 5 5 5 5 5 3 5 5 5 5 5 5 5 3 5 5 5 5 5 5 5 5 5 3 5 3 5 3 5 5 3 5 5 5 5 5 5 5 5 5 5 5 3 5 5 5 5 5 5 5 5 5 3 5 5 5 5 5 5 5 5 5 5 5 5 5 5 5 5 3 5 5 5 5 5 5 3 5 5 3 5 5 5 5 5 5 5 5 5 5 5 5 5 5 5 5 5 5 5 5 5 3 5 3 3 5 5 5 5 3 5 5 5 5 5 5 5 5 3 5 5 5 5 3 3 5 5 5 5 5 5 5 5 5 5 5 3 3 5 5 5 5 5 5 3 5 5 5 5 5 3 5 3 5 5 3 5 3 5 5 5 5 5 5 3 5 5 5 5 5 5 5 5 5 5 5 5 5 3 5 5 5 5 3 5 5 3 5 5 5 5 5 5 5 5 5 3 5 5 5 5 5 5 5 5 3 5 5 5 5 5 5 5 5 5 5 5 5 3 5 5 3 5 5 5 5 5 5 5 5 5 5 3 5 5 5 5 5 5 5 3 5 5 5 3 5 5 5 5 5 5 5 5 3 3 5 3 5 3 5 5 5 5 5 5 5 5 5 5 5 5 5 5 3 5 5 5 5 3 5 3 3 5 5 5 5 5 5 5 5 5 5 5 5 5 5 3 5 5 5 5 5 5 5 5 3 5 5 5 5 5 5 5 5 5 5 5 5 5 5 5 5 3 3 5 5 5 5 5 5 5 5 5 5 5 5 5 5 5 5 5 5 5 3 3 5 5 5 5 5 5 5 5 5 5 5 5 5 5 5 5 5 5 3 5 5 3 5 5 5 5 5 5 5 5 5 3 5 5 5 3 5 5 5 5 5 5 5 5 5 5 5 5 5 5 5 5 3 5 5 5 3 5 5 5 5 5 5 5 5 5 5 
</DataArray>
</Cells>
<PointData Scalars="" Vectors="displacement," Tensors="">
<DataArray type="Float64" Name="displacement" NumberOfComponents="3" format="ascii">
-0.054997574258804083 -0.054997206313647795 0 -0.054132802949584745 -0.051770231869317652 0 -0.051663566937141865 -0.053585182887812263 0 -0.054997574258804083 -0.054997206313647795 0 -0.054132802949584745 -0.051770231869317652 0 -0.054996355132254149 -0.048559614325072456 0 -0.054132802949584745 -0.051770231869317652 0 -0.054996355132254149 -0.048559614325072456 0 -0.054830105589633041 -0.050084405523851343 0 -0.054132802949584745 -0.051770231869317652 0 -0.054830105589633041 -0.050084405523851343 0 -0.054663582804138189 -0.052344309659100599 0 -0.051582319320883217 -0.05302556646749642 0 -0.050295115898552636 -0.054590700005107608 0 -0.054663582804138189 -0.052344309659100599 0 -0.054132802949584745 -0.051770231869317652 0 -0.051582319320883217 -0.05302556646749642 0 -0.054663582804138189 -0.052344309659100599 0 -0.054132802949584745 -0.051770231869317652 0 -0.051582319320883217 -0.05302556646749642 0 -0.051663566937141865 -0.053585182887812263 0 -0.051582319320883217 -0.05302556646749642 0 -0.051663566937141865 -0.053585182887812263 0 -0.048482786853052143 -0.053878260986800333 0 -0.048548177379301914 -0.054994102280704053 0 -0.051663566937141865 -0.053585182887812263 0 -0.048482786853052143 -0.053878260986800333 0 -0.054997574258804083 -0.054997206313647795 0 -0.048548177379301914 -0.054994102280704053 0 -0.051663566937141865 -0.053585182887812263 0 -0.048548177379301914 -0.054994102280704053 0 -0.04476721937434406 -0.054386228468652119 0 -0.048482786853052143 -0.053878260986800333 0 -0.048548177379301914 -0.054994102280704053 0 -0.04476721937434406 -0.054386228468652119 0 -0.04032369874600876 -0.054995355381370875 0 -0.04476721937434406 -0.054386228468652119 0 -0.042483158754297021 -0.054200774033938554 0 -0.04032369874600876 -0.054995355381370875 0 -0.04476721937434406 -0.054386228468652119 0 -0.042483158754297021 -0.054200774033938554 0 -0.043729462455493785 -0.054193413221236039 0 -0.042483158754297021 -0.054200774033938554 0 -0.043729462455493785 -0.054193413221236039 0 -0.04252748954357978 -0.053751735124712902 0 -0.043729462455493785 -0.054193413221236039 0 -0.04252748954357978 -0.053751735124712902 0 -0.043156554909773062 -0.054148355619246545 0 -0.04476721937434406 -0.054386228468652119 0 -0.043729462455493785 -0.054193413221236039 0 -0.045637234623654939 -0.054356540047001037 0 -0.043729462455493785 -0.054193413221236039 0 -0.045637234623654939 -0.054356540047001037 0 -0.044329150989224221 -0.054873978212600621 0 -0.045637234623654939 -0.054356540047001037 0 -0.044329150989224221 -0.054873978212600621 0 -0.046891144804432412 -0.055245728650087249 0 -0.043729462455493785 -0.054193413221236039 0 -0.044329150989224221 -0.054873978212600621 0 -0.043156554909773062 -0.054148355619246545 0 -0.051582319320883217 -0.05302556646749642 0 -0.048482786853052143 -0.053878260986800333 0 -0.048327528443798048 -0.054131618043548185 0 -0.04476721937434406 -0.054386228468652119 0 -0.045637234623654939 -0.054356540047001037 0 -0.048482786853052143 -0.053878260986800333 0 -0.045637234623654939 -0.054356540047001037 0 -0.048482786853052143 -0.053878260986800333 0 -0.048327528443798048 -0.054131618043548185 0 -0.045637234623654939 -0.054356540047001037 0 -0.048327528443798048 -0.054131618043548185 0 -0.046891144804432412 -0.055245728650087249 0 -0.051582319320883217 -0.05302556646749642 0 -0.048327528443798048 -0.054131618043548185 0 -0.050295115898552636 -0.054590700005107608 0 -0.050295115898552636 -0.054590700005107608 0 -0.046891144804432412 -0.055245728650087249 0 -0.048370697708567043 -0.057521103328440029 0 -0.048327528443798048 -0.054131618043548185 0 -0.050295115898552636 -0.054590700005107608 0 -0.046891144804432412 -0.055245728650087249 0 -0.046891144804432412 -0.055245728650087249 0 -0.048370697708567043 -0.057521103328440029 0 -0.04504839382527745 -0.05678209098586226 0 -0.050488800864741744 -0.037843188583242732 0 -0.049801511625138788 -0.03753234068280506 0 -0.050129684880258131 -0.038168092237069684 0 -0.049088754122384226 -0.048030962604652845 0 -0.047665973586746069 -0.046864775364321258 0 -0.044329150989224221 -0.054873978212600621 0 -0.043156554909773062 -0.054148355619246545 0 -0.042859539809998674 -0.054465306751759764 0 -0.044329150989224221 -0.054873978212600621 0 -0.04504839382527745 -0.05678209098586226 0 -0.042285399322843781 -0.055971219207711718 0 -0.043013901590111391 -0.056675182246114515 0 -0.044347784159485447 -0.048521304658162526 0 -0.047665973586746069 -0.046864775364321258 0 -0.044347784159485447 -0.048521304658162526 0 -0.044329150989224221 -0.054873978212600621 0 -0.046891144804432412 -0.055245728650087249 0 -0.04504839382527745 -0.05678209098586226 0 -0.049801511625138788 -0.03753234068280506 0 -0.049261860946795473 -0.037899845248304767 0 -0.048441271327873167 -0.037252806978743204 0 -0.049261860946795473 -0.037899845248304767 0 -0.050129684880258131 -0.038168092237069684 0 -0.04911841787575362 -0.038397483281553353 0 -0.049801511625138788 -0.03753234068280506 0 -0.049261860946795473 -0.037899845248304767 0 -0.050129684880258131 -0.038168092237069684 0 -0.050129684880258131 -0.038168092237069684 0 -0.049728710341357944 -0.038534167646042977 0 -0.050325822796549874 -0.038284760962780828 0 -0.050129684880258131 -0.038168092237069684 0 -0.04911841787575362 -0.038397483281553353 0 -0.049728710341357944 -0.038534167646042977 0 -0.04911841787575362 -0.038397483281553353 0 -0.048771276928857264 -0.039048212255048696 0 -0.049728710341357944 -0.038534167646042977 0 -0.050488800864741744 -0.037843188583242732 0 -0.050633741184371292 -0.038073261395258497 0 -0.050514276061060862 -0.038181254022263335 0 -0.050488800864741744 -0.037843188583242732 0 -0.050129684880258131 -0.038168092237069684 0 -0.050514276061060862 -0.038181254022263335 0 -0.050129684880258131 -0.038168092237069684 0 -0.050514276061060862 -0.038181254022263335 0 -0.050492138870106472 -0.038243987274551076 0 -0.050129684880258131 -0.038168092237069684 0 -0.050492138870106472 -0.038243987274551076 0 -0.050325822796549874 -0.038284760962780828 0 -0.050514276061060862 -0.038181254022263335 0 -0.050694694356258743 -0.03817681677922926 0 -0.050558972425518017 -0.03821584808841965 0 -0.050514276061060862 -0.038181254022263335 0 -0.050558972425518017 -0.03821584808841965 0 -0.050492138870106472 -0.038243987274551076 0 -0.050633741184371292 -0.038073261395258497 0 -0.050514276061060862 -0.038181254022263335 0 -0.050694694356258743 -0.03817681677922926 0 -0.056831665426452065 -0.041551921180946076 0 -0.056646467062788017 -0.043424676007637539 0 -0.0559445671641614 -0.042253380773578077 0 -0.053883813897016977 -0.039017365371840418 0 -0.053597489319502027 -0.0459165159881504 0 -0.050488800864741744 -0.037843188583242732 0 -0.050633741184371292 -0.038073261395258497 0 -0.05079448944322864 -0.038047116057500122 0 -0.050633741184371292 -0.038073261395258497 0 -0.050694694356258743 -0.03817681677922926 0 -0.05079448944322864 -0.038047116057500122 0 -0.058965371046638709 -0.044668003937307695 0 -0.054571533791200069 -0.043135909038514941 0 -0.055827754901299431 -0.045221833786076311 0 -0.056646467062788017 -0.043424676007637539 0 -0.0559445671641614 -0.042253380773578077 0 -0.054571533791200069 -0.043135909038514941 0 -0.053597489319502027 -0.0459165159881504 0 -0.056188947550938506 -0.043232958435035856 0 -0.0559445671641614 -0.042253380773578077 0 -0.055127189590536758 -0.042147630092016039 0 -0.054571533791200069 -0.043135909038514941 0 -0.0559445671641614 -0.042253380773578077 0 -0.05543720213213018 -0.041398687780905732 0 -0.055127189590536758 -0.042147630092016039 0 -0.056831665426452065 -0.041551921180946076 0 -0.0559445671641614 -0.042253380773578077 0 -0.05543720213213018 -0.041398687780905732 0 -0.056831665426452065 -0.041551921180946076 0 -0.05543720213213018 -0.041398687780905732 0 -0.055357915377009716 -0.040346375029062978 0 -0.056006112889288827 -0.04262602715598883 0 -0.054998748658684496 -0.043816139117812111 0 -0.055000312833509389 -0.040331512399277021 0 -0.05543720213213018 -0.041398687780905732 0 -0.054980321812511085 -0.040798433842658063 0 -0.054656089531179279 -0.041972691159516004 0 -0.054980321812511085 -0.040798433842658063 0 -0.054656089531179279 -0.041972691159516004 0 -0.054453406199265426 -0.04125574451837169 0 -0.05543720213213018 -0.041398687780905732 0 -0.054656089531179279 -0.041972691159516004 0 -0.055127189590536758 -0.042147630092016039 0 -0.054980321812511085 -0.040798433842658063 0 -0.054453406199265426 -0.04125574451837169 0 -0.055112447092370641 -0.040092114748769517 0 -0.055181941879427938 -0.042019222071613876 0 -0.054999977781706622 -0.040332101345295732 0 -0.056006112889288827 -0.04262602715598883 0 -0.054998748658684496 -0.043816139117812111 0 -0.05563169620921244 -0.044488328168823886 0 -0.054998748658684496 -0.043816139117812111 0 -0.05563169620921244 -0.044488328168823886 0 -0.055229890991694217 -0.046010824067616626 0 -0.054656089531179279 -0.041972691159516004 0 -0.054453406199265426 -0.04125574451837169 0 -0.054112715419491024 -0.043734287086572711 0 -0.055181941879427938 -0.042019222071613876 0 -0.055179359749337992 -0.044821544186725314 0 -0.056006112889288827 -0.04262602715598883 0 -0.05563169620921244 -0.044488328168823886 0 -0.056358000782492881 -0.045569396707438786 0 -0.054656089531179279 -0.041972691159516004 0 -0.054112715419491024 -0.043734287086572711 0 -0.054571533791200069 -0.043135909038514941 0 -0.054656089531179279 -0.041972691159516004 0 -0.055127189590536758 -0.042147630092016039 0 -0.054571533791200069 -0.043135909038514941 0 -0.05563169620921244 -0.044488328168823886 0 -0.056358000782492881 -0.045569396707438786 0 -0.055229890991694217 -0.046010824067616626 0 -0.054112715419491024 -0.043734287086572711 0 -0.054571533791200069 -0.043135909038514941 0 -0.055827754901299431 -0.045221833786076311 0 -0.054996355132254149 -0.048559614325072456 0 -0.055229890991694217 -0.046010824067616626 0 -0.055069879839003258 -0.047981144992551988 0 -0.054996355132254149 -0.048559614325072456 0 -0.054998748658684496 -0.043816139117812111 0 -0.055229890991694217 -0.046010824067616626 0 -0.056358000782492881 -0.045569396707438786 0 -0.055407212284654561 -0.047800333985301549 0 -0.055457712088623531 -0.049251098313567769 0 -0.056358000782492881 -0.045569396707438786 0 -0.055407212284654561 -0.047800333985301549 0 -0.055229890991694217 -0.046010824067616626 0 -0.055407212284654561 -0.047800333985301549 0 -0.055229890991694217 -0.046010824067616626 0 -0.055069879839003258 -0.047981144992551988 0 -0.054996355132254149 -0.048559614325072456 0 -0.055069879839003258 -0.047981144992551988 0 -0.054830105589633041 -0.050084405523851343 0 -0.055407212284654561 -0.047800333985301549 0 -0.054830105589633041 -0.050084405523851343 0 -0.055457712088623531 -0.049251098313567769 0 -0.055407212284654561 -0.047800333985301549 0 -0.055069879839003258 -0.047981144992551988 0 -0.054830105589633041 -0.050084405523851343 0 -0.054830105589633041 -0.050084405523851343 0 -0.054663582804138189 -0.052344309659100599 0 -0.055457712088623531 -0.049251098313567769 0 -0.050295115898552636 -0.054590700005107608 0 -0.05318438508386434 -0.058668570669441804 0 -0.054663582804138189 -0.052344309659100599 0 -0.049088754122384226 -0.048030962604652845 0 -0.053597489319502027 -0.0459165159881504 0 -0.050295115898552636 -0.054590700005107608 0 -0.048370697708567043 -0.057521103328440029 0 -0.05318438508386434 -0.058668570669441804 0 -0.058965371046638709 -0.044668003937307695 0 -0.054663582804138189 -0.052344309659100599 0 -0.055457712088623531 -0.049251098313567769 0 -0.055179359749337992 -0.044821544186725314 0 -0.055725438482882104 -0.048601644231824136 0 -0.054112715419491024 -0.043734287086572711 0 -0.055827754901299431 -0.045221833786076311 0 -0.055457712088623531 -0.049251098313567769 0 -0.058965371046638709 -0.044668003937307695 0 -0.055827754901299431 -0.045221833786076311 0 -0.055457712088623531 -0.049251098313567769 0 -0.053597489319502027 -0.0459165159881504 0 -0.055373565621318462 -0.054553554817160392 0 -0.034182305601486981 -0.052361782975830516 0 -0.034312189496864855 -0.051163235554817318 0 -0.033704528580794098 -0.050799336841096186 0 -0.037515400272554816 -0.050177387774478402 0 -0.037797443294511693 -0.048226114738002673 0 -0.031832058900638539 -0.053821667609591901 0 -0.03487939313448063 -0.049336688594388479 0 -0.034182305601486981 -0.052361782975830516 0 -0.033563637515390918 -0.052938131004366396 0 -0.034312189496864855 -0.051163235554817318 0 -0.034182305601486981 -0.052361782975830516 0 -0.03452963011286915 -0.053045739760794061 0 -0.033704528580794098 -0.050799336841096186 0 -0.041500286730607482 -0.046065015140543085 0 -0.041465872992202266 -0.047327096973600255 0 -0.041504511573043974 -0.045166934878321276 0 -0.041500286730607482 -0.046065015140543085 0 -0.041359929517299818 -0.04654323910890764 0 -0.041465872992202266 -0.047327096973600255 0 -0.041359929517299818 -0.04654323910890764 0 -0.041465872992202266 -0.047327096973600255 0 -0.041074268197954386 -0.047437289293129126 0 -0.034182305601486981 -0.052361782975830516 0 -0.033563637515390918 -0.052938131004366396 0 -0.033650983499102755 -0.054123149556908452 0 -0.031306390284203088 -0.056804472509789421 0 -0.030253376150580821 -0.056926642997345261 0 -0.030708652894468242 -0.055945966404119342 0 -0.032472390960467314 -0.055557682413345501 0 -0.031832058900638539 -0.053821667609591901 0 -0.034182305601486981 -0.052361782975830516 0 -0.033650983499102755 -0.054123149556908452 0 -0.03452963011286915 -0.053045739760794061 0 -0.031832058900638539 -0.053821667609591901 0 -0.029495269840838563 -0.057016997081862149 0 -0.028343474890876651 -0.058032059453208183 0 -0.029146747008508115 -0.056705972160744397 0 -0.027268659614365014 -0.056778461197712599 0 -0.0280806030158295 -0.055000079519956481 0 -0.029146747008508115 -0.056705972160744397 0 -0.027268659614365014 -0.056778461197712599 0 -0.0280806030158295 -0.055000079519956481 0 -0.030380234536353017 -0.054999777409886368 0 -0.029146747008508115 -0.056705972160744397 0 -0.030381743784419692 -0.05499921248478392 0 -0.029495269840838563 -0.057016997081862149 0 -0.030383803290278785 -0.054999543829169655 0 -0.031322102001348003 -0.055939754937298629 0 -0.031991191740412157 -0.055781362706671493 0 -0.030383803290278785 -0.054999543829169655 0 -0.031322102001348003 -0.055939754937298629 0 -0.030708652894468242 -0.055945966404119342 0 -0.031306390284203088 -0.056804472509789421 0 -0.031322102001348003 -0.055939754937298629 0 -0.031997291548555594 -0.056178240491235869 0 -0.031306390284203088 -0.056804472509789421 0 -0.031322102001348003 -0.055939754937298629 0 -0.030708652894468242 -0.055945966404119342 0 -0.031997291548555594 -0.056178240491235869 0 -0.032582677254824229 -0.056065402357672045 0 -0.032785102023705187 -0.056118975072945013 0 -0.032582677254824229 -0.056065402357672045 0 -0.031991191740412157 -0.055781362706671493 0 -0.032939147213714437 -0.055813029036525186 0 -0.031997291548555594 -0.056178240491235869 0 -0.032582677254824229 -0.056065402357672045 0 -0.031991191740412157 -0.055781362706671493 0 -0.031322102001348003 -0.055939754937298629 0 -0.031997291548555594 -0.056178240491235869 0 -0.031991191740412157 -0.055781362706671493 0 -0.030383803290278785 -0.054999543829169655 0 -0.031991191740412157 -0.055781362706671493 0 -0.033060842353799143 -0.054999452337707019 0 -0.031991191740412157 -0.055781362706671493 0 -0.033060842353799143 -0.054999452337707019 0 -0.032939147213714437 -0.055813029036525186 0 -0.033060842353799143 -0.054999452337707019 0 -0.033854062422287924 -0.055798993934567477 0 -0.035739574374847607 -0.054999543502951304 0 -0.033060842353799143 -0.054999452337707019 0 -0.032939147213714437 -0.055813029036525186 0 -0.033854062422287924 -0.055798993934567477 0 -0.033179658028989437 -0.056130924730812347 0 -0.032713376968759263 -0.05616217994650282 0 -0.034802962678877773 -0.056432962918025319 0 -0.032582677254824229 -0.056065402357672045 0 -0.032939147213714437 -0.055813029036525186 0 -0.033179658028989437 -0.056130924730812347 0 -0.032939147213714437 -0.055813029036525186 0 -0.033854062422287924 -0.055798993934567477 0 -0.033179658028989437 -0.056130924730812347 0 -0.032582677254824229 -0.056065402357672045 0 -0.033179658028989437 -0.056130924730812347 0 -0.032785102023705187 -0.056118975072945013 0 -0.040537312806330467 -0.048647799361481572 0 -0.040411291441070932 -0.048663520128665698 0 -0.040793085453590769 -0.048523449758747415 0 -0.040537312806330467 -0.048647799361481572 0 -0.040593465143457935 -0.048834118177748118 0 -0.040793085453590769 -0.048523449758747415 0 -0.040537312806330467 -0.048647799361481572 0 -0.040593465143457935 -0.048834118177748118 0 -0.040536056423772629 -0.048380112654380553 0 -0.040411291441070932 -0.048663520128665698 0 -0.040723197052178202 -0.048014845961986144 0 -0.040536056423772629 -0.048380112654380553 0 -0.040537312806330467 -0.048647799361481572 0 -0.040411291441070932 -0.048663520128665698 0 -0.040536056423772629 -0.048380112654380553 0 -0.033179658028989437 -0.056130924730812347 0 -0.032713376968759263 -0.05616217994650282 0 -0.032785102023705187 -0.056118975072945013 0 -0.032472390960467314 -0.055557682413345501 0 -0.032548089581717232 -0.055952382864394822 0 -0.037515400272554816 -0.050177387774478402 0 -0.036685198024430848 -0.051979643592597748 0 -0.033563637515390918 -0.052938131004366396 0 -0.032713376968759263 -0.05616217994650282 0 -0.032785102023705187 -0.056118975072945013 0 -0.031306390284203088 -0.056804472509789421 0 -0.031997291548555594 -0.056178240491235869 0 -0.032785102023705187 -0.056118975072945013 0 -0.033563637515390918 -0.052938131004366396 0 -0.033650983499102755 -0.054123149556908452 0 -0.032785102023705187 -0.056118975072945013 0 -0.041465872992202266 -0.047327096973600255 0 -0.040411291441070932 -0.048663520128665698 0 -0.041074268197954386 -0.047437289293129126 0 -0.040411291441070932 -0.048663520128665698 0 -0.040723197052178202 -0.048014845961986144 0 -0.041074268197954386 -0.047437289293129126 0 -0.040723197052178202 -0.048014845961986144 0 -0.041074268197954386 -0.047437289293129126 0 -0.040770769966637421 -0.047640468504155806 0 -0.041359929517299818 -0.04654323910890764 0 -0.041074268197954386 -0.047437289293129126 0 -0.041102075554600701 -0.046635891384513559 0 -0.041074268197954386 -0.047437289293129126 0 -0.040770769966637421 -0.047640468504155806 0 -0.041102075554600701 -0.046635891384513559 0 -0.040770769966637421 -0.047640468504155806 0 -0.040419417421214951 -0.048386555459041358 0 -0.040694316857784615 -0.046652242923399055 0 -0.040770769966637421 -0.047640468504155806 0 -0.040419417421214951 -0.048386555459041358 0 -0.040536056423772629 -0.048380112654380553 0 -0.040593465143457935 -0.048834118177748118 0 -0.040419417421214951 -0.048386555459041358 0 -0.040536056423772629 -0.048380112654380553 0 -0.040723197052178202 -0.048014845961986144 0 -0.040770769966637421 -0.047640468504155806 0 -0.040536056423772629 -0.048380112654380553 0 -0.040419417421214951 -0.048386555459041358 0 -0.041752707310077124 -0.050563619482512367 0 -0.041944774367735881 -0.051920405804682428 0 -0.040696564205190813 -0.048645511611381836 0 -0.040963336034423439 -0.04910701048673629 0 -0.040593465143457935 -0.048834118177748118 0 -0.040419417421214951 -0.048386555459041358 0 -0.041752707310077124 -0.050563619482512367 0 -0.041752707310077124 -0.050563619482512367 0 -0.042074530670961646 -0.052113397533825045 0 -0.041944774367735881 -0.051920405804682428 0 -0.042074530670961646 -0.052113397533825045 0 -0.04211514610761824 -0.052695399824452177 0 -0.042251925919147851 -0.053378248595872847 0 -0.042074530670961646 -0.052113397533825045 0 -0.042043131823442249 -0.052170312518511133 0 -0.04211514610761824 -0.052695399824452177 0 -0.041752707310077124 -0.050563619482512367 0 -0.042074530670961646 -0.052113397533825045 0 -0.042043131823442249 -0.052170312518511133 0 -0.042043131823442249 -0.052170312518511133 0 -0.042162198638976987 -0.05319200681286361 0 -0.04211514610761824 -0.052695399824452177 0 -0.042043131823442249 -0.052170312518511133 0 -0.042162198638976987 -0.05319200681286361 0 -0.042725649666373912 -0.052762612226265958 0 -0.042162198638976987 -0.05319200681286361 0 -0.042725649666373912 -0.052762612226265958 0 -0.04279724881487923 -0.053606514352029323 0 -0.040411291441070932 -0.048663520128665698 0 -0.040793085453590769 -0.048523449758747415 0 -0.041152190803693388 -0.048020383981575925 0 -0.041440339117277673 -0.048586008645630986 0 -0.040793085453590769 -0.048523449758747415 0 -0.041152190803693388 -0.048020383981575925 0 -0.041856610557097614 -0.05085985971716557 0 -0.041872887118545879 -0.050215549664516961 0 -0.041752707310077124 -0.050563619482512367 0 -0.042043131823442249 -0.052170312518511133 0 -0.042725649666373912 -0.052762612226265958 0 -0.040593465143457935 -0.048834118177748118 0 -0.041440339117277673 -0.048586008645630986 0 -0.040793085453590769 -0.048523449758747415 0 -0.040593465143457935 -0.048834118177748118 0 -0.041752707310077124 -0.050563619482512367 0 -0.041440339117277673 -0.048586008645630986 0 -0.036685198024430848 -0.051979643592597748 0 -0.038356383394752787 -0.054148020809255411 0 -0.033854062422287924 -0.055798993934567477 0 -0.033179658028989437 -0.056130924730812347 0 -0.034802962678877773 -0.056432962918025319 0 -0.041872887118545879 -0.050215549664516961 0 -0.038356383394752787 -0.054148020809255411 0 -0.038356383394752787 -0.054148020809255411 0 -0.035739874233131748 -0.055004003325083935 0 -0.033854062422287924 -0.055798993934567477 0 -0.034802962678877773 -0.056432962918025319 0 -0.035739574374847607 -0.054999543502951304 0 -0.035741355929532426 -0.054999974161765851 0 -0.037997900076021274 -0.056258559490542911 0 -0.038028465080073653 -0.054999968364271165 0 -0.035736655286130216 -0.057471676440384513 0 -0.035741355929532426 -0.054999974161765851 0 -0.037997900076021274 -0.056258559490542911 0 -0.038356383394752787 -0.054148020809255411 0 -0.04015376265427608 -0.055375336384271841 0 -0.042162198638976987 -0.05319200681286361 0 -0.04279724881487923 -0.053606514352029323 0 -0.042161195163109164 -0.054274724417809075 0 -0.042162198638976987 -0.05319200681286361 0 -0.041919054192725173 -0.053824847825191008 0 -0.042161195163109164 -0.054274724417809075 0 -0.041919054192725173 -0.053824847825191008 0 -0.042161195163109164 -0.054274724417809075 0 -0.04032369874600876 -0.054995355381370875 0 -0.037997900076021274 -0.056258559490542911 0 -0.038028465080073653 -0.054999968364271165 0 -0.040315801216732193 -0.055000011006232717 0 -0.04015376265427608 -0.055375336384271841 0 -0.040315790830250088 -0.054999999033019289 0 -0.042483158754297021 -0.054200774033938554 0 -0.041919054192725173 -0.053824847825191008 0 -0.04032369874600876 -0.054995355381370875 0 -0.042483158754297021 -0.054200774033938554 0 -0.041919054192725173 -0.053824847825191008 0 -0.04252748954357978 -0.053751735124712902 0 -0.041919054192725173 -0.053824847825191008 0 -0.04252748954357978 -0.053751735124712902 0 -0.042150920375631028 -0.053297328162158535 0 -0.042162198638976987 -0.05319200681286361 0 -0.041919054192725173 -0.053824847825191008 0 -0.042150920375631028 -0.053297328162158535 0 -0.042162198638976987 -0.05319200681286361 0 -0.042150920375631028 -0.053297328162158535 0 -0.04211514610761824 -0.052695399824452177 0 -0.04252748954357978 -0.053751735124712902 0 -0.042150920375631028 -0.053297328162158535 0 -0.042480288930517598 -0.053534360263034403 0 -0.04211514610761824 -0.052695399824452177 0 -0.042480288930517598 -0.053534360263034403 0 -0.042251925919147851 -0.053378248595872847 0 -0.042150920375631028 -0.053297328162158535 0 -0.04211514610761824 -0.052695399824452177 0 -0.042480288930517598 -0.053534360263034403 0 -0.04252748954357978 -0.053751735124712902 0 -0.042480288930517598 -0.053534360263034403 0 -0.043156554909773062 -0.054148355619246545 0 -0.042480288930517598 -0.053534360263034403 0 -0.043156554909773062 -0.054148355619246545 0 -0.042859539809998674 -0.054465306751759764 0 -0.042480288930517598 -0.053534360263034403 0 -0.042859539809998674 -0.054465306751759764 0 -0.042251925919147851 -0.053378248595872847 0 -0.044347784159485447 -0.048521304658162526 0 -0.041054079194049506 -0.049428243251754933 0 -0.040197404555003972 -0.04532302953364048 0 -0.040230924828898257 -0.046003617770245191 0 -0.039660271146158298 -0.045848293771693319 0 -0.042005490768210196 -0.045312828981632705 0 -0.040197404555003972 -0.04532302953364048 0 -0.040230924828898257 -0.046003617770245191 0 -0.044347784159485447 -0.048521304658162526 0 -0.044438112906444047 -0.040917834223565729 0 -0.048441271327873167 -0.037252806978743204 0 -0.047491352826759287 -0.037663852882012183 0 -0.048467353841611494 -0.038013901748793183 0 -0.049261860946795473 -0.037899845248304767 0 -0.048441271327873167 -0.037252806978743204 0 -0.048467353841611494 -0.038013901748793183 0 -0.04911841787575362 -0.038397483281553353 0 -0.048467353841611494 -0.038013901748793183 0 -0.047806311786550697 -0.0389194976256459 0 -0.049261860946795473 -0.037899845248304767 0 -0.04911841787575362 -0.038397483281553353 0 -0.048467353841611494 -0.038013901748793183 0 -0.04911841787575362 -0.038397483281553353 0 -0.047806311786550697 -0.0389194976256459 0 -0.048771276928857264 -0.039048212255048696 0 -0.047491352826759287 -0.037663852882012183 0 -0.048467353841611494 -0.038013901748793183 0 -0.047806311786550697 -0.0389194976256459 0 -0.047491352826759287 -0.037663852882012183 0 -0.047806311786550697 -0.0389194976256459 0 -0.0464662489064811 -0.03817660672771353 0 -0.047806311786550697 -0.0389194976256459 0 -0.0464662489064811 -0.03817660672771353 0 -0.046135700099445648 -0.0395595452971364 0 -0.047806311786550697 -0.0389194976256459 0 -0.046135700099445648 -0.0395595452971364 0 -0.046513242635373285 -0.040547606729338173 0 -0.046135700099445648 -0.0395595452971364 0 -0.043639149442360262 -0.041509941629427047 0 -0.046513242635373285 -0.040547606729338173 0 -0.0464662489064811 -0.03817660672771353 0 -0.046135700099445648 -0.0395595452971364 0 -0.044666944869021875 -0.039186601624448654 0 -0.042900076995781598 -0.041867472776549564 0 -0.042529378037408132 -0.041618579137459984 0 -0.039537559123635123 -0.045366429698285714 0 -0.039999908778333031 -0.045161194768540899 0 -0.040085456522676921 -0.043975217933143823 0 -0.039999908778333031 -0.045161194768540899 0 -0.039679800014705918 -0.045707897226276564 0 -0.040332491728896705 -0.045691855461092785 0 -0.039679800014705918 -0.045707897226276564 0 -0.039904736080689916 -0.046365191505465156 0 -0.040332491728896705 -0.045691855461092785 0 -0.039679800014705918 -0.045707897226276564 0 -0.039660271146158298 -0.045848293771693319 0 -0.039608444279978339 -0.046069933366670764 0 -0.039537559123635123 -0.045366429698285714 0 -0.039999908778333031 -0.045161194768540899 0 -0.039679800014705918 -0.045707897226276564 0 -0.040230924828898257 -0.046003617770245191 0 -0.039537559123635123 -0.045366429698285714 0 -0.039660271146158298 -0.045848293771693319 0 -0.044438112906444047 -0.040917834223565729 0 -0.042900076995781598 -0.041867472776549564 0 -0.039537559123635123 -0.045366429698285714 0 -0.039679800014705918 -0.045707897226276564 0 -0.039660271146158298 -0.045848293771693319 0 -0.042074530670961646 -0.052113397533825045 0 -0.042251925919147851 -0.053378248595872847 0 -0.041944774367735881 -0.051920405804682428 0 -0.040197404555003972 -0.04532302953364048 0 -0.039660271146158298 -0.045848293771693319 0 -0.039396715115280333 -0.046333180691431712 0 -0.039660271146158298 -0.045848293771693319 0 -0.039396715115280333 -0.046333180691431712 0 -0.039608444279978339 -0.046069933366670764 0 -0.041054079194049506 -0.049428243251754933 0 -0.040963336034423439 -0.04910701048673629 0 -0.040419417421214951 -0.048386555459041358 0 -0.039396715115280333 -0.046333180691431712 0 -0.039904736080689916 -0.046365191505465156 0 -0.039396715115280333 -0.046333180691431712 0 -0.039904736080689916 -0.046365191505465156 0 -0.039608444279978339 -0.046069933366670764 0 -0.039679800014705918 -0.045707897226276564 0 -0.039904736080689916 -0.046365191505465156 0 -0.039608444279978339 -0.046069933366670764 0 -0.040694316857784615 -0.046652242923399055 0 -0.041072670868359556 -0.045722569086728858 0 -0.040332491728896705 -0.045691855461092785 0 -0.039904736080689916 -0.046365191505465156 0 -0.040694316857784615 -0.046652242923399055 0 -0.040332491728896705 -0.045691855461092785 0 -0.040419417421214951 -0.048386555459041358 0 -0.039904736080689916 -0.046365191505465156 0 -0.040694316857784615 -0.046652242923399055 0 -0.040770769966637421 -0.047640468504155806 0 -0.040694316857784615 -0.046652242923399055 0 -0.041102075554600701 -0.046635891384513559 0 -0.041359929517299818 -0.04654323910890764 0 -0.041102075554600701 -0.046635891384513559 0 -0.041411092772324493 -0.045860355104918309 0 -0.041102075554600701 -0.046635891384513559 0 -0.041072670868359556 -0.045722569086728858 0 -0.041411092772324493 -0.045860355104918309 0 -0.040694316857784615 -0.046652242923399055 0 -0.041102075554600701 -0.046635891384513559 0 -0.041072670868359556 -0.045722569086728858 0 -0.041072670868359556 -0.045722569086728858 0 -0.041523996013856243 -0.045181179309477501 0 -0.041411092772324493 -0.045860355104918309 0 -0.041072670868359556 -0.045722569086728858 0 -0.041320140819059256 -0.044979990610452297 0 -0.041523996013856243 -0.045181179309477501 0 -0.041320140819059256 -0.044979990610452297 0 -0.041709608237183553 -0.044464601605701606 0 -0.041523996013856243 -0.045181179309477501 0 -0.041072670868359556 -0.045722569086728858 0 -0.041320140819059256 -0.044979990610452297 0 -0.040714694267262326 -0.045008271980961564 0 -0.041072670868359556 -0.045722569086728858 0 -0.040714694267262326 -0.045008271980961564 0 -0.040332491728896705 -0.045691855461092785 0 -0.039999908778333031 -0.045161194768540899 0 -0.040714694267262326 -0.045008271980961564 0 -0.040332491728896705 -0.045691855461092785 0 -0.039999908778333031 -0.045161194768540899 0 -0.040714694267262326 -0.045008271980961564 0 -0.040085456522676921 -0.043975217933143823 0 -0.040714694267262326 -0.045008271980961564 0 -0.040085456522676921 -0.043975217933143823 0 -0.041426858794907553 -0.044180220906283284 0 -0.046135700099445648 -0.0395595452971364 0 -0.044666944869021875 -0.039186601624448654 0 -0.043639149442360262 -0.041509941629427047 0 -0.042529378037408132 -0.041618579137459984 0 -0.042334019905217478 -0.041968085910972265 0 -0.044666944869021875 -0.039186601624448654 0 -0.043639149442360262 -0.041509941629427047 0 -0.042281831795053307 -0.042129109396745308 0 -0.042281831795053307 -0.042129109396745308 0 -0.042001063911368056 -0.043579813620471967 0 -0.041426858794907553 -0.044180220906283284 0 -0.040085456522676921 -0.043975217933143823 0 -0.042281831795053307 -0.042129109396745308 0 -0.041426858794907553 -0.044180220906283284 0 -0.042281831795053307 -0.042129109396745308 0 -0.042193787058501825 -0.043136528624780512 0 -0.042586003179996411 -0.042577127272486276 0 -0.043639149442360262 -0.041509941629427047 0 -0.042281831795053307 -0.042129109396745308 0 -0.043105157150724112 -0.042094711381958055 0 -0.042281831795053307 -0.042129109396745308 0 -0.042001063911368056 -0.043579813620471967 0 -0.042193787058501825 -0.043136528624780512 0 -0.042001063911368056 -0.043579813620471967 0 -0.041426858794907553 -0.044180220906283284 0 -0.041709608237183553 -0.044464601605701606 0 -0.041320140819059256 -0.044979990610452297 0 -0.040714694267262326 -0.045008271980961564 0 -0.041426858794907553 -0.044180220906283284 0 -0.041320140819059256 -0.044979990610452297 0 -0.041426858794907553 -0.044180220906283284 0 -0.041709608237183553 -0.044464601605701606 0 -0.041709608237183553 -0.044464601605701606 0 -0.04191187378763106 -0.043992315473606235 0 -0.041693475023718091 -0.044696444232252074 0 -0.04191187378763106 -0.043992315473606235 0 -0.041509116746494219 -0.04446219949112485 0 -0.041693475023718091 -0.044696444232252074 0 -0.042001063911368056 -0.043579813620471967 0 -0.041709608237183553 -0.044464601605701606 0 -0.04191187378763106 -0.043992315473606235 0 -0.042001063911368056 -0.043579813620471967 0 -0.04191187378763106 -0.043992315473606235 0 -0.042193787058501825 -0.043136528624780512 0 -0.04191187378763106 -0.043992315473606235 0 -0.042193787058501825 -0.043136528624780512 0 -0.041798977628171287 -0.043802599979505204 0 -0.042193787058501825 -0.043136528624780512 0 -0.042166812112423756 -0.043200064822077069 0 -0.041798977628171287 -0.043802599979505204 0 -0.042193787058501825 -0.043136528624780512 0 -0.042166812112423756 -0.043200064822077069 0 -0.042586003179996411 -0.042577127272486276 0 -0.041574347924491231 -0.043772520209708204 0 -0.041173674121301754 -0.04431651978926094 0 -0.040938772847161194 -0.044311521184261328 0 -0.042166812112423756 -0.043200064822077069 0 -0.041574347924491231 -0.043772520209708204 0 -0.041798977628171287 -0.043802599979505204 0 -0.041574347924491231 -0.043772520209708204 0 -0.041798977628171287 -0.043802599979505204 0 -0.041173674121301754 -0.04431651978926094 0 -0.041173674121301754 -0.04431651978926094 0 -0.041509116746494219 -0.04446219949112485 0 -0.040546001105894083 -0.044764321548019112 0 -0.041798977628171287 -0.043802599979505204 0 -0.041173674121301754 -0.04431651978926094 0 -0.041509116746494219 -0.04446219949112485 0 -0.04191187378763106 -0.043992315473606235 0 -0.041798977628171287 -0.043802599979505204 0 -0.041509116746494219 -0.04446219949112485 0 -0.041509116746494219 -0.04446219949112485 0 -0.041413410093668446 -0.044863129031926324 0 -0.040855335620904459 -0.044707442148472165 0 -0.041413410093668446 -0.044863129031926324 0 -0.041693475023718091 -0.044696444232252074 0 -0.04158665955257998 -0.045239735022102365 0 -0.041413410093668446 -0.044863129031926324 0 -0.04158665955257998 -0.045239735022102365 0 -0.041498827372549091 -0.045223192926852056 0 -0.041509116746494219 -0.04446219949112485 0 -0.041413410093668446 -0.044863129031926324 0 -0.041693475023718091 -0.044696444232252074 0 -0.041709608237183553 -0.044464601605701606 0 -0.041693475023718091 -0.044696444232252074 0 -0.041523996013856243 -0.045181179309477501 0 -0.041693475023718091 -0.044696444232252074 0 -0.041523996013856243 -0.045181179309477501 0 -0.04158665955257998 -0.045239735022102365 0 -0.041523996013856243 -0.045181179309477501 0 -0.04158665955257998 -0.045239735022102365 0 -0.041411092772324493 -0.045860355104918309 0 -0.04158665955257998 -0.045239735022102365 0 -0.041511543520384782 -0.045802068177786016 0 -0.041498827372549091 -0.045223192926852056 0 -0.04158665955257998 -0.045239735022102365 0 -0.041411092772324493 -0.045860355104918309 0 -0.041511543520384782 -0.045802068177786016 0 -0.041359929517299818 -0.04654323910890764 0 -0.041411092772324493 -0.045860355104918309 0 -0.041511543520384782 -0.045802068177786016 0 -0.041500286730607482 -0.046065015140543085 0 -0.041511543520384782 -0.045802068177786016 0 -0.041512755805404845 -0.045481561683142706 0 -0.041500286730607482 -0.046065015140543085 0 -0.041359929517299818 -0.04654323910890764 0 -0.041511543520384782 -0.045802068177786016 0 -0.041500286730607482 -0.046065015140543085 0 -0.041512755805404845 -0.045481561683142706 0 -0.041504511573043974 -0.045166934878321276 0 -0.041511543520384782 -0.045802068177786016 0 -0.041512755805404845 -0.045481561683142706 0 -0.041498827372549091 -0.045223192926852056 0 -0.041512755805404845 -0.045481561683142706 0 -0.041504511573043974 -0.045166934878321276 0 -0.04136667332018517 -0.045040727586563113 0 -0.041413410093668446 -0.044863129031926324 0 -0.04136667332018517 -0.045040727586563113 0 -0.040838854457126976 -0.044702788120435939 0 -0.041413410093668446 -0.044863129031926324 0 -0.04136667332018517 -0.045040727586563113 0 -0.041498827372549091 -0.045223192926852056 0 -0.041504511573043974 -0.045166934878321276 0 -0.04136667332018517 -0.045040727586563113 0 -0.040838854457126976 -0.044702788120435939 0 -0.041512755805404845 -0.045481561683142706 0 -0.04136667332018517 -0.045040727586563113 0 -0.041498827372549091 -0.045223192926852056 0 -0.041364194479983012 -0.044910101605587428 0 -0.041798708860010213 -0.045133274179143569 0 -0.04145634440093026 -0.04547882579663412 0 -0.041364194479983012 -0.044910101605587428 0 -0.04145634440093026 -0.04547882579663412 0 -0.040935881710023658 -0.045010608504148869 0 -0.043392244689785933 -0.043326542463537392 0 -0.042070530962410438 -0.042889648517256442 0 -0.045225061173745591 -0.041487607164090237 0 -0.044671441656496842 -0.041592760078898006 0 -0.045130988368684247 -0.041269287594327422 0 -0.045225061173745591 -0.041487607164090237 0 -0.043917356373349259 -0.042280881749407861 0 -0.044671441656496842 -0.041592760078898006 0 -0.043392244689785933 -0.043326542463537392 0 -0.04263414070052278 -0.043736255830150936 0 -0.043306859744388609 -0.043390844881782721 0 -0.043345053573147822 -0.042557933659933614 0 -0.043917356373349259 -0.042280881749407861 0 -0.043392244689785933 -0.043326542463537392 0 -0.044332211863097791 -0.041887502181377378 0 -0.041364194479983012 -0.044910101605587428 0 -0.041798708860010213 -0.045133274179143569 0 -0.042073933031970358 -0.044634470834297404 0 -0.041364194479983012 -0.044910101605587428 0 -0.042073933031970358 -0.044634470834297404 0 -0.041548147987112621 -0.044481158772740288 0 -0.041364194479983012 -0.044910101605587428 0 -0.041548147987112621 -0.044481158772740288 0 -0.041137681326624154 -0.044688511133607098 0 -0.041548147987112621 -0.044481158772740288 0 -0.041148178433508549 -0.044301535475336343 0 -0.042551357026897926 -0.04316202685199147 0 -0.041148178433508549 -0.044301535475336343 0 -0.041264091358036832 -0.044005574601521762 0 -0.042551357026897926 -0.04316202685199147 0 -0.041548147987112621 -0.044481158772740288 0 -0.041148178433508549 -0.044301535475336343 0 -0.041137681326624154 -0.044688511133607098 0 -0.041574347924491231 -0.043772520209708204 0 -0.041264091358036832 -0.044005574601521762 0 -0.042551357026897926 -0.04316202685199147 0 -0.041574347924491231 -0.043772520209708204 0 -0.041264091358036832 -0.044005574601521762 0 -0.040938772847161194 -0.044311521184261328 0 -0.042166812112423756 -0.043200064822077069 0 -0.042586003179996411 -0.042577127272486276 0 -0.042551357026897926 -0.04316202685199147 0 -0.042166812112423756 -0.043200064822077069 0 -0.041574347924491231 -0.043772520209708204 0 -0.042551357026897926 -0.04316202685199147 0 -0.042586003179996411 -0.042577127272486276 0 -0.042551357026897926 -0.04316202685199147 0 -0.043266709329017522 -0.042375451580405475 0 -0.042073933031970358 -0.044634470834297404 0 -0.041548147987112621 -0.044481158772740288 0 -0.042551357026897926 -0.04316202685199147 0 -0.04263414070052278 -0.043736255830150936 0 -0.042617020178057199 -0.043052426643880877 0 -0.042551357026897926 -0.04316202685199147 0 -0.043266709329017522 -0.042375451580405475 0 -0.043917356373349259 -0.042280881749407861 0 -0.043345053573147822 -0.042557933659933614 0 -0.042551357026897926 -0.04316202685199147 0 -0.043917356373349259 -0.042280881749407861 0 -0.04398215863927725 -0.041961968423817449 0 -0.043266709329017522 -0.042375451580405475 0 -0.043917356373349259 -0.042280881749407861 0 -0.04398215863927725 -0.041961968423817449 0 -0.043266709329017522 -0.042375451580405475 0 -0.043952627852778862 -0.041691396856954777 0 -0.043266709329017522 -0.042375451580405475 0 -0.043105157150724112 -0.042094711381958055 0 -0.043952627852778862 -0.041691396856954777 0 -0.042586003179996411 -0.042577127272486276 0 -0.043266709329017522 -0.042375451580405475 0 -0.043105157150724112 -0.042094711381958055 0 -0.042281831795053307 -0.042129109396745308 0 -0.042586003179996411 -0.042577127272486276 0 -0.043105157150724112 -0.042094711381958055 0 -0.043639149442360262 -0.041509941629427047 0 -0.043952627852778862 -0.041691396856954777 0 -0.04544280540151608 -0.040421924218506301 0 -0.043639149442360262 -0.041509941629427047 0 -0.043105157150724112 -0.042094711381958055 0 -0.043952627852778862 -0.041691396856954777 0 -0.043952627852778862 -0.041691396856954777 0 -0.044576686204150708 -0.041433187400590675 0 -0.04544280540151608 -0.040421924218506301 0 -0.04398215863927725 -0.041961968423817449 0 -0.043952627852778862 -0.041691396856954777 0 -0.044576686204150708 -0.041433187400590675 0 -0.04398215863927725 -0.041961968423817449 0 -0.044576686204150708 -0.041433187400590675 0 -0.044558344213401414 -0.041632244936039564 0 -0.044576686204150708 -0.041433187400590675 0 -0.044558344213401414 -0.041632244936039564 0 -0.045415490489517318 -0.041105907680540558 0 -0.04398215863927725 -0.041961968423817449 0 -0.044558344213401414 -0.041632244936039564 0 -0.043917356373349259 -0.042280881749407861 0 -0.044558344213401414 -0.041632244936039564 0 -0.043917356373349259 -0.042280881749407861 0 -0.044671441656496842 -0.041592760078898006 0 -0.044558344213401414 -0.041632244936039564 0 -0.044671441656496842 -0.041592760078898006 0 -0.045070988882808992 -0.041366288706126048 0 -0.044671441656496842 -0.041592760078898006 0 -0.045070988882808992 -0.041366288706126048 0 -0.045130988368684247 -0.041269287594327422 0 -0.044558344213401414 -0.041632244936039564 0 -0.045070988882808992 -0.041366288706126048 0 -0.045462199083355574 -0.041237006604407607 0 -0.046382721076386656 -0.040428941785044317 0 -0.045415490489517318 -0.041105907680540558 0 -0.046134196767718558 -0.041105761669120097 0 -0.046382721076386656 -0.040428941785044317 0 -0.047471454306075973 -0.040421508383222615 0 -0.046134196767718558 -0.041105761669120097 0 -0.044558344213401414 -0.041632244936039564 0 -0.045462199083355574 -0.041237006604407607 0 -0.045415490489517318 -0.041105907680540558 0 -0.045462199083355574 -0.041237006604407607 0 -0.045415490489517318 -0.041105907680540558 0 -0.046134196767718558 -0.041105761669120097 0 -0.046382721076386656 -0.040428941785044317 0 -0.045415490489517318 -0.041105907680540558 0 -0.04544280540151608 -0.040421924218506301 0 -0.044576686204150708 -0.041433187400590675 0 -0.045415490489517318 -0.041105907680540558 0 -0.04544280540151608 -0.040421924218506301 0 -0.043806186524461152 -0.041274745616194167 0 -0.045923737489513068 -0.040540964657014691 0 -0.045923737489513068 -0.040540964657014691 0 -0.047798308757223629 -0.03968941124282898 0 -0.046382721076386656 -0.040428941785044317 0 -0.04544280540151608 -0.040421924218506301 0 -0.047263157070291752 -0.039472137180679295 0 -0.047806311786550697 -0.0389194976256459 0 -0.048261940555464455 -0.039910901710256096 0 -0.048771276928857264 -0.039048212255048696 0 -0.047806311786550697 -0.0389194976256459 0 -0.046513242635373285 -0.040547606729338173 0 -0.048261940555464455 -0.039910901710256096 0 -0.048261940555464455 -0.039910901710256096 0 -0.048771276928857264 -0.039048212255048696 0 -0.049510408565904142 -0.039168915481669279 0 -0.047798308757223629 -0.03968941124282898 0 -0.049380424652975451 -0.039295929533994675 0 -0.047263157070291752 -0.039472137180679295 0 -0.047471454306075973 -0.040421508383222615 0 -0.049510408565904142 -0.039168915481669279 0 -0.046382721076386656 -0.040428941785044317 0 -0.047263157070291752 -0.039472137180679295 0 -0.047471454306075973 -0.040421508383222615 0 -0.047471454306075973 -0.040421508383222615 0 -0.048694654555168915 -0.040639810099815439 0 -0.049510408565904142 -0.039168915481669279 0 -0.048694654555168915 -0.040639810099815439 0 -0.047833097503643229 -0.041519711161770653 0 -0.049711588696886945 -0.041527140464335879 0 -0.047471454306075973 -0.040421508383222615 0 -0.048694654555168915 -0.040639810099815439 0 -0.047833097503643229 -0.041519711161770653 0 -0.047471454306075973 -0.040421508383222615 0 -0.047833097503643229 -0.041519711161770653 0 -0.046134196767718558 -0.041105761669120097 0 -0.047608673056064671 -0.040953727334195007 0 -0.046292977890903822 -0.041028187909290678 0 -0.047352212799565814 -0.040346975999467988 0 -0.047063827227250409 -0.041228533521866881 0 -0.046265508807806298 -0.041067343214074792 0 -0.047352212799565814 -0.040346975999467988 0 -0.048080289870385304 -0.041141111121887189 0 -0.047063827227250409 -0.041228533521866881 0 -0.047608673056064671 -0.040953727334195007 0 -0.049574648555586617 -0.04094487182311795 0 -0.047352212799565814 -0.040346975999467988 0 -0.048080289870385304 -0.041141111121887189 0 -0.049443815582165998 -0.040366971822794147 0 -0.048080289870385304 -0.041141111121887189 0 -0.048995697321341035 -0.041675198200053665 0 -0.047708321309441887 -0.04231706914619101 0 -0.048080289870385304 -0.041141111121887189 0 -0.048995697321341035 -0.041675198200053665 0 -0.049443815582165998 -0.040366971822794147 0 -0.048995697321341035 -0.041675198200053665 0 -0.047708321309441887 -0.04231706914619101 0 -0.049895143652625137 -0.042591717124467854 0 -0.047592087542993954 -0.040437940529372267 0 -0.049498109069184282 -0.04025594643142047 0 -0.046892468538890994 -0.037228039982253817 0 -0.044313417129473828 -0.03640267065999301 0 -0.045575477988735673 -0.038397267098394472 0 -0.047592087542993954 -0.040437940529372267 0 -0.044491712612361289 -0.034094889406292038 0 -0.048080289870385304 -0.041141111121887189 0 -0.047708321309441887 -0.04231706914619101 0 -0.047063827227250409 -0.041228533521866881 0 -0.047708321309441887 -0.04231706914619101 0 -0.047063827227250409 -0.041228533521866881 0 -0.046581715860517146 -0.04146214242071123 0 -0.047063827227250409 -0.041228533521866881 0 -0.046581715860517146 -0.04146214242071123 0 -0.046265508807806298 -0.041067343214074792 0 -0.046581715860517146 -0.04146214242071123 0 -0.045957817993694472 -0.04118756804539022 0 -0.046265508807806298 -0.041067343214074792 0 -0.044491712612361289 -0.034094889406292038 0 -0.047248904518883535 -0.041576497519014155 0 -0.046581715860517146 -0.04146214242071123 0 -0.04615369132250554 -0.041775013855582306 0 -0.045957817993694472 -0.04118756804539022 0 -0.044850040704639722 -0.017607171311401108 0 -0.045061848446652453 -0.017610761163819807 0 -0.045366890947361828 -0.017481639000466676 0 -0.044491712612361289 -0.034094889406292038 0 -0.047213196589858585 -0.023776664101942409 0 -0.047708321309441887 -0.04231706914619101 0 -0.046581715860517146 -0.04146214242071123 0 -0.04615369132250554 -0.041775013855582306 0 -0.044850040704639722 -0.017607171311401108 0 -0.042726905422263289 -0.018322100307497688 0 -0.045366890947361828 -0.017481639000466676 0 -0.042726905422263289 -0.018322100307497688 0 -0.042320388606592277 -0.018649792881488079 0 -0.045366890947361828 -0.017481639000466676 0 -0.045569479060873885 -0.016696804341522951 0 -0.045366890947361828 -0.017481639000466676 0 -0.045609302600205161 -0.017171508689446564 0 -0.045569479060873885 -0.016696804341522951 0 -0.04554097049088731 -0.016960709538106675 0 -0.045609302600205161 -0.017171508689446564 0 -0.044297913847813869 -0.025690768265374607 0 -0.04433976333737874 -0.014651254661904003 0 -0.044491712612361289 -0.034094889406292038 0 -0.044225135872942183 -0.032825491028212167 0 -0.045939903400437139 -0.041114102387166312 0 -0.045979155626194979 -0.04103835900803178 0 -0.04597991344359767 -0.041002767601725609 0 -0.043603841645953233 -0.036696851799682143 0 -0.044225135872942183 -0.032825491028212167 0 -0.045939903400437139 -0.041114102387166312 0 -0.045957817993694472 -0.04118756804539022 0 -0.045979155626194979 -0.04103835900803178 0 -0.045957817993694472 -0.04118756804539022 0 -0.045943933195837387 -0.041130631720814478 0 -0.046265508807806298 -0.041067343214074792 0 -0.045957817993694472 -0.04118756804539022 0 -0.045979155626194979 -0.04103835900803178 0 -0.045943933195837387 -0.041130631720814478 0 -0.045979155626194979 -0.04103835900803178 0 -0.045943933195837387 -0.041130631720814478 0 -0.045882173337368583 -0.041121379636942734 0 -0.045979155626194979 -0.04103835900803178 0 -0.045882173337368583 -0.041121379636942734 0 -0.046284671971230075 -0.040712553196483856 0 -0.045889239812816875 -0.041166661268325064 0 -0.045943933195837387 -0.041130631720814478 0 -0.045882173337368583 -0.041121379636942734 0 -0.045889239812816875 -0.041166661268325064 0 -0.045538373737787692 -0.041235903195185289 0 -0.045882173337368583 -0.041121379636942734 0 -0.045889239812816875 -0.041166661268325064 0 -0.045943933195837387 -0.041130631720814478 0 -0.046265508807806298 -0.041067343214074792 0 -0.045889239812816875 -0.041166661268325064 0 -0.046265508807806298 -0.041067343214074792 0 -0.046134196767718558 -0.041105761669120097 0 -0.047352212799565814 -0.040346975999467988 0 -0.046265508807806298 -0.041067343214074792 0 -0.046134196767718558 -0.041105761669120097 0 -0.045462199083355574 -0.041237006604407607 0 -0.046134196767718558 -0.041105761669120097 0 -0.045538373737787692 -0.041235903195185289 0 -0.045889239812816875 -0.041166661268325064 0 -0.046134196767718558 -0.041105761669120097 0 -0.045538373737787692 -0.041235903195185289 0 -0.045070988882808992 -0.041366288706126048 0 -0.045462199083355574 -0.041237006604407607 0 -0.045538373737787692 -0.041235903195185289 0 -0.045070988882808992 -0.041366288706126048 0 -0.045538373737787692 -0.041235903195185289 0 -0.04540245714700198 -0.041216118025636593 0 -0.045070988882808992 -0.041366288706126048 0 -0.04540245714700198 -0.041216118025636593 0 -0.045130988368684247 -0.041269287594327422 0 -0.04540245714700198 -0.041216118025636593 0 -0.045130988368684247 -0.041269287594327422 0 -0.045453596341599019 -0.04120365984005122 0 -0.045538373737787692 -0.041235903195185289 0 -0.04540245714700198 -0.041216118025636593 0 -0.045882173337368583 -0.041121379636942734 0 -0.04540245714700198 -0.041216118025636593 0 -0.045453596341599019 -0.04120365984005122 0 -0.045882173337368583 -0.041121379636942734 0 -0.045453596341599019 -0.04120365984005122 0 -0.045882173337368583 -0.041121379636942734 0 -0.046358373625919005 -0.040643363965983677 0 -0.044594177807806952 -0.037250680060827907 0 -0.044297913847813869 -0.025690768265374607 0 -0.045882173337368583 -0.041121379636942734 0 -0.046284671971230075 -0.040712553196483856 0 -0.046358373625919005 -0.040643363965983677 0 -0.044225135872942183 -0.032825491028212167 0 -0.044297913847813869 -0.025690768265374607 0 -0.045569479060873885 -0.016696804341522951 0 -0.04554097049088731 -0.016960709538106675 0 -0.044666253579902948 -0.016808847821807076 0 -0.044297913847813869 -0.025690768265374607 0 -0.044083430550818627 -0.020604200883367431 0 -0.039525169809272793 -0.028189470221421584 0 -0.043277717101668223 -0.025453878129850088 0 -0.044358127572891634 -0.027383641375951669 0 -0.042920355915943634 -0.031002336481078779 0 -0.039525169809272793 -0.028189470221421584 0 -0.044358127572891634 -0.027383641375951669 0 -0.042920355915943634 -0.031002336481078779 0 -0.044358127572891634 -0.027383641375951669 0 -0.046686747540704995 -0.029772818762128884 0 -0.045455813689518718 -0.028271237860103299 0 -0.042589101537277602 -0.029223824097046179 0 -0.044358127572891634 -0.027383641375951669 0 -0.046665698640569166 -0.02620653673237994 0 -0.046425522456050437 -0.029511030271706127 0 -0.044358127572891634 -0.027383641375951669 0 -0.045291278483034388 -0.025463670053877778 0 -0.046665698640569166 -0.02620653673237994 0 -0.043277717101668223 -0.025453878129850088 0 -0.044358127572891634 -0.027383641375951669 0 -0.045291278483034388 -0.025463670053877778 0 -0.037684472880929749 -0.024687808291403216 0 -0.039695155634273539 -0.027030757965656241 0 -0.04128986004186435 -0.023889958661534962 0 -0.042067731085450276 -0.025683829954564839 0 -0.042589101537277602 -0.029223824097046179 0 -0.037684472880929749 -0.024687808291403216 0 -0.039695155634273539 -0.027030757965656241 0 -0.037353189520661315 -0.028174420440128783 0 -0.039695155634273539 -0.027030757965656241 0 -0.037353189520661315 -0.028174420440128783 0 -0.039910669716767988 -0.030921624765809411 0 -0.040810004410934186 -0.032523493219947908 0 -0.040447261062711258 -0.038332065969546997 0 -0.044802581534428586 -0.036661512800978485 0 -0.042589101537277602 -0.029223824097046179 0 -0.040426445116751045 -0.038339351252117716 0 -0.042920355915943634 -0.031002336481078779 0 -0.046686747540704995 -0.029772818762128884 0 -0.046435076701089886 -0.033884925488444448 0 -0.042589101537277602 -0.029223824097046179 0 -0.044231499161437822 -0.038497679294032118 0 -0.044594177807806952 -0.037250680060827907 0 -0.044231499161437822 -0.038497679294032118 0 -0.045130988368684247 -0.041269287594327422 0 -0.045453596341599019 -0.04120365984005122 0 -0.045232120598025609 -0.041236201756331435 0 -0.043392244689785933 -0.043326542463537392 0 -0.044231499161437822 -0.038497679294032118 0 -0.045225061173745591 -0.041487607164090237 0 -0.045130988368684247 -0.041269287594327422 0 -0.045232120598025609 -0.041236201756331435 0 -0.040447261062711258 -0.038332065969546997 0 -0.042505648247626336 -0.03997419171917186 0 -0.044802581534428586 -0.036661512800978485 0 -0.043040123150513809 -0.042989590134229143 0 -0.043192873294203807 -0.040497218571747054 0 -0.044205509584258187 -0.041307239153368397 0 -0.042070530962410438 -0.042889648517256442 0 -0.041047483431500408 -0.045307065983573182 0 -0.040778880387873993 -0.044906007710854935 0 -0.040873685513255251 -0.044902838227813976 0 -0.04086139820432394 -0.044773714031732068 0 -0.042070530962410438 -0.042889648517256442 0 -0.040426445116751045 -0.038339351252117716 0 -0.044231499161437822 -0.038497679294032118 0 -0.042070530962410438 -0.042889648517256442 0 -0.055752536026798277 -0.037597606875770094 0 -0.054945356966325416 -0.037830969797880851 0 -0.055197473268414635 -0.037623287189437554 0 -0.055752536026798277 -0.037597606875770094 0 -0.054945356966325416 -0.037830969797880851 0 -0.055951245412909453 -0.037442056789670726 0 -0.054945356966325416 -0.037830969797880851 0 -0.054076395281213573 -0.037688332620058322 0 -0.053625224528747684 -0.038426358890388791 0 -0.054945356966325416 -0.037830969797880851 0 -0.055951245412909453 -0.037442056789670726 0 -0.053625224528747684 -0.038426358890388791 0 -0.055951245412909453 -0.037442056789670726 0 -0.053625224528747684 -0.038426358890388791 0 -0.053578004134620688 -0.039203965226856492 0 -0.055752536026798277 -0.037597606875770094 0 -0.055951245412909453 -0.037442056789670726 0 -0.055853335591023318 -0.036453832145902414 0 -0.055853335591023318 -0.036453832145902414 0 -0.0549997944736672 -0.037225822387175041 0 -0.0549990743710339 -0.034120226225721438 0 -0.055853335591023318 -0.036453832145902414 0 -0.0549997944736672 -0.037225822387175041 0 -0.055739943019822845 -0.038043608412249769 0 -0.055752536026798277 -0.037597606875770094 0 -0.055853335591023318 -0.036453832145902414 0 -0.055739943019822845 -0.038043608412249769 0 -0.055752536026798277 -0.037597606875770094 0 -0.055739943019822845 -0.038043608412249769 0 -0.055857125104192919 -0.038041989377275001 0 -0.0549997944736672 -0.037225822387175041 0 -0.055112447092370641 -0.040092114748769517 0 -0.05499773625057832 -0.040328610148089243 0 -0.0549997944736672 -0.037225822387175041 0 -0.055739943019822845 -0.038043608412249769 0 -0.055112447092370641 -0.040092114748769517 0 -0.054453406199265426 -0.04125574451837169 0 -0.055112447092370641 -0.040092114748769517 0 -0.05499773625057832 -0.040328610148089243 0 -0.055739943019822845 -0.038043608412249769 0 -0.055112447092370641 -0.040092114748769517 0 -0.055857125104192919 -0.038041989377275001 0 -0.054980321812511085 -0.040798433842658063 0 -0.055112447092370641 -0.040092114748769517 0 -0.055357915377009716 -0.040346375029062978 0 -0.054858750381183936 -0.03993016539469256 0 -0.055886695706731125 -0.039231327349883591 0 -0.05543720213213018 -0.041398687780905732 0 -0.054980321812511085 -0.040798433842658063 0 -0.055357915377009716 -0.040346375029062978 0 -0.055886695706731125 -0.039231327349883591 0 -0.05425668807756634 -0.038732424036059455 0 -0.055857125104192919 -0.038041989377275001 0 -0.055197473268414635 -0.037623287189437554 0 -0.054708676032968369 -0.037117902137490222 0 -0.055752536026798277 -0.037597606875770094 0 -0.055857125104192919 -0.038041989377275001 0 -0.055197473268414635 -0.037623287189437554 0 -0.054945356966325416 -0.037830969797880851 0 -0.054076395281213573 -0.037688332620058322 0 -0.055197473268414635 -0.037623287189437554 0 -0.054076395281213573 -0.037688332620058322 0 -0.055197473268414635 -0.037623287189437554 0 -0.054708676032968369 -0.037117902137490222 0 -0.054294239711813443 -0.037134669813729995 0 -0.05425668807756634 -0.038732424036059455 0 -0.056831665426452065 -0.041551921180946076 0 -0.055357915377009716 -0.040346375029062978 0 -0.057092565041448044 -0.040184756712469537 0 -0.053883813897016977 -0.039017365371840418 0 -0.05425668807756634 -0.038732424036059455 0 -0.050694694356258743 -0.03817681677922926 0 -0.050617731674419179 -0.038261714928030405 0 -0.050558972425518017 -0.03821584808841965 0 -0.05425668807756634 -0.038732424036059455 0 -0.051319288469473645 -0.037641027607941115 0 -0.050558972425518017 -0.03821584808841965 0 -0.05049511093649265 -0.038183249533935676 0 -0.050492138870106472 -0.038243987274551076 0 -0.050617731674419179 -0.038261714928030405 0 -0.050558972425518017 -0.03821584808841965 0 -0.05049511093649265 -0.038183249533935676 0 -0.05049511093649265 -0.038183249533935676 0 -0.050492138870106472 -0.038243987274551076 0 -0.050759691691586166 -0.037958830284412069 0 -0.051319288469473645 -0.037641027607941115 0 -0.051051332101605985 -0.037820164333507572 0 -0.050492138870106472 -0.038243987274551076 0 -0.050759691691586166 -0.037958830284412069 0 -0.050325822796549874 -0.038284760962780828 0 -0.050759691691586166 -0.037958830284412069 0 -0.050583712097849814 -0.038671483784959847 0 -0.051819370630643777 -0.038647144343091334 0 -0.050759691691586166 -0.037958830284412069 0 -0.052645248215648414 -0.037982561643703956 0 -0.051819370630643777 -0.038647144343091334 0 -0.052676406890610775 -0.03693067338611726 0 -0.050759691691586166 -0.037958830284412069 0 -0.052645248215648414 -0.037982561643703956 0 -0.054076395281213573 -0.037688332620058322 0 -0.054177335987946662 -0.036683630455326868 0 -0.052676406890610775 -0.03693067338611726 0 -0.054076395281213573 -0.037688332620058322 0 -0.052676406890610775 -0.03693067338611726 0 -0.052645248215648414 -0.037982561643703956 0 -0.048771276928857264 -0.039048212255048696 0 -0.049728710341357944 -0.038534167646042977 0 -0.049510408565904142 -0.039168915481669279 0 -0.049728710341357944 -0.038534167646042977 0 -0.050325822796549874 -0.038284760962780828 0 -0.0502112160384698 -0.038466730574214278 0 -0.050759691691586166 -0.037958830284412069 0 -0.050325822796549874 -0.038284760962780828 0 -0.0502112160384698 -0.038466730574214278 0 -0.050583712097849814 -0.038671483784959847 0 -0.0502112160384698 -0.038466730574214278 0 -0.049510408565904142 -0.039168915481669279 0 -0.050759691691586166 -0.037958830284412069 0 -0.050583712097849814 -0.038671483784959847 0 -0.0502112160384698 -0.038466730574214278 0 -0.049728710341357944 -0.038534167646042977 0 -0.0502112160384698 -0.038466730574214278 0 -0.049510408565904142 -0.039168915481669279 0 -0.050583712097849814 -0.038671483784959847 0 -0.049510408565904142 -0.039168915481669279 0 -0.050841620712518937 -0.039273456776150878 0 -0.050583712097849814 -0.038671483784959847 0 -0.050841620712518937 -0.039273456776150878 0 -0.051819370630643777 -0.038647144343091334 0 -0.049510408565904142 -0.039168915481669279 0 -0.050841620712518937 -0.039273456776150878 0 -0.050098018270358202 -0.040154059149033972 0 -0.050841620712518937 -0.039273456776150878 0 -0.050098018270358202 -0.040154059149033972 0 -0.052080214921312387 -0.039529854042987776 0 -0.048694654555168915 -0.040639810099815439 0 -0.049510408565904142 -0.039168915481669279 0 -0.050098018270358202 -0.040154059149033972 0 -0.052645248215648414 -0.037982561643703956 0 -0.051819370630643777 -0.038647144343091334 0 -0.053625224528747684 -0.038426358890388791 0 -0.054076395281213573 -0.037688332620058322 0 -0.052645248215648414 -0.037982561643703956 0 -0.053625224528747684 -0.038426358890388791 0 -0.050841620712518937 -0.039273456776150878 0 -0.051819370630643777 -0.038647144343091334 0 -0.052080214921312387 -0.039529854042987776 0 -0.051819370630643777 -0.038647144343091334 0 -0.052080214921312387 -0.039529854042987776 0 -0.053625224528747684 -0.038426358890388791 0 -0.052080214921312387 -0.039529854042987776 0 -0.053625224528747684 -0.038426358890388791 0 -0.053578004134620688 -0.039203965226856492 0 -0.052080214921312387 -0.039529854042987776 0 -0.052054297993483212 -0.040407836151057933 0 -0.053578004134620688 -0.039203965226856492 0 -0.052080214921312387 -0.039529854042987776 0 -0.052054297993483212 -0.040407836151057933 0 -0.050983271060333207 -0.040627049388404446 0 -0.052054297993483212 -0.040407836151057933 0 -0.050983271060333207 -0.040627049388404446 0 -0.051443561679169268 -0.04108001397748326 0 -0.052054297993483212 -0.040407836151057933 0 -0.052593223350506015 -0.040881896565012565 0 -0.053318208573400257 -0.040417783776064947 0 -0.052054297993483212 -0.040407836151057933 0 -0.053318208573400257 -0.040417783776064947 0 -0.053578004134620688 -0.039203965226856492 0 -0.048694654555168915 -0.040639810099815439 0 -0.050098018270358202 -0.040154059149033972 0 -0.049711588696886945 -0.041527140464335879 0 -0.050098018270358202 -0.040154059149033972 0 -0.050983271060333207 -0.040627049388404446 0 -0.049711588696886945 -0.041527140464335879 0 -0.050098018270358202 -0.040154059149033972 0 -0.052080214921312387 -0.039529854042987776 0 -0.050983271060333207 -0.040627049388404446 0 -0.050983271060333207 -0.040627049388404446 0 -0.049711588696886945 -0.041527140464335879 0 -0.051443561679169268 -0.04108001397748326 0 -0.048995697321341035 -0.041675198200053665 0 -0.049443815582165998 -0.040366971822794147 0 -0.050246279059822284 -0.041493094576532739 0 -0.050246279059822284 -0.041493094576532739 0 -0.051443561679169268 -0.04108001397748326 0 -0.051202632126484945 -0.041768673680313277 0 -0.049443815582165998 -0.040366971822794147 0 -0.050246279059822284 -0.041493094576532739 0 -0.051443561679169268 -0.04108001397748326 0 -0.049574648555586617 -0.04094487182311795 0 -0.051258851914943442 -0.041121188871055453 0 -0.051202632126484945 -0.041768673680313277 0 -0.049895143652625137 -0.042591717124467854 0 -0.051998970773799578 -0.042183668099044003 0 -0.050246279059822284 -0.041493094576532739 0 -0.051202632126484945 -0.041768673680313277 0 -0.049895143652625137 -0.042591717124467854 0 -0.048995697321341035 -0.041675198200053665 0 -0.050246279059822284 -0.041493094576532739 0 -0.049895143652625137 -0.042591717124467854 0 -0.052593223350506015 -0.040881896565012565 0 -0.053401318228881806 -0.040875743295406587 0 -0.053318208573400257 -0.040417783776064947 0 -0.052593223350506015 -0.040881896565012565 0 -0.052906500453303335 -0.041092601238240212 0 -0.053401318228881806 -0.040875743295406587 0 -0.052054297993483212 -0.040407836151057933 0 -0.051443561679169268 -0.04108001397748326 0 -0.052593223350506015 -0.040881896565012565 0 -0.051443561679169268 -0.04108001397748326 0 -0.052593223350506015 -0.040881896565012565 0 -0.052234265904389385 -0.041486482098775548 0 -0.051443561679169268 -0.04108001397748326 0 -0.051202632126484945 -0.041768673680313277 0 -0.052234265904389385 -0.041486482098775548 0 -0.051202632126484945 -0.041768673680313277 0 -0.052234265904389385 -0.041486482098775548 0 -0.051998970773799578 -0.042183668099044003 0 -0.052234265904389385 -0.041486482098775548 0 -0.052809115406314784 -0.041255041860584721 0 -0.052684606592518085 -0.041500496508283899 0 -0.052234265904389385 -0.041486482098775548 0 -0.052809115406314784 -0.041255041860584721 0 -0.052906500453303335 -0.041092601238240212 0 -0.052593223350506015 -0.040881896565012565 0 -0.052234265904389385 -0.041486482098775548 0 -0.052906500453303335 -0.041092601238240212 0 -0.052906500453303335 -0.041092601238240212 0 -0.053235746144973201 -0.040991710324092885 0 -0.053401318228881806 -0.040875743295406587 0 -0.052809115406314784 -0.041255041860584721 0 -0.053235746144973201 -0.040991710324092885 0 -0.053056937660625997 -0.04114383057858368 0 -0.052809115406314784 -0.041255041860584721 0 -0.052906500453303335 -0.041092601238240212 0 -0.053235746144973201 -0.040991710324092885 0 -0.053235746144973201 -0.040991710324092885 0 -0.053546389417372033 -0.040727741622144827 0 -0.053434215025915652 -0.04075627247409444 0 -0.053546389417372033 -0.040727741622144827 0 -0.053700718018307995 -0.040714854198196058 0 -0.053401318228881806 -0.040875743295406587 0 -0.053235746144973201 -0.040991710324092885 0 -0.053546389417372033 -0.040727741622144827 0 -0.053401318228881806 -0.040875743295406587 0 -0.053700718018307995 -0.040714854198196058 0 -0.053625733666841084 -0.040798152624847983 0 -0.053423759582872481 -0.040329817443498915 0 -0.053546389417372033 -0.040727741622144827 0 -0.053526629940423912 -0.040510761489091884 0 -0.053423759582872481 -0.040329817443498915 0 -0.053546389417372033 -0.040727741622144827 0 -0.053700718018307995 -0.040714854198196058 0 -0.053423759582872481 -0.040329817443498915 0 -0.053700718018307995 -0.040714854198196058 0 -0.053970430110586456 -0.040642436927229422 0 -0.053625733666841084 -0.040798152624847983 0 -0.053970430110586456 -0.040642436927229422 0 -0.054854426887849882 -0.040158037144102474 0 -0.053625733666841084 -0.040798152624847983 0 -0.053970430110586456 -0.040642436927229422 0 -0.053401318228881806 -0.040875743295406587 0 -0.053318208573400257 -0.040417783776064947 0 -0.053700718018307995 -0.040714854198196058 0 -0.053970430110586456 -0.040642436927229422 0 -0.053401318228881806 -0.040875743295406587 0 -0.054285440289415364 -0.03976552733283123 0 -0.053318208573400257 -0.040417783776064947 0 -0.053578004134620688 -0.039203965226856492 0 -0.053970430110586456 -0.040642436927229422 0 -0.054285440289415364 -0.03976552733283123 0 -0.053318208573400257 -0.040417783776064947 0 -0.053970430110586456 -0.040642436927229422 0 -0.054285440289415364 -0.03976552733283123 0 -0.054854426887849882 -0.040158037144102474 0 -0.055951245412909453 -0.037442056789670726 0 -0.054285440289415364 -0.03976552733283123 0 -0.054854426887849882 -0.040158037144102474 0 -0.055928759745528536 -0.037116864391181024 0 -0.055941214951690757 -0.03656659868284326 0 -0.055951245412909453 -0.037442056789670726 0 -0.054285440289415364 -0.03976552733283123 0 -0.053578004134620688 -0.039203965226856492 0 -0.055853335591023318 -0.036453832145902414 0 -0.0549990743710339 -0.034120226225721438 0 -0.055858875156137411 -0.033302687502990994 0 -0.055951245412909453 -0.037442056789670726 0 -0.057276223171062672 -0.033295151441234141 0 -0.055858875156137411 -0.033302687502990994 0 -0.055951245412909453 -0.037442056789670726 0 -0.055853335591023318 -0.036453832145902414 0 -0.055858875156137411 -0.033302687502990994 0 -0.057276223171062672 -0.033295151441234141 0 -0.055858875156137411 -0.033302687502990994 0 -0.057310547343473094 -0.03024641021798552 0 -0.055858875156137411 -0.033302687502990994 0 -0.054999264176367968 -0.031013154166969547 0 -0.057310547343473094 -0.03024641021798552 0 -0.0549990743710339 -0.034120226225721438 0 -0.055858875156137411 -0.033302687502990994 0 -0.054999264176367968 -0.031013154166969547 0 -0.054999264176367968 -0.031013154166969547 0 -0.056180205146564369 -0.029234221760395855 0 -0.055000017337777062 -0.027906106284650629 0 -0.054999264176367968 -0.031013154166969547 0 -0.057310547343473094 -0.03024641021798552 0 -0.056180205146564369 -0.029234221760395855 0 -0.055941214951690757 -0.03656659868284326 0 -0.055410738159910357 -0.035358313974858877 0 -0.057310547343473094 -0.03024641021798552 0 -0.056180205146564369 -0.029234221760395855 0 -0.057010340862360842 -0.027811024987096832 0 -0.055410738159910357 -0.035358313974858877 0 -0.054758415215972106 -0.034102963974927278 0 -0.053625733666841084 -0.040798152624847983 0 -0.052336940313868478 -0.039943574755681797 0 -0.053423759582872481 -0.040329817443498915 0 -0.056180205146564369 -0.029234221760395855 0 -0.055000017337777062 -0.027906106284650629 0 -0.057010340862360842 -0.027811024987096832 0 -0.055000017337777062 -0.027906106284650629 0 -0.055000197848870107 -0.024799889526847339 0 -0.056311921277783193 -0.025306655564703809 0 -0.054758415215972106 -0.034102963974927278 0 -0.05340232590947866 -0.03009356611492996 0 -0.055000017337777062 -0.027906106284650629 0 -0.057010340862360842 -0.027811024987096832 0 -0.056311921277783193 -0.025306655564703809 0 -0.052336940313868478 -0.039943574755681797 0 -0.052720396256740652 -0.038626748080974799 0 -0.051225147308100218 -0.037779397540027744 0 -0.052336940313868478 -0.039943574755681797 0 -0.052937070753467354 -0.039692683117942565 0 -0.053423759582872481 -0.040329817443498915 0 -0.052336940313868478 -0.039943574755681797 0 -0.052937070753467354 -0.039692683117942565 0 -0.052720396256740652 -0.038626748080974799 0 -0.052937070753467354 -0.039692683117942565 0 -0.052720396256740652 -0.038626748080974799 0 -0.053206236815539876 -0.039624338131526854 0 -0.055948556914699847 -0.022192957155897475 0 -0.055424690867237454 -0.023559124934984448 0 -0.055797359311359526 -0.021959637387814829 0 -0.05413374057493666 -0.030354337906429146 0 -0.05340232590947866 -0.03009356611492996 0 -0.054999854819970787 -0.024794411987182317 0 -0.055424690867237454 -0.023559124934984448 0 -0.055797359311359526 -0.021959637387814829 0 -0.055000088894861923 -0.024801793985983901 0 -0.05340232590947866 -0.03009356611492996 0 -0.053470857318262878 -0.040646226446344004 0 -0.053612357989580764 -0.039968114434075504 0 -0.053404635580265446 -0.0409425744119013 0 -0.053389361652513338 -0.040792564141551822 0 -0.053470857318262878 -0.040646226446344004 0 -0.053404635580265446 -0.0409425744119013 0 -0.053389361652513338 -0.040792564141551822 0 -0.053470857318262878 -0.040646226446344004 0 -0.053357392578488538 -0.040826430967246155 0 -0.053389361652513338 -0.040792564141551822 0 -0.053357392578488538 -0.040826430967246155 0 -0.053348733222815858 -0.040830511196313202 0 -0.053470857318262878 -0.040646226446344004 0 -0.05348647250892688 -0.040592347241506004 0 -0.053412021025005467 -0.040748040007408913 0 -0.053470857318262878 -0.040646226446344004 0 -0.053412021025005467 -0.040748040007408913 0 -0.053357392578488538 -0.040826430967246155 0 -0.053412021025005467 -0.040748040007408913 0 -0.053357392578488538 -0.040826430967246155 0 -0.053287673498080564 -0.040919116664424653 0 -0.053235746144973201 -0.040991710324092885 0 -0.053434215025915652 -0.04075627247409444 0 -0.053287673498080564 -0.040919116664424653 0 -0.053412021025005467 -0.040748040007408913 0 -0.053434215025915652 -0.04075627247409444 0 -0.053287673498080564 -0.040919116664424653 0 -0.05348647250892688 -0.040592347241506004 0 -0.053412021025005467 -0.040748040007408913 0 -0.053434215025915652 -0.04075627247409444 0 -0.05348647250892688 -0.040592347241506004 0 -0.053434215025915652 -0.04075627247409444 0 -0.053526629940423912 -0.040510761489091884 0 -0.053546389417372033 -0.040727741622144827 0 -0.053434215025915652 -0.04075627247409444 0 -0.053526629940423912 -0.040510761489091884 0 -0.05348647250892688 -0.040592347241506004 0 -0.053526629940423912 -0.040510761489091884 0 -0.053543146575931122 -0.04029664940975717 0 -0.053526629940423912 -0.040510761489091884 0 -0.053543146575931122 -0.04029664940975717 0 -0.053470562371624064 -0.040159843176049904 0 -0.053470857318262878 -0.040646226446344004 0 -0.05348647250892688 -0.040592347241506004 0 -0.053543146575931122 -0.04029664940975717 0 -0.053470857318262878 -0.040646226446344004 0 -0.053543146575931122 -0.04029664940975717 0 -0.053612357989580764 -0.039968114434075504 0 -0.053484814921483534 -0.040022432112189928 0 -0.053206236815539876 -0.039624338131526854 0 -0.053612357989580764 -0.039968114434075504 0 -0.053543146575931122 -0.04029664940975717 0 -0.053484814921483534 -0.040022432112189928 0 -0.053612357989580764 -0.039968114434075504 0 -0.053484814921483534 -0.040022432112189928 0 -0.053470562371624064 -0.040159843176049904 0 -0.053206236815539876 -0.039624338131526854 0 -0.053543146575931122 -0.04029664940975717 0 -0.053484814921483534 -0.040022432112189928 0 -0.053470562371624064 -0.040159843176049904 0 -0.053526629940423912 -0.040510761489091884 0 -0.053470562371624064 -0.040159843176049904 0 -0.053423759582872481 -0.040329817443498915 0 -0.053470562371624064 -0.040159843176049904 0 -0.053423759582872481 -0.040329817443498915 0 -0.053206236815539876 -0.039624338131526854 0 -0.052937070753467354 -0.039692683117942565 0 -0.053423759582872481 -0.040329817443498915 0 -0.053206236815539876 -0.039624338131526854 0 -0.05413374057493666 -0.030354337906429146 0 -0.054767289208472007 -0.030954200146648032 0 -0.055948556914699847 -0.022192957155897475 0 -0.05603210327847221 -0.020730638576641116 0 -0.056104820898594844 -0.020770795622008356 0 -0.052720396256740652 -0.038626748080974799 0 -0.053849883408535519 -0.040145916169292771 0 -0.053612357989580764 -0.039968114434075504 0 -0.052720396256740652 -0.038626748080974799 0 -0.053206236815539876 -0.039624338131526854 0 -0.053612357989580764 -0.039968114434075504 0 -0.05352626263219986 -0.039854915816489735 0 -0.054318554008199009 -0.033811462180478181 0 -0.05603210327847221 -0.020730638576641116 0 -0.055777158769215546 -0.020261601382452941 0 -0.055793326073902735 -0.020159230629100407 0 -0.053849883408535519 -0.040145916169292771 0 -0.053612357989580764 -0.039968114434075504 0 -0.054304686222414481 -0.040552385596229833 0 -0.054767289208472007 -0.030954200146648032 0 -0.054318554008199009 -0.033811462180478181 0 -0.05603210327847221 -0.020730638576641116 0 -0.056104820898594844 -0.020770795622008356 0 -0.055777158769215546 -0.020261601382452941 0 -0.056104820898594844 -0.020770795622008356 0 -0.05588488439674856 -0.020230292834078133 0 -0.055777158769215546 -0.020261601382452941 0 -0.056104820898594844 -0.020770795622008356 0 -0.055756423745553028 -0.020192550835102154 0 -0.055849434191325709 -0.018949298412519664 0 -0.056104820898594844 -0.020770795622008356 0 -0.056017398114624396 -0.019624847740055611 0 -0.05588488439674856 -0.020230292834078133 0 -0.054999854819970787 -0.024794411987182317 0 -0.055797359311359526 -0.021959637387814829 0 -0.054999221923142827 -0.022012343180992551 0 -0.055948556914699847 -0.022192957155897475 0 -0.056104820898594844 -0.020770795622008356 0 -0.055797359311359526 -0.021959637387814829 0 -0.056104820898594844 -0.020770795622008356 0 -0.055797359311359526 -0.021959637387814829 0 -0.055756423745553028 -0.020192550835102154 0 -0.055797359311359526 -0.021959637387814829 0 -0.054999221923142827 -0.022012343180992551 0 -0.055756423745553028 -0.020192550835102154 0 -0.054999221923142827 -0.022012343180992551 0 -0.054999178297904044 -0.019226606130884005 0 -0.055756423745553028 -0.020192550835102154 0 -0.054999178297904044 -0.019226606130884005 0 -0.055564679588806287 -0.017991543358453984 0 -0.055756423745553028 -0.020192550835102154 0 -0.054999178297904044 -0.019226606130884005 0 -0.055564679588806287 -0.017991543358453984 0 -0.054999032316450758 -0.016440256658476673 0 -0.055564679588806287 -0.017991543358453984 0 -0.055756423745553028 -0.020192550835102154 0 -0.055849434191325709 -0.018949298412519664 0 -0.056104820898594844 -0.020770795622008356 0 -0.055849434191325709 -0.018949298412519664 0 -0.056017398114624396 -0.019624847740055611 0 -0.055849434191325709 -0.018949298412519664 0 -0.056017398114624396 -0.019624847740055611 0 -0.056154390759820184 -0.018555714789345843 0 -0.055849434191325709 -0.018949298412519664 0 -0.05553787690348487 -0.01729822876233806 0 -0.056154390759820184 -0.018555714789345843 0 -0.055564679588806287 -0.017991543358453984 0 -0.055849434191325709 -0.018949298412519664 0 -0.05553787690348487 -0.01729822876233806 0 -0.05553787690348487 -0.01729822876233806 0 -0.055137398318539942 -0.016716516920281536 0 -0.056154390759820184 -0.018555714789345843 0 -0.05553787690348487 -0.01729822876233806 0 -0.055137398318539942 -0.016716516920281536 0 -0.055178956692528064 -0.016318437783972371 0 -0.05553787690348487 -0.01729822876233806 0 -0.055178956692528064 -0.016318437783972371 0 -0.055507624977576761 -0.016267643166571574 0 -0.055178956692528064 -0.016318437783972371 0 -0.055507624977576761 -0.016267643166571574 0 -0.055388402180356552 -0.015660854520765967 0 -0.055507624977576761 -0.016267643166571574 0 -0.055388402180356552 -0.015660854520765967 0 -0.055411936254846472 -0.015199298227405771 0 -0.055507624977576761 -0.016267643166571574 0 -0.055411936254846472 -0.015199298227405771 0 -0.054999032316450758 -0.016440256658476673 0 -0.055388402180356552 -0.015660854520765967 0 -0.055411936254846472 -0.015199298227405771 0 -0.055468740035792378 -0.015280806148140787 0 -0.055411936254846472 -0.015199298227405771 0 -0.054999032316450758 -0.016440256658476673 0 -0.05500011042428387 -0.013660494588733786 0 -0.055564679588806287 -0.017991543358453984 0 -0.055507624977576761 -0.016267643166571574 0 -0.054999032316450758 -0.016440256658476673 0 -0.055564679588806287 -0.017991543358453984 0 -0.05553787690348487 -0.01729822876233806 0 -0.055507624977576761 -0.016267643166571574 0 -0.052597769919727574 -0.019030611843772759 0 -0.055293219121978758 -0.016624641845866706 0 -0.048400626040524974 -0.019932988940963559 0 -0.049544794956701915 -0.018427308837534864 0 -0.049657233314879458 -0.019708093016087686 0 -0.052597769919727574 -0.019030611843772759 0 -0.04882099358912511 -0.018353696133810448 0 -0.050952504317845253 -0.016175966262031688 0 -0.049544794956701915 -0.018427308837534864 0 -0.051488979342540368 -0.017986761652973873 0 -0.050952504317845253 -0.016175966262031688 0 -0.052883479646752066 -0.016251751903033809 0 -0.051488979342540368 -0.017986761652973873 0 -0.052883479646752066 -0.016251751903033809 0 -0.052981325335941534 -0.017419302596203796 0 -0.051488979342540368 -0.017986761652973873 0 -0.055137398318539942 -0.016716516920281536 0 -0.052883479646752066 -0.016251751903033809 0 -0.052981325335941534 -0.017419302596203796 0 -0.055137398318539942 -0.016716516920281536 0 -0.054002910695446521 -0.017300506454012436 0 -0.052981325335941534 -0.017419302596203796 0 -0.054975787147332734 -0.016777493454900438 0 -0.055293219121978758 -0.016624641845866706 0 -0.055137398318539942 -0.016716516920281536 0 -0.056919156970349501 -0.017403604255068914 0 -0.056154390759820184 -0.018555714789345843 0 -0.056919156970349501 -0.017403604255068914 0 -0.056154390759820184 -0.018555714789345843 0 -0.057256178669169572 -0.019005096224150097 0 -0.058137825491993304 -0.017873513715183184 0 -0.056919156970349501 -0.017403604255068914 0 -0.057256178669169572 -0.019005096224150097 0 -0.056017398114624396 -0.019624847740055611 0 -0.056154390759820184 -0.018555714789345843 0 -0.05588488439674856 -0.020230292834078133 0 -0.056154390759820184 -0.018555714789345843 0 -0.057256178669169572 -0.019005096224150097 0 -0.05588488439674856 -0.020230292834078133 0 -0.054316337903012574 -0.020758051252188298 0 -0.053839979154453765 -0.020089758306074592 0 -0.05588488439674856 -0.020230292834078133 0 -0.056273410546851324 -0.019914098630509143 0 -0.055743023993707036 -0.020165405483057074 0 -0.054316337903012574 -0.020758051252188298 0 -0.052624542396602733 -0.020088528629990408 0 -0.053839979154453765 -0.020089758306074592 0 -0.052597769919727574 -0.019030611843772759 0 -0.056273410546851324 -0.019914098630509143 0 -0.052839457294443393 -0.022059388779438503 0 -0.054316337903012574 -0.020758051252188298 0 -0.052624542396602733 -0.020088528629990408 0 -0.052839457294443393 -0.022059388779438503 0 -0.052624542396602733 -0.020088528629990408 0 -0.049744297639850894 -0.020546718269675354 0 -0.052597769919727574 -0.019030611843772759 0 -0.049096743506207234 -0.021038852177493839 0 -0.052624542396602733 -0.020088528629990408 0 -0.050222487992692473 -0.017982583060050242 0 -0.049455872996349723 -0.019266074242745942 0 -0.052624542396602733 -0.020088528629990408 0 -0.053839979154453765 -0.020089758306074592 0 -0.053116675732050214 -0.020016754154035137 0 -0.052570824089015485 -0.020064532865449243 0 -0.051713841809303364 -0.019153528656415557 0 -0.053839979154453765 -0.020089758306074592 0 -0.054377545789632165 -0.019804336189497652 0 -0.053116675732050214 -0.020016754154035137 0 -0.054377545789632165 -0.019804336189497652 0 -0.053489048671498375 -0.019493463542124695 0 -0.053116675732050214 -0.020016754154035137 0 -0.053839979154453765 -0.020089758306074592 0 -0.054377545789632165 -0.019804336189497652 0 -0.05588488439674856 -0.020230292834078133 0 -0.054377545789632165 -0.019804336189497652 0 -0.05588488439674856 -0.020230292834078133 0 -0.055777158769215546 -0.020261601382452941 0 -0.055777158769215546 -0.020261601382452941 0 -0.055793326073902735 -0.020159230629100407 0 -0.055174598489014771 -0.019500932767460441 0 -0.054377545789632165 -0.019804336189497652 0 -0.055777158769215546 -0.020261601382452941 0 -0.055174598489014771 -0.019500932767460441 0 -0.054377545789632165 -0.019804336189497652 0 -0.055174598489014771 -0.019500932767460441 0 -0.054038467585060854 -0.01905629990584147 0 -0.05234305195446972 -0.040290560447649171 0 -0.051523479750001412 -0.039288112495882821 0 -0.050367225377952927 -0.039383171741380882 0 -0.053694977444659633 -0.03010659374284877 0 -0.052403815462304944 -0.028534892951663185 0 -0.052234265904389385 -0.041486482098775548 0 -0.051998970773799578 -0.042183668099044003 0 -0.052684606592518085 -0.041500496508283899 0 -0.051695649132293714 -0.040711500643498343 0 -0.053119642232268803 -0.040827384980051513 0 -0.054318554008199009 -0.033811462180478181 0 -0.053694977444659633 -0.03010659374284877 0 -0.05234305195446972 -0.040290560447649171 0 -0.051523479750001412 -0.039288112495882821 0 -0.053348733222815858 -0.040830511196313202 0 -0.053404635580265446 -0.0409425744119013 0 -0.05234305195446972 -0.040290560447649171 0 -0.053348733222815858 -0.040830511196313202 0 -0.051998970773799578 -0.042183668099044003 0 -0.052684606592518085 -0.041500496508283899 0 -0.053348733222815858 -0.040830511196313202 0 -0.052809115406314784 -0.041255041860584721 0 -0.052684606592518085 -0.041500496508283899 0 -0.053056937660625997 -0.04114383057858368 0 -0.052684606592518085 -0.041500496508283899 0 -0.053056937660625997 -0.04114383057858368 0 -0.053155319098894899 -0.041048387572228222 0 -0.053235746144973201 -0.040991710324092885 0 -0.053056937660625997 -0.04114383057858368 0 -0.053287673498080564 -0.040919116664424653 0 -0.053056937660625997 -0.04114383057858368 0 -0.053287673498080564 -0.040919116664424653 0 -0.053155319098894899 -0.041048387572228222 0 -0.053357392578488538 -0.040826430967246155 0 -0.053287673498080564 -0.040919116664424653 0 -0.053155319098894899 -0.041048387572228222 0 -0.052684606592518085 -0.041500496508283899 0 -0.053155319098894899 -0.041048387572228222 0 -0.053348733222815858 -0.040830511196313202 0 -0.053357392578488538 -0.040826430967246155 0 -0.053155319098894899 -0.041048387572228222 0 -0.053348733222815858 -0.040830511196313202 0 -0.053389361652513338 -0.040792564141551822 0 -0.053404635580265446 -0.0409425744119013 0 -0.053348733222815858 -0.040830511196313202 0 -0.053489048671498375 -0.019493463542124695 0 -0.054038467585060854 -0.01905629990584147 0 -0.053171512922886702 -0.018958828155701324 0 -0.054377545789632165 -0.019804336189497652 0 -0.053489048671498375 -0.019493463542124695 0 -0.054038467585060854 -0.01905629990584147 0 -0.049356265735880721 -0.038166507360526986 0 -0.051523479750001412 -0.039288112495882821 0 -0.050367225377952927 -0.039383171741380882 0 -0.049498109069184282 -0.04025594643142047 0 -0.051695649132293714 -0.040711500643498343 0 -0.052403815462304944 -0.028534892951663185 0 -0.049097297288449977 -0.03417957819604861 0 -0.049356265735880721 -0.038166507360526986 0 -0.050367225377952927 -0.039383171741380882 0 -0.048073772841082524 -0.038846881574828525 0 -0.05292581954268185 -0.027060018239090326 0 -0.050533444646046928 -0.026829605544240867 0 -0.05036118105378503 -0.026553022859091627 0 -0.052403815462304944 -0.028534892951663185 0 -0.052359200218974472 -0.02263782194500381 0 -0.046892468538890994 -0.037228039982253817 0 -0.049356265735880721 -0.038166507360526986 0 -0.048073772841082524 -0.038846881574828525 0 -0.050533444646046928 -0.026829605544240867 0 -0.05036118105378503 -0.026553022859091627 0 -0.047957890212424019 -0.02651193147162802 0 -0.052359200218974472 -0.02263782194500381 0 -0.04884903631099153 -0.019975896447075765 0 -0.053489048671498375 -0.019493463542124695 0 -0.053171512922886702 -0.018958828155701324 0 -0.052824986107205582 -0.019534745431559097 0 -0.053171512922886702 -0.018958828155701324 0 -0.052824986107205582 -0.019534745431559097 0 -0.05234771055088705 -0.018888876030967335 0 -0.048580461012806511 -0.017220661699947137 0 -0.047454820120171118 -0.017332427154163402 0 -0.047277556781939782 -0.017046081082404435 0 -0.050761383199267616 -0.018052989557177056 0 -0.04884903631099153 -0.019975896447075765 0 -0.048580461012806511 -0.017220661699947137 0 -0.047277556781939782 -0.017046081082404435 0 -0.047316030055293765 -0.016698653485885662 0 -0.047277556781939782 -0.017046081082404435 0 -0.047316030055293765 -0.016698653485885662 0 -0.046950083734931453 -0.016775673636562165 0 -0.049097297288449977 -0.03417957819604861 0 -0.047213196589858585 -0.023776664101942409 0 -0.05036118105378503 -0.026553022859091627 0 -0.047957890212424019 -0.02651193147162802 0 -0.047693835362252204 -0.026090214952732067 0 -0.046892468538890994 -0.037228039982253817 0 -0.048073772841082524 -0.038846881574828525 0 -0.045575477988735673 -0.038397267098394472 0 -0.04884903631099153 -0.019975896447075765 0 -0.047446483052304027 -0.018947543418975258 0 -0.04747586012987931 -0.016807902075858017 0 -0.047235162335800281 -0.016440904734536764 0 -0.046950083734931453 -0.016775673636562165 0 -0.04884903631099153 -0.019975896447075765 0 -0.047213196589858585 -0.023776664101942409 0 -0.045061848446652453 -0.017610761163819807 0 -0.045366890947361828 -0.017481639000466676 0 -0.045609302600205161 -0.017171508689446564 0 -0.047213196589858585 -0.023776664101942409 0 -0.045161323507756986 -0.016580649016241882 0 -0.047235162335800281 -0.016440904734536764 0 -0.046303594006603124 -0.016980323901960907 0 -0.045609302600205161 -0.017171508689446564 0 -0.047235162335800281 -0.016440904734536764 0 -0.046303594006603124 -0.016980323901960907 0 -0.046950083734931453 -0.016775673636562165 0 -0.046303594006603124 -0.016980323901960907 0 -0.045609302600205161 -0.017171508689446564 0 -0.045944064484441348 -0.017108120911581617 0 -0.046303594006603124 -0.016980323901960907 0 -0.046283690471003648 -0.017141871254902508 0 -0.045944064484441348 -0.017108120911581617 0 -0.046303594006603124 -0.016980323901960907 0 -0.046283690471003648 -0.017141871254902508 0 -0.046685157895665484 -0.017030829021667238 0 -0.046303594006603124 -0.016980323901960907 0 -0.046685157895665484 -0.017030829021667238 0 -0.046950083734931453 -0.016775673636562165 0 -0.047277556781939782 -0.017046081082404435 0 -0.046685157895665484 -0.017030829021667238 0 -0.046950083734931453 -0.016775673636562165 0 -0.04554097049088731 -0.016960709538106675 0 -0.045667618849438069 -0.017077569021855792 0 -0.045609302600205161 -0.017171508689446564 0 -0.045667618849438069 -0.017077569021855792 0 -0.045609302600205161 -0.017171508689446564 0 -0.045822465796635271 -0.017116939114098385 0 -0.045609302600205161 -0.017171508689446564 0 -0.045944064484441348 -0.017108120911581617 0 -0.045822465796635271 -0.017116939114098385 0 -0.046283690471003648 -0.017141871254902508 0 -0.045944064484441348 -0.017108120911581617 0 -0.045822465796635271 -0.017116939114098385 0 -0.046283690471003648 -0.017141871254902508 0 -0.045822465796635271 -0.017116939114098385 0 -0.046034754002942088 -0.017284328839279679 0 -0.045667618849438069 -0.017077569021855792 0 -0.045822465796635271 -0.017116939114098385 0 -0.045557366304190966 -0.017249390782561741 0 -0.045822465796635271 -0.017116939114098385 0 -0.046034754002942088 -0.017284328839279679 0 -0.045557366304190966 -0.017249390782561741 0 -0.046034754002942088 -0.017284328839279679 0 -0.045908051519995427 -0.017518759835682886 0 -0.045557366304190966 -0.017249390782561741 0 -0.046034754002942088 -0.017284328839279679 0 -0.046290384458017288 -0.017482393195556854 0 -0.046662235690766968 -0.017264609178125986 0 -0.046290384458017288 -0.017482393195556854 0 -0.045908051519995427 -0.017518759835682886 0 -0.046210711568704717 -0.017843794823227396 0 -0.046034754002942088 -0.017284328839279679 0 -0.046290384458017288 -0.017482393195556854 0 -0.045908051519995427 -0.017518759835682886 0 -0.047277556781939782 -0.017046081082404435 0 -0.046685157895665484 -0.017030829021667238 0 -0.046662235690766968 -0.017264609178125986 0 -0.047454820120171118 -0.017332427154163402 0 -0.047277556781939782 -0.017046081082404435 0 -0.046662235690766968 -0.017264609178125986 0 -0.046283690471003648 -0.017141871254902508 0 -0.046685157895665484 -0.017030829021667238 0 -0.046662235690766968 -0.017264609178125986 0 -0.046283690471003648 -0.017141871254902508 0 -0.046034754002942088 -0.017284328839279679 0 -0.046662235690766968 -0.017264609178125986 0 -0.046290384458017288 -0.017482393195556854 0 -0.046662235690766968 -0.017264609178125986 0 -0.046864269925882954 -0.017557255240656863 0 -0.047454820120171118 -0.017332427154163402 0 -0.046662235690766968 -0.017264609178125986 0 -0.046864269925882954 -0.017557255240656863 0 -0.047454820120171118 -0.017332427154163402 0 -0.046864269925882954 -0.017557255240656863 0 -0.047937477065442657 -0.017711441759200617 0 -0.047062835333366394 -0.01794612403502905 0 -0.047900649402326856 -0.018480002988532786 0 -0.047937477065442657 -0.017711441759200617 0 -0.046864269925882954 -0.017557255240656863 0 -0.047062835333366394 -0.01794612403502905 0 -0.047937477065442657 -0.017711441759200617 0 -0.046864269925882954 -0.017557255240656863 0 -0.047062835333366394 -0.01794612403502905 0 -0.046210711568704717 -0.017843794823227396 0 -0.047062835333366394 -0.01794612403502905 0 -0.046210711568704717 -0.017843794823227396 0 -0.04678018154212385 -0.018336067683165452 0 -0.046210711568704717 -0.017843794823227396 0 -0.045819561175368187 -0.01833044961760957 0 -0.04546905034910656 -0.01781239475635861 0 -0.045908051519995427 -0.017518759835682886 0 -0.046210711568704717 -0.017843794823227396 0 -0.04546905034910656 -0.01781239475635861 0 -0.046290384458017288 -0.017482393195556854 0 -0.046864269925882954 -0.017557255240656863 0 -0.046210711568704717 -0.017843794823227396 0 -0.046210711568704717 -0.017843794823227396 0 -0.045819561175368187 -0.01833044961760957 0 -0.04678018154212385 -0.018336067683165452 0 -0.045819561175368187 -0.01833044961760957 0 -0.045653295140581501 -0.018938065794329217 0 -0.046789304754749607 -0.018842034388663567 0 -0.045819561175368187 -0.01833044961760957 0 -0.04678018154212385 -0.018336067683165452 0 -0.046789304754749607 -0.018842034388663567 0 -0.047062835333366394 -0.01794612403502905 0 -0.04678018154212385 -0.018336067683165452 0 -0.047900649402326856 -0.018480002988532786 0 -0.04678018154212385 -0.018336067683165452 0 -0.047900649402326856 -0.018480002988532786 0 -0.046789304754749607 -0.018842034388663567 0 -0.047900649402326856 -0.018480002988532786 0 -0.050222487992692473 -0.017982583060050242 0 -0.047937477065442657 -0.017711441759200617 0 -0.047900649402326856 -0.018480002988532786 0 -0.050222487992692473 -0.017982583060050242 0 -0.049455872996349723 -0.019266074242745942 0 -0.048580461012806511 -0.017220661699947137 0 -0.050222487992692473 -0.017982583060050242 0 -0.047937477065442657 -0.017711441759200617 0 -0.053489048671498375 -0.019493463542124695 0 -0.052824986107205582 -0.019534745431559097 0 -0.053116675732050214 -0.020016754154035137 0 -0.050761383199267616 -0.018052989557177056 0 -0.051713841809303364 -0.019153528656415557 0 -0.048580461012806511 -0.017220661699947137 0 -0.047454820120171118 -0.017332427154163402 0 -0.047937477065442657 -0.017711441759200617 0 -0.040311947571994834 -0.021906984355103215 0 -0.03808489426806333 -0.02102269594804972 0 -0.041722933459229561 -0.019085485510145366 0 -0.043231816212252416 -0.017997653509785293 0 -0.043061513189386752 -0.01863043432480371 0 -0.041722933459229561 -0.019085485510145366 0 -0.043231816212252416 -0.017997653509785293 0 -0.043732050030015727 -0.018120291566891444 0 -0.043061513189386752 -0.01863043432480371 0 -0.043231816212252416 -0.017997653509785293 0 -0.043367755363512381 -0.017483472726423435 0 -0.043732050030015727 -0.018120291566891444 0 -0.043440106440468036 -0.017950443841943692 0 -0.043438513988888289 -0.020400074178384079 0 -0.043231816212252416 -0.017997653509785293 0 -0.043264631888316182 -0.017041849987515827 0 -0.041722933459229561 -0.019085485510145366 0 -0.043438513988888289 -0.020400074178384079 0 -0.041036009965098902 -0.019123115091390721 0 -0.037684472880929749 -0.024687808291403216 0 -0.040311947571994834 -0.021906984355103215 0 -0.04128986004186435 -0.023889958661534962 0 -0.037684472880929749 -0.024687808291403216 0 -0.040311947571994834 -0.021906984355103215 0 -0.03808489426806333 -0.02102269594804972 0 -0.042067731085450276 -0.025683829954564839 0 -0.043438513988888289 -0.020400074178384079 0 -0.044666253579902948 -0.016808847821807076 0 -0.043367755363512381 -0.017483472726423435 0 -0.044417097196975994 -0.017621605231242798 0 -0.043277717101668223 -0.025453878129850088 0 -0.045291278483034388 -0.025463670053877778 0 -0.04686199313488755 -0.022821639076780437 0 -0.045291278483034388 -0.025463670053877778 0 -0.046665698640569166 -0.02620653673237994 0 -0.04686199313488755 -0.022821639076780437 0 -0.044083430550818627 -0.020604200883367431 0 -0.043438513988888289 -0.020400074178384079 0 -0.043367755363512381 -0.017483472726423435 0 -0.043732050030015727 -0.018120291566891444 0 -0.044417097196975994 -0.017621605231242798 0 -0.043732050030015727 -0.018120291566891444 0 -0.044417097196975994 -0.017621605231242798 0 -0.044163347417003326 -0.018240512682891914 0 -0.044417097196975994 -0.017621605231242798 0 -0.044927359409543038 -0.017795169859448283 0 -0.044163347417003326 -0.018240512682891914 0 -0.044417097196975994 -0.017621605231242798 0 -0.044927359409543038 -0.017795169859448283 0 -0.045035128199649652 -0.017290025387968137 0 -0.044666253579902948 -0.016808847821807076 0 -0.044417097196975994 -0.017621605231242798 0 -0.045035128199649652 -0.017290025387968137 0 -0.04554097049088731 -0.016960709538106675 0 -0.045667618849438069 -0.017077569021855792 0 -0.045557366304190966 -0.017249390782561741 0 -0.04554097049088731 -0.016960709538106675 0 -0.044666253579902948 -0.016808847821807076 0 -0.045035128199649652 -0.017290025387968137 0 -0.04554097049088731 -0.016960709538106675 0 -0.045035128199649652 -0.017290025387968137 0 -0.045557366304190966 -0.017249390782561741 0 -0.044927359409543038 -0.017795169859448283 0 -0.045557366304190966 -0.017249390782561741 0 -0.04546905034910656 -0.01781239475635861 0 -0.045908051519995427 -0.017518759835682886 0 -0.045557366304190966 -0.017249390782561741 0 -0.04546905034910656 -0.01781239475635861 0 -0.044927359409543038 -0.017795169859448283 0 -0.045035128199649652 -0.017290025387968137 0 -0.045557366304190966 -0.017249390782561741 0 -0.045819561175368187 -0.01833044961760957 0 -0.04546905034910656 -0.01781239475635861 0 -0.045080461787020701 -0.018193805855774483 0 -0.044927359409543038 -0.017795169859448283 0 -0.04546905034910656 -0.01781239475635861 0 -0.045080461787020701 -0.018193805855774483 0 -0.045819561175368187 -0.01833044961760957 0 -0.045136709681443357 -0.018547297589257685 0 -0.045653295140581501 -0.018938065794329217 0 -0.045819561175368187 -0.01833044961760957 0 -0.045080461787020701 -0.018193805855774483 0 -0.045136709681443357 -0.018547297589257685 0 -0.045080461787020701 -0.018193805855774483 0 -0.045136709681443357 -0.018547297589257685 0 -0.044640723892825258 -0.018504183244975048 0 -0.045136709681443357 -0.018547297589257685 0 -0.044640723892825258 -0.018504183244975048 0 -0.044577578019102261 -0.018842019813944667 0 -0.044640723892825258 -0.018504183244975048 0 -0.044020259053679574 -0.018644046145624652 0 -0.044577578019102261 -0.018842019813944667 0 -0.044640723892825258 -0.018504183244975048 0 -0.044550602570893175 -0.018275222401351349 0 -0.044020259053679574 -0.018644046145624652 0 -0.045080461787020701 -0.018193805855774483 0 -0.044640723892825258 -0.018504183244975048 0 -0.044550602570893175 -0.018275222401351349 0 -0.044927359409543038 -0.017795169859448283 0 -0.045080461787020701 -0.018193805855774483 0 -0.044550602570893175 -0.018275222401351349 0 -0.044927359409543038 -0.017795169859448283 0 -0.044550602570893175 -0.018275222401351349 0 -0.044163347417003326 -0.018240512682891914 0 -0.044550602570893175 -0.018275222401351349 0 -0.044163347417003326 -0.018240512682891914 0 -0.044020259053679574 -0.018644046145624652 0 -0.044163347417003326 -0.018240512682891914 0 -0.043614826891031883 -0.018528450816680409 0 -0.044020259053679574 -0.018644046145624652 0 -0.043732050030015727 -0.018120291566891444 0 -0.043614826891031883 -0.018528450816680409 0 -0.043061513189386752 -0.01863043432480371 0 -0.043732050030015727 -0.018120291566891444 0 -0.044163347417003326 -0.018240512682891914 0 -0.043614826891031883 -0.018528450816680409 0 -0.044020259053679574 -0.018644046145624652 0 -0.043564018270990844 -0.018783046323121534 0 -0.043891200096285284 -0.018899327258062346 0 -0.044020259053679574 -0.018644046145624652 0 -0.043355517778437498 -0.01870799516591733 0 -0.043564018270990844 -0.018783046323121534 0 -0.043614826891031883 -0.018528450816680409 0 -0.044020259053679574 -0.018644046145624652 0 -0.043355517778437498 -0.01870799516591733 0 -0.043355517778437498 -0.01870799516591733 0 -0.043564018270990844 -0.018783046323121534 0 -0.043197813395080858 -0.018749551667136575 0 -0.043564018270990844 -0.018783046323121534 0 -0.043197813395080858 -0.018749551667136575 0 -0.043533572461900365 -0.018802591498977578 0 -0.043355517778437498 -0.01870799516591733 0 -0.043197813395080858 -0.018749551667136575 0 -0.042771239577992885 -0.018789736729448968 0 -0.042771239577992885 -0.018789736729448968 0 -0.043061513189386752 -0.01863043432480371 0 -0.041722933459229561 -0.019085485510145366 0 -0.043614826891031883 -0.018528450816680409 0 -0.043355517778437498 -0.01870799516591733 0 -0.043061513189386752 -0.01863043432480371 0 -0.043355517778437498 -0.01870799516591733 0 -0.042771239577992885 -0.018789736729448968 0 -0.043061513189386752 -0.01863043432480371 0 -0.043809542134258896 -0.018808255549589047 0 -0.043804104640499428 -0.018931112481030687 0 -0.043567472716106191 -0.018709647335925617 0 -0.043809542134258896 -0.018808255549589047 0 -0.043804104640499428 -0.018931112481030687 0 -0.044039355784944501 -0.019061050605321445 0 -0.043804104640499428 -0.018931112481030687 0 -0.043533572461900365 -0.018802591498977578 0 -0.043567472716106191 -0.018709647335925617 0 -0.043197813395080858 -0.018749551667136575 0 -0.043533572461900365 -0.018802591498977578 0 -0.043288381109371228 -0.018668001830755971 0 -0.043564018270990844 -0.018783046323121534 0 -0.043533572461900365 -0.018802591498977578 0 -0.043891200096285284 -0.018899327258062346 0 -0.043804104640499428 -0.018931112481030687 0 -0.043533572461900365 -0.018802591498977578 0 -0.043891200096285284 -0.018899327258062346 0 -0.044020259053679574 -0.018644046145624652 0 -0.043891200096285284 -0.018899327258062346 0 -0.044577578019102261 -0.018842019813944667 0 -0.043891200096285284 -0.018899327258062346 0 -0.044121020616327444 -0.019150587861432689 0 -0.044577578019102261 -0.018842019813944667 0 -0.043804104640499428 -0.018931112481030687 0 -0.044121020616327444 -0.019150587861432689 0 -0.044039355784944501 -0.019061050605321445 0 -0.043804104640499428 -0.018931112481030687 0 -0.043891200096285284 -0.018899327258062346 0 -0.044121020616327444 -0.019150587861432689 0 -0.044121020616327444 -0.019150587861432689 0 -0.044134494930288086 -0.019505680337272971 0 -0.044039355784944501 -0.019061050605321445 0 -0.044121020616327444 -0.019150587861432689 0 -0.044787464472601478 -0.019186388608022537 0 -0.044134494930288086 -0.019505680337272971 0 -0.044787464472601478 -0.019186388608022537 0 -0.045683513245959394 -0.01958774231820392 0 -0.044134494930288086 -0.019505680337272971 0 -0.044121020616327444 -0.019150587861432689 0 -0.044787464472601478 -0.019186388608022537 0 -0.044577578019102261 -0.018842019813944667 0 -0.044787464472601478 -0.019186388608022537 0 -0.044577578019102261 -0.018842019813944667 0 -0.045653295140581501 -0.018938065794329217 0 -0.045136709681443357 -0.018547297589257685 0 -0.044577578019102261 -0.018842019813944667 0 -0.045653295140581501 -0.018938065794329217 0 -0.044787464472601478 -0.019186388608022537 0 -0.045653295140581501 -0.018938065794329217 0 -0.045683513245959394 -0.01958774231820392 0 -0.045683513245959394 -0.01958774231820392 0 -0.045602189286821408 -0.020908729875360306 0 -0.04658570213642417 -0.020126519913103328 0 -0.045683513245959394 -0.01958774231820392 0 -0.045602189286821408 -0.020908729875360306 0 -0.044134494930288086 -0.019505680337272971 0 -0.043165718818394795 -0.018844815884781319 0 -0.043914922297305883 -0.018764791812543896 0 -0.043262952526840551 -0.018185467968236564 0 -0.043165718818394795 -0.018844815884781319 0 -0.04252010617483467 -0.018163385621062178 0 -0.043262952526840551 -0.018185467968236564 0 -0.043914922297305883 -0.018764791812543896 0 -0.043797021399451457 -0.018068501364647542 0 -0.043262952526840551 -0.018185467968236564 0 -0.043165718818394795 -0.018844815884781319 0 -0.043914922297305883 -0.018764791812543896 0 -0.044134494930288086 -0.019505680337272971 0 -0.044334699321853806 -0.019794385062281226 0 -0.044169055250572652 -0.019579123991770114 0 -0.043914922297305883 -0.018764791812543896 0 -0.044134494930288086 -0.019505680337272971 0 -0.044039355784944501 -0.019061050605321445 0 -0.043914922297305883 -0.018764791812543896 0 -0.044039355784944501 -0.019061050605321445 0 -0.044152795710867027 -0.018611278689231531 0 -0.043914922297305883 -0.018764791812543896 0 -0.044152795710867027 -0.018611278689231531 0 -0.043797021399451457 -0.018068501364647542 0 -0.044152795710867027 -0.018611278689231531 0 -0.043997937731760341 -0.018724768472071225 0 -0.044183653456957364 -0.018533132466202095 0 -0.043809542134258896 -0.018808255549589047 0 -0.044039355784944501 -0.019061050605321445 0 -0.043997937731760341 -0.018724768472071225 0 -0.044039355784944501 -0.019061050605321445 0 -0.044152795710867027 -0.018611278689231531 0 -0.043997937731760341 -0.018724768472071225 0 -0.049744297639850894 -0.020546718269675354 0 -0.048028044846622875 -0.019329372082229675 0 -0.048374511223593625 -0.020024164047079081 0 -0.052624542396602733 -0.020088528629990408 0 -0.049744297639850894 -0.020546718269675354 0 -0.049455872996349723 -0.019266074242745942 0 -0.047900649402326856 -0.018480002988532786 0 -0.049455872996349723 -0.019266074242745942 0 -0.048028044846622875 -0.019329372082229675 0 -0.049744297639850894 -0.020546718269675354 0 -0.049455872996349723 -0.019266074242745942 0 -0.048028044846622875 -0.019329372082229675 0 -0.047900649402326856 -0.018480002988532786 0 -0.048028044846622875 -0.019329372082229675 0 -0.046789304754749607 -0.018842034388663567 0 -0.048028044846622875 -0.019329372082229675 0 -0.046789304754749607 -0.018842034388663567 0 -0.047003508583069432 -0.019536629589315416 0 -0.045653295140581501 -0.018938065794329217 0 -0.046789304754749607 -0.018842034388663567 0 -0.047003508583069432 -0.019536629589315416 0 -0.045683513245959394 -0.01958774231820392 0 -0.047003508583069432 -0.019536629589315416 0 -0.04658570213642417 -0.020126519913103328 0 -0.045653295140581501 -0.018938065794329217 0 -0.045683513245959394 -0.01958774231820392 0 -0.047003508583069432 -0.019536629589315416 0 -0.047003508583069432 -0.019536629589315416 0 -0.048374511223593625 -0.020024164047079081 0 -0.047578640928367007 -0.020285623764070219 0 -0.048028044846622875 -0.019329372082229675 0 -0.047003508583069432 -0.019536629589315416 0 -0.048374511223593625 -0.020024164047079081 0 -0.047578640928367007 -0.020285623764070219 0 -0.047674403796262532 -0.020973873017905355 0 -0.049288084623674677 -0.020139481237511702 0 -0.048374511223593625 -0.020024164047079081 0 -0.047578640928367007 -0.020285623764070219 0 -0.049288084623674677 -0.020139481237511702 0 -0.047578640928367007 -0.020285623764070219 0 -0.046797895881529127 -0.020813497240069166 0 -0.047674403796262532 -0.020973873017905355 0 -0.047003508583069432 -0.019536629589315416 0 -0.047578640928367007 -0.020285623764070219 0 -0.04658570213642417 -0.020126519913103328 0 -0.045602189286821408 -0.020908729875360306 0 -0.04658570213642417 -0.020126519913103328 0 -0.046797895881529127 -0.020813497240069166 0 -0.047578640928367007 -0.020285623764070219 0 -0.04658570213642417 -0.020126519913103328 0 -0.046797895881529127 -0.020813497240069166 0 -0.045602189286821408 -0.020908729875360306 0 -0.046797895881529127 -0.020813497240069166 0 -0.046935709427146977 -0.021825844616562326 0 -0.044334699321853806 -0.019794385062281226 0 -0.045016104824943774 -0.020256789684962535 0 -0.046797895881529127 -0.020813497240069166 0 -0.047674403796262532 -0.020973873017905355 0 -0.046935709427146977 -0.021825844616562326 0 -0.048309587956148772 -0.021620574727412131 0 -0.047674403796262532 -0.020973873017905355 0 -0.049288084623674677 -0.020139481237511702 0 -0.048309587956148772 -0.021620574727412131 0 -0.047674403796262532 -0.020973873017905355 0 -0.046935709427146977 -0.021825844616562326 0 -0.048309587956148772 -0.021620574727412131 0 -0.049288084623674677 -0.020139481237511702 0 -0.049720509878941235 -0.02183188723026247 0 -0.04929365567754683 -0.019895022539754715 0 -0.049831639651400028 -0.020839387300562534 0 -0.049288084623674677 -0.020139481237511702 0 -0.049657233314879458 -0.019708093016087686 0 -0.049637520430834706 -0.01889225020010301 0 -0.049744297639850894 -0.020546718269675354 0 -0.048374511223593625 -0.020024164047079081 0 -0.049288084623674677 -0.020139481237511702 0 -0.048400626040524974 -0.019932988940963559 0 -0.049744297639850894 -0.020546718269675354 0 -0.049657233314879458 -0.019708093016087686 0 -0.049744297639850894 -0.020546718269675354 0 -0.049288084623674677 -0.020139481237511702 0 -0.049657233314879458 -0.019708093016087686 0 -0.049544794956701915 -0.018427308837534864 0 -0.049657233314879458 -0.019708093016087686 0 -0.049637520430834706 -0.01889225020010301 0 -0.047864189229402672 -0.018882550323325375 0 -0.049831639651400028 -0.020839387300562534 0 -0.049544794956701915 -0.018427308837534864 0 -0.049637520430834706 -0.01889225020010301 0 -0.049955301300327278 -0.018648923165266444 0 -0.049684470130096629 -0.018932660157080734 0 -0.049637520430834706 -0.01889225020010301 0 -0.049955301300327278 -0.018648923165266444 0 -0.050540411389693278 -0.017889370857511289 0 -0.05084006810470109 -0.01862372907058546 0 -0.051428875113031965 -0.018079229928444011 0 -0.049684470130096629 -0.018932660157080734 0 -0.049955301300327278 -0.018648923165266444 0 -0.050574339227915842 -0.018988176309228656 0 -0.047864189229402672 -0.018882550323325375 0 -0.045843866755120088 -0.017590713406704667 0 -0.047864189229402672 -0.018882550323325375 0 -0.051458365624925555 -0.018517027366728181 0 -0.041491479070960964 -0.017247917818013485 0 -0.041223632893995332 -0.016516342857204807 0 -0.041694734148242527 -0.016640740349550365 0 -0.041491479070960964 -0.017247917818013485 0 -0.041883270328439005 -0.017078676388357004 0 -0.041694734148242527 -0.016640740349550365 0 -0.047864189229402672 -0.018882550323325375 0 -0.043800668315850007 -0.019006303371987724 0 -0.041491479070960964 -0.017247917818013485 0 -0.041883270328439005 -0.017078676388357004 0 -0.042318720207436815 -0.017435091144038663 0 -0.041883270328439005 -0.017078676388357004 0 -0.042155791600743751 -0.017369621283550352 0 -0.042166056314937257 -0.016720608226181807 0 -0.041883270328439005 -0.017078676388357004 0 -0.042166056314937257 -0.016720608226181807 0 -0.041694734148242527 -0.016640740349550365 0 -0.041459703695975625 -0.01681668074044804 0 -0.043800668315850007 -0.019006303371987724 0 -0.050181071042213171 -0.02320081311036383 0 -0.049720509878941235 -0.02183188723026247 0 -0.048367312700818933 -0.022891440929108321 0 -0.048309587956148772 -0.021620574727412131 0 -0.049720509878941235 -0.02183188723026247 0 -0.048367312700818933 -0.022891440929108321 0 -0.043800668315850007 -0.019006303371987724 0 -0.045016104824943774 -0.020256789684962535 0 -0.048309587956148772 -0.021620574727412131 0 -0.048367312700818933 -0.022891440929108321 0 -0.046935709427146977 -0.021825844616562326 0 -0.043800668315850007 -0.019006303371987724 0 -0.042019413047953959 -0.01733395651338589 0 -0.04252010617483467 -0.018163385621062178 0 -0.042825214310433332 -0.017778769813544239 0 -0.043262952526840551 -0.018185467968236564 0 -0.041906974770911848 -0.017667363018071734 0 -0.04252010617483467 -0.018163385621062178 0 -0.042825214310433332 -0.017778769813544239 0 -0.042155791600743751 -0.017369621283550352 0 -0.042825214310433332 -0.017778769813544239 0 -0.042573881095078599 -0.017065490343539113 0 -0.042825214310433332 -0.017778769813544239 0 -0.042573881095078599 -0.017065490343539113 0 -0.042938572878243791 -0.017189118117277379 0 -0.042573881095078599 -0.017065490343539113 0 -0.042841543379865725 -0.016656582864441789 0 -0.042938572878243791 -0.017189118117277379 0 -0.042155791600743751 -0.017369621283550352 0 -0.042573881095078599 -0.017065490343539113 0 -0.042166056314937257 -0.016720608226181807 0 -0.042573881095078599 -0.017065490343539113 0 -0.042166056314937257 -0.016720608226181807 0 -0.042580252447269269 -0.016413348846476356 0 -0.042166056314937257 -0.016720608226181807 0 -0.042580252447269269 -0.016413348846476356 0 -0.042325387801384923 -0.01609739494540122 0 -0.042580252447269269 -0.016413348846476356 0 -0.042841543379865725 -0.016656582864441789 0 -0.042912176291513671 -0.016047841114135195 0 -0.042573881095078599 -0.017065490343539113 0 -0.042580252447269269 -0.016413348846476356 0 -0.042841543379865725 -0.016656582864441789 0 -0.042912176291513671 -0.016047841114135195 0 -0.043224947168409439 -0.015618851816125871 0 -0.04271249421470092 -0.015479899284104008 0 -0.042580252447269269 -0.016413348846476356 0 -0.042912176291513671 -0.016047841114135195 0 -0.042620716069660496 -0.015859905033012694 0 -0.042912176291513671 -0.016047841114135195 0 -0.042620716069660496 -0.015859905033012694 0 -0.04271249421470092 -0.015479899284104008 0 -0.042325387801384923 -0.01609739494540122 0 -0.042620716069660496 -0.015859905033012694 0 -0.042522534822430964 -0.015614016238959472 0 -0.042580252447269269 -0.016413348846476356 0 -0.042325387801384923 -0.01609739494540122 0 -0.042620716069660496 -0.015859905033012694 0 -0.042620716069660496 -0.015859905033012694 0 -0.042522534822430964 -0.015614016238959472 0 -0.04271249421470092 -0.015479899284104008 0 -0.042325387801384923 -0.01609739494540122 0 -0.042522534822430964 -0.015614016238959472 0 -0.042130745040157125 -0.015745143882954338 0 -0.042522534822430964 -0.015614016238959472 0 -0.042130745040157125 -0.015745143882954338 0 -0.042601768483807832 -0.015085868067614928 0 -0.042130745040157125 -0.015745143882954338 0 -0.041737498058879455 -0.015882111931312635 0 -0.041915356177626074 -0.01620359939028345 0 -0.042325387801384923 -0.01609739494540122 0 -0.042130745040157125 -0.015745143882954338 0 -0.041915356177626074 -0.01620359939028345 0 -0.041737498058879455 -0.015882111931312635 0 -0.041423461667387494 -0.016030602523368701 0 -0.041915356177626074 -0.01620359939028345 0 -0.042130745040157125 -0.015745143882954338 0 -0.041737498058879455 -0.015882111931312635 0 -0.041597907861320865 -0.01548854654684282 0 -0.041737498058879455 -0.015882111931312635 0 -0.041423461667387494 -0.016030602523368701 0 -0.041597907861320865 -0.01548854654684282 0 -0.043068866990411091 -0.013998520879667848 0 -0.047452378627996984 -0.01525696801875942 0 -0.041423461667387494 -0.016030602523368701 0 -0.041223632893995332 -0.016516342857204807 0 -0.040968471115158243 -0.01575215887382379 0 -0.046953470512214657 -0.011239182464472284 0 -0.045159974437965759 -0.012395942213100534 0 -0.047942336590680666 -0.010292227988317163 0 -0.041423461667387494 -0.016030602523368701 0 -0.041597907861320865 -0.01548854654684282 0 -0.040968471115158243 -0.01575215887382379 0 -0.045843866755120088 -0.017590713406704667 0 -0.047452378627996984 -0.01525696801875942 0 -0.046953470512214657 -0.011239182464472284 0 -0.047245873443581311 -0.01085503103190855 0 -0.047942336590680666 -0.010292227988317163 0 -0.041423461667387494 -0.016030602523368701 0 -0.041223632893995332 -0.016516342857204807 0 -0.041694734148242527 -0.016640740349550365 0 -0.042166056314937257 -0.016720608226181807 0 -0.041694734148242527 -0.016640740349550365 0 -0.041915356177626074 -0.01620359939028345 0 -0.042166056314937257 -0.016720608226181807 0 -0.042325387801384923 -0.01609739494540122 0 -0.041915356177626074 -0.01620359939028345 0 -0.041423461667387494 -0.016030602523368701 0 -0.041694734148242527 -0.016640740349550365 0 -0.041915356177626074 -0.01620359939028345 0 -0.04493378964934918 -0.017189971337618248 0 -0.04454462438800337 -0.018220920236879892 0 -0.045280760399346039 -0.017698064122764742 0 -0.04493378964934918 -0.017189971337618248 0 -0.04454462438800337 -0.018220920236879892 0 -0.044054602190907365 -0.017454490724074033 0 -0.044152795710867027 -0.018611278689231531 0 -0.04454462438800337 -0.018220920236879892 0 -0.044183653456957364 -0.018533132466202095 0 -0.044152795710867027 -0.018611278689231531 0 -0.04454462438800337 -0.018220920236879892 0 -0.044141877909022818 -0.018146725356871684 0 -0.044141877909022818 -0.018146725356871684 0 -0.044054602190907365 -0.017454490724074033 0 -0.043797021399451457 -0.018068501364647542 0 -0.044152795710867027 -0.018611278689231531 0 -0.044141877909022818 -0.018146725356871684 0 -0.043797021399451457 -0.018068501364647542 0 -0.04454462438800337 -0.018220920236879892 0 -0.044141877909022818 -0.018146725356871684 0 -0.044054602190907365 -0.017454490724074033 0 -0.044054602190907365 -0.017454490724074033 0 -0.043583920564374289 -0.017164319714703353 0 -0.043797021399451457 -0.018068501364647542 0 -0.043583920564374289 -0.017164319714703353 0 -0.043797021399451457 -0.018068501364647542 0 -0.043304128537737421 -0.017556830288774389 0 -0.043797021399451457 -0.018068501364647542 0 -0.043262952526840551 -0.018185467968236564 0 -0.043304128537737421 -0.017556830288774389 0 -0.042825214310433332 -0.017778769813544239 0 -0.043262952526840551 -0.018185467968236564 0 -0.043304128537737421 -0.017556830288774389 0 -0.042825214310433332 -0.017778769813544239 0 -0.042938572878243791 -0.017189118117277379 0 -0.043304128537737421 -0.017556830288774389 0 -0.042938572878243791 -0.017189118117277379 0 -0.043304128537737421 -0.017556830288774389 0 -0.043210228157602774 -0.016607801268344834 0 -0.043583920564374289 -0.017164319714703353 0 -0.043304128537737421 -0.017556830288774389 0 -0.043210228157602774 -0.016607801268344834 0 -0.042841543379865725 -0.016656582864441789 0 -0.042912176291513671 -0.016047841114135195 0 -0.043210228157602774 -0.016607801268344834 0 -0.042841543379865725 -0.016656582864441789 0 -0.042938572878243791 -0.017189118117277379 0 -0.043210228157602774 -0.016607801268344834 0 -0.042912176291513671 -0.016047841114135195 0 -0.043210228157602774 -0.016607801268344834 0 -0.043224947168409439 -0.015618851816125871 0 -0.043210228157602774 -0.016607801268344834 0 -0.043749532323494218 -0.016237129816151458 0 -0.043224947168409439 -0.015618851816125871 0 -0.043749532323494218 -0.016237129816151458 0 -0.043672217568616264 -0.01456796481497245 0 -0.042052502748935995 -0.014400646787229777 0 -0.043955423848338844 -0.016102397201180518 0 -0.041949416358475544 -0.015376027704694876 0 -0.043583920564374289 -0.017164319714703353 0 -0.043210228157602774 -0.016607801268344834 0 -0.043749532323494218 -0.016237129816151458 0 -0.044054602190907365 -0.017454490724074033 0 -0.044459686711169032 -0.01657225783006681 0 -0.043749532323494218 -0.016237129816151458 0 -0.044054602190907365 -0.017454490724074033 0 -0.043583920564374289 -0.017164319714703353 0 -0.043749532323494218 -0.016237129816151458 0 -0.043749532323494218 -0.016237129816151458 0 -0.044455885912881125 -0.015437987474130133 0 -0.043672217568616264 -0.01456796481497245 0 -0.044459686711169032 -0.01657225783006681 0 -0.043749532323494218 -0.016237129816151458 0 -0.044455885912881125 -0.015437987474130133 0 -0.044459686711169032 -0.01657225783006681 0 -0.044455885912881125 -0.015437987474130133 0 -0.045122219577250954 -0.016230418434664398 0 -0.044455885912881125 -0.015437987474130133 0 -0.045122219577250954 -0.016230418434664398 0 -0.045308837249627275 -0.014711396283179355 0 -0.04493378964934918 -0.017189971337618248 0 -0.044054602190907365 -0.017454490724074033 0 -0.044459686711169032 -0.01657225783006681 0 -0.04493378964934918 -0.017189971337618248 0 -0.044459686711169032 -0.01657225783006681 0 -0.045122219577250954 -0.016230418434664398 0 -0.044572105898425723 -0.013783938603494481 0 -0.045148360747620596 -0.012238945947162082 0 -0.045767683043610251 -0.013537668113348325 0 -0.045308837249627275 -0.014711396283179355 0 -0.044572105898425723 -0.013783938603494481 0 -0.045767683043610251 -0.013537668113348325 0 -0.044455885912881125 -0.015437987474130133 0 -0.045308837249627275 -0.014711396283179355 0 -0.044572105898425723 -0.013783938603494481 0 -0.044455885912881125 -0.015437987474130133 0 -0.043672217568616264 -0.01456796481497245 0 -0.044572105898425723 -0.013783938603494481 0 -0.043672217568616264 -0.01456796481497245 0 -0.044572105898425723 -0.013783938603494481 0 -0.043500192676072871 -0.013027835038865773 0 -0.044572105898425723 -0.013783938603494481 0 -0.043500192676072871 -0.013027835038865773 0 -0.045148360747620596 -0.012238945947162082 0 -0.042052502748935995 -0.014400646787229777 0 -0.04222608703831808 -0.012104347291563417 0 -0.040837888723276011 -0.01293638850782669 0 -0.043500192676072871 -0.013027835038865773 0 -0.042052502748935995 -0.014400646787229777 0 -0.04222608703831808 -0.012104347291563417 0 -0.043672217568616264 -0.01456796481497245 0 -0.043500192676072871 -0.013027835038865773 0 -0.042052502748935995 -0.014400646787229777 0 -0.050880189142764536 -0.0077033902021797634 0 -0.051141032087647455 -0.0066507389270677409 0 -0.050188470275323513 -0.0071203787915200571 0 -0.051141032087647455 -0.0066507389270677409 0 -0.050188470275323513 -0.0071203787915200571 0 -0.050537312134027762 -0.0060451422767330131 0 -0.051141032087647455 -0.0066507389270677409 0 -0.05188493692881449 -0.0071222314810729694 0 -0.052025543116274241 -0.0063118029376327961 0 -0.043500192676072871 -0.013027835038865773 0 -0.04222608703831808 -0.012104347291563417 0 -0.04371245115749145 -0.011082620689051579 0 -0.04649341400999283 -0.0097519841378793208 0 -0.047920002184257404 -0.0095900911961813631 0 -0.050880189142764536 -0.0077033902021797634 0 -0.051141032087647455 -0.0066507389270677409 0 -0.05188493692881449 -0.0071222314810729694 0 -0.043500192676072871 -0.013027835038865773 0 -0.04371245115749145 -0.011082620689051579 0 -0.045148360747620596 -0.012238945947162082 0 -0.05188493692881449 -0.0071222314810729694 0 -0.0528440502400538 -0.0065241233296243397 0 -0.052025543116274241 -0.0063118029376327961 0 -0.047920002184257404 -0.0095900911961813631 0 -0.047591567603393559 -0.0040534283525386948 0 -0.04371245115749145 -0.011082620689051579 0 -0.045321087900461444 -0.0099401080759751216 0 -0.045321392988531224 -0.010874328834076793 0 -0.045321087900461444 -0.0099401080759751216 0 -0.045659704022941332 -0.010218268182094726 0 -0.046052429901004263 -0.0098591005170541798 0 -0.045659704022941332 -0.010218268182094726 0 -0.045321392988531224 -0.010874328834076793 0 -0.045914078569364289 -0.010439764541783962 0 -0.045321087900461444 -0.0099401080759751216 0 -0.045659704022941332 -0.010218268182094726 0 -0.045321392988531224 -0.010874328834076793 0 -0.045321392988531224 -0.010874328834076793 0 -0.045148360747620596 -0.012238945947162082 0 -0.046017162486020752 -0.011256154336804096 0 -0.04371245115749145 -0.011082620689051579 0 -0.045321392988531224 -0.010874328834076793 0 -0.045148360747620596 -0.012238945947162082 0 -0.048712977123605089 -0.0085333961844804834 0 -0.049545974799826982 -0.0088593863406609252 0 -0.049680929832630311 -0.0078153882228402527 0 -0.048676336780969824 -0.0093292004020499204 0 -0.048712977123605089 -0.0085333961844804834 0 -0.047968383578726313 -0.009372518918611043 0 -0.048676336780969824 -0.0093292004020499204 0 -0.048712977123605089 -0.0085333961844804834 0 -0.049545974799826982 -0.0088593863406609252 0 -0.048676336780969824 -0.0093292004020499204 0 -0.04934439348756952 -0.0099104816000173939 0 -0.049545974799826982 -0.0088593863406609252 0 -0.048712977123605089 -0.0085333961844804834 0 -0.047884080907656584 -0.0086081692731983551 0 -0.047968383578726313 -0.009372518918611043 0 -0.048712977123605089 -0.0085333961844804834 0 -0.047884080907656584 -0.0086081692731983551 0 -0.048519883625889042 -0.0075112653836862889 0 -0.047884080907656584 -0.0086081692731983551 0 -0.047456200553768098 -0.0076391510374657461 0 -0.047209133872977635 -0.0089756051427228641 0 -0.047884080907656584 -0.0086081692731983551 0 -0.047968383578726313 -0.009372518918611043 0 -0.047363109082675749 -0.0097012986929806751 0 -0.047884080907656584 -0.0086081692731983551 0 -0.047363109082675749 -0.0097012986929806751 0 -0.047209133872977635 -0.0089756051427228641 0 -0.047968383578726313 -0.009372518918611043 0 -0.04797411330305245 -0.010045147359812592 0 -0.047417288835289784 -0.010274988025117376 0 -0.048676336780969824 -0.0093292004020499204 0 -0.047968383578726313 -0.009372518918611043 0 -0.04797411330305245 -0.010045147359812592 0 -0.047363109082675749 -0.0097012986929806751 0 -0.047417288835289784 -0.010274988025117376 0 -0.047215547935407429 -0.010379489329045045 0 -0.047968383578726313 -0.009372518918611043 0 -0.047363109082675749 -0.0097012986929806751 0 -0.047417288835289784 -0.010274988025117376 0 -0.046953470512214657 -0.011239182464472284 0 -0.047417288835289784 -0.010274988025117376 0 -0.047245873443581311 -0.01085503103190855 0 -0.046953470512214657 -0.011239182464472284 0 -0.04797411330305245 -0.010045147359812592 0 -0.047417288835289784 -0.010274988025117376 0 -0.047417288835289784 -0.010274988025117376 0 -0.047245873443581311 -0.01085503103190855 0 -0.047215547935407429 -0.010379489329045045 0 -0.046953470512214657 -0.011239182464472284 0 -0.04797411330305245 -0.010045147359812592 0 -0.048255950348432504 -0.01011200431603978 0 -0.046953470512214657 -0.011239182464472284 0 -0.045159974437965759 -0.012395942213100534 0 -0.043242209270657979 -0.015226387366285286 0 -0.045159974437965759 -0.012395942213100534 0 -0.043242209270657979 -0.015226387366285286 0 -0.042601768483807832 -0.015085868067614928 0 -0.042130745040157125 -0.015745143882954338 0 -0.041597907861320865 -0.01548854654684282 0 -0.042601768483807832 -0.015085868067614928 0 -0.046953470512214657 -0.011239182464472284 0 -0.048255950348432504 -0.01011200431603978 0 -0.04934439348756952 -0.0099104816000173939 0 -0.043068866990411091 -0.013998520879667848 0 -0.042898145674120411 -0.014730844108603612 0 -0.046814942070962644 -0.011496493206976941 0 -0.046403962401467595 -0.01250735002455531 0 -0.048676336780969824 -0.0093292004020499204 0 -0.04797411330305245 -0.010045147359812592 0 -0.048255950348432504 -0.01011200431603978 0 -0.048676336780969824 -0.0093292004020499204 0 -0.048255950348432504 -0.01011200431603978 0 -0.04934439348756952 -0.0099104816000173939 0 -0.043242209270657979 -0.015226387366285286 0 -0.042601768483807832 -0.015085868067614928 0 -0.042600827899655039 -0.015250723203825605 0 -0.042601768483807832 -0.015085868067614928 0 -0.04271249421470092 -0.015479899284104008 0 -0.042600827899655039 -0.015250723203825605 0 -0.042522534822430964 -0.015614016238959472 0 -0.042601768483807832 -0.015085868067614928 0 -0.04271249421470092 -0.015479899284104008 0 -0.041949416358475544 -0.015376027704694876 0 -0.045887960388203766 -0.011294164280987347 0 -0.043224947168409439 -0.015618851816125871 0 -0.04271249421470092 -0.015479899284104008 0 -0.042600827899655039 -0.015250723203825605 0 -0.04649341400999283 -0.0097519841378793208 0 -0.045887960388203766 -0.011294164280987347 0 -0.04934439348756952 -0.0099104816000173939 0 -0.050904941486090746 -0.0088635831495292652 0 -0.049545974799826982 -0.0088593863406609252 0 -0.050904941486090746 -0.0088635831495292652 0 -0.049545974799826982 -0.0088593863406609252 0 -0.049680929832630311 -0.0078153882228402527 0 -0.046403962401467595 -0.01250735002455531 0 -0.045887960388203766 -0.011294164280987347 0 -0.045887960388203766 -0.011294164280987347 0 -0.050454210139427927 -0.0080209675675899858 0 -0.049680929832630311 -0.0078153882228402527 0 -0.050188470275323513 -0.0071203787915200571 0 -0.049410243760421621 -0.0070322465712373966 0 -0.050000967534793529 -0.0082423922269140078 0 -0.049680929832630311 -0.0078153882228402527 0 -0.050188470275323513 -0.0071203787915200571 0 -0.050880189142764536 -0.0077033902021797634 0 -0.050000967534793529 -0.0082423922269140078 0 -0.050188470275323513 -0.0071203787915200571 0 -0.050188470275323513 -0.0071203787915200571 0 -0.049669125714326939 -0.0063909010795905512 0 -0.050537312134027762 -0.0060451422767330131 0 -0.050188470275323513 -0.0071203787915200571 0 -0.049410243760421621 -0.0070322465712373966 0 -0.049669125714326939 -0.0063909010795905512 0 -0.049410243760421621 -0.0070322465712373966 0 -0.048519883625889042 -0.0075112653836862889 0 -0.048587280222542384 -0.0064590444978268203 0 -0.054397093193741253 -0.0024287164714634347 0 -0.050140266236622093 -0.0028536800964907077 0 -0.049410243760421621 -0.0070322465712373966 0 -0.048587280222542384 -0.0064590444978268203 0 -0.049669125714326939 -0.0063909010795905512 0 -0.049680929832630311 -0.0078153882228402527 0 -0.049410243760421621 -0.0070322465712373966 0 -0.048519883625889042 -0.0075112653836862889 0 -0.048712977123605089 -0.0085333961844804834 0 -0.049680929832630311 -0.0078153882228402527 0 -0.048519883625889042 -0.0075112653836862889 0 -0.048519883625889042 -0.0075112653836862889 0 -0.048587280222542384 -0.0064590444978268203 0 -0.047456200553768098 -0.0076391510374657461 0 -0.047884080907656584 -0.0086081692731983551 0 -0.048519883625889042 -0.0075112653836862889 0 -0.047456200553768098 -0.0076391510374657461 0 -0.060160021128002061 -0.001079831679399865 0 -0.05909264004743249 -0.00088126803522352586 0 -0.058893334881196781 -0.0026276774623945204 0 -0.059681152239449781 -0.0027694917882217125 0 -0.058893334881196781 -0.0026276774623945204 0 -0.059427827937458183 -0.0037615172384419765 0 -0.054397093193741253 -0.0024287164714634347 0 -0.053299798389513993 -0.0061898751068738024 0 -0.054397093193741253 -0.0024287164714634347 0 -0.060797369325910518 -0.0020116526014004907 0 -0.05909264004743249 -0.00088126803522352586 0 -0.058156885428292303 -0.0016797798705487238 0 -0.058893334881196781 -0.0026276774623945204 0 -0.05909264004743249 -0.00088126803522352586 0 -0.058156885428292303 -0.0016797798705487238 0 -0.057917679342645773 -0.00039752252704213376 0 -0.058156885428292303 -0.0016797798705487238 0 -0.058893334881196781 -0.0026276774623945204 0 -0.057814399857449586 -0.0029599014003437586 0 -0.057116396979707711 -0.0015518708005895956 0 -0.055791045057184428 -0.0015916093413226094 0 -0.056511905935085843 -0.00036857219108099668 0 -0.058156885428292303 -0.0016797798705487238 0 -0.057116396979707711 -0.0015518708005895956 0 -0.057917679342645773 -0.00039752252704213376 0 -0.058156885428292303 -0.0016797798705487238 0 -0.057116396979707711 -0.0015518708005895956 0 -0.057814399857449586 -0.0029599014003437586 0 -0.057116396979707711 -0.0015518708005895956 0 -0.056446176933368897 -0.0028806780410614028 0 -0.055791045057184428 -0.0015916093413226094 0 -0.057116396979707711 -0.0015518708005895956 0 -0.057814399857449586 -0.0029599014003437586 0 -0.056446176933368897 -0.0028806780410614028 0 -0.057814399857449586 -0.0029599014003437586 0 -0.057038630266373735 -0.0041608840818298121 0 -0.056446176933368897 -0.0028806780410614028 0 -0.057814399857449586 -0.0029599014003437586 0 -0.057038630266373735 -0.0041608840818298121 0 -0.058285764757122695 -0.004266063354214397 0 -0.057038630266373735 -0.0041608840818298121 0 -0.058285764757122695 -0.004266063354214397 0 -0.057574613231054422 -0.0050827929225181158 0 -0.058285764757122695 -0.004266063354214397 0 -0.058553571099020041 -0.0052796962227473349 0 -0.057574613231054422 -0.0050827929225181158 0 -0.058893334881196781 -0.0026276774623945204 0 -0.058639204010634903 -0.0034141182210681424 0 -0.059427827937458183 -0.0037615172384419765 0 -0.057814399857449586 -0.0029599014003437586 0 -0.058639204010634903 -0.0034141182210681424 0 -0.058285764757122695 -0.004266063354214397 0 -0.058893334881196781 -0.0026276774623945204 0 -0.057814399857449586 -0.0029599014003437586 0 -0.058639204010634903 -0.0034141182210681424 0 -0.058285764757122695 -0.004266063354214397 0 -0.059427827937458183 -0.0037615172384419765 0 -0.058553571099020041 -0.0052796962227473349 0 -0.058639204010634903 -0.0034141182210681424 0 -0.058285764757122695 -0.004266063354214397 0 -0.059427827937458183 -0.0037615172384419765 0 -0.053299798389513993 -0.0061898751068738024 0 -0.052742637771512092 -0.008204336930740087 0 -0.059427827937458183 -0.0037615172384419765 0 -0.059112276466540603 -0.0068867162359311472 0 -0.058553571099020041 -0.0052796962227473349 0 -0.047456200553768098 -0.0076391510374657461 0 -0.047209133872977635 -0.0089756051427228641 0 -0.046424942238138728 -0.0093617832140857546 0 -0.047363109082675749 -0.0097012986929806751 0 -0.047209133872977635 -0.0089756051427228641 0 -0.046940700941100415 -0.009555080001866105 0 -0.047209133872977635 -0.0089756051427228641 0 -0.046940700941100415 -0.009555080001866105 0 -0.046424942238138728 -0.0093617832140857546 0 -0.046940700941100415 -0.009555080001866105 0 -0.046424942238138728 -0.0093617832140857546 0 -0.046752318409404352 -0.0098305460572709804 0 -0.057674498155035947 -0.0063836408223579251 0 -0.055698574543047281 -0.0063295008617472543 0 -0.056391885214371239 -0.0054268599533654925 0 -0.058553571099020041 -0.0052796962227473349 0 -0.057574613231054422 -0.0050827929225181158 0 -0.057674498155035947 -0.0063836408223579251 0 -0.057038630266373735 -0.0041608840818298121 0 -0.057574613231054422 -0.0050827929225181158 0 -0.056391885214371239 -0.0054268599533654925 0 -0.057574613231054422 -0.0050827929225181158 0 -0.057674498155035947 -0.0063836408223579251 0 -0.056391885214371239 -0.0054268599533654925 0 -0.059112276466540603 -0.0068867162359311472 0 -0.058553571099020041 -0.0052796962227473349 0 -0.057674498155035947 -0.0063836408223579251 0 -0.046424942238138728 -0.0093617832140857546 0 -0.045839131827915797 -0.010648541351510098 0 -0.046497448046354355 -0.010093350209845852 0 -0.052742637771512092 -0.008204336930740087 0 -0.05136395854377359 -0.011548667118843479 0 -0.059112276466540603 -0.0068867162359311472 0 -0.057674498155035947 -0.0063836408223579251 0 -0.057140013916573695 -0.012810156831309262 0 -0.045839131827915797 -0.010648541351510098 0 -0.04636143082166528 -0.010475959607038184 0 -0.046497448046354355 -0.010093350209845852 0 -0.045839131827915797 -0.010648541351510098 0 -0.04636143082166528 -0.010475959607038184 0 -0.046448999553177835 -0.010721149336220027 0 -0.04636143082166528 -0.010475959607038184 0 -0.046685772178205499 -0.010444484534854677 0 -0.046497448046354355 -0.010093350209845852 0 -0.04636143082166528 -0.010475959607038184 0 -0.046685772178205499 -0.010444484534854677 0 -0.046448999553177835 -0.010721149336220027 0 -0.046685772178205499 -0.010444484534854677 0 -0.046895471587488122 -0.010761281284655732 0 -0.046448999553177835 -0.010721149336220027 0 -0.046685772178205499 -0.010444484534854677 0 -0.046497448046354355 -0.010093350209845852 0 -0.046831746156972956 -0.010133288096286216 0 -0.046685772178205499 -0.010444484534854677 0 -0.047086910005379484 -0.010497459952039304 0 -0.046831746156972956 -0.010133288096286216 0 -0.046685772178205499 -0.010444484534854677 0 -0.047086910005379484 -0.010497459952039304 0 -0.046895471587488122 -0.010761281284655732 0 -0.047086910005379484 -0.010497459952039304 0 -0.047251054896625171 -0.01066125910308627 0 -0.047467948517439892 -0.010665921126447696 0 -0.047245873443581311 -0.01085503103190855 0 -0.047251054896625171 -0.01066125910308627 0 -0.047215547935407429 -0.010379489329045045 0 -0.047086910005379484 -0.010497459952039304 0 -0.047251054896625171 -0.01066125910308627 0 -0.047215547935407429 -0.010379489329045045 0 -0.047245873443581311 -0.01085503103190855 0 -0.047251054896625171 -0.01066125910308627 0 -0.047467948517439892 -0.010665921126447696 0 -0.047086910005379484 -0.010497459952039304 0 -0.047050398638424529 -0.0099903694378114284 0 -0.046831746156972956 -0.010133288096286216 0 -0.047086910005379484 -0.010497459952039304 0 -0.047215547935407429 -0.010379489329045045 0 -0.047050398638424529 -0.0099903694378114284 0 -0.047363109082675749 -0.0097012986929806751 0 -0.047215547935407429 -0.010379489329045045 0 -0.047050398638424529 -0.0099903694378114284 0 -0.047363109082675749 -0.0097012986929806751 0 -0.046940700941100415 -0.009555080001866105 0 -0.047050398638424529 -0.0099903694378114284 0 -0.046940700941100415 -0.009555080001866105 0 -0.047050398638424529 -0.0099903694378114284 0 -0.046752318409404352 -0.0098305460572709804 0 -0.046424942238138728 -0.0093617832140857546 0 -0.046752318409404352 -0.0098305460572709804 0 -0.046497448046354355 -0.010093350209845852 0 -0.047050398638424529 -0.0099903694378114284 0 -0.046752318409404352 -0.0098305460572709804 0 -0.046831746156972956 -0.010133288096286216 0 -0.046752318409404352 -0.0098305460572709804 0 -0.046497448046354355 -0.010093350209845852 0 -0.046831746156972956 -0.010133288096286216 0 -0.054346047481207943 -0.006625475241124403 0 -0.053331205229994301 -0.0055309755356893909 0 -0.052984022845719923 -0.007685733255689553 0 -0.054346047481207943 -0.006625475241124403 0 -0.055159956874456656 -0.0078763773242024934 0 -0.052984022845719923 -0.007685733255689553 0 -0.057706930036207527 -0.0065829530036532304 0 -0.054839516791030753 -0.010103713575635732 0 -0.057674498155035947 -0.0063836408223579251 0 -0.057140013916573695 -0.012810156831309262 0 -0.05422950655097615 -0.012554369854693881 0 -0.057674498155035947 -0.0063836408223579251 0 -0.055159956874456656 -0.0078763773242024934 0 -0.055698574543047281 -0.0063295008617472543 0 -0.054346047481207943 -0.006625475241124403 0 -0.055159956874456656 -0.0078763773242024934 0 -0.055698574543047281 -0.0063295008617472543 0 -0.054346047481207943 -0.006625475241124403 0 -0.055698574543047281 -0.0063295008617472543 0 -0.055020322855896586 -0.0053169836077747775 0 -0.055698574543047281 -0.0063295008617472543 0 -0.056391885214371239 -0.0054268599533654925 0 -0.055020322855896586 -0.0053169836077747775 0 -0.056391885214371239 -0.0054268599533654925 0 -0.055020322855896586 -0.0053169836077747775 0 -0.055946341173819525 -0.0041952334205856943 0 -0.055020322855896586 -0.0053169836077747775 0 -0.053331205229994301 -0.0055309755356893909 0 -0.05489548978929832 -0.0032835092058772675 0 -0.054346047481207943 -0.006625475241124403 0 -0.055020322855896586 -0.0053169836077747775 0 -0.053331205229994301 -0.0055309755356893909 0 -0.053331205229994301 -0.0055309755356893909 0 -0.05489548978929832 -0.0032835092058772675 0 -0.052334176657950184 -0.0034007991968558185 0 -0.055020322855896586 -0.0053169836077747775 0 -0.05489548978929832 -0.0032835092058772675 0 -0.055946341173819525 -0.0041952334205856943 0 -0.05489548978929832 -0.0032835092058772675 0 -0.055946341173819525 -0.0041952334205856943 0 -0.056446176933368897 -0.0028806780410614028 0 -0.057038630266373735 -0.0041608840818298121 0 -0.056391885214371239 -0.0054268599533654925 0 -0.055946341173819525 -0.0041952334205856943 0 -0.057038630266373735 -0.0041608840818298121 0 -0.055946341173819525 -0.0041952334205856943 0 -0.056446176933368897 -0.0028806780410614028 0 -0.05489548978929832 -0.0032835092058772675 0 -0.055791045057184428 -0.0015916093413226094 0 -0.054420597567864812 -0.001446031765692641 0 -0.05489548978929832 -0.0032835092058772675 0 -0.056446176933368897 -0.0028806780410614028 0 -0.055791045057184428 -0.0015916093413226094 0 -0.055791045057184428 -0.0015916093413226094 0 -0.054420597567864812 -0.001446031765692641 0 -0.055467563812352912 -0.00030013986510838125 0 -0.05489548978929832 -0.0032835092058772675 0 -0.054420597567864812 -0.001446031765692641 0 -0.052334176657950184 -0.0034007991968558185 0 -0.051725483587709814 -0.0013982456314692933 0 -0.049801380912694211 -0.0027938876295370151 0 -0.052334176657950184 -0.0034007991968558185 0 -0.054420597567864812 -0.001446031765692641 0 -0.051725483587709814 -0.0013982456314692933 0 -0.052334176657950184 -0.0034007991968558185 0 -0.054420597567864812 -0.001446031765692641 0 -0.051725483587709814 -0.0013982456314692933 0 -0.052803597538004815 0.00053670752443594507 0 -0.051725483587709814 -0.0013982456314692933 0 -0.049801380912694211 -0.0027938876295370151 0 -0.050111784556158362 0.0007278844565547488 0 -0.049801380912694211 -0.0027938876295370151 0 -0.047732473501556572 -0.0011517584641968237 0 -0.050111784556158362 0.0007278844565547488 0 -0.049801380912694211 -0.0027938876295370151 0 -0.052334176657950184 -0.0034007991968558185 0 -0.049732012468157165 -0.0048816680421676101 0 -0.054999942743054128 -0.0015238154458219163 0 -0.055858054342571517 -0.0014747158606318298 0 -0.055856472540187052 0.00013434921756708912 0 -0.055858054342571517 -0.0014747158606318298 0 -0.057221504389943494 -0.00055605053145903042 0 -0.055856472540187052 0.00013434921756708912 0 -0.05632506634623282 -0.00088076827245972013 0 -0.054541043036048675 0.00037459196786485929 0 -0.055858054342571517 -0.0014747158606318298 0 -0.057185677261891874 -0.00058289622749850925 0 -0.057195748686750106 -0.0032297970121473235 0 -0.049801380912694211 -0.0027938876295370151 0 -0.047897957607613298 -0.0043161905123651756 0 -0.049732012468157165 -0.0048816680421676101 0 -0.049801380912694211 -0.0027938876295370151 0 -0.047732473501556572 -0.0011517584641968237 0 -0.047897957607613298 -0.0043161905123651756 0 -0.054541043036048675 0.00037459196786485929 0 -0.052344696367368361 -0.0040214681482506646 0 -0.055858054342571517 -0.0014747158606318298 0 -0.057195748686750106 -0.0032297970121473235 0 -0.054999975865628437 -0.0045565000426352259 0 -0.054999942743054128 -0.0015238154458219163 0 -0.055858054342571517 -0.0014747158606318298 0 -0.054999975865628437 -0.0045565000426352259 0 -0.057195748686750106 -0.0032297970121473235 0 -0.054999975865628437 -0.0045565000426352259 0 -0.057193140066284259 -0.005893113466314567 0 -0.052344696367368361 -0.0040214681482506646 0 -0.052629236529361099 -0.0064813189684352363 0 -0.047897957607613298 -0.0043161905123651756 0 -0.048069209647949453 -0.0071687976510275732 0 -0.049732012468157165 -0.0048816680421676101 0 -0.054999975865628437 -0.0045565000426352259 0 -0.057193140066284259 -0.005893113466314567 0 -0.054999968898559633 -0.0075891412701527706 0 -0.053331205229994301 -0.0055309755356893909 0 -0.052334176657950184 -0.0034007991968558185 0 -0.050934162900631748 -0.0067638593157027362 0 -0.052240089218912329 -0.0035629159747642834 0 -0.050935803616674442 -0.0065722362665027872 0 -0.052334176657950184 -0.0034007991968558185 0 -0.049732012468157165 -0.0048816680421676101 0 -0.050749606882072848 -0.0065603389335141989 0 -0.048069209647949453 -0.0071687976510275732 0 -0.049732012468157165 -0.0048816680421676101 0 -0.050749606882072848 -0.0065603389335141989 0 -0.050935803616674442 -0.0065722362665027872 0 -0.049235672943483556 -0.0097943052093923608 0 -0.050934162900631748 -0.0067638593157027362 0 -0.051593702232979419 -0.008538984510361879 0 -0.049772978869456294 -0.0097967601766158867 0 -0.048069209647949453 -0.0071687976510275732 0 -0.050749606882072848 -0.0065603389335141989 0 -0.049416341047766134 -0.0095205194533276114 0 -0.053331205229994301 -0.0055309755356893909 0 -0.050934162900631748 -0.0067638593157027362 0 -0.052984022845719923 -0.007685733255689553 0 -0.050934162900631748 -0.0067638593157027362 0 -0.052984022845719923 -0.007685733255689553 0 -0.051593702232979419 -0.008538984510361879 0 -0.051593702232979419 -0.008538984510361879 0 -0.052711700429162033 -0.0098652514059903891 0 -0.049772978869456294 -0.0097967601766158867 0 -0.052984022845719923 -0.007685733255689553 0 -0.051593702232979419 -0.008538984510361879 0 -0.052711700429162033 -0.0098652514059903891 0 -0.052711700429162033 -0.0098652514059903891 0 -0.049772978869456294 -0.0097967601766158867 0 -0.050416534725629764 -0.011698728348123076 0 -0.052888021566997005 -0.017156648109065049 0 -0.054428137251902563 -0.017647323797589435 0 -0.05374889512651114 -0.017650238631939465 0 -0.052888021566997005 -0.017156648109065049 0 -0.05374889512651114 -0.017650238631939465 0 -0.053328413503007675 -0.017741591502124843 0 -0.052953983293077413 -0.013328988573344247 0 -0.052054662341338528 -0.014843813024616515 0 -0.05374889512651114 -0.017650238631939465 0 -0.053532689448110841 -0.017779552780541268 0 -0.053328413503007675 -0.017741591502124843 0 -0.057193140066284259 -0.005893113466314567 0 -0.054999968898559633 -0.0075891412701527706 0 -0.057186215971399418 -0.0085541338251321573 0 -0.048069209647949453 -0.0071687976510275732 0 -0.049416341047766134 -0.0095205194533276114 0 -0.048181061745377132 -0.0097971270156873985 0 -0.052629236529361099 -0.0064813189684352363 0 -0.052872692309337485 -0.0091006995440642818 0 -0.049416341047766134 -0.0095205194533276114 0 -0.048181061745377132 -0.0097971270156873985 0 -0.048229368450151952 -0.01229607704561694 0 -0.057186215971399418 -0.0085541338251321573 0 -0.056356424922975511 -0.0098805777549463049 0 -0.057172215200724311 -0.011213703522603532 0 -0.049772978869456294 -0.0097967601766158867 0 -0.050416534725629764 -0.011698728348123076 0 -0.048721272700164305 -0.012550700395545506 0 -0.049235672943483556 -0.0097943052093923608 0 -0.050714929542603822 -0.012126430380680599 0 -0.052872692309337485 -0.0091006995440642818 0 -0.050714929542603822 -0.012126430380680599 0 -0.054999968898559633 -0.0075891412701527706 0 -0.056356424922975511 -0.0098805777549463049 0 -0.054999963334548464 -0.010621796512102757 0 -0.054999968898559633 -0.0075891412701527706 0 -0.057186215971399418 -0.0085541338251321573 0 -0.056356424922975511 -0.0098805777549463049 0 -0.054999963334548464 -0.010621796512102757 0 -0.056032482171133637 -0.011418340608734341 0 -0.054999981396573597 -0.013654398677324596 0 -0.054999963334548464 -0.010621796512102757 0 -0.056259759856342344 -0.010754206283148684 0 -0.056032482171133637 -0.011418340608734341 0 -0.056259759856342344 -0.010754206283148684 0 -0.056032482171133637 -0.011418340608734341 0 -0.057172215200724311 -0.011213703522603532 0 -0.056356424922975511 -0.0098805777549463049 0 -0.056259759856342344 -0.010754206283148684 0 -0.057172215200724311 -0.011213703522603532 0 -0.056356424922975511 -0.0098805777549463049 0 -0.054999963334548464 -0.010621796512102757 0 -0.056259759856342344 -0.010754206283148684 0 -0.056032482171133637 -0.011418340608734341 0 -0.057172215200724311 -0.011213703522603532 0 -0.056742774021859232 -0.012204188318555397 0 -0.050416534725629764 -0.011698728348123076 0 -0.048734020227382914 -0.01292962535701119 0 -0.04835902103221635 -0.013438480198065064 0 -0.052054662341338528 -0.014843813024616515 0 -0.053551471691566717 -0.013982172024597251 0 -0.050416534725629764 -0.011698728348123076 0 -0.048734020227382914 -0.01292962535701119 0 -0.048721272700164305 -0.012550700395545506 0 -0.054428137251902563 -0.017647323797589435 0 -0.05556491072452989 -0.016301727412455076 0 -0.054835504473807355 -0.016705710383183036 0 -0.050714929542603822 -0.012126430380680599 0 -0.053551471691566717 -0.013982172024597251 0 -0.048734020227382914 -0.01292962535701119 0 -0.048734040545105821 -0.012550229501279576 0 -0.04835902103221635 -0.013438480198065064 0 -0.050442448099454876 -0.012417325909469349 0 -0.050714929542603822 -0.012126430380680599 0 -0.055178956692528064 -0.016318437783972371 0 -0.055388402180356552 -0.015660854520765967 0 -0.05520629841536142 -0.01608842095593686 0 -0.05520629841536142 -0.01608842095593686 0 -0.05556491072452989 -0.016301727412455076 0 -0.054835504473807355 -0.016705710383183036 0 -0.055388402180356552 -0.015660854520765967 0 -0.05520629841536142 -0.01608842095593686 0 -0.055401444905020726 -0.015729485767343621 0 -0.055388402180356552 -0.015660854520765967 0 -0.055401444905020726 -0.015729485767343621 0 -0.055468740035792378 -0.015280806148140787 0 -0.05520629841536142 -0.01608842095593686 0 -0.055401444905020726 -0.015729485767343621 0 -0.05556491072452989 -0.016301727412455076 0 -0.055401444905020726 -0.015729485767343621 0 -0.05556491072452989 -0.016301727412455076 0 -0.055468740035792378 -0.015280806148140787 0 -0.056032482171133637 -0.011418340608734341 0 -0.056742774021859232 -0.012204188318555397 0 -0.054999981396573597 -0.013654398677324596 0 -0.055696003514308916 -0.016033892074789193 0 -0.055468740035792378 -0.015280806148140787 0 -0.05500011042428387 -0.013660494588733786 0 -0.053551471691566717 -0.013982172024597251 0 -0.055002027965647043 -0.013653980016263481 0 -0.053551471691566717 -0.013982172024597251 0 -0.054306056280465788 -0.014998220628505636 0 -0.055411936254846472 -0.015199298227405771 0 -0.055468740035792378 -0.015280806148140787 0 -0.05500011042428387 -0.013660494588733786 0 -0.05374889512651114 -0.017650238631939465 0 -0.054211628837606558 -0.017188491997270412 0 -0.053532689448110841 -0.017779552780541268 0 -0.054428137251902563 -0.017647323797589435 0 -0.05374889512651114 -0.017650238631939465 0 -0.054211628837606558 -0.017188491997270412 0 -0.054428137251902563 -0.017647323797589435 0 -0.054835504473807355 -0.016705710383183036 0 -0.054211628837606558 -0.017188491997270412 0 -0.055178956692528064 -0.016318437783972371 0 -0.05520629841536142 -0.01608842095593686 0 -0.054835504473807355 -0.016705710383183036 0 -0.055178956692528064 -0.016318437783972371 0 -0.054835504473807355 -0.016705710383183036 0 -0.054211628837606558 -0.017188491997270412 0 -0.055137398318539942 -0.016716516920281536 0 -0.054211628837606558 -0.017188491997270412 0 -0.054002910695446521 -0.017300506454012436 0 -0.055137398318539942 -0.016716516920281536 0 -0.055178956692528064 -0.016318437783972371 0 -0.054211628837606558 -0.017188491997270412 0 -0.054002910695446521 -0.017300506454012436 0 -0.053317909668929533 -0.017817781967673446 0 -0.052981325335941534 -0.017419302596203796 0 -0.054211628837606558 -0.017188491997270412 0 -0.054002910695446521 -0.017300506454012436 0 -0.053317909668929533 -0.017817781967673446 0 -0.054211628837606558 -0.017188491997270412 0 -0.053317909668929533 -0.017817781967673446 0 -0.053532689448110841 -0.017779552780541268 0 -0.053317909668929533 -0.017817781967673446 0 -0.052795225284757351 -0.01818817614553515 0 -0.053210509727238287 -0.018025182959022147 0 -0.053317909668929533 -0.017817781967673446 0 -0.053532689448110841 -0.017779552780541268 0 -0.053210509727238287 -0.018025182959022147 0 -0.052178785530529237 -0.018442827010134211 0 -0.052795225284757351 -0.01818817614553515 0 -0.05254958784070491 -0.0184628093021218 0 -0.053317909668929533 -0.017817781967673446 0 -0.052795225284757351 -0.01818817614553515 0 -0.052499678356038179 -0.017991738389608849 0 -0.052178785530529237 -0.018442827010134211 0 -0.052795225284757351 -0.01818817614553515 0 -0.052499678356038179 -0.017991738389608849 0 -0.052178785530529237 -0.018442827010134211 0 -0.052499678356038179 -0.017991738389608849 0 -0.051488979342540368 -0.017986761652973873 0 -0.052981325335941534 -0.017419302596203796 0 -0.052499678356038179 -0.017991738389608849 0 -0.051488979342540368 -0.017986761652973873 0 -0.053317909668929533 -0.017817781967673446 0 -0.052981325335941534 -0.017419302596203796 0 -0.052499678356038179 -0.017991738389608849 0 -0.051488979342540368 -0.017986761652973873 0 -0.049955301300327278 -0.018648923165266444 0 -0.050574339227915842 -0.018988176309228656 0 -0.049544794956701915 -0.018427308837534864 0 -0.051488979342540368 -0.017986761652973873 0 -0.049955301300327278 -0.018648923165266444 0 -0.052178785530529237 -0.018442827010134211 0 -0.051428875113031965 -0.018079229928444011 0 -0.051772701849073191 -0.018513967021603805 0 -0.051829080389922844 -0.018465260600218306 0 -0.051458365624925555 -0.018517027366728181 0 -0.052178785530529237 -0.018442827010134211 0 -0.051488979342540368 -0.017986761652973873 0 -0.050574339227915842 -0.018988176309228656 0 -0.052178785530529237 -0.018442827010134211 0 -0.051772701849073191 -0.018513967021603805 0 -0.052189674907666433 -0.018648144717491176 0 -0.051772701849073191 -0.018513967021603805 0 -0.052189674907666433 -0.018648144717491176 0 -0.051867254828765141 -0.01907858986696799 0 -0.051772701849073191 -0.018513967021603805 0 -0.051381719342526333 -0.018832671648658785 0 -0.051867254828765141 -0.01907858986696799 0 -0.051428875113031965 -0.018079229928444011 0 -0.051772701849073191 -0.018513967021603805 0 -0.051381719342526333 -0.018832671648658785 0 -0.05084006810470109 -0.01862372907058546 0 -0.051381719342526333 -0.018832671648658785 0 -0.051104538402456309 -0.019302020722405035 0 -0.05084006810470109 -0.01862372907058546 0 -0.051428875113031965 -0.018079229928444011 0 -0.051381719342526333 -0.018832671648658785 0 -0.046895471587488122 -0.010761281284655732 0 -0.047512569143585939 -0.010968928537594697 0 -0.046167594349669959 -0.011328188409483226 0 -0.047452378627996984 -0.01525696801875942 0 -0.049016701489104808 -0.015171435132973116 0 -0.051381719342526333 -0.018832671648658785 0 -0.051104538402456309 -0.019302020722405035 0 -0.051867254828765141 -0.01907858986696799 0 -0.046895471587488122 -0.010761281284655732 0 -0.047467948517439892 -0.010665921126447696 0 -0.047512569143585939 -0.010968928537594697 0 -0.047086910005379484 -0.010497459952039304 0 -0.046895471587488122 -0.010761281284655732 0 -0.047467948517439892 -0.010665921126447696 0 -0.047245873443581311 -0.01085503103190855 0 -0.047467948517439892 -0.010665921126447696 0 -0.047942336590680666 -0.010292227988317163 0 -0.047030389298135911 -0.013495769124898815 0 -0.047452378627996984 -0.01525696801875942 0 -0.045839131827915797 -0.010648541351510098 0 -0.046167594349669959 -0.011328188409483226 0 -0.045226672608285376 -0.011667748551969205 0 -0.046895471587488122 -0.010761281284655732 0 -0.046167594349669959 -0.011328188409483226 0 -0.046448999553177835 -0.010721149336220027 0 -0.045839131827915797 -0.010648541351510098 0 -0.046167594349669959 -0.011328188409483226 0 -0.046448999553177835 -0.010721149336220027 0 -0.057140013916573695 -0.012810156831309262 0 -0.054786405685691708 -0.014757151138680561 0 -0.055029576291910978 -0.016804690653856962 0 -0.05136395854377359 -0.011548667118843479 0 -0.05096756456361607 -0.01558058478151232 0 -0.049016701489104808 -0.015171435132973116 0 -0.05096756456361607 -0.01558058478151232 0 -0.057140013916573695 -0.012810156831309262 0 -0.05422950655097615 -0.012554369854693881 0 -0.054786405685691708 -0.014757151138680561 0 -0.054465294958596006 -0.015952013509544446 0 -0.054786405685691708 -0.014757151138680561 0 -0.055029576291910978 -0.016804690653856962 0 -0.05422950655097615 -0.012554369854693881 0 -0.054786405685691708 -0.014757151138680561 0 -0.053881358135193916 -0.015819575924978568 0 -0.05422950655097615 -0.012554369854693881 0 -0.052888021566997005 -0.017156648109065049 0 -0.053881358135193916 -0.015819575924978568 0 -0.055159956874456656 -0.0078763773242024934 0 -0.052984022845719923 -0.007685733255689553 0 -0.052711700429162033 -0.0098652514059903891 0 -0.054839516791030753 -0.010103713575635732 0 -0.052953983293077413 -0.013328988573344247 0 -0.052888021566997005 -0.017156648109065049 0 -0.053881358135193916 -0.015819575924978568 0 -0.053328413503007675 -0.017741591502124843 0 -0.054465294958596006 -0.015952013509544446 0 -0.054786405685691708 -0.014757151138680561 0 -0.053881358135193916 -0.015819575924978568 0 -0.054465294958596006 -0.015952013509544446 0 -0.053881358135193916 -0.015819575924978568 0 -0.053328413503007675 -0.017741591502124843 0 -0.053943284479456378 -0.017506309572485789 0 -0.05096756456361607 -0.01558058478151232 0 -0.053328413503007675 -0.017741591502124843 0 -0.052840787925075405 -0.018670666991804256 0 -0.052955864872636579 -0.018351084962365372 0 -0.054465294958596006 -0.015952013509544446 0 -0.053328413503007675 -0.017741591502124843 0 -0.055029576291910978 -0.016804690653856962 0 -0.053532689448110841 -0.017779552780541268 0 -0.053328413503007675 -0.017741591502124843 0 -0.053210509727238287 -0.018025182959022147 0 -0.052795225284757351 -0.01818817614553515 0 -0.053210509727238287 -0.018025182959022147 0 -0.052955864872636579 -0.018351084962365372 0 -0.053328413503007675 -0.017741591502124843 0 -0.053210509727238287 -0.018025182959022147 0 -0.052955864872636579 -0.018351084962365372 0 -0.052795225284757351 -0.01818817614553515 0 -0.05254958784070491 -0.0184628093021218 0 -0.052955864872636579 -0.018351084962365372 0 -0.052189674907666433 -0.018648144717491176 0 -0.051867254828765141 -0.01907858986696799 0 -0.052715586193271664 -0.018741998652181457 0 -0.052178785530529237 -0.018442827010134211 0 -0.052189674907666433 -0.018648144717491176 0 -0.05254958784070491 -0.0184628093021218 0 -0.052189674907666433 -0.018648144717491176 0 -0.05254958784070491 -0.0184628093021218 0 -0.052715586193271664 -0.018741998652181457 0 -0.05254958784070491 -0.0184628093021218 0 -0.052715586193271664 -0.018741998652181457 0 -0.052955864872636579 -0.018351084962365372 0 -0.05096756456361607 -0.01558058478151232 0 -0.051227786349432931 -0.016808665371996146 0 -0.0071055907062087618 0.0024149842628685813 0 -0.006251094562154033 0.0055911160864795485 0 -0.0045381928317550354 0.0042225592897794303 0 -0.010723290262081707 -0.0030227797432925245 0 -0.012163284982981569 0.0034032924996824764 0 -0.0071617848929497107 0.0005812916342301293 0 -0.010915270197808925 -0.0029199565147000049 0 -0.012336091365391559 0.0033186689043924618 0 -0.0071617848929497107 0.0005812916342301293 0 -0.0094840861197986841 0.0066688094350466865 0 -0.012336091365391559 0.0033186689043924618 0 -0.0071497821753205943 0.0015848712272904983 0 -0.0094117648077982792 0.0064577561758978027 0 -0.0094840861197986841 0.0066688094350466865 0 -0.006251094562154033 0.0055911160864795485 0 -0.0069265390612410415 0.008350315087104437 0 -0.006251094562154033 0.0055911160864795485 0 -0.0069265390612410415 0.008350315087104437 0 -0.0037656481741710889 0.006890167269043351 0 -0.0071055907062087618 0.0024149842628685813 0 -0.0094840861197986841 0.0066688094350466865 0 -0.006251094562154033 0.0055911160864795485 0 -0.0028563685604045281 0.0060326769946215993 0 -0.0045381928317550354 0.0042225592897794303 0 -0.0037656481741710889 0.006890167269043351 0 -0.006251094562154033 0.0055911160864795485 0 -0.0045381928317550354 0.0042225592897794303 0 -0.0037656481741710889 0.006890167269043351 0 -0.0031520003018790186 0.0024703485041617603 0 -0.0027323072061856998 0.0057276515213413167 0 -0.0028563685604045281 0.0060326769946215993 0 -0.0021317542083966476 0.0036977175252062011 0 -0.0020000689292633887 0.0069510254391051121 0 -0.0028563685604045281 0.0060326769946215993 0 -0.0021317542083966476 0.0036977175252062011 0 -0.0045381928317550354 0.0042225592897794303 0 -0.0021317542083966476 0.0036977175252062011 0 -0.0045381928317550354 0.0042225592897794303 0 -0.0047968174539517435 0.0015413308700992273 0 -0.0071055907062087618 0.0024149842628685813 0 -0.0045381928317550354 0.0042225592897794303 0 -0.0047968174539517435 0.0015413308700992273 0 -0.0071055907062087618 0.0024149842628685813 0 -0.0047968174539517435 0.0015413308700992273 0 -0.0057240790768307856 -0.0013133932275857226 0 -0.0040351284683622897 0.0012698499196005509 0 -0.0042081802785081087 -0.00088285390925340506 0 -0.0032850056544901237 -0.00010082565059950402 0 -0.0021317542083966476 0.0036977175252062011 0 -0.0047968174539517435 0.0015413308700992273 0 -0.0042081802785081087 -0.00088285390925340506 0 -0.0031520003018790186 0.0024703485041617603 0 -0.0041213885591565363 -0.00067494182969729359 0 -0.0042081802785081087 -0.00088285390925340506 0 -0.0025624592231564751 -0.0014324447235965416 0 -0.003720472357195415 -0.0024868886169387245 0 -0.0042081802785081087 -0.00088285390925340506 0 -0.0032850056544901237 -0.00010082565059950402 0 -0.0025624592231564751 -0.0014324447235965416 0 -0.0042081802785081087 -0.00088285390925340506 0 -0.004594804186881807 -0.0022006292144286675 0 -0.003720472357195415 -0.0024868886169387245 0 -0.0047968174539517435 0.0015413308700992273 0 -0.0042081802785081087 -0.00088285390925340506 0 -0.0057240790768307856 -0.0013133932275857226 0 -0.0042081802785081087 -0.00088285390925340506 0 -0.0057240790768307856 -0.0013133932275857226 0 -0.004594804186881807 -0.0022006292144286675 0 -0.0052303147465049661 -0.0048813619363355428 0 -0.0076968658307288648 -0.0032334990810822129 0 -0.0065868625782603465 -0.0066622885448290375 0 -0.0076968658307288648 -0.0032334990810822129 0 -0.0088611308427539847 -0.0062491966750784804 0 -0.0065868625782603465 -0.0066622885448290375 0 -0.0071497821753205943 0.0015848712272904983 0 -0.0058115346141713424 -0.0031862280396321233 0 -0.0071617848929497107 0.0005812916342301293 0 -0.0052303147465049661 -0.0048813619363355428 0 -0.0076968658307288648 -0.0032334990810822129 0 -0.0071617848929497107 0.0005812916342301293 0 -0.0076968658307288648 -0.0032334990810822129 0 -0.010915270197808925 -0.0029199565147000049 0 -0.01055338106757559 -0.0030234562141306562 0 -0.012660655199927522 -0.0059502953810630305 0 -0.010324770501593691 -0.0082394535974791919 0 -0.010723290262081707 -0.0030227797432925245 0 -0.0095545922866627775 -0.0082585490612714328 0 -0.010915270197808925 -0.0029199565147000049 0 -0.0088611308427539847 -0.0062491966750784804 0 -0.0095142321947080579 -0.0085320981379115556 0 -0.0076968658307288648 -0.0032334990810822129 0 -0.010915270197808925 -0.0029199565147000049 0 -0.0088611308427539847 -0.0062491966750784804 0 -0.01055338106757559 -0.0030234562141306562 0 -0.012660655199927522 -0.0059502953810630305 0 -0.015612620891640297 -0.0040846293190532242 0 0.0015387939277657606 -0.0060388080448371953 0 -0.0015563595223964612 -0.0041494745948570458 0 0.00015527361501137271 -0.0085183145371015949 0 -0.015612620891640297 -0.0040846293190532242 0 -0.013825357617292708 -0.00055338285904477341 0 -0.018408652206315948 0.001648524307361264 0 -0.0068787134067943533 -0.005053485379723722 0 -0.010512819611965396 0.00029366922123105521 0 0.0015387939277657606 -0.0060388080448371953 0 -0.0015563595223964612 -0.0041494745948570458 0 -0.00032526860117369538 -0.0010207015401869901 0 -0.01055338106757559 -0.0030234562141306562 0 -0.013825357617292708 -0.00055338285904477341 0 -0.011927406211547423 0.0033224615317094513 0 -0.01055338106757559 -0.0030234562141306562 0 -0.015612620891640297 -0.0040846293190532242 0 -0.013825357617292708 -0.00055338285904477341 0 0.023342724200504164 -0.0060034747964103552 0 0.021904757842669941 -0.0050429553484478357 0 0.022756837726552362 -0.0073620477818621211 0 0.021904757842669941 -0.0050429553484478357 0 0.022756837726552362 -0.0073620477818621211 0 0.020816245495384716 -0.0073560936971420951 0 0.023342724200504164 -0.0060034747964103552 0 0.023869527617347463 -0.0042594559227694942 0 0.021904757842669941 -0.0050429553484478357 0 0.023342724200504164 -0.0060034747964103552 0 0.023869527617347463 -0.0042594559227694942 0 0.024803012394057453 -0.0072857814970228888 0 0.01065409099702294 -0.0041462361166093864 0 0.012568930637097351 -0.0079275633408522634 0 0.023869527617347463 -0.0042594559227694942 0 0.021904757842669941 -0.0050429553484478357 0 0.02224137627005441 -0.0030536352978285759 0 0.021904757842669941 -0.0050429553484478357 0 0.02224137627005441 -0.0030536352978285759 0 0.020650840007426362 -0.0029272221442583533 0 0.023869527617347463 -0.0042594559227694942 0 0.02224137627005441 -0.0030536352978285759 0 0.022647842276478283 -0.0010335314466388792 0 0.022013056562941998 -0.0023988110115300137 0 0.013025817938868197 0.00030054112099984901 0 0.02224137627005441 -0.0030536352978285759 0 0.022612096555025527 -0.0014539197733661471 0 0.020924171566555662 -0.0014498537185857216 0 0.01065409099702294 -0.0041462361166093864 0 0.013025817938868197 0.00030054112099984901 0 -0.0015563595223964612 -0.0041494745948570458 0 -0.00032526860117369538 -0.0010207015401869901 0 -0.0035427219835000782 0.00098311862086670684 0 0.013025817938868197 0.00030054112099984901 0 -0.0045047456898355889 0.0075073240537418063 0 -0.018408652206315948 0.001648524307361264 0 -0.016962728678358754 0.0073751942451138752 0 -0.021393807296375456 0.0077016479685227514 0 -0.00032526860117369538 -0.0010207015401869901 0 -0.0035427219835000782 0.00098311862086670684 0 -0.0026245193411185905 0.004605248212758214 0 -0.010512819611965396 0.00029366922123105521 0 -0.0045047456898355889 0.0075073240537418063 0 0.022612096555025527 -0.0014539197733661471 0 0.021610394360587541 -0.00075511221717925001 0 0.020924171566555662 -0.0014498537185857216 0 0.0093779811332059815 0.0029915884160725118 0 0.0086695198252563499 0.0049240117753091067 0 0.0099307579990745073 0.0051811490229079216 0 0.022612096555025527 -0.0014539197733661471 0 0.021610394360587541 -0.00075511221717925001 0 0.022022243154857714 5.471006682109584e-05 0 0.013025817938868197 0.00030054112099984901 0 0.015291100463640257 0.0023600984205488277 0 0.021610394360587541 -0.00075511221717925001 0 0.022022243154857714 5.471006682109584e-05 0 0.021013587364466492 -7.7119062454929955e-06 0 -0.013825357617292708 -0.00055338285904477341 0 -0.018408652206315948 0.001648524307361264 0 -0.011927406211547423 0.0033224615317094513 0 -0.018408652206315948 0.001648524307361264 0 -0.011927406211547423 0.0033224615317094513 0 -0.016962728678358754 0.0073751942451138752 0 -0.0094840861197986841 0.0066688094350466865 0 -0.012336091365391559 0.0033186689043924618 0 -0.013800804945396001 0.010065995951793184 0 -0.011927406211547423 0.0033224615317094513 0 -0.013800804945396001 0.010065995951793184 0 -0.016962728678358754 0.0073751942451138752 0 -0.012163284982981569 0.0034032924996824764 0 -0.013719443205638225 0.0097291390696444095 0 -0.016962728678358754 0.0073751942451138752 0 -0.016476697366228771 0.011156619361256129 0 -0.019627006331261809 0.010216313643283759 0 -0.013800804945396001 0.010065995951793184 0 -0.016962728678358754 0.0073751942451138752 0 -0.016476697366228771 0.011156619361256129 0 -0.016476697366228771 0.011156619361256129 0 -0.019627006331261809 0.010216313643283759 0 -0.017224533950706816 0.014817885572136527 0 -0.016476697366228771 0.011156619361256129 0 -0.014332926146902319 0.013157467576974256 0 -0.017224533950706816 0.014817885572136527 0 -0.013800804945396001 0.010065995951793184 0 -0.014332926146902319 0.013157467576974256 0 -0.010335417914980259 0.011480310376194186 0 -0.014332926146902319 0.013157467576974256 0 -0.012118890177175122 0.015132814369593916 0 -0.010335417914980259 0.011480310376194186 0 -0.013800804945396001 0.010065995951793184 0 -0.016476697366228771 0.011156619361256129 0 -0.014332926146902319 0.013157467576974256 0 0.014886312403567825 0.0034921591974996671 0 0.011013395629332484 0.0082696822462193353 0 0.014929188869292519 0.0038158157553290647 0 0.013694111212113136 0.0072306398178560837 0 0.012860111963015253 0.0077028993560546545 0 0.021761440902756331 0.00071862262707152505 0 0.021244949862088754 0.0016400770170821991 0 0.020895260347336204 0.00087416578497254485 0 0.014886312403567825 0.0034921591974996671 0 0.015415188498368542 0.0059934693055989675 0 0.0083780129348024947 0.0057678359009651079 0 0.0095815493522258752 0.0059839242847004358 0 0.0080154294675543088 0.0067911907070157471 0 0.021761440902756331 0.00071862262707152505 0 0.022022243154857714 5.471006682109584e-05 0 0.021013587364466492 -7.7119062454929955e-06 0 0.014886312403567825 0.0034921591974996671 0 0.015291100463640257 0.0023600984205488277 0 0.0086695198252563499 0.0049240117753091067 0 0.0095815493522258752 0.0059839242847004358 0 0.0099307579990745073 0.0051811490229079216 0 0.0083780129348024947 0.0057678359009651079 0 0.0086695198252563499 0.0049240117753091067 0 0.0095815493522258752 0.0059839242847004358 0 0.0035769651485096439 0.0093356129921109612 0 0.011013395629332484 0.0082696822462193353 0 -0.0019263525717291481 0.012439380755136011 0 -0.0011722711411201201 0.010693256534358989 0 0.00090877462237142111 0.018571493962014383 0 -0.016962728678358754 0.0073751942451138752 0 -0.019627006331261809 0.010216313643283759 0 -0.021393807296375456 0.0077016479685227514 0 0.0035769651485096439 0.0093356129921109612 0 -0.0045047456898355889 0.0075073240537418063 0 -0.019332351380272422 0.01060176015831478 0 -0.015870162750825239 0.015885006387836142 0 -0.0045047456898355889 0.0075073240537418063 0 -0.0096947786573039606 0.01719001168038153 0 -0.019627006331261809 0.010216313643283759 0 -0.021393807296375456 0.0077016479685227514 0 -0.018597376343766972 0.016816180537812093 0 -0.019627006331261809 0.010216313643283759 0 -0.018597376343766972 0.016816180537812093 0 -0.014423826844484117 0.016910224512394802 0 -0.0019263525717291481 0.012439380755136011 0 -0.0040042154447013749 0.017404756708303798 0 0.00090877462237142111 0.018571493962014383 0 0.0035769651485096439 0.0093356129921109612 0 0.00072627707158362499 0.015715369227511475 0 0.0064377701681204123 0.015195620416115684 0 0.004935830830135015 0.01180400885067265 0 0.0030646245735312743 0.01688250756562196 0 0.008692574165163721 0.0098590863089674761 0 0.0064377701681204123 0.015195620416115684 0 0.004935830830135015 0.01180400885067265 0 0.011013395629332484 0.0082696822462193353 0 0.015415188498368542 0.0059934693055989675 0 0.00072627707158362499 0.015715369227511475 0 0.002235070095505773 0.027718577777357551 0 -0.0040042154447013749 0.017404756708303798 0 -0.0022295818037066217 0.021060263717330139 0 -0.0066882414299206383 0.023937446869844791 0 -0.0096947786573039606 0.01719001168038153 0 -0.0071751146269457616 0.030520487952540414 0 -0.0040042154447013749 0.017404756708303798 0 -0.0022295818037066217 0.021060263717330139 0 0.00090877462237142111 0.018571493962014383 0 -0.0022295818037066217 0.021060263717330139 0 0.00090877462237142111 0.018571493962014383 0 0.0030443566605485878 0.026254491925151131 0 -0.0022295818037066217 0.021060263717330139 0 -0.0018820467853075771 0.025053526007566201 0 0.0030443566605485878 0.026254491925151131 0 0.0036338840066718436 0.035019790619127841 0 -0.0071751146269457616 0.030520487952540414 0 0.0053850131994397981 0.043541553560263492 0 0.0031578305381278022 0.043072920249971183 0 0.0043110151547359546 0.042802964066318915 0 0.0053850131994397981 0.043541553560263492 0 0.0049737679605762917 0.042792573648761559 0 0.0043110151547359546 0.042802964066318915 0 0.0053850131994397981 0.043541553560263492 0 0.0054512801313986708 0.043038723327655709 0 0.0049737679605762917 0.042792573648761559 0 0.0053850131994397981 0.043541553560263492 0 0.0059880440725214061 0.043098538077172344 0 0.0077815517720615547 0.043861924988099307 0 -0.0022295818037066217 0.021060263717330139 0 -0.0018820467853075771 0.025053526007566201 0 -0.0066882414299206383 0.023937446869844791 0 0.0036338840066718436 0.035019790619127841 0 0.002235070095505773 0.027718577777357551 0 0.0053850131994397981 0.043541553560263492 0 0.0054512801313986708 0.043038723327655709 0 0.0059880440725214061 0.043098538077172344 0 0.0056911659056042554 0.043032307777142502 0 0.0054512801313986708 0.043038723327655709 0 0.0059880440725214061 0.043098538077172344 0 0.0056911659056042554 0.043032307777142502 0 0.0058421837469555043 0.043273800275647117 0 0.0059880440725214061 0.043098538077172344 0 -0.011821030092378398 0.018395314463388514 0 -0.014066640280543597 0.016335169159320921 0 -0.014471140827721145 0.020357719012858579 0 -0.011821030092378398 0.018395314463388514 0 -0.012118890177175122 0.015132814369593916 0 -0.014066640280543597 0.016335169159320921 0 -0.014332926146902319 0.013157467576974256 0 -0.012118890177175122 0.015132814369593916 0 -0.014066640280543597 0.016335169159320921 0 -0.018597376343766972 0.016816180537812093 0 -0.014423826844484117 0.016910224512394802 0 -0.011925936602643726 0.023665935373422403 0 -0.014066640280543597 0.016335169159320921 0 -0.017224533950706816 0.014817885572136527 0 -0.014471140827721145 0.020357719012858579 0 -0.015870162750825239 0.015885006387836142 0 -0.011863238682713084 0.02258001869790708 0 -0.014423826844484117 0.016910224512394802 0 -0.011925936602643726 0.023665935373422403 0 -0.0093012623829087371 0.024772422787655329 0 -0.014332926146902319 0.013157467576974256 0 -0.014066640280543597 0.016335169159320921 0 -0.017224533950706816 0.014817885572136527 0 -0.018597376343766972 0.016816180537812093 0 -0.011925936602643726 0.023665935373422403 0 -0.015204067423696075 0.027887766499478679 0 -0.011925936602643726 0.023665935373422403 0 -0.011798807968496396 0.026211040938494291 0 -0.0093012623829087371 0.024772422787655329 0 -0.012904680123782857 0.027365376129445212 0 -0.013970142633448021 0.027159569867533182 0 -0.011798807968496396 0.026211040938494291 0 -0.012904680123782857 0.027365376129445212 0 -0.013998928091740267 0.027179032200820772 0 -0.013524999431388835 0.027638218631786428 0 -0.0099021862713885335 0.029640788638252456 0 -0.0071751146269457616 0.030520487952540414 0 -0.011798807968496396 0.026211040938494291 0 -0.010582292611967836 0.027074316173790289 0 -0.0093012623829087371 0.024772422787655329 0 -0.011925936602643726 0.023665935373422403 0 -0.013970142633448021 0.027159569867533182 0 -0.011798807968496396 0.026211040938494291 0 -0.011746134846749967 0.025435890437603748 0 -0.0071751146269457616 0.030520487952540414 0 -0.012904680123782857 0.027365376129445212 0 -0.011798807968496396 0.026211040938494291 0 -0.011807579719755957 0.027325259827402679 0 -0.011798807968496396 0.026211040938494291 0 -0.011807579719755957 0.027325259827402679 0 -0.010582292611967836 0.027074316173790289 0 -0.010582292611967836 0.027074316173790289 0 -0.0093012623829087371 0.024772422787655329 0 -0.0093975524999011118 0.028893020514026875 0 -0.014471140827721145 0.020357719012858579 0 -0.011695725949896428 0.021406093829840555 0 -0.011108474552069605 0.02626991406847707 0 -0.011821030092378398 0.018395314463388514 0 -0.014471140827721145 0.020357719012858579 0 -0.011695725949896428 0.021406093829840555 0 -0.011695725949896428 0.021406093829840555 0 -0.0093812118061897924 0.020667566755978105 0 -0.011108474552069605 0.02626991406847707 0 -0.011821030092378398 0.018395314463388514 0 -0.011695725949896428 0.021406093829840555 0 -0.0093812118061897924 0.020667566755978105 0 -0.0093812118061897924 0.020667566755978105 0 -0.0058043042332227264 0.01897176964001995 0 -0.0066502879157843116 0.02351274558619414 0 -0.0058043042332227264 0.01897176964001995 0 -0.0029658004542241377 0.02248210928881007 0 -0.0066502879157843116 0.02351274558619414 0 -0.0058043042332227264 0.01897176964001995 0 -0.0041817583007545105 0.015522394881209014 0 -0.001086298915207233 0.018168296846338791 0 -0.0058043042332227264 0.01897176964001995 0 -0.0041817583007545105 0.015522394881209014 0 -0.0085351870923043912 0.015870480128948265 0 -0.0093812118061897924 0.020667566755978105 0 -0.0058043042332227264 0.01897176964001995 0 -0.0085351870923043912 0.015870480128948265 0 -0.011821030092378398 0.018395314463388514 0 -0.0093812118061897924 0.020667566755978105 0 -0.0085351870923043912 0.015870480128948265 0 -0.011821030092378398 0.018395314463388514 0 -0.012118890177175122 0.015132814369593916 0 -0.0085351870923043912 0.015870480128948265 0 -0.0085351870923043912 0.015870480128948265 0 -0.010335417914980259 0.011480310376194186 0 -0.0057079100006523957 0.011741724288862025 0 -0.012118890177175122 0.015132814369593916 0 -0.0085351870923043912 0.015870480128948265 0 -0.010335417914980259 0.011480310376194186 0 -0.0041817583007545105 0.015522394881209014 0 -0.0085351870923043912 0.015870480128948265 0 -0.0057079100006523957 0.011741724288862025 0 -0.010335417914980259 0.011480310376194186 0 -0.0057079100006523957 0.011741724288862025 0 -0.0069265390612410415 0.008350315087104437 0 -0.0057079100006523957 0.011741724288862025 0 -0.0069265390612410415 0.008350315087104437 0 -0.0037656481741710889 0.006890167269043351 0 -0.0094840861197986841 0.0066688094350466865 0 -0.013800804945396001 0.010065995951793184 0 -0.010335417914980259 0.011480310376194186 0 -0.0094840861197986841 0.0066688094350466865 0 -0.010335417914980259 0.011480310376194186 0 -0.0069265390612410415 0.008350315087104437 0 -0.0028563685604045281 0.0060326769946215993 0 -0.0032496959309930491 0.0080232259298863504 0 -0.0020000689292633887 0.0069510254391051121 0 -0.0057079100006523957 0.011741724288862025 0 -0.0037656481741710889 0.006890167269043351 0 0.00055310366845707473 0.012773341045362678 0 -0.0028563685604045281 0.0060326769946215993 0 -0.0037656481741710889 0.006890167269043351 0 -0.0032496959309930491 0.0080232259298863504 0 -0.0034928259806240669 0.0071348945884755818 0 -0.0014237636763385739 0.010416328477575607 0 -0.0041817583007545105 0.015522394881209014 0 -0.0057079100006523957 0.011741724288862025 0 0.00055310366845707473 0.012773341045362678 0 -0.0032496959309930491 0.0080232259298863504 0 -0.0031517666421010137 0.0091616091519446004 0 -0.0022508966605664133 0.0082433084802757302 0 0.00055310366845707473 0.012773341045362678 0 0.0040113481865713015 0.019054346752664059 0 -0.001086298915207233 0.018168296846338791 0 -0.0014237636763385739 0.010416328477575607 0 0.00044137109193309945 0.014194603885103494 0 -0.0041817583007545105 0.015522394881209014 0 0.00055310366845707473 0.012773341045362678 0 -0.001086298915207233 0.018168296846338791 0 -0.0058043042332227264 0.01897176964001995 0 -0.001086298915207233 0.018168296846338791 0 -0.0029658004542241377 0.02248210928881007 0 -0.001086298915207233 0.018168296846338791 0 -0.0029658004542241377 0.02248210928881007 0 0.0012903269510207576 0.023236465991072531 0 0.0040113481865713015 0.019054346752664059 0 0.0012903269510207576 0.023236465991072531 0 0.0065644907094465632 0.025331060168954485 0 0.0040113481865713015 0.019054346752664059 0 -0.001086298915207233 0.018168296846338791 0 0.0012903269510207576 0.023236465991072531 0 0.00044137109193309945 0.014194603885103494 0 0.0017478464750184904 0.017993032289299854 0 -0.0031517666421010137 0.0091616091519446004 0 -0.0022919353792723706 0.0094886723460824197 0 -0.002760672163194608 0.01101561161483933 0 -0.0031517666421010137 0.0091616091519446004 0 -0.0022919353792723706 0.0094886723460824197 0 -0.0022508966605664133 0.0082433084802757302 0 -0.0022508966605664133 0.0082433084802757302 0 -0.00088905237323659949 0.0096139550383723769 0 -0.00090002828839012838 0.0071707530134477882 0 -0.019975760810352437 0.0052491230012124647 0 -0.020404434805163983 0.0018306633207755846 0 -0.0022919353792723706 0.0094886723460824197 0 -0.0022508966605664133 0.0082433084802757302 0 -0.00088905237323659949 0.0096139550383723769 0 -0.0022919353792723706 0.0094886723460824197 0 -0.00088905237323659949 0.0096139550383723769 0 -0.002760672163194608 0.01101561161483933 0 -0.038772082925263358 0.0010498450692752867 0 -0.036396938662531221 0.0025975553455051272 0 -0.037633623809408413 0.0057196789350425631 0 -0.038772082925263358 0.0010498450692752867 0 -0.036396938662531221 0.0025975553455051272 0 -0.036760986573849137 -0.00015241065560910535 0 -0.036396938662531221 0.0025975553455051272 0 -0.033993319260477307 0.0006893770645816133 0 -0.036760986573849137 -0.00015241065560910535 0 -0.036396938662531221 0.0025975553455051272 0 -0.033993319260477307 0.0006893770645816133 0 -0.035167175491836997 0.0055554270124778433 0 -0.033993319260477307 0.0006893770645816133 0 -0.036760986573849137 -0.00015241065560910535 0 -0.036329667775411717 -0.0024010066119488894 0 -0.033993319260477307 0.0006893770645816133 0 -0.036329667775411717 -0.0024010066119488894 0 -0.034850960366063902 -0.0039632865364802681 0 -0.038772082925263358 0.0010498450692752867 0 -0.036760986573849137 -0.00015241065560910535 0 -0.03989378330574659 -0.003470494629400106 0 -0.036760986573849137 -0.00015241065560910535 0 -0.036329667775411717 -0.0024010066119488894 0 -0.03989378330574659 -0.003470494629400106 0 -0.036708092690011372 -0.0049475969239221405 0 -0.036329667775411717 -0.0024010066119488894 0 -0.03989378330574659 -0.003470494629400106 0 -0.036708092690011372 -0.0049475969239221405 0 -0.036329667775411717 -0.0024010066119488894 0 -0.034850960366063902 -0.0039632865364802681 0 -0.036708092690011372 -0.0049475969239221405 0 -0.034850960366063902 -0.0039632865364802681 0 -0.034797047065464493 -0.0059899936416283276 0 -0.034850960366063902 -0.0039632865364802681 0 -0.034797047065464493 -0.0059899936416283276 0 -0.033662512695383631 -0.0052390710332106813 0 -0.036708092690011372 -0.0049475969239221405 0 -0.034797047065464493 -0.0059899936416283276 0 -0.036368256317969139 -0.0072360648991342492 0 -0.034797047065464493 -0.0059899936416283276 0 -0.033555180793042455 -0.0066215590702908738 0 -0.034618806264206457 -0.0077842386881615475 0 -0.034797047065464493 -0.0059899936416283276 0 -0.036368256317969139 -0.0072360648991342492 0 -0.034618806264206457 -0.0077842386881615475 0 -0.036708092690011372 -0.0049475969239221405 0 -0.038375306464501227 -0.0066433366810357483 0 -0.03989378330574659 -0.003470494629400106 0 -0.036708092690011372 -0.0049475969239221405 0 -0.036368256317969139 -0.0072360648991342492 0 -0.038375306464501227 -0.0066433366810357483 0 -0.036368256317969139 -0.0072360648991342492 0 -0.038375306464501227 -0.0066433366810357483 0 -0.037920448911361988 -0.009045760364745789 0 -0.038375306464501227 -0.0066433366810357483 0 -0.03989378330574659 -0.003470494629400106 0 -0.04111963489944058 -0.0079945396736366501 0 -0.020404434805163983 0.0018306633207755846 0 -0.021341214221019044 -0.0022124451281246658 0 -0.0035264516322709881 0.0045379995012538449 0 -0.00090002828839012838 0.0071707530134477882 0 -0.0015331944929400127 0.0036000827092350428 0 -0.0032496959309930491 0.0080232259298863504 0 -0.0022508966605664133 0.0082433084802757302 0 -0.0020000689292633887 0.0069510254391051121 0 -0.0022624766020818607 0.0080959887348791715 0 -0.0027323072061856998 0.0057276515213413167 0 -0.0022508966605664133 0.0082433084802757302 0 -0.0035264516322709881 0.0045379995012538449 0 -0.00090002828839012838 0.0071707530134477882 0 -0.045148360747620596 -0.012238945947162082 0 -0.046017162486020752 -0.011256154336804096 0 -0.047153712857705324 -0.012221568996829999 0 -0.046017162486020752 -0.011256154336804096 0 -0.046510196067841424 -0.010463467943135827 0 -0.047153712857705324 -0.012221568996829999 0 -0.045321392988531224 -0.010874328834076793 0 -0.046017162486020752 -0.011256154336804096 0 -0.045914078569364289 -0.010439764541783962 0 -0.046017162486020752 -0.011256154336804096 0 -0.045914078569364289 -0.010439764541783962 0 -0.046510196067841424 -0.010463467943135827 0 -0.045659704022941332 -0.010218268182094726 0 -0.045914078569364289 -0.010439764541783962 0 -0.046052429901004263 -0.0098591005170541798 0 -0.045914078569364289 -0.010439764541783962 0 -0.046052429901004263 -0.0098591005170541798 0 -0.046275682087835383 -0.010102146727318045 0 -0.046402032998859651 -0.0097598523547628938 0 -0.046510196067841424 -0.010463467943135827 0 -0.046713402919621283 -0.0097878089718772751 0 -0.046402032998859651 -0.0097598523547628938 0 -0.046275682087835383 -0.010102146727318045 0 -0.046510196067841424 -0.010463467943135827 0 -0.046052429901004263 -0.0098591005170541798 0 -0.046402032998859651 -0.0097598523547628938 0 -0.046275682087835383 -0.010102146727318045 0 -0.045914078569364289 -0.010439764541783962 0 -0.046275682087835383 -0.010102146727318045 0 -0.046510196067841424 -0.010463467943135827 0 -0.046510196067841424 -0.010463467943135827 0 -0.047088202752314179 -0.0097947945500860122 0 -0.047153712857705324 -0.012221568996829999 0 -0.047088202752314179 -0.0097947945500860122 0 -0.04726112424307366 -0.012170362308296672 0 -0.048066339414546869 -0.010142463327300925 0 -0.046510196067841424 -0.010463467943135827 0 -0.046713402919621283 -0.0097878089718772751 0 -0.047088202752314179 -0.0097947945500860122 0 -0.047088202752314179 -0.0097947945500860122 0 -0.048066339414546869 -0.010142463327300925 0 -0.048061731555081581 -0.0091109731646588452 0 -0.047088202752314179 -0.0097947945500860122 0 -0.04726112424307366 -0.012170362308296672 0 -0.045577705412131256 -0.013632573220450127 0 -0.047017887480319098 -0.010001289987654238 0 -0.046404071795030748 -0.012917979209458402 0 -0.04726112424307366 -0.012170362308296672 0 -0.04704831614932091 -0.013980485038012372 0 -0.045577705412131256 -0.013632573220450127 0 -0.04726112424307366 -0.012170362308296672 0 -0.048511167912595791 -0.01314382589988012 0 -0.048066339414546869 -0.010142463327300925 0 -0.048725379414143018 -0.011538170137179274 0 -0.048066339414546869 -0.010142463327300925 0 -0.048854981045575938 -0.0106611667964003 0 -0.049175735279928974 -0.013021657194062968 0 -0.047887877134352115 -0.0099424915040850995 0 -0.04726112424307366 -0.012170362308296672 0 -0.048511167912595791 -0.01314382589988012 0 -0.04704831614932091 -0.013980485038012372 0 -0.048066339414546869 -0.010142463327300925 0 -0.048710557177815195 -0.0097114952313659565 0 -0.048061731555081581 -0.0091109731646588452 0 -0.048710557177815195 -0.0097114952313659565 0 -0.049284303120282508 -0.0099237923484012131 0 -0.049072823328429209 -0.0088907773109240581 0 -0.048066339414546869 -0.010142463327300925 0 -0.048710557177815195 -0.0097114952313659565 0 -0.048854981045575938 -0.0106611667964003 0 -0.048710557177815195 -0.0097114952313659565 0 -0.048854981045575938 -0.0106611667964003 0 -0.049284303120282508 -0.0099237923484012131 0 -0.048854981045575938 -0.0106611667964003 0 -0.049284303120282508 -0.0099237923484012131 0 -0.049536568481793358 -0.011168682137792346 0 -0.049284303120282508 -0.0099237923484012131 0 -0.049536568481793358 -0.011168682137792346 0 -0.050227622558714539 -0.0089118943674210849 0 -0.035201515145378635 0.0003284879430644401 0 -0.033503785560918077 -0.0010830458435395699 0 -0.03488332221063082 0.0040131890128365186 0 -0.041120279392413979 -0.0055513331357156404 0 -0.04180020254297933 -0.0030998501599814924 0 -0.035201515145378635 0.0003284879430644401 0 -0.033503785560918077 -0.0010830458435395699 0 -0.033009651694520609 -0.0040857109931560333 0 -0.034377055824573705 0.00048143555119879098 0 -0.033184112506901439 -0.0037914617449726 0 -0.048725379414143018 -0.011538170137179274 0 -0.048854981045575938 -0.0106611667964003 0 -0.049536568481793358 -0.011168682137792346 0 -0.033993319260477307 0.0006893770645816133 0 -0.034850960366063902 -0.0039632865364802681 0 -0.033009651694520609 -0.0040857109931560333 0 -0.041120279392413979 -0.0055513331357156404 0 -0.04448493952153644 -0.011456057110321634 0 -0.033503785560918077 -0.0010830458435395699 0 -0.033009651694520609 -0.0040857109931560333 0 -0.032046505437967825 -0.0056215042477340462 0 -0.048725379414143018 -0.011538170137179274 0 -0.049536568481793358 -0.011168682137792346 0 -0.049086196439748778 -0.012777106769383217 0 -0.034850960366063902 -0.0039632865364802681 0 -0.033009651694520609 -0.0040857109931560333 0 -0.033662512695383631 -0.0052390710332106813 0 -0.033009651694520609 -0.0040857109931560333 0 -0.033662512695383631 -0.0052390710332106813 0 -0.032046505437967825 -0.0056215042477340462 0 -0.033662512695383631 -0.0052390710332106813 0 -0.033555180793042455 -0.0066215590702908738 0 -0.032046505437967825 -0.0056215042477340462 0 -0.033555180793042455 -0.0066215590702908738 0 -0.032046505437967825 -0.0056215042477340462 0 -0.032983500366114207 -0.0083930151834668062 0 -0.04448493952153644 -0.011456057110321634 0 -0.040887915106451664 -0.012292035894101829 0 -0.048769409734845531 -0.015864915691015034 0 -0.048813180953487009 -0.015705394444163457 0 -0.049091514307592246 -0.017236965927514166 0 -0.034797047065464493 -0.0059899936416283276 0 -0.033662512695383631 -0.0052390710332106813 0 -0.033555180793042455 -0.0066215590702908738 0 -0.033555180793042455 -0.0066215590702908738 0 -0.032983500366114207 -0.0083930151834668062 0 -0.034618806264206457 -0.0077842386881615475 0 -0.048465388918224418 -0.016317026413629719 0 -0.048201791384072407 -0.016811503435920045 0 -0.049091514307592246 -0.017236965927514166 0 -0.048465388918224418 -0.016317026413629719 0 -0.048769409734845531 -0.015864915691015034 0 -0.049091514307592246 -0.017236965927514166 0 -0.048465388918224418 -0.016317026413629719 0 -0.048769409734845531 -0.015864915691015034 0 -0.048314389103809349 -0.015425978691796348 0 -0.044558963363742529 -0.011854512614928293 0 -0.04448493952153644 -0.011456057110321634 0 -0.048769409734845531 -0.015864915691015034 0 -0.048831539133250529 -0.0156912103896336 0 -0.048314389103809349 -0.015425978691796348 0 -0.048314389103809349 -0.015425978691796348 0 -0.047836093637202509 -0.016144798968805739 0 -0.047478129407715404 -0.015250401900996642 0 -0.048465388918224418 -0.016317026413629719 0 -0.048314389103809349 -0.015425978691796348 0 -0.047836093637202509 -0.016144798968805739 0 -0.047836093637202509 -0.016144798968805739 0 -0.048201791384072407 -0.016811503435920045 0 -0.046576654761925948 -0.01672559265299645 0 -0.048465388918224418 -0.016317026413629719 0 -0.047836093637202509 -0.016144798968805739 0 -0.048201791384072407 -0.016811503435920045 0 -0.047836093637202509 -0.016144798968805739 0 -0.047478129407715404 -0.015250401900996642 0 -0.046576654761925948 -0.01672559265299645 0 -0.048511167912595791 -0.01314382589988012 0 -0.048831539133250529 -0.0156912103896336 0 -0.048314389103809349 -0.015425978691796348 0 -0.048511167912595791 -0.01314382589988012 0 -0.048314389103809349 -0.015425978691796348 0 -0.047478129407715404 -0.015250401900996642 0 -0.048511167912595791 -0.01314382589988012 0 -0.047478129407715404 -0.015250401900996642 0 -0.04704831614932091 -0.013980485038012372 0 -0.049175735279928974 -0.013021657194062968 0 -0.04448493952153644 -0.011456057110321634 0 -0.04704831614932091 -0.013980485038012372 0 -0.045577705412131256 -0.013632573220450127 0 -0.046333475969737019 -0.015502884851656752 0 -0.046404071795030748 -0.012917979209458402 0 -0.04608674837912962 -0.01578465931616679 0 -0.047478129407715404 -0.015250401900996642 0 -0.04704831614932091 -0.013980485038012372 0 -0.046333475969737019 -0.015502884851656752 0 -0.047478129407715404 -0.015250401900996642 0 -0.046333475969737019 -0.015502884851656752 0 -0.046576654761925948 -0.01672559265299645 0 -0.045577705412131256 -0.013632573220450127 0 -0.046333475969737019 -0.015502884851656752 0 -0.045442038003225764 -0.016922346881726009 0 -0.046333475969737019 -0.015502884851656752 0 -0.046576654761925948 -0.01672559265299645 0 -0.045442038003225764 -0.016922346881726009 0 -0.045308837249627275 -0.014711396283179355 0 -0.045767683043610251 -0.013537668113348325 0 -0.046746521525714423 -0.014747900196923238 0 -0.045148360747620596 -0.012238945947162082 0 -0.047153712857705324 -0.012221568996829999 0 -0.045767683043610251 -0.013537668113348325 0 -0.047153712857705324 -0.012221568996829999 0 -0.045767683043610251 -0.013537668113348325 0 -0.046746521525714423 -0.014747900196923238 0 -0.04493378964934918 -0.017189971337618248 0 -0.045122219577250954 -0.016230418434664398 0 -0.045823400741176065 -0.017238516157529853 0 -0.045122219577250954 -0.016230418434664398 0 -0.045934314980469938 -0.017173204202161046 0 -0.046087111486033533 -0.017502958920258271 0 -0.045094885321706371 -0.016308389171887813 0 -0.046171702303033052 -0.017347908582945392 0 -0.045442038003225764 -0.016922346881726009 0 -0.045934314980469938 -0.017173204202161046 0 -0.045931670903355121 -0.017273901194253451 0 -0.045934314980469938 -0.017173204202161046 0 -0.046008258269953993 -0.017305981617895698 0 -0.045931670903355121 -0.017273901194253451 0 -0.045934314980469938 -0.017173204202161046 0 -0.046008258269953993 -0.017305981617895698 0 -0.046087111486033533 -0.017502958920258271 0 -0.046008258269953993 -0.017305981617895698 0 -0.046024516358353092 -0.017362101467421155 0 -0.046087111486033533 -0.017502958920258271 0 -0.04608674837912962 -0.01578465931616679 0 -0.045942967702921021 -0.017085821009271807 0 -0.045122219577250954 -0.016230418434664398 0 -0.045308837249627275 -0.014711396283179355 0 -0.046746521525714423 -0.014747900196923238 0 -0.045122219577250954 -0.016230418434664398 0 -0.046746521525714423 -0.014747900196923238 0 -0.045934314980469938 -0.017173204202161046 0 -0.045442038003225764 -0.016922346881726009 0 -0.045997755864653642 -0.017367832769783102 0 -0.045931670903355121 -0.017273901194253451 0 -0.045442038003225764 -0.016922346881726009 0 -0.046114314127336242 -0.017260317258464858 0 -0.045997755864653642 -0.017367832769783102 0 -0.046576654761925948 -0.01672559265299645 0 -0.045442038003225764 -0.016922346881726009 0 -0.046114314127336242 -0.017260317258464858 0 -0.046114314127336242 -0.017260317258464858 0 -0.045997755864653642 -0.017367832769783102 0 -0.04589670324117312 -0.017487541367405119 0 -0.045997755864653642 -0.017367832769783102 0 -0.045931670903355121 -0.017273901194253451 0 -0.045983145908798845 -0.017367240977025526 0 -0.046008258269953993 -0.017305981617895698 0 -0.045931670903355121 -0.017273901194253451 0 -0.046024516358353092 -0.017362101467421155 0 -0.045931670903355121 -0.017273901194253451 0 -0.046024516358353092 -0.017362101467421155 0 -0.045983145908798845 -0.017367240977025526 0 -0.045997755864653642 -0.017367832769783102 0 -0.045983145908798845 -0.017367240977025526 0 -0.045882033467458498 -0.017394903925455611 0 -0.045882033467458498 -0.017394903925455611 0 -0.045624410986400403 -0.017455787182522522 0 -0.04589670324117312 -0.017487541367405119 0 -0.04557421354434079 -0.017606532069519686 0 -0.04589670324117312 -0.017487541367405119 0 -0.045813310985995885 -0.01765015293864871 0 -0.045624410986400403 -0.017455787182522522 0 -0.04557421354434079 -0.017606532069519686 0 -0.04589670324117312 -0.017487541367405119 0 -0.045997755864653642 -0.017367832769783102 0 -0.045882033467458498 -0.017394903925455611 0 -0.04589670324117312 -0.017487541367405119 0 -0.046114314127336242 -0.017260317258464858 0 -0.04589670324117312 -0.017487541367405119 0 -0.046111517062906504 -0.017333917197075915 0 -0.046576654761925948 -0.01672559265299645 0 -0.046114314127336242 -0.017260317258464858 0 -0.046111517062906504 -0.017333917197075915 0 -0.046576654761925948 -0.01672559265299645 0 -0.046111517062906504 -0.017333917197075915 0 -0.045813310985995885 -0.01765015293864871 0 -0.046218102026334806 -0.016609561579443172 0 -0.047790803500841292 -0.018118528912873359 0 -0.048201791384072407 -0.016811503435920045 0 -0.046576654761925948 -0.01672559265299645 0 -0.04837746803132513 -0.017620380455827058 0 -0.04589670324117312 -0.017487541367405119 0 -0.046111517062906504 -0.017333917197075915 0 -0.045813310985995885 -0.01765015293864871 0 -0.032983500366114207 -0.0083930151834668062 0 -0.03392739996771834 -0.01121154087727912 0 -0.034527611186748575 -0.0094167650014230029 0 -0.040887915106451664 -0.012292035894101829 0 -0.042777174513142023 -0.015466647983569854 0 -0.04837746803132513 -0.017620380455827058 0 -0.049091514307592246 -0.017236965927514166 0 -0.049373607013883394 -0.018295837566548085 0 -0.047790803500841292 -0.018118528912873359 0 -0.042777174513142023 -0.015466647983569854 0 -0.048201791384072407 -0.016811503435920045 0 -0.04837746803132513 -0.017620380455827058 0 -0.049091514307592246 -0.017236965927514166 0 -0.04488034172314493 -0.017909212280322578 0 -0.04530577373796308 -0.017720974411899418 0 -0.044980350823499014 -0.017752236299756287 0 -0.04557421354434079 -0.017606532069519686 0 -0.045813310985995885 -0.01765015293864871 0 -0.04530577373796308 -0.017720974411899418 0 -0.045813310985995885 -0.01765015293864871 0 -0.04488034172314493 -0.017909212280322578 0 -0.04530577373796308 -0.017720974411899418 0 -0.04557421354434079 -0.017606532069519686 0 -0.04530577373796308 -0.017720974411899418 0 -0.045271118431318418 -0.01759542070894882 0 -0.045624410986400403 -0.017455787182522522 0 -0.04557421354434079 -0.017606532069519686 0 -0.045271118431318418 -0.01759542070894882 0 -0.045624410986400403 -0.017455787182522522 0 -0.045271118431318418 -0.01759542070894882 0 -0.045316822427055245 -0.017333293168642482 0 -0.04530577373796308 -0.017720974411899418 0 -0.045271118431318418 -0.01759542070894882 0 -0.044980350823499014 -0.017752236299756287 0 -0.044980350823499014 -0.017752236299756287 0 -0.044806027278260899 -0.017518607009144104 0 -0.044610363310999608 -0.01789070359010024 0 -0.045271118431318418 -0.01759542070894882 0 -0.044980350823499014 -0.017752236299756287 0 -0.044806027278260899 -0.017518607009144104 0 -0.04488034172314493 -0.017909212280322578 0 -0.044980350823499014 -0.017752236299756287 0 -0.044610363310999608 -0.01789070359010024 0 -0.044806027278260899 -0.017518607009144104 0 -0.045316822427055245 -0.017333293168642482 0 -0.045039305729909086 -0.016766801226030418 0 -0.045316822427055245 -0.017333293168642482 0 -0.045039305729909086 -0.016766801226030418 0 -0.045694794623201501 -0.017205833197123887 0 -0.044806027278260899 -0.017518607009144104 0 -0.045039305729909086 -0.016766801226030418 0 -0.044045178948835653 -0.017424764462529847 0 -0.045271118431318418 -0.01759542070894882 0 -0.044806027278260899 -0.017518607009144104 0 -0.045316822427055245 -0.017333293168642482 0 -0.042789655456619578 -0.017814579794276007 0 -0.042633942802655402 -0.018009693737480813 0 -0.042933560540343765 -0.01827767284374518 0 -0.043797938495473671 -0.017233161679871413 0 -0.044721250187585909 -0.017986036138222406 0 -0.042789655456619578 -0.017814579794276007 0 -0.042633942802655402 -0.018009693737480813 0 -0.04252246519684913 -0.017879676935105799 0 -0.042895592744590809 -0.018220589001698814 0 -0.044721250187585909 -0.017986036138222406 0 -0.045039305729909086 -0.016766801226030418 0 -0.045694794623201501 -0.017205833197123887 0 -0.045994544100435727 -0.016967315210245037 0 -0.045624410986400403 -0.017455787182522522 0 -0.045316822427055245 -0.017333293168642482 0 -0.045694794623201501 -0.017205833197123887 0 -0.045882033467458498 -0.017394903925455611 0 -0.045624410986400403 -0.017455787182522522 0 -0.045694794623201501 -0.017205833197123887 0 -0.044721250187585909 -0.017986036138222406 0 -0.046171702303033052 -0.017347908582945392 0 -0.046003852859954023 -0.017281309271914364 0 -0.045994544100435727 -0.016967315210245037 0 -0.046087111486033533 -0.017502958920258271 0 -0.046813949243588858 -0.018273720366686581 0 -0.04578900061786112 -0.018238512539283484 0 -0.045823400741176065 -0.017238516157529853 0 -0.045882033467458498 -0.017394903925455611 0 -0.045694794623201501 -0.017205833197123887 0 -0.046003852859954023 -0.017281309271914364 0 -0.045983145908798845 -0.017367240977025526 0 -0.045882033467458498 -0.017394903925455611 0 -0.046003852859954023 -0.017281309271914364 0 -0.046024516358353092 -0.017362101467421155 0 -0.046003852859954023 -0.017281309271914364 0 -0.046087111486033533 -0.017502958920258271 0 -0.046024516358353092 -0.017362101467421155 0 -0.045983145908798845 -0.017367240977025526 0 -0.046003852859954023 -0.017281309271914364 0 -0.045694794623201501 -0.017205833197123887 0 -0.046003852859954023 -0.017281309271914364 0 -0.045994544100435727 -0.016967315210245037 0 -0.043370445231047251 -0.01867752229477972 0 -0.043679184256260287 -0.018841017325019121 0 -0.043843067818137293 -0.018633790258741449 0 -0.043679184256260287 -0.018841017325019121 0 -0.043843067818137293 -0.018633790258741449 0 -0.04406947914669386 -0.018691631089208016 0 -0.044721250187585909 -0.017986036138222406 0 -0.044985923847770524 -0.018438639902478609 0 -0.04454462438800337 -0.018220920236879892 0 -0.04406947914669386 -0.018691631089208016 0 -0.044183653456957364 -0.018533132466202095 0 -0.044517979533013015 -0.018297939289706376 0 -0.044985923847770524 -0.018438639902478609 0 -0.043843067818137293 -0.018633790258741449 0 -0.04406947914669386 -0.018691631089208016 0 -0.044183653456957364 -0.018533132466202095 0 -0.04493378964934918 -0.017189971337618248 0 -0.045280760399346039 -0.017698064122764742 0 -0.045823400741176065 -0.017238516157529853 0 -0.04454462438800337 -0.018220920236879892 0 -0.04578900061786112 -0.018238512539283484 0 -0.045280760399346039 -0.017698064122764742 0 -0.04578900061786112 -0.018238512539283484 0 -0.045280760399346039 -0.017698064122764742 0 -0.045823400741176065 -0.017238516157529853 0 -0.039553381087572399 -0.01181853708045047 0 -0.042433587655015446 -0.012867178323379249 0 -0.040508004116641488 -0.014018358318196745 0 -0.039553381087572399 -0.01181853708045047 0 -0.042433587655015446 -0.012867178323379249 0 -0.04111963489944058 -0.0079945396736366501 0 -0.0040351284683622897 0.0012698499196005509 0 -0.0022116780273902332 0.00073977700958243711 0 -0.0032850056544901237 -0.00010082565059950402 0 -0.0040351284683622897 0.0012698499196005509 0 -0.0022116780273902332 0.00073977700958243711 0 -0.0028242694072525085 0.0024942283570918065 0 -0.0022116780273902332 0.00073977700958243711 0 -0.0028242694072525085 0.0024942283570918065 0 -0.0015331944929400127 0.0036000827092350428 0 -0.0040351284683622897 0.0012698499196005509 0 -0.0035264516322709881 0.0045379995012538449 0 -0.0028242694072525085 0.0024942283570918065 0 -0.0035264516322709881 0.0045379995012538449 0 -0.0028242694072525085 0.0024942283570918065 0 -0.0015331944929400127 0.0036000827092350428 0 -0.039553381087572399 -0.01181853708045047 0 -0.04111963489944058 -0.0079945396736366501 0 -0.037920448911361988 -0.009045760364745789 0 -0.022293102322801021 -0.0060314059119901805 0 -0.021341214221019044 -0.0022124451281246658 0 -0.038375306464501227 -0.0066433366810357483 0 -0.04111963489944058 -0.0079945396736366501 0 -0.037920448911361988 -0.009045760364745789 0 -0.036368256317969139 -0.0072360648991342492 0 -0.037920448911361988 -0.009045760364745789 0 -0.035822264002751486 -0.0090777059612861723 0 -0.037920448911361988 -0.009045760364745789 0 -0.035822264002751486 -0.0090777059612861723 0 -0.036652657758708275 -0.011605221756919462 0 -0.032983500366114207 -0.0083930151834668062 0 -0.034618806264206457 -0.0077842386881615475 0 -0.034527611186748575 -0.0094167650014230029 0 -0.034618806264206457 -0.0077842386881615475 0 -0.035822264002751486 -0.0090777059612861723 0 -0.034527611186748575 -0.0094167650014230029 0 -0.036368256317969139 -0.0072360648991342492 0 -0.034618806264206457 -0.0077842386881615475 0 -0.035822264002751486 -0.0090777059612861723 0 -0.035822264002751486 -0.0090777059612861723 0 -0.035308632267465966 -0.010460361928247936 0 -0.036652657758708275 -0.011605221756919462 0 -0.03392739996771834 -0.01121154087727912 0 -0.034527611186748575 -0.0094167650014230029 0 -0.035308632267465966 -0.010460361928247936 0 -0.035822264002751486 -0.0090777059612861723 0 -0.034527611186748575 -0.0094167650014230029 0 -0.035308632267465966 -0.010460361928247936 0 -0.04478167997608707 -0.018109750249067847 0 -0.044610363310999608 -0.01789070359010024 0 -0.043142963644379237 -0.017781737849589783 0 -0.042777174513142023 -0.015466647983569854 0 -0.039779969418998959 -0.015659932829508876 0 -0.03392739996771834 -0.01121154087727912 0 -0.036652657758708275 -0.011605221756919462 0 -0.037801935356511787 -0.014225806177442991 0 -0.03392739996771834 -0.01121154087727912 0 -0.035308632267465966 -0.010460361928247936 0 -0.036652657758708275 -0.011605221756919462 0 -0.042777174513142023 -0.015466647983569854 0 -0.043766970971056543 -0.01739919195990712 0 -0.039553381087572399 -0.01181853708045047 0 -0.037920448911361988 -0.009045760364745789 0 -0.036652657758708275 -0.011605221756919462 0 -0.039553381087572399 -0.01181853708045047 0 -0.036652657758708275 -0.011605221756919462 0 -0.037801935356511787 -0.014225806177442991 0 -0.039553381087572399 -0.01181853708045047 0 -0.037801935356511787 -0.014225806177442991 0 -0.040508004116641488 -0.014018358318196745 0 -0.043142963644379237 -0.017781737849589783 0 -0.044045178948835653 -0.017424764462529847 0 -0.043022674345997401 -0.017343542996397402 0 -0.043142963644379237 -0.017781737849589783 0 -0.042750316291983274 -0.01737402893520237 0 -0.043022674345997401 -0.017343542996397402 0 -0.044610363310999608 -0.01789070359010024 0 -0.043142963644379237 -0.017781737849589783 0 -0.044153136540258091 -0.017653620140552394 0 -0.044806027278260899 -0.017518607009144104 0 -0.044153136540258091 -0.017653620140552394 0 -0.044045178948835653 -0.017424764462529847 0 -0.044806027278260899 -0.017518607009144104 0 -0.044610363310999608 -0.01789070359010024 0 -0.044153136540258091 -0.017653620140552394 0 -0.043142963644379237 -0.017781737849589783 0 -0.044153136540258091 -0.017653620140552394 0 -0.044045178948835653 -0.017424764462529847 0 -0.043797938495473671 -0.017233161679871413 0 -0.043187633517756958 -0.017349354641120779 0 -0.042789655456619578 -0.017814579794276007 0 -0.043022674345997401 -0.017343542996397402 0 -0.042839553743846286 -0.017914312373452788 0 -0.045039305729909086 -0.016766801226030418 0 -0.044045178948835653 -0.017424764462529847 0 -0.043022674345997401 -0.017343542996397402 0 -0.043022674345997401 -0.017343542996397402 0 -0.04274570763430021 -0.017852721330475843 0 -0.042839553743846286 -0.017914312373452788 0 -0.043022674345997401 -0.017343542996397402 0 -0.042649921978606238 -0.017517803212277989 0 -0.04274570763430021 -0.017852721330475843 0 -0.042750316291983274 -0.01737402893520237 0 -0.043022674345997401 -0.017343542996397402 0 -0.042649921978606238 -0.017517803212277989 0 -0.043142963644379237 -0.017781737849589783 0 -0.042750316291983274 -0.01737402893520237 0 -0.042194793835612775 -0.017168450991889819 0 -0.042750316291983274 -0.01737402893520237 0 -0.042194793835612775 -0.017168450991889819 0 -0.042649921978606238 -0.017517803212277989 0 -0.042194793835612775 -0.017168450991889819 0 -0.042629637076063792 -0.017696327115442466 0 -0.042649921978606238 -0.017517803212277989 0 -0.037801935356511787 -0.014225806177442991 0 -0.042194793835612775 -0.017168450991889819 0 -0.040508004116641488 -0.014018358318196745 0 -0.042433587655015446 -0.012867178323379249 0 -0.042194793835612775 -0.017168450991889819 0 -0.040508004116641488 -0.014018358318196745 0 -0.039779969418998959 -0.015659932829508876 0 -0.042371956773466793 -0.017277226908151751 0 -0.042433587655015446 -0.012867178323379249 0 -0.042194793835612775 -0.017168450991889819 0 -0.043092646991978158 -0.017330380169850508 0 -0.0022116780273902332 0.00073977700958243711 0 -0.0032850056544901237 -0.00010082565059950402 0 -0.0025624592231564751 -0.0014324447235965416 0 -0.022293102322801021 -0.0060314059119901805 0 -0.022765120892504188 -0.0094820000671828105 0 -0.042194793835612775 -0.017168450991889819 0 -0.043092646991978158 -0.017330380169850508 0 -0.042629637076063792 -0.017696327115442466 0 -0.043092646991978158 -0.017330380169850508 0 -0.042793068230587913 -0.017882005220099483 0 -0.042629637076063792 -0.017696327115442466 0 -0.0025624592231564751 -0.0014324447235965416 0 -0.0028714448871130956 -0.0041242689111635998 0 -0.003720472357195415 -0.0024868886169387245 0 -0.022765120892504188 -0.0094820000671828105 0 -0.023298356822177492 -0.010275094056985965 0 -0.042793068230587913 -0.017882005220099483 0 -0.042589947428948081 -0.01801055476536198 0 -0.042737282444280621 -0.018313914159357944 0 -0.042793068230587913 -0.017882005220099483 0 -0.042589947428948081 -0.01801055476536198 0 -0.042629637076063792 -0.017696327115442466 0 -0.042589947428948081 -0.01801055476536198 0 -0.042598786273761222 -0.017902845834333516 0 -0.042629637076063792 -0.017696327115442466 0 -0.042448078974799894 -0.018116617509014873 0 -0.042589947428948081 -0.01801055476536198 0 -0.042598786273761222 -0.017902845834333516 0 -0.042598786273761222 -0.017902845834333516 0 -0.042629637076063792 -0.017696327115442466 0 -0.042649921978606238 -0.017517803212277989 0 -0.042598786273761222 -0.017902845834333516 0 -0.042649921978606238 -0.017517803212277989 0 -0.04274570763430021 -0.017852721330475843 0 -0.042839553743846286 -0.017914312373452788 0 -0.042808380769999814 -0.018137902348671187 0 -0.042933560540343765 -0.01827767284374518 0 -0.04274570763430021 -0.017852721330475843 0 -0.042839553743846286 -0.017914312373452788 0 -0.042808380769999814 -0.018137902348671187 0 -0.042808380769999814 -0.018137902348671187 0 -0.042777537178921556 -0.018281746736736347 0 -0.042957780232497196 -0.018264728282976879 0 -0.042808380769999814 -0.018137902348671187 0 -0.04259676900886384 -0.018134813542938551 0 -0.042777537178921556 -0.018281746736736347 0 -0.042598786273761222 -0.017902845834333516 0 -0.04274570763430021 -0.017852721330475843 0 -0.04259676900886384 -0.018134813542938551 0 -0.04274570763430021 -0.017852721330475843 0 -0.042808380769999814 -0.018137902348671187 0 -0.04259676900886384 -0.018134813542938551 0 -0.042448078974799894 -0.018116617509014873 0 -0.042598786273761222 -0.017902845834333516 0 -0.04259676900886384 -0.018134813542938551 0 -0.042448078974799894 -0.018116617509014873 0 -0.04259676900886384 -0.018134813542938551 0 -0.04214224464242218 -0.018241327832564672 0 -0.04259676900886384 -0.018134813542938551 0 -0.04214224464242218 -0.018241327832564672 0 -0.042777537178921556 -0.018281746736736347 0 -0.04214224464242218 -0.018241327832564672 0 -0.042777537178921556 -0.018281746736736347 0 -0.043185053974038934 -0.018249328399438689 0 -0.042777537178921556 -0.018281746736736347 0 -0.043185053974038934 -0.018249328399438689 0 -0.043100063258427385 -0.018275691629752001 0 -0.042777537178921556 -0.018281746736736347 0 -0.042957780232497196 -0.018264728282976879 0 -0.043100063258427385 -0.018275691629752001 0 -0.04214224464242218 -0.018241327832564672 0 -0.043185053974038934 -0.018249328399438689 0 -0.042989149656573127 -0.018137074652789385 0 -0.043185053974038934 -0.018249328399438689 0 -0.042989149656573127 -0.018137074652789385 0 -0.043479947753773049 -0.018213581071728119 0 -0.043185053974038934 -0.018249328399438689 0 -0.043442786037347338 -0.018287515070403916 0 -0.043479947753773049 -0.018213581071728119 0 -0.042003025760089144 -0.018416710261148807 0 -0.041638354079393945 -0.018533100264766216 0 -0.04214224464242218 -0.018241327832564672 0 -0.040378373972004812 -0.019285863653963547 0 -0.04188415081354388 -0.019079584034836852 0 -0.04214224464242218 -0.018241327832564672 0 -0.04188415081354388 -0.019079584034836852 0 -0.042369297501003989 -0.018665834942885949 0 -0.04188415081354388 -0.019079584034836852 0 -0.042369297501003989 -0.018665834942885949 0 -0.042713167403200275 -0.019119716201932847 0 -0.042713167403200275 -0.019119716201932847 0 -0.042655587096781265 -0.018561489859620389 0 -0.04288175002946612 -0.018435768156953792 0 -0.035686437515153602 -0.024431998663397368 0 -0.034814466309977449 -0.024510885114470443 0 -0.033976235054818983 -0.025582832914474451 0 -0.041541536631982116 -0.021326165009620552 0 -0.019355975010706065 -0.016531700596860308 0 -0.033731450096124709 -0.024844537841593781 0 -0.019355975010706065 -0.016531700596860308 0 -0.042369297501003989 -0.018665834942885949 0 -0.042713167403200275 -0.019119716201932847 0 -0.042655587096781265 -0.018561489859620389 0 -0.023298356822177492 -0.010275094056985965 0 -0.019355975010706065 -0.016531700596860308 0 -0.042655587096781265 -0.018561489859620389 0 -0.042737282444280621 -0.018313914159357944 0 -0.042486177260040954 -0.018296981051586503 0 -0.042793068230587913 -0.017882005220099483 0 -0.042737282444280621 -0.018313914159357944 0 -0.04288175002946612 -0.018435768156953792 0 -0.042655587096781265 -0.018561489859620389 0 -0.042737282444280621 -0.018313914159357944 0 -0.04288175002946612 -0.018435768156953792 0 -0.042589947428948081 -0.01801055476536198 0 -0.042737282444280621 -0.018313914159357944 0 -0.042486177260040954 -0.018296981051586503 0 -0.042448078974799894 -0.018116617509014873 0 -0.04214224464242218 -0.018241327832564672 0 -0.042486177260040954 -0.018296981051586503 0 -0.042448078974799894 -0.018116617509014873 0 -0.042589947428948081 -0.01801055476536198 0 -0.042486177260040954 -0.018296981051586503 0 -0.04214224464242218 -0.018241327832564672 0 -0.042369297501003989 -0.018665834942885949 0 -0.042486177260040954 -0.018296981051586503 0 -0.042369297501003989 -0.018665834942885949 0 -0.042655587096781265 -0.018561489859620389 0 -0.042486177260040954 -0.018296981051586503 0 -0.043997937731760341 -0.018724768472071225 0 -0.043645069438758601 -0.018569040891096442 0 -0.043912269849604064 -0.018583899922301604 0 -0.043809542134258896 -0.018808255549589047 0 -0.043997937731760341 -0.018724768472071225 0 -0.043645069438758601 -0.018569040891096442 0 -0.043843067818137293 -0.018633790258741449 0 -0.044183653456957364 -0.018533132466202095 0 -0.043912269849604064 -0.018583899922301604 0 -0.043997937731760341 -0.018724768472071225 0 -0.044183653456957364 -0.018533132466202095 0 -0.043912269849604064 -0.018583899922301604 0 -0.043370445231047251 -0.01867752229477972 0 -0.043843067818137293 -0.018633790258741449 0 -0.043662009705018691 -0.018504292179473827 0 -0.043843067818137293 -0.018633790258741449 0 -0.043912269849604064 -0.018583899922301604 0 -0.043662009705018691 -0.018504292179473827 0 -0.043645069438758601 -0.018569040891096442 0 -0.043662009705018691 -0.018504292179473827 0 -0.043412543261010426 -0.018388553067562988 0 -0.043645069438758601 -0.018569040891096442 0 -0.043912269849604064 -0.018583899922301604 0 -0.043662009705018691 -0.018504292179473827 0 -0.043662009705018691 -0.018504292179473827 0 -0.043412543261010426 -0.018388553067562988 0 -0.043308074820007071 -0.0183762046798066 0 -0.043412543261010426 -0.018388553067562988 0 -0.043308074820007071 -0.0183762046798066 0 -0.043161371021593738 -0.018301532024279473 0 -0.043308074820007071 -0.0183762046798066 0 -0.042933560540343765 -0.01827767284374518 0 -0.043161371021593738 -0.018301532024279473 0 -0.043370445231047251 -0.01867752229477972 0 -0.043308074820007071 -0.0183762046798066 0 -0.042933560540343765 -0.01827767284374518 0 -0.043370445231047251 -0.01867752229477972 0 -0.043662009705018691 -0.018504292179473827 0 -0.043308074820007071 -0.0183762046798066 0 -0.042895592744590809 -0.018220589001698814 0 -0.042975675775255358 -0.018319212079072011 0 -0.042789655456619578 -0.017814579794276007 0 -0.042839553743846286 -0.017914312373452788 0 -0.042933560540343765 -0.01827767284374518 0 -0.042808380769999814 -0.018137902348671187 0 -0.042933560540343765 -0.01827767284374518 0 -0.042957780232497196 -0.018264728282976879 0 -0.042933560540343765 -0.01827767284374518 0 -0.043161371021593738 -0.018301532024279473 0 -0.042957780232497196 -0.018264728282976879 0 -0.043161371021593738 -0.018301532024279473 0 -0.042957780232497196 -0.018264728282976879 0 -0.043100063258427385 -0.018275691629752001 0 -0.043161371021593738 -0.018301532024279473 0 -0.043100063258427385 -0.018275691629752001 0 -0.043303376247039074 -0.018314483736426759 0 -0.043100063258427385 -0.018275691629752001 0 -0.043416021098983411 -0.018308164312901411 0 -0.043303376247039074 -0.018314483736426759 0 -0.043185053974038934 -0.018249328399438689 0 -0.043100063258427385 -0.018275691629752001 0 -0.043416021098983411 -0.018308164312901411 0 -0.043185053974038934 -0.018249328399438689 0 -0.043442786037347338 -0.018287515070403916 0 -0.043416021098983411 -0.018308164312901411 0 -0.043442786037347338 -0.018287515070403916 0 -0.043416021098983411 -0.018308164312901411 0 -0.043632524882449716 -0.01842513067488781 0 -0.043416021098983411 -0.018308164312901411 0 -0.043397469058533866 -0.018389829998358323 0 -0.04348489647789068 -0.018513291948916693 0 -0.043416021098983411 -0.018308164312901411 0 -0.043397469058533866 -0.018389829998358323 0 -0.043303376247039074 -0.018314483736426759 0 -0.043412543261010426 -0.018388553067562988 0 -0.043397469058533866 -0.018389829998358323 0 -0.043303376247039074 -0.018314483736426759 0 -0.043412543261010426 -0.018388553067562988 0 -0.043161371021593738 -0.018301532024279473 0 -0.043303376247039074 -0.018314483736426759 0 -0.043412543261010426 -0.018388553067562988 0 -0.043397469058533866 -0.018389829998358323 0 -0.043460046477444461 -0.018456245257668133 0 -0.043645069438758601 -0.018569040891096442 0 -0.043460046477444461 -0.018456245257668133 0 -0.043407757858677128 -0.01854986610323996 0 -0.043397469058533866 -0.018389829998358323 0 -0.043460046477444461 -0.018456245257668133 0 -0.043407757858677128 -0.01854986610323996 0 -0.043645069438758601 -0.018569040891096442 0 -0.043412543261010426 -0.018388553067562988 0 -0.043460046477444461 -0.018456245257668133 0 -0.043397469058533866 -0.018389829998358323 0 -0.043284143335915834 -0.018552088024877317 0 -0.04348489647789068 -0.018513291948916693 0 -0.043397469058533866 -0.018389829998358323 0 -0.043407757858677128 -0.01854986610323996 0 -0.043284143335915834 -0.018552088024877317 0 -0.043407757858677128 -0.01854986610323996 0 -0.043288381109371228 -0.018668001830755971 0 -0.043567472716106191 -0.018709647335925617 0 -0.043407757858677128 -0.01854986610323996 0 -0.043288381109371228 -0.018668001830755971 0 -0.043284143335915834 -0.018552088024877317 0 -0.043533572461900365 -0.018802591498977578 0 -0.043288381109371228 -0.018668001830755971 0 -0.043567472716106191 -0.018709647335925617 0 -0.043809542134258896 -0.018808255549589047 0 -0.043645069438758601 -0.018569040891096442 0 -0.043567472716106191 -0.018709647335925617 0 -0.043645069438758601 -0.018569040891096442 0 -0.043407757858677128 -0.01854986610323996 0 -0.043567472716106191 -0.018709647335925617 0 -0.042771239577992885 -0.018789736729448968 0 -0.042622654339723537 -0.019018998393957948 0 -0.042992014872902481 -0.018718121118460083 0 -0.042771239577992885 -0.018789736729448968 0 -0.042622654339723537 -0.019018998393957948 0 -0.041722933459229561 -0.019085485510145366 0 -0.043197813395080858 -0.018749551667136575 0 -0.042771239577992885 -0.018789736729448968 0 -0.042992014872902481 -0.018718121118460083 0 -0.043288381109371228 -0.018668001830755971 0 -0.042992014872902481 -0.018718121118460083 0 -0.043284143335915834 -0.018552088024877317 0 -0.043197813395080858 -0.018749551667136575 0 -0.043288381109371228 -0.018668001830755971 0 -0.042992014872902481 -0.018718121118460083 0 -0.042992014872902481 -0.018718121118460083 0 -0.043284143335915834 -0.018552088024877317 0 -0.04322415869210483 -0.018780497253327651 0 -0.043284143335915834 -0.018552088024877317 0 -0.04322415869210483 -0.018780497253327651 0 -0.04348489647789068 -0.018513291948916693 0 -0.042622654339723537 -0.019018998393957948 0 -0.04322415869210483 -0.018780497253327651 0 -0.043461728212003149 -0.019752081887037167 0 -0.042622654339723537 -0.019018998393957948 0 -0.042992014872902481 -0.018718121118460083 0 -0.04322415869210483 -0.018780497253327651 0 -0.043811370511252688 -0.018923557107173028 0 -0.044564096507175521 -0.020012402099667113 0 -0.043461728212003149 -0.019752081887037167 0 -0.04322415869210483 -0.018780497253327651 0 -0.043811370511252688 -0.018923557107173028 0 -0.043461728212003149 -0.019752081887037167 0 -0.04322415869210483 -0.018780497253327651 0 -0.043811370511252688 -0.018923557107173028 0 -0.04348489647789068 -0.018513291948916693 0 -0.043811370511252688 -0.018923557107173028 0 -0.04348489647789068 -0.018513291948916693 0 -0.043632524882449716 -0.01842513067488781 0 -0.043811370511252688 -0.018923557107173028 0 -0.043632524882449716 -0.01842513067488781 0 -0.04400900083939141 -0.018658146326520283 0 -0.043416021098983411 -0.018308164312901411 0 -0.04348489647789068 -0.018513291948916693 0 -0.043632524882449716 -0.01842513067488781 0 -0.043442786037347338 -0.018287515070403916 0 -0.043632524882449716 -0.01842513067488781 0 -0.043479947753773049 -0.018213581071728119 0 -0.043632524882449716 -0.01842513067488781 0 -0.043479947753773049 -0.018213581071728119 0 -0.04400900083939141 -0.018658146326520283 0 -0.045220367495520004 -0.026550420122440938 0 -0.044205974080770052 -0.021877496192137736 0 -0.043811370511252688 -0.018923557107173028 0 -0.044564096507175521 -0.020012402099667113 0 -0.04400900083939141 -0.018658146326520283 0 -0.047739146134839192 -0.031583280008070119 0 -0.045518142051910723 -0.032507972802021841 0 -0.047970929978974008 -0.028464152038037913 0 -0.047739146134839192 -0.031583280008070119 0 -0.045518142051910723 -0.032507972802021841 0 -0.046250668137429646 -0.034284553514280565 0 -0.047739146134839192 -0.031583280008070119 0 -0.047364039898720692 -0.034402360197954125 0 -0.046250668137429646 -0.034284553514280565 0 -0.043965984412239645 -0.025240912439593019 0 -0.03710873273812506 -0.03416941336927333 0 -0.03710873273812506 -0.03416941336927333 0 -0.045188734901994806 -0.034737003272180128 0 -0.047147538518942773 -0.034618747567593179 0 -0.046250668137429646 -0.034284553514280565 0 -0.04559976088164764 -0.036057475497502524 0 -0.046250668137429646 -0.034284553514280565 0 -0.043683173181069568 -0.035340076232754945 0 -0.04559976088164764 -0.036057475497502524 0 -0.045518142051910723 -0.032507972802021841 0 -0.046250668137429646 -0.034284553514280565 0 -0.043683173181069568 -0.035340076232754945 0 -0.045220367495520004 -0.026550420122440938 0 -0.043816791857645483 -0.029278091962898548 0 -0.044564096507175521 -0.020012402099667113 0 -0.044151900243661217 -0.023106472000402636 0 -0.043461728212003149 -0.019752081887037167 0 -0.042622654339723537 -0.019018998393957948 0 -0.043461728212003149 -0.019752081887037167 0 -0.0423870105444972 -0.020757432213280344 0 -0.044151900243661217 -0.023106472000402636 0 -0.043461728212003149 -0.019752081887037167 0 -0.0423870105444972 -0.020757432213280344 0 -0.044151900243661217 -0.023106472000402636 0 -0.0423870105444972 -0.020757432213280344 0 -0.04128986004186435 -0.023889958661534962 0 -0.040311947571994834 -0.021906984355103215 0 -0.0423870105444972 -0.020757432213280344 0 -0.04128986004186435 -0.023889958661534962 0 -0.040311947571994834 -0.021906984355103215 0 -0.0423870105444972 -0.020757432213280344 0 -0.041722933459229561 -0.019085485510145366 0 -0.042622654339723537 -0.019018998393957948 0 -0.0423870105444972 -0.020757432213280344 0 -0.041722933459229561 -0.019085485510145366 0 -0.036205368788770266 -0.022334600764125873 0 -0.037286119683902427 -0.021487819663634441 0 -0.037597638367358799 -0.023062168666516582 0 -0.036205368788770266 -0.022334600764125873 0 -0.037286119683902427 -0.021487819663634441 0 -0.035846086836541183 -0.021043621890152565 0 -0.036205368788770266 -0.022334600764125873 0 -0.034447084416975769 -0.021949982924458586 0 -0.035846086836541183 -0.021043621890152565 0 -0.036205368788770266 -0.022334600764125873 0 -0.034447084416975769 -0.021949982924458586 0 -0.035059254250033867 -0.023053449949871629 0 -0.036205368788770266 -0.022334600764125873 0 -0.035906937041579087 -0.02335391502712179 0 -0.035059254250033867 -0.023053449949871629 0 -0.035906937041579087 -0.02335391502712179 0 -0.035059254250033867 -0.023053449949871629 0 -0.035064889579344789 -0.023838343815712745 0 -0.035059254250033867 -0.023053449949871629 0 -0.035064889579344789 -0.023838343815712745 0 -0.033592153137348195 -0.023713728338506899 0 -0.034814466309977449 -0.024510885114470443 0 -0.035064889579344789 -0.023838343815712745 0 -0.033592153137348195 -0.023713728338506899 0 -0.035686437515153602 -0.024431998663397368 0 -0.035906937041579087 -0.02335391502712179 0 -0.035064889579344789 -0.023838343815712745 0 -0.035686437515153602 -0.024431998663397368 0 -0.034814466309977449 -0.024510885114470443 0 -0.035064889579344789 -0.023838343815712745 0 -0.04188415081354388 -0.019079584034836852 0 -0.042713167403200275 -0.019119716201932847 0 -0.041745036455403124 -0.020263530719921964 0 -0.041541536631982116 -0.021326165009620552 0 -0.039295256438670503 -0.021797001640370222 0 -0.036205368788770266 -0.022334600764125873 0 -0.035906937041579087 -0.02335391502712179 0 -0.037597638367358799 -0.023062168666516582 0 -0.035686437515153602 -0.024431998663397368 0 -0.035906937041579087 -0.02335391502712179 0 -0.037597638367358799 -0.023062168666516582 0 -0.04188415081354388 -0.019079584034836852 0 -0.041745036455403124 -0.020263530719921964 0 -0.041060182485320278 -0.019712973967150025 0 -0.040378373972004812 -0.019285863653963547 0 -0.04188415081354388 -0.019079584034836852 0 -0.041060182485320278 -0.019712973967150025 0 -0.041745036455403124 -0.020263530719921964 0 -0.041060182485320278 -0.019712973967150025 0 -0.040285851824523281 -0.020277379675048116 0 -0.040378373972004812 -0.019285863653963547 0 -0.041060182485320278 -0.019712973967150025 0 -0.040285851824523281 -0.020277379675048116 0 -0.040378373972004812 -0.019285863653963547 0 -0.040285851824523281 -0.020277379675048116 0 -0.039729128604222529 -0.020475882282600371 0 -0.041638354079393945 -0.018533100264766216 0 -0.044205974080770052 -0.021877496192137736 0 -0.042989149656573127 -0.018137074652789385 0 -0.043479947753773049 -0.018213581071728119 0 -0.043589709344474245 -0.017911852799742264 0 -0.043882835772205191 -0.017553144542974047 0 -0.044205974080770052 -0.021877496192137736 0 -0.043965984412239645 -0.025240912439593019 0 -0.044205974080770052 -0.021877496192137736 0 -0.040285851824523281 -0.020277379675048116 0 -0.039729128604222529 -0.020475882282600371 0 -0.039706897939555327 -0.021064561672638305 0 -0.03995320611878115 -0.020694193073740891 0 -0.039729128604222529 -0.020475882282600371 0 -0.039706897939555327 -0.021064561672638305 0 -0.037286119683902427 -0.021487819663634441 0 -0.037597638367358799 -0.023062168666516582 0 -0.039706897939555327 -0.021064561672638305 0 -0.041745036455403124 -0.020263530719921964 0 -0.040285851824523281 -0.020277379675048116 0 -0.039706897939555327 -0.021064561672638305 0 -0.039295256438670503 -0.021797001640370222 0 -0.039922260237251948 -0.021016674829548464 0 -0.039706897939555327 -0.021064561672638305 0 -0.03971232014197161 -0.020319118507264911 0 -0.038623330347945121 -0.019162833098204171 0 -0.039706897939555327 -0.021064561672638305 0 -0.038623330347945121 -0.019162833098204171 0 -0.037238000664618798 -0.020038764429108989 0 -0.03995320611878115 -0.020694193073740891 0 -0.040252248801888574 -0.019996785593291756 0 -0.03971232014197161 -0.020319118507264911 0 -0.03995320611878115 -0.020694193073740891 0 -0.039706897939555327 -0.021064561672638305 0 -0.03971232014197161 -0.020319118507264911 0 -0.040252248801888574 -0.019996785593291756 0 -0.03971232014197161 -0.020319118507264911 0 -0.038623330347945121 -0.019162833098204171 0 -0.03710873273812506 -0.03416941336927333 0 -0.031399693720595936 -0.031474168421682734 0 -0.026453173241015801 -0.043762636324313549 0 -0.026876211832908638 -0.044627396134645399 0 -0.026550431754031358 -0.044642941915230466 0 -0.031399693720595936 -0.031474168421682734 0 -0.033440040465067739 -0.03193967123418643 0 -0.026876211832908638 -0.044627396134645399 0 -0.027344449556001203 -0.044897646319910008 0 -0.026933654793440388 -0.04529152274868261 0 -0.038623330347945121 -0.019162833098204171 0 -0.037238000664618798 -0.020038764429108989 0 -0.035495768279668265 -0.018388848864749709 0 -0.037286119683902427 -0.021487819663634441 0 -0.039706897939555327 -0.021064561672638305 0 -0.037238000664618798 -0.020038764429108989 0 -0.037286119683902427 -0.021487819663634441 0 -0.037238000664618798 -0.020038764429108989 0 -0.035846086836541183 -0.021043621890152565 0 -0.034531414792261551 -0.020634234204192404 0 -0.035250500017619105 -0.01984056706417598 0 -0.034112485454920169 -0.018755221691853625 0 -0.037238000664618798 -0.020038764429108989 0 -0.035846086836541183 -0.021043621890152565 0 -0.035250500017619105 -0.01984056706417598 0 -0.034531414792261551 -0.020634234204192404 0 -0.035846086836541183 -0.021043621890152565 0 -0.035250500017619105 -0.01984056706417598 0 -0.034447084416975769 -0.021949982924458586 0 -0.034531414792261551 -0.020634234204192404 0 -0.035846086836541183 -0.021043621890152565 0 -0.035250500017619105 -0.01984056706417598 0 -0.034112485454920169 -0.018755221691853625 0 -0.035495768279668265 -0.018388848864749709 0 -0.037238000664618798 -0.020038764429108989 0 -0.035250500017619105 -0.01984056706417598 0 -0.035495768279668265 -0.018388848864749709 0 -0.034112485454920169 -0.018755221691853625 0 -0.035495768279668265 -0.018388848864749709 0 -0.030391267772254295 -0.017846713495574051 0 -0.034112485454920169 -0.018755221691853625 0 -0.030391267772254295 -0.017846713495574051 0 -0.030910968288732302 -0.020622282608920139 0 -0.033440040465067739 -0.03193967123418643 0 -0.021574899702238002 -0.03020833082534502 0 0.0081793196945111855 -0.025748586998415039 0 0.008728292998247851 -0.025690795137924598 0 0.0068864060799059164 -0.022625881964593759 0 -0.0046344171082997043 -0.027041418776884069 0 -0.0054177668432465282 -0.027128580374222114 0 -0.004067582100472201 -0.024618870750046491 0 -0.021574899702238002 -0.03020833082534502 0 -0.0038553099706731264 -0.031257263839749437 0 0.0029264579152735197 -0.033283879143962393 0 -0.0038553099706731264 -0.031257263839749437 0 -0.021574899702238002 -0.03020833082534502 0 -0.017381740229169416 -0.021535054394319113 0 -0.0038553099706731264 -0.031257263839749437 0 0.00072469114913384749 -0.021294538461181563 0 -0.0054177668432465282 -0.027128580374222114 0 -0.004067582100472201 -0.024618870750046491 0 -0.0051325864967940067 -0.02310763471163458 0 -0.0054177668432465282 -0.027128580374222114 0 -0.0051325864967940067 -0.02310763471163458 0 -0.0071084988543777478 -0.022876309280852353 0 -0.004067582100472201 -0.024618870750046491 0 -0.0051325864967940067 -0.02310763471163458 0 -0.0035220708149884187 -0.022223511070650136 0 -0.017381740229169416 -0.021535054394319113 0 -0.018588008341411087 -0.021389584210310598 0 -0.034531414792261551 -0.020634234204192404 0 -0.034112485454920169 -0.018755221691853625 0 -0.033011800346202255 -0.021458817408705796 0 -0.038104778592266846 -0.018377728968737499 0 -0.018588008341411087 -0.021389584210310598 0 -0.034112485454920169 -0.018755221691853625 0 -0.030910968288732302 -0.020622282608920139 0 -0.031451776445934776 -0.023471431676526818 0 0.0049728130855321451 -0.039501622103159897 0 0.0045519658368172698 -0.039526157223505422 0 0.0052199310516533991 -0.039908296423145938 0 0.0026412617160790487 -0.038092197631445994 0 0.0065293453615601566 -0.035716044048498152 0 0.0010696825892014877 -0.034914649199836278 0 0.001887973707562052 -0.036626049254548675 0 -0.00021545166869353278 -0.034965328064315258 0 0.0010696825892014877 -0.034914649199836278 0 0.001887973707562052 -0.036626049254548675 0 0.0018932508446745857 -0.035119594371876534 0 0.0029264579152735197 -0.033283879143962393 0 0.0076362202912111741 -0.024436890418163607 0 0.0081793196945111855 -0.025748586998415039 0 0.0068864060799059164 -0.022625881964593759 0 0.0062746052707116865 -0.022406981089592271 0 0.0043874948249655252 -0.036639926486257725 0 0.0027370123344212681 -0.03583161298545029 0 0.0027171367627647235 -0.033935960348915245 0 0.0018932508446745857 -0.035119594371876534 0 0.0027370123344212681 -0.03583161298545029 0 0.0027171367627647235 -0.033935960348915245 0 0.001887973707562052 -0.036626049254548675 0 0.0027370123344212681 -0.03583161298545029 0 0.0031711885822578475 -0.036836920784581798 0 0.001887973707562052 -0.036626049254548675 0 0.0018932508446745857 -0.035119594371876534 0 0.0027370123344212681 -0.03583161298545029 0 0.0043874948249655252 -0.036639926486257725 0 0.0027370123344212681 -0.03583161298545029 0 0.0031711885822578475 -0.036836920784581798 0 0.0043064499071140197 -0.036781501082617664 0 0.0031711885822578475 -0.036836920784581798 0 0.0040702904460403313 -0.037327212732184034 0 0.0029264579152735197 -0.033283879143962393 0 0.0033850496236859052 -0.035226272759171021 0 0.008728292998247851 -0.025690795137924598 0 0.0068864060799059164 -0.022625881964593759 0 0.0071646661897791361 -0.021450933509789757 0 0.0068864060799059164 -0.022625881964593759 0 0.0071646661897791361 -0.021450933509789757 0 0.006338884435159853 -0.022358175762992663 0 0.0070080599437894863 -0.023961122147618197 0 0.0076362202912111741 -0.024436890418163607 0 0.0010696825892014877 -0.034914649199836278 0 0.0019035145003157422 -0.034225917660660174 0 0.0011739732652762376 -0.033830750079348548 0 0.0018932508446745857 -0.035119594371876534 0 0.0027171367627647235 -0.033935960348915245 0 0.0019035145003157422 -0.034225917660660174 0 0.0010696825892014877 -0.034914649199836278 0 0.0018932508446745857 -0.035119594371876534 0 0.0019035145003157422 -0.034225917660660174 0 0.0027171367627647235 -0.033935960348915245 0 0.0019035145003157422 -0.034225917660660174 0 0.0010156066019378241 -0.033373540875111546 0 0.0019035145003157422 -0.034225917660660174 0 0.0011739732652762376 -0.033830750079348548 0 0.0010156066019378241 -0.033373540875111546 0 0.0076362202912111741 -0.024436890418163607 0 0.0072675203865412447 -0.025785245069846644 0 0.0011739732652762376 -0.033830750079348548 0 0.0010320586287798253 -0.033370021499134185 0 9.5803879914440034e-05 -0.033028443416071973 0 0.0072675203865412447 -0.025785245069846644 0 0.013413695600448401 -0.023876144570789588 0 0.0069058152009976968 -0.028541766885966283 0 0.0072675203865412447 -0.025785245069846644 0 0.0010696825892014877 -0.034914649199836278 0 0.0011739732652762376 -0.033830750079348548 0 -0.00021545166869353278 -0.034965328064315258 0 0.013088019249265654 -0.023974815535413491 0 0.011213651507570912 -0.018789497732951282 0 0.010590740774390912 -0.023139473082363308 0 0.0076362202912111741 -0.024436890418163607 0 0.0063476354663762917 -0.018308580038448884 0 0.011991887167574121 -0.020626255629572769 0 0.010707013625960079 -0.020147686966853547 0 0.010749234736590259 -0.018457368020715757 0 0.0072675203865412447 -0.025785245069846644 0 0.014647689511092561 -0.01633902982084116 0 0.010707013625960079 -0.020147686966853547 0 0.010749234736590259 -0.018457368020715757 0 0.010215926789559068 -0.018531328618741936 0 0.0071646661897791361 -0.021450933509789757 0 0.0045209488288624963 -0.019005609809008509 0 0.0057643576877923243 -0.017650284834248454 0 -0.0071084988543777478 -0.022876309280852353 0 -0.0089002293900290949 -0.018651487589543461 0 -0.0054959263693930907 -0.021277406191005276 0 0.0071646661897791361 -0.021450933509789757 0 0.006338884435159853 -0.022358175762992663 0 0.0045209488288624963 -0.019005609809008509 0 0.00072469114913384749 -0.021294538461181563 0 -0.0016577510411878856 -0.018305970295755279 0 -0.0089002293900290949 -0.018651487589543461 0 -0.0050612718440546768 -0.019011084980297025 0 -0.0066513806984901643 -0.015654373359374626 0 -0.0089002293900290949 -0.018651487589543461 0 -0.0054959263693930907 -0.021277406191005276 0 -0.0050612718440546768 -0.019011084980297025 0 0.0045209488288624963 -0.019005609809008509 0 0.0057643576877923243 -0.017650284834248454 0 0.0027566807851197696 -0.015864249585112976 0 0.010749234736590259 -0.018457368020715757 0 0.010314018773099513 -0.018142725663106103 0 0.010215926789559068 -0.018531328618741936 0 -0.018588008341411087 -0.021389584210310598 0 -0.01892354780019603 -0.02043996023393253 0 -0.034447084416975769 -0.021949982924458586 0 -0.033011800346202255 -0.021458817408705796 0 -0.033592153137348195 -0.023713728338506899 0 -0.034447084416975769 -0.021949982924458586 0 -0.034531414792261551 -0.020634234204192404 0 -0.033011800346202255 -0.021458817408705796 0 -0.0051325864967940067 -0.02310763471163458 0 -0.0035220708149884187 -0.022223511070650136 0 -0.0054959263693930907 -0.021277406191005276 0 -0.0035220708149884187 -0.022223511070650136 0 -0.0054959263693930907 -0.021277406191005276 0 -0.0050612718440546768 -0.019011084980297025 0 -0.018588008341411087 -0.021389584210310598 0 -0.0040014172565874763 -0.018438235023472554 0 -0.0051325864967940067 -0.02310763471163458 0 -0.0071084988543777478 -0.022876309280852353 0 -0.0054959263693930907 -0.021277406191005276 0 -0.0061241746486173105 -0.016654721843904513 0 -0.0042112045303918282 -0.016371308632953767 0 -0.0053001022309915793 -0.015030879325318552 0 -0.034447084416975769 -0.021949982924458586 0 -0.035059254250033867 -0.023053449949871629 0 -0.033592153137348195 -0.023713728338506899 0 -0.0049776853324991739 -0.01920265561313134 0 -0.0061241746486173105 -0.016654721843904513 0 -0.0042112045303918282 -0.016371308632953767 0 -0.0035011654540959914 -0.013460205131043571 0 -0.0054044530960800259 -0.013585296426591845 0 -0.0053001022309915793 -0.015030879325318552 0 -0.0042112045303918282 -0.016371308632953767 0 -0.0035011654540959914 -0.013460205131043571 0 -0.0053001022309915793 -0.015030879325318552 0 -0.01892354780019603 -0.02043996023393253 0 -0.019355975010706065 -0.016531700596860308 0 -0.034814466309977449 -0.024510885114470443 0 -0.033592153137348195 -0.023713728338506899 0 -0.034022965480852221 -0.025793598490790676 0 -0.0035011654540959914 -0.013460205131043571 0 -0.0054044530960800259 -0.013585296426591845 0 -0.0051602692675985209 -0.011534173948334217 0 -0.019355975010706065 -0.016531700596860308 0 -0.0018732340533555035 -0.0057917804103110142 0 -0.0026219912875705431 -0.012491366439271866 0 -0.0036464760833436038 -0.0092154217647062633 0 -0.0040461426281106494 -0.010665322631131072 0 -0.019355975010706065 -0.016531700596860308 0 -0.0026784809744218245 -0.01174461737504918 0 -0.0054044530960800259 -0.013585296426591845 0 -0.0062286199753551017 -0.012674550142115827 0 -0.0051602692675985209 -0.011534173948334217 0 -0.0054044530960800259 -0.013585296426591845 0 -0.0062286199753551017 -0.012674550142115827 0 -0.0073149808803774597 -0.014099765543582516 0 -0.0062286199753551017 -0.012674550142115827 0 -0.0070514350040056326 -0.011481683110227955 0 -0.0051602692675985209 -0.011534173948334217 0 -0.0040014172565874763 -0.018438235023472554 0 -0.007197324601834274 -0.014690902492596969 0 -0.0061241746486173105 -0.016654721843904513 0 -0.0053001022309915793 -0.015030879325318552 0 -0.0073149808803774597 -0.014099765543582516 0 -0.0054044530960800259 -0.013585296426591845 0 -0.0053001022309915793 -0.015030879325318552 0 -0.0073149808803774597 -0.014099765543582516 0 -0.0016577510411878856 -0.018305970295755279 0 -0.0032405326566585738 -0.014040051273210601 0 -0.0089002293900290949 -0.018651487589543461 0 -0.0066513806984901643 -0.015654373359374626 0 -0.010920337179232872 -0.014140501055974284 0 0.0057643576877923243 -0.017650284834248454 0 0.0044269696700549848 -0.014030884316170923 0 0.0027566807851197696 -0.015864249585112976 0 -0.0073149808803774597 -0.014099765543582516 0 -0.0070514350040056326 -0.011481683110227955 0 -0.0086615429010956698 -0.011431367712024146 0 -0.007197324601834274 -0.014690902492596969 0 -0.0085263957433472128 -0.011730205972298218 0 -0.0062286199753551017 -0.012674550142115827 0 -0.0073149808803774597 -0.014099765543582516 0 -0.0070514350040056326 -0.011481683110227955 0 -0.0066513806984901643 -0.015654373359374626 0 -0.010920337179232872 -0.014140501055974284 0 -0.0083784687708390385 -0.012067964674474534 0 -0.0086615429010956698 -0.011431367712024146 0 -0.0083425025796530806 -0.009787524509868091 0 -0.0095142321947080579 -0.0085320981379115556 0 -0.0070514350040056326 -0.011481683110227955 0 -0.0086615429010956698 -0.011431367712024146 0 -0.0083425025796530806 -0.009787524509868091 0 -0.0070514350040056326 -0.011481683110227955 0 -0.0083425025796530806 -0.009787524509868091 0 -0.0068126337775887081 -0.0092363380098806503 0 -0.0083784687708390385 -0.012067964674474534 0 -0.010324770501593691 -0.0082394535974791919 0 -0.013136942609742359 -0.0092481385357291394 0 -0.0086615429010956698 -0.011431367712024146 0 -0.010324770501593691 -0.0082394535974791919 0 -0.0095142321947080579 -0.0085320981379115556 0 -0.010920337179232872 -0.014140501055974284 0 -0.0083784687708390385 -0.012067964674474534 0 -0.013136942609742359 -0.0092481385357291394 0 -0.0085263957433472128 -0.011730205972298218 0 -0.010211881377446285 -0.0084771604307627892 0 -0.01055338106757559 -0.0030234562141306562 0 -0.010324770501593691 -0.0082394535974791919 0 -0.0095142321947080579 -0.0085320981379115556 0 -0.0083425025796530806 -0.009787524509868091 0 -0.0095142321947080579 -0.0085320981379115556 0 -0.0068126337775887081 -0.0092363380098806503 0 -0.0088611308427539847 -0.0062491966750784804 0 -0.0095142321947080579 -0.0085320981379115556 0 -0.0068126337775887081 -0.0092363380098806503 0 -0.0086115901212177794 -0.0065547385575310075 0 -0.0068802236764763363 -0.008608684940837559 0 -0.0088611308427539847 -0.0062491966750784804 0 -0.0061478314952736817 -0.0086263656429994649 0 -0.0065868625782603465 -0.0066622885448290375 0 -0.0057240790768307856 -0.0013133932275857226 0 -0.004594804186881807 -0.0022006292144286675 0 -0.004755902047359848 -0.0041130025556293474 0 -0.0058115346141713424 -0.0031862280396321233 0 -0.0018732340533555035 -0.0057917804103110142 0 -0.0052303147465049661 -0.0048813619363355428 0 -0.0065868625782603465 -0.0066622885448290375 0 -0.0036464760833436038 -0.0092154217647062633 0 -0.0061478314952736817 -0.0086263656429994649 0 -0.0065868625782603465 -0.0066622885448290375 0 -0.0036464760833436038 -0.0092154217647062633 0 -0.0028714448871130956 -0.0041242689111635998 0 -0.003720472357195415 -0.0024868886169387245 0 -0.004755902047359848 -0.0041130025556293474 0 -0.004594804186881807 -0.0022006292144286675 0 -0.003720472357195415 -0.0024868886169387245 0 -0.004755902047359848 -0.0041130025556293474 0 -0.0028714448871130956 -0.0041242689111635998 0 -0.0036922409248007575 -0.0072279738621125753 0 -0.004755902047359848 -0.0041130025556293474 0 -0.0061478314952736817 -0.0086263656429994649 0 -0.0036464760833436038 -0.0092154217647062633 0 -0.0040461426281106494 -0.010665322631131072 0 -0.0070514350040056326 -0.011481683110227955 0 -0.0068126337775887081 -0.0092363380098806503 0 -0.0051602692675985209 -0.011534173948334217 0 -0.0068802236764763363 -0.008608684940837559 0 -0.0026784809744218245 -0.01174461737504918 0 0.023404077063704138 -0.0088828032930839615 0 0.02405183513472494 -0.0096025961640496746 0 0.024803012394057453 -0.0072857814970228888 0 0.02405183513472494 -0.0096025961640496746 0 0.024803012394057453 -0.0072857814970228888 0 0.024840096557325046 -0.0098669497007985371 0 0.023404077063704138 -0.0088828032930839615 0 0.02405183513472494 -0.0096025961640496746 0 0.023286795609368194 -0.0098870883915263032 0 0.023404077063704138 -0.0088828032930839615 0 0.022205846883688693 -0.010051478672176227 0 0.023286795609368194 -0.0098870883915263032 0 0.023404077063704138 -0.0088828032930839615 0 0.022756837726552362 -0.0073620477818621211 0 0.022205846883688693 -0.010051478672176227 0 0.022756837726552362 -0.0073620477818621211 0 0.022205846883688693 -0.010051478672176227 0 0.020816245495384716 -0.0073560936971420951 0 0.023404077063704138 -0.0088828032930839615 0 0.022756837726552362 -0.0073620477818621211 0 0.024803012394057453 -0.0072857814970228888 0 0.023342724200504164 -0.0060034747964103552 0 0.022756837726552362 -0.0073620477818621211 0 0.024803012394057453 -0.0072857814970228888 0 0.0015387939277657606 -0.0060388080448371953 0 0.00015527361501137271 -0.0085183145371015949 0 0.0030560582587946267 -0.01025959765598798 0 -0.0068787134067943533 -0.005053485379723722 0 -0.0050801969728194582 -0.0097302629556005917 0 -0.012660655199927522 -0.0059502953810630305 0 -0.015612620891640297 -0.0040846293190532242 0 -0.013136942609742359 -0.0092481385357291394 0 -0.012660655199927522 -0.0059502953810630305 0 -0.010324770501593691 -0.0082394535974791919 0 -0.013136942609742359 -0.0092481385357291394 0 -0.0032405326566585738 -0.014040051273210601 0 -0.0050801969728194582 -0.0097302629556005917 0 0.0044269696700549848 -0.014030884316170923 0 0.0030560582587946267 -0.01025959765598798 0 0.0015563840167119917 -0.012327618160902587 0 0.024803012394057453 -0.0072857814970228888 0 0.025279316769254812 -0.0097821870158434493 0 0.024840096557325046 -0.0098669497007985371 0 0.00015527361501137271 -0.0085183145371015949 0 0.0030560582587946267 -0.01025959765598798 0 0.0015563840167119917 -0.012327618160902587 0 0.012568930637097351 -0.0079275633408522634 0 0.013123588973543404 -0.010956243293244662 0 0.025279316769254812 -0.0097821870158434493 0 0.024840096557325046 -0.0098669497007985371 0 0.025487684518360837 -0.011462919050616742 0 0.024840096557325046 -0.0098669497007985371 0 0.024607190019788668 -0.010856959117919306 0 0.025317974081491862 -0.011378967259169693 0 0.024840096557325046 -0.0098669497007985371 0 0.024607190019788668 -0.010856959117919306 0 0.024324504794178078 -0.010400033840749123 0 0.027766614710852306 -0.0097249682752443035 0 0.016031780904618681 -0.013682830370415787 0 0.0044269696700549848 -0.014030884316170923 0 0.0015563840167119917 -0.012327618160902587 0 0.0027566807851197696 -0.015864249585112976 0 0.013123588973543404 -0.010956243293244662 0 0.016031780904618681 -0.013682830370415787 0 0.025317974081491862 -0.011378967259169693 0 0.024439805131641467 -0.011448041438580341 0 0.024860634078104259 -0.012089462264716903 0 0.024607190019788668 -0.010856959117919306 0 0.025317974081491862 -0.011378967259169693 0 0.024439805131641467 -0.011448041438580341 0 0.024083866466663491 -0.011332913883848775 0 0.023746500295422482 -0.010649735321455215 0 0.024110269132745773 -0.011718731081412078 0 0.024439805131641467 -0.011448041438580341 0 0.024083866466663491 -0.011332913883848775 0 0.02400061985384478 -0.011660840511500261 0 0.024083866466663491 -0.011332913883848775 0 0.024110269132745773 -0.011718731081412078 0 0.02400061985384478 -0.011660840511500261 0 0.024083866466663491 -0.011332913883848775 0 0.024263644039139325 -0.010972883683855848 0 0.023746500295422482 -0.010649735321455215 0 0.024607190019788668 -0.010856959117919306 0 0.024439805131641467 -0.011448041438580341 0 0.024263644039139325 -0.010972883683855848 0 0.024439805131641467 -0.011448041438580341 0 0.024083866466663491 -0.011332913883848775 0 0.024263644039139325 -0.010972883683855848 0 0.024263644039139325 -0.010972883683855848 0 0.023746500295422482 -0.010649735321455215 0 0.024324504794178078 -0.010400033840749123 0 0.024607190019788668 -0.010856959117919306 0 0.024263644039139325 -0.010972883683855848 0 0.024324504794178078 -0.010400033840749123 0 0.02405183513472494 -0.0096025961640496746 0 0.023746500295422482 -0.010649735321455215 0 0.023286795609368194 -0.0098870883915263032 0 0.02405183513472494 -0.0096025961640496746 0 0.023746500295422482 -0.010649735321455215 0 0.024324504794178078 -0.010400033840749123 0 0.02405183513472494 -0.0096025961640496746 0 0.024840096557325046 -0.0098669497007985371 0 0.024324504794178078 -0.010400033840749123 0 0.023960208841094732 -0.010839897750978343 0 0.024069152623012922 -0.011559660004560863 0 0.023746500295422482 -0.010649735321455215 0 0.022205846883688693 -0.010051478672176227 0 0.024110269132745773 -0.011718731081412078 0 0.025734815546286344 -0.011842041791788091 0 0.024110269132745773 -0.011718731081412078 0 0.025245644006851895 -0.011660970519547346 0 0.023746500295422482 -0.010649735321455215 0 0.022205846883688693 -0.010051478672176227 0 0.023286795609368194 -0.0098870883915263032 0 0.029964474718712074 -0.0175684335041899 0 0.029008862564399655 -0.015850609196520982 0 0.028783149282315845 -0.016517993148291679 0 0.024110269132745773 -0.011718731081412078 0 0.023659012450649716 -0.011727416812337818 0 0.025245644006851895 -0.011660970519547346 0 0.025966776214139065 -0.017221793373494814 0 0.027198113266507059 -0.013316343323547359 0 0.025966776214139065 -0.017221793373494814 0 0.028404496144327558 -0.022733007369912732 0 0.026296548680737528 -0.026381490025496109 0 0.024676852765229882 -0.025860462331680316 0 0.027112891446429432 -0.027515147621237759 0 0.025760808797302095 -0.025334619424564289 0 0.024676852765229882 -0.025860462331680316 0 0.02380432157266164 -0.024612496864832592 0 0.026296548680737528 -0.026381490025496109 0 0.025760808797302095 -0.025334619424564289 0 0.024676852765229882 -0.025860462331680316 0 0.023659012450649716 -0.011727416812337818 0 0.02400061985384478 -0.011660840511500261 0 0.023997268642948488 -0.011941779851584667 0 0.024110269132745773 -0.011718731081412078 0 0.023659012450649716 -0.011727416812337818 0 0.02400061985384478 -0.011660840511500261 0 0.024439805131641467 -0.011448041438580341 0 0.02400061985384478 -0.011660840511500261 0 0.024301291737693249 -0.012004328028337865 0 0.02400061985384478 -0.011660840511500261 0 0.024301291737693249 -0.012004328028337865 0 0.023997268642948488 -0.011941779851584667 0 0.024301291737693249 -0.012004328028337865 0 0.024238427772909282 -0.012436011751817855 0 0.02410610523798325 -0.012410360825767956 0 0.024301291737693249 -0.012004328028337865 0 0.023997268642948488 -0.011941779851584667 0 0.02410610523798325 -0.012410360825767956 0 0.023659012450649716 -0.011727416812337818 0 0.023997268642948488 -0.011941779851584667 0 0.02410610523798325 -0.012410360825767956 0 0.025966776214139065 -0.017221793373494814 0 0.023167898862899286 -0.0127050721072172 0 0.025966776214139065 -0.017221793373494814 0 0.020500314745651949 -0.022931847055247537 0 0.025595264183460364 -0.029594631339927849 0 0.025775977504326121 -0.029481680822599079 0 0.025948459525355974 -0.029695135231661954 0 0.025614243498360657 -0.028834929599073675 0 0.018519727473410772 -0.026506141255220717 0 0.019218261934037941 -0.024575460549836049 0 0.025055133294129745 -0.013275871092299147 0 0.024340136676941602 -0.012250366975371138 0 0.02410610523798325 -0.012410360825767956 0 0.018519727473410772 -0.026506141255220717 0 0.017769484692676678 -0.025424738761260925 0 0.019218261934037941 -0.024575460549836049 0 0.020500314745651949 -0.022931847055247537 0 0.018544279019929395 -0.025350985703518621 0 0.020500314745651949 -0.022931847055247537 0 0.020259143394956897 -0.021709295036510035 0 0.021223680307560756 -0.022499633641418767 0 0.019849280771842861 -0.020512538568377876 0 0.018177294405788552 -0.021494491856398987 0 0.018544279019929395 -0.025350985703518621 0 0.016597628832850764 -0.02973296191836643 0 0.024238427772909282 -0.012436011751817855 0 0.02410610523798325 -0.012410360825767956 0 0.024128327654861951 -0.012350823235237927 0 0.023499958720210615 -0.018504084140791355 0 0.020259143394956897 -0.021709295036510035 0 0.024340136676941602 -0.012250366975371138 0 0.02410610523798325 -0.012410360825767956 0 0.024128327654861951 -0.012350823235237927 0 0.018544279019929395 -0.025350985703518621 0 0.020259143394956897 -0.021709295036510035 0 0.015893269954881262 -0.030595810459275334 0 0.014634084471058408 -0.028802146516967296 0 0.016664259564646299 -0.030143998149375285 0 0.013076105912926853 -0.030748964577073684 0 0.016597628832850764 -0.02973296191836643 0 0.015012038538524499 -0.028627085305275472 0 0.014914543743034706 -0.028683645413467317 0 0.014739365304845603 -0.028289478995105068 0 0.018544279019929395 -0.025350985703518621 0 0.013076105912926853 -0.030748964577073684 0 0.0061808721117081493 -0.038721201375215536 0 0.006306250860840793 -0.038738372852895553 0 0.0063565624992275018 -0.038705218271735106 0 0.016597628832850764 -0.02973296191836643 0 0.017505781501609797 -0.034122194925667988 0 0.025878483410968767 -0.02952814769331627 0 0.026252621916390689 -0.02960437429363344 0 0.026535614821269326 -0.029364877718283843 0 0.026152847128687581 -0.029840258938050725 0 0.026252621916390689 -0.02960437429363344 0 0.025948459525355974 -0.029695135231661954 0 0.026152847128687581 -0.029840258938050725 0 0.026252621916390689 -0.02960437429363344 0 0.026466055222056733 -0.029704192531752924 0 0.026152847128687581 -0.029840258938050725 0 0.025595264183460364 -0.029594631339927849 0 0.025948459525355974 -0.029695135231661954 0 0.026616640017762264 -0.028203569249843758 0 0.016597628832850764 -0.02973296191836643 0 0.026616640017762264 -0.028203569249843758 0 0.020500314745651949 -0.022931847055247537 0 0.025878483410968767 -0.02952814769331627 0 0.026252621916390689 -0.02960437429363344 0 0.025948459525355974 -0.029695135231661954 0 0.017505781501609797 -0.034122194925667988 0 0.020997996626755944 -0.032199324670173286 0 0.0063476354663762917 -0.018308580038448884 0 0.016031780904618681 -0.013682830370415787 0 0.010749234736590259 -0.018457368020715757 0 0.0096725209155281953 -0.016364887667846356 0 0.010314018773099513 -0.018142725663106103 0 0.0096725209155281953 -0.016364887667846356 0 0.010314018773099513 -0.018142725663106103 0 0.010242592121373042 -0.018515723448664333 0 0.016031780904618681 -0.013682830370415787 0 0.014647689511092561 -0.01633902982084116 0 0.025317974081491862 -0.011378967259169693 0 0.024860634078104259 -0.012089462264716903 0 0.025536536156094754 -0.012456581908544439 0 0.013822234747425279 -0.017475433584404145 0 0.014647689511092561 -0.01633902982084116 0 0.024439805131641467 -0.011448041438580341 0 0.024301291737693249 -0.012004328028337865 0 0.024860634078104259 -0.012089462264716903 0 0.024301291737693249 -0.012004328028337865 0 0.024238427772909282 -0.012436011751817855 0 0.024605567417448838 -0.012398026068914065 0 0.024301291737693249 -0.012004328028337865 0 0.024860634078104259 -0.012089462264716903 0 0.024605567417448838 -0.012398026068914065 0 0.020259143394956897 -0.021709295036510035 0 0.019998854366810738 -0.020754619621605793 0 0.024238427772909282 -0.012436011751817855 0 0.024057360315606863 -0.012554179838621204 0 0.024773397950924043 -0.012820664594201836 0 0.014914543743034706 -0.028683645413467317 0 0.014739365304845603 -0.028289478995105068 0 0.014035348253772641 -0.028427120008362783 0 0.024860634078104259 -0.012089462264716903 0 0.024605567417448838 -0.012398026068914065 0 0.024773397950924043 -0.012820664594201836 0 0.024238427772909282 -0.012436011751817855 0 0.024605567417448838 -0.012398026068914065 0 0.024773397950924043 -0.012820664594201836 0 0.024860634078104259 -0.012089462264716903 0 0.024773397950924043 -0.012820664594201836 0 0.025536536156094754 -0.012456581908544439 0 0.024773397950924043 -0.012820664594201836 0 0.025536536156094754 -0.012456581908544439 0 0.025405074122830822 -0.013112343807054602 0 0.019998854366810738 -0.020754619621605793 0 0.013413695600448401 -0.023876144570789588 0 0.014647689511092561 -0.01633902982084116 0 0.013413695600448401 -0.023876144570789588 0 0.0011739732652762376 -0.033830750079348548 0 9.5803879914440034e-05 -0.033028443416071973 0 -0.00021545166869353278 -0.034965328064315258 0 0.014035348253772641 -0.028427120008362783 0 0.013213517244748172 -0.028176079139101844 0 0.013985572285210938 -0.027873754158288015 0 0.013213517244748172 -0.028176079139101844 0 0.013985572285210938 -0.027873754158288015 0 0.013285776820284846 -0.027487306271993542 0 0.013413695600448401 -0.023876144570789588 0 0.0065293453615601566 -0.035716044048498152 0 0.010060150065813938 -0.033320088517695794 0 0.0065293453615601566 -0.035716044048498152 0 0.0059969739292779819 -0.038684468173881631 0 0.0060848666711511368 -0.038670158685510145 0 0.0059238744429965856 -0.038661441900944893 0 0.013076105912926853 -0.030748964577073684 0 0.010060150065813938 -0.033320088517695794 0 0.0061808721117081493 -0.038721201375215536 0 0.0059969739292779819 -0.038684468173881631 0 0.0060848666711511368 -0.038670158685510145 0 0.014739365304845603 -0.028289478995105068 0 0.014035348253772641 -0.028427120008362783 0 0.013985572285210938 -0.027873754158288015 0 0.0059238744429965856 -0.038661441900944893 0 0.0060563004807779137 -0.038631352852304346 0 0.0057978411684098232 -0.038707282422038601 0 0.0060848666711511368 -0.038670158685510145 0 0.0059238744429965856 -0.038661441900944893 0 0.0060563004807779137 -0.038631352852304346 0 0.0059238744429965856 -0.038661441900944893 0 0.0059154630930107312 -0.038661474232336741 0 0.0058302453105351596 -0.038701975825233166 0 0.0059969739292779819 -0.038684468173881631 0 0.0059238744429965856 -0.038661441900944893 0 0.0059154630930107312 -0.038661474232336741 0 0.0065293453615601566 -0.035716044048498152 0 0.0054319177894901248 -0.039705538517329199 0 0.0049728130855321451 -0.039501622103159897 0 0.0052199310516533991 -0.039908296423145938 0 0.0053093692176589312 -0.039307679355983269 0 0.017505781501609797 -0.034122194925667988 0 0.020986359684791293 -0.033525793620103016 0 0.013746658099904201 -0.038632929334352598 0 0.013854202326567016 -0.038019125041559285 0 0.014448396663086003 -0.038300361591536269 0 0.013746658099904201 -0.038632929334352598 0 0.013342518398937133 -0.037958926122305288 0 0.013854202326567016 -0.038019125041559285 0 0.017505781501609797 -0.034122194925667988 0 0.008720059327874145 -0.03910352502954359 0 0.0063565624992275018 -0.038705218271735106 0 0.0060848666711511368 -0.038670158685510145 0 0.0060563004807779137 -0.038631352852304346 0 0.0061808721117081493 -0.038721201375215536 0 0.0063565624992275018 -0.038705218271735106 0 0.0060848666711511368 -0.038670158685510145 0 0.013342518398937133 -0.037958926122305288 0 0.013854202326567016 -0.038019125041559285 0 0.013474205423053469 -0.03765870437379757 0 0.013854202326567016 -0.038019125041559285 0 0.013738542153821785 -0.037549459411673126 0 0.013474205423053469 -0.03765870437379757 0 0.013854202326567016 -0.038019125041559285 0 0.013738542153821785 -0.037549459411673126 0 0.014194541406740181 -0.037735071334430291 0 0.013738542153821785 -0.037549459411673126 0 0.014240223133813542 -0.037161368996737394 0 0.014194541406740181 -0.037735071334430291 0 0.013738542153821785 -0.037549459411673126 0 0.013470144473484415 -0.037436351727797419 0 0.013664315052017987 -0.037453606352960869 0 0.013565073974787983 -0.037656610991090585 0 0.014632730572833817 -0.036918228224012306 0 0.013738542153821785 -0.037549459411673126 0 0.013664315052017987 -0.037453606352960869 0 0.013728249743126704 -0.037471386515046744 0 0.013474205423053469 -0.03765870437379757 0 0.013470144473484415 -0.037436351727797419 0 0.013082087841002265 -0.037497293318092491 0 0.013342518398937133 -0.037958926122305288 0 0.013474205423053469 -0.03765870437379757 0 0.013082087841002265 -0.037497293318092491 0 0.013738542153821785 -0.037549459411673126 0 0.013474205423053469 -0.03765870437379757 0 0.013470144473484415 -0.037436351727797419 0 0.013470144473484415 -0.037436351727797419 0 0.013655188353298401 -0.037342255831829568 0 0.013256311021980721 -0.037197475540667581 0 0.013664315052017987 -0.037453606352960869 0 0.013655188353298401 -0.037342255831829568 0 0.013728249743126704 -0.037471386515046744 0 0.013470144473484415 -0.037436351727797419 0 0.013664315052017987 -0.037453606352960869 0 0.013655188353298401 -0.037342255831829568 0 0.0060157318008552708 -0.049543326444536455 0 0.0059590087870592884 -0.049436748833802578 0 0.006131709948073728 -0.049498859696997514 0 0.0094433555675829221 -0.043544179900543926 0 0.0097522307395282257 -0.043653116743214121 0 0.0060157318008552708 -0.049543326444536455 0 0.0059590087870592884 -0.049436748833802578 0 0.005781966419513597 -0.04949771078126651 0 0.0057895403611368454 -0.049343671335318549 0 0.0059590087870592884 -0.049436748833802578 0 0.005781966419513597 -0.04949771078126651 0 0.0057895403611368454 -0.049343671335318549 0 0.0059590087870592884 -0.049436748833802578 0 0.0059687489844558305 -0.049342083216950751 0 0.0059590087870592884 -0.049436748833802578 0 0.0059687489844558305 -0.049342083216950751 0 0.0061594395908824654 -0.04940928580891437 0 0.0054948614673476564 -0.049317994388768889 0 0.0056680961262401026 -0.049385856987557639 0 0.0055424215084056584 -0.049435083318206556 0 0.0054948614673476564 -0.049317994388768889 0 0.0055424215084056584 -0.049435083318206556 0 0.0053426701296207637 -0.049197237793232387 0 0.0054948614673476564 -0.049317994388768889 0 0.0056680961262401026 -0.049385856987557639 0 0.0055810131190208861 -0.04927975906805579 0 0.0086960411847251153 -0.040472002408672658 0 0.0022525120056459689 -0.046683617965884931 0 0.0057895403611368454 -0.049343671335318549 0 0.0056680961262401026 -0.049385856987557639 0 0.0055810131190208861 -0.04927975906805579 0 0.0057895403611368454 -0.049343671335318549 0 0.0056680961262401026 -0.049385856987557639 0 0.005781966419513597 -0.04949771078126651 0 0.0097522307395282257 -0.043653116743214121 0 0.0086960411847251153 -0.040472002408672658 0 0.0056680961262401026 -0.049385856987557639 0 0.005781966419513597 -0.04949771078126651 0 0.0055424215084056584 -0.049435083318206556 0 0.0052209796973943122 -0.038412317402911705 0 0.0051052581525802771 -0.038489068808652174 0 0.0049160319657111234 -0.038375145855572446 0 0.0052209796973943122 -0.038412317402911705 0 0.0051052581525802771 -0.038489068808652174 0 0.0054687340762974799 -0.038626822102941043 0 0.0054687340762974799 -0.038626822102941043 0 0.0049604348416327085 -0.038671612239304827 0 0.0050477721497336238 -0.038946184346869889 0 0.0054687340762974799 -0.038626822102941043 0 0.0057978411684098232 -0.038707282422038601 0 0.0058302453105351596 -0.038701975825233166 0 0.0054687340762974799 -0.038626822102941043 0 0.0053093692176589312 -0.039307679355983269 0 0.0050477721497336238 -0.038946184346869889 0 0.0051052581525802771 -0.038489068808652174 0 0.0054687340762974799 -0.038626822102941043 0 0.0049604348416327085 -0.038671612239304827 0 0.005550367525864487 -0.038361719868967581 0 0.0054319177894901248 -0.039705538517329199 0 0.0052209796973943122 -0.038412317402911705 0 0.0054687340762974799 -0.038626822102941043 0 0.0057978411684098232 -0.038707282422038601 0 0.0086960411847251153 -0.040472002408672658 0 0.0095225853820933414 -0.037455139428782903 0 0.013256311021980721 -0.037197475540667581 0 0.012802066548838469 -0.037134954797436316 0 0.013082087841002265 -0.037497293318092491 0 0.013470144473484415 -0.037436351727797419 0 0.013256311021980721 -0.037197475540667581 0 0.013082087841002265 -0.037497293318092491 0 0.0059238744429965856 -0.038661441900944893 0 0.0057978411684098232 -0.038707282422038601 0 0.0058302453105351596 -0.038701975825233166 0 0.008720059327874145 -0.03910352502954359 0 0.0095225853820933414 -0.037455139428782903 0 0.0049728130855321451 -0.039501622103159897 0 0.0053093692176589312 -0.039307679355983269 0 0.0047346413982520819 -0.039203336082233822 0 0.0053093692176589312 -0.039307679355983269 0 0.0047346413982520819 -0.039203336082233822 0 0.0050477721497336238 -0.038946184346869889 0 0.0047346413982520819 -0.039203336082233822 0 0.0050477721497336238 -0.038946184346869889 0 0.0046648122876015554 -0.03890892910011557 0 0.0047346413982520819 -0.039203336082233822 0 0.0044768076361620399 -0.039037097721832066 0 0.0046648122876015554 -0.03890892910011557 0 0.0049728130855321451 -0.039501622103159897 0 0.0045519658368172698 -0.039526157223505422 0 0.0047346413982520819 -0.039203336082233822 0 0.0045519658368172698 -0.039526157223505422 0 0.0047346413982520819 -0.039203336082233822 0 0.0043709636363799542 -0.039148395755131911 0 0.001887973707562052 -0.036626049254548675 0 0.0031711885822578475 -0.036836920784581798 0 0.0034690824036149679 -0.03756856275666267 0 0.0045519658368172698 -0.039526157223505422 0 0.0043709636363799542 -0.039148395755131911 0 0.004111344635105472 -0.038854163968228633 0 0.001887973707562052 -0.036626049254548675 0 0.0034690824036149679 -0.03756856275666267 0 0.004111344635105472 -0.038854163968228633 0 0.0026412617160790487 -0.038092197631445994 0 0.0043162255471696836 -0.0388806572678074 0 0.0034690824036149679 -0.03756856275666267 0 0.0040526915789805221 -0.037948117330498021 0 0.004111344635105472 -0.038854163968228633 0 0.0031711885822578475 -0.036836920784581798 0 0.0034690824036149679 -0.03756856275666267 0 0.0040702904460403313 -0.037327212732184034 0 0.0034690824036149679 -0.03756856275666267 0 0.0040702904460403313 -0.037327212732184034 0 0.0040526915789805221 -0.037948117330498021 0 0.0042030713278845538 -0.039078256650562651 0 0.004111344635105472 -0.038854163968228633 0 0.0039675990394795017 -0.039144934213597896 0 0.0042030713278845538 -0.039078256650562651 0 0.0043709636363799542 -0.039148395755131911 0 0.004111344635105472 -0.038854163968228633 0 0.0042030713278845538 -0.039078256650562651 0 0.0043709636363799542 -0.039148395755131911 0 0.0044768076361620399 -0.039037097721832066 0 0.0047346413982520819 -0.039203336082233822 0 0.0043709636363799542 -0.039148395755131911 0 0.0044768076361620399 -0.039037097721832066 0 0.0044226104343862947 -0.038869483067633312 0 0.0047067777104108132 -0.038668484810436124 0 0.0045874052975558247 -0.038405434388138059 0 0.0038339920980534578 -0.039528710603738255 0 0.0028429755866246935 -0.040441806962128742 0 0.0044768076361620399 -0.039037097721832066 0 0.0044226104343862947 -0.038869483067633312 0 0.0046648122876015554 -0.03890892910011557 0 0.0042030713278845538 -0.039078256650562651 0 0.0044768076361620399 -0.039037097721832066 0 0.0044226104343862947 -0.038869483067633312 0 0.0044226104343862947 -0.038869483067633312 0 0.0039675990394795017 -0.039144934213597896 0 0.0045874052975558247 -0.038405434388138059 0 0.0039675990394795017 -0.039144934213597896 0 0.004260117273311971 -0.042499217294984348 0 0.0010212902679875009 -0.043831342006935059 0 0.0042030713278845538 -0.039078256650562651 0 0.0044226104343862947 -0.038869483067633312 0 0.0039675990394795017 -0.039144934213597896 0 0.0047067777104108132 -0.038668484810436124 0 0.0049604348416327085 -0.038671612239304827 0 0.0046648122876015554 -0.03890892910011557 0 0.0047067777104108132 -0.038668484810436124 0 0.0049604348416327085 -0.038671612239304827 0 0.004853502961567913 -0.038517721911173149 0 0.0049604348416327085 -0.038671612239304827 0 0.0050477721497336238 -0.038946184346869889 0 0.0046648122876015554 -0.03890892910011557 0 0.0044226104343862947 -0.038869483067633312 0 0.0047067777104108132 -0.038668484810436124 0 0.0046648122876015554 -0.03890892910011557 0 -0.027689599913539358 -0.045818823499006026 0 -0.029077686810121222 -0.045459994490952491 0 -0.028686866833107994 -0.047204454416846515 0 -0.028889760762512866 -0.044889887139901545 0 -0.027689599913539358 -0.045818823499006026 0 -0.029077686810121222 -0.045459994490952491 0 -0.027344449556001203 -0.044897646319910008 0 -0.028889760762512866 -0.044889887139901545 0 -0.027689599913539358 -0.045818823499006026 0 -0.021574899702238002 -0.03020833082534502 0 -0.015196749056424066 -0.043493682797525787 0 -0.011790413667855987 -0.03079000344442763 0 -0.016915547912737722 -0.03135966156496383 0 -0.01360622995833871 -0.039025825635184759 0 -0.0038553099706731264 -0.031257263839749437 0 -0.015196749056424066 -0.043493682797525787 0 0.005355587935617509 -0.037779533283128573 0 0.0045019039241114946 -0.037679682325129416 0 0.004111344635105472 -0.038854163968228633 0 0.0043064499071140197 -0.036781501082617664 0 0.004814126737140545 -0.036699870769713282 0 0.0045019039241114946 -0.037679682325129416 0 0.004814126737140545 -0.036699870769713282 0 0.005355587935617509 -0.037779533283128573 0 0.0045019039241114946 -0.037679682325129416 0 0.0043064499071140197 -0.036781501082617664 0 0.0045019039241114946 -0.037679682325129416 0 0.0040702904460403313 -0.037327212732184034 0 0.0045019039241114946 -0.037679682325129416 0 0.0040526915789805221 -0.037948117330498021 0 0.004111344635105472 -0.038854163968228633 0 0.0045019039241114946 -0.037679682325129416 0 0.0040702904460403313 -0.037327212732184034 0 0.0040526915789805221 -0.037948117330498021 0 0.005355587935617509 -0.037779533283128573 0 0.004111344635105472 -0.038854163968228633 0 0.0039675990394795017 -0.039144934213597896 0 -0.021683081968372826 -0.054017161264090126 0 -0.02179156640582354 -0.054238490273582865 0 -0.021521170223540186 -0.054235154469209741 0 -0.015196749056424066 -0.043493682797525787 0 -0.0077595637871576877 -0.04873695158509922 0 -0.015196749056424066 -0.043493682797525787 0 -0.026015241796402591 -0.051471851713638252 0 0.005355587935617509 -0.037779533283128573 0 0.0039675990394795017 -0.039144934213597896 0 0.004260117273311971 -0.042499217294984348 0 -0.027689599913539358 -0.045818823499006026 0 -0.028686866833107994 -0.047204454416846515 0 -0.027140304683181439 -0.047743733855783718 0 -0.02179156640582354 -0.054238490273582865 0 -0.021907073978922227 -0.054003799064993634 0 -0.022717155822187154 -0.053912121883743606 0 -0.021907073978922227 -0.054003799064993634 0 -0.021665768300874036 -0.053480579876239512 0 -0.022717155822187154 -0.053912121883743606 0 -0.028686866833107994 -0.047204454416846515 0 -0.027120841860195397 -0.050768739297410402 0 -0.027140304683181439 -0.047743733855783718 0 -0.026015241796402591 -0.051471851713638252 0 -0.02483965020819499 -0.05205180816193717 0 -0.0077595637871576877 -0.04873695158509922 0 -0.0087849573879691372 -0.050258635749229223 0 -0.021907073978922227 -0.054003799064993634 0 -0.021521170223540186 -0.054235154469209741 0 -0.021665768300874036 -0.053480579876239512 0 -0.02179156640582354 -0.054238490273582865 0 -0.021907073978922227 -0.054003799064993634 0 -0.021521170223540186 -0.054235154469209741 0 -0.021665768300874036 -0.053480579876239512 0 -0.02071277637266165 -0.053116871112576437 0 -0.021203401520514909 -0.052488241037553014 0 -0.021521170223540186 -0.054235154469209741 0 -0.021665768300874036 -0.053480579876239512 0 -0.02071277637266165 -0.053116871112576437 0 -0.021665768300874036 -0.053480579876239512 0 -0.022399677510715765 -0.052683029306089188 0 -0.021203401520514909 -0.052488241037553014 0 -0.022717155822187154 -0.053912121883743606 0 -0.022399677510715765 -0.052683029306089188 0 -0.024423188001240628 -0.05228227830146881 0 -0.021665768300874036 -0.053480579876239512 0 -0.022717155822187154 -0.053912121883743606 0 -0.022399677510715765 -0.052683029306089188 0 0.0051052581525802771 -0.038489068808652174 0 0.0049604348416327085 -0.038671612239304827 0 0.004853502961567913 -0.038517721911173149 0 0.0051052581525802771 -0.038489068808652174 0 0.0049160319657111234 -0.038375145855572446 0 0.004853502961567913 -0.038517721911173149 0 0.0049160319657111234 -0.038375145855572446 0 0.004853502961567913 -0.038517721911173149 0 0.0045874052975558247 -0.038405434388138059 0 0.0047067777104108132 -0.038668484810436124 0 0.004853502961567913 -0.038517721911173149 0 0.0045874052975558247 -0.038405434388138059 0 0.004260117273311971 -0.042499217294984348 0 0.0010212902679875009 -0.043831342006935059 0 0.0029361602022702346 -0.047713427394122931 0 0.0010212902679875009 -0.043831342006935059 0 0.0029361602022702346 -0.047713427394122931 0 -0.0017162547494341083 -0.048770357194093811 0 0.0049160319657111234 -0.038375145855572446 0 0.0045874052975558247 -0.038405434388138059 0 0.0049208474507221886 -0.038080653410292112 0 0.0052209796973943122 -0.038412317402911705 0 0.0049160319657111234 -0.038375145855572446 0 0.0049208474507221886 -0.038080653410292112 0 0.0028429755866246935 -0.040441806962128742 0 0.0022525120056459689 -0.046683617965884931 0 0.0022525120056459689 -0.046683617965884931 0 0.001994470135681858 -0.050597658605694117 0 0.0022525120056459689 -0.046683617965884931 0 -0.0027893156382279944 -0.053126574427522583 0 -0.00068216498117012916 -0.049377018586431107 0 0.00051656894589859623 -0.051788815822132496 0 -0.0013810713449101753 -0.05067007247706997 0 -0.0017162547494341083 -0.048770357194093811 0 0.00091285623228070214 -0.050050552039189303 0 0.00026075786532612182 -0.052725614445431848 0 -0.0087849573879691372 -0.050258635749229223 0 -0.010619915448694225 -0.052185819207151395 0 0.0029361602022702346 -0.047713427394122931 0 0.00091285623228070214 -0.050050552039189303 0 0.0016715502005694419 -0.052856374522543562 0 0.0029361602022702346 -0.047713427394122931 0 -0.0017162547494341083 -0.048770357194093811 0 0.00091285623228070214 -0.050050552039189303 0 -0.02071277637266165 -0.053116871112576437 0 -0.019850088025805967 -0.051356190845450733 0 -0.021203401520514909 -0.052488241037553014 0 0.00091285623228070214 -0.050050552039189303 0 0.0016715502005694419 -0.052856374522543562 0 0.00026075786532612182 -0.052725614445431848 0 -0.010619915448694225 -0.052185819207151395 0 -0.0027893156382279944 -0.053126574427522583 0 -0.019850088025805967 -0.051356190845450733 0 -0.020086030648695817 -0.051337911220862988 0 -0.020831690889395602 -0.051661033869891661 0 -0.020248421398106311 -0.051139661105727693 0 -0.020086030648695817 -0.051337911220862988 0 -0.020641944938073559 -0.0512843776083012 0 -0.019876618601286353 -0.051345351734384551 0 -0.020248421398106311 -0.051139661105727693 0 -0.020257209498428845 -0.050610409073889036 0 -0.019876618601286353 -0.051345351734384551 0 -0.020248421398106311 -0.051139661105727693 0 -0.020086030648695817 -0.051337911220862988 0 -0.010619915448694225 -0.052185819207151395 0 -0.013729052393721564 -0.051905326908873332 0 -0.0083521412920030333 -0.054826817128270616 0 -0.0079514223964332852 -0.05487224831404116 0 -0.0078084101800111614 -0.054264069010627476 0 -0.0071386617941747105 -0.054955951325379206 0 -0.0079514223964332852 -0.05487224831404116 0 -0.0078084101800111614 -0.054264069010627476 0 -0.0012169579664001154 -0.051625374887440366 0 0.00051656894589859623 -0.051788815822132496 0 -0.0013810713449101753 -0.05067007247706997 0 -0.002917460143817848 -0.055190216254021943 0 -0.0027893156382279944 -0.053126574427522583 0 -0.02300167010584989 -0.051811476563942201 0 -0.022399677510715765 -0.052683029306089188 0 -0.024423188001240628 -0.05228227830146881 0 -0.02300167010584989 -0.051811476563942201 0 -0.022399677510715765 -0.052683029306089188 0 -0.0219190177379898 -0.051928827404261933 0 -0.0219190177379898 -0.051928827404261933 0 -0.021203401520514909 -0.052488241037553014 0 -0.020831690889395602 -0.051661033869891661 0 -0.022399677510715765 -0.052683029306089188 0 -0.0219190177379898 -0.051928827404261933 0 -0.021203401520514909 -0.052488241037553014 0 -0.019850088025805967 -0.051356190845450733 0 -0.021203401520514909 -0.052488241037553014 0 -0.020831690889395602 -0.051661033869891661 0 -0.020831690889395602 -0.051661033869891661 0 -0.020641944938073559 -0.0512843776083012 0 -0.021443782365496402 -0.051471255782518613 0 -0.020086030648695817 -0.051337911220862988 0 -0.020831690889395602 -0.051661033869891661 0 -0.020641944938073559 -0.0512843776083012 0 -0.020248421398106311 -0.051139661105727693 0 -0.020641944938073559 -0.0512843776083012 0 -0.020543259994958846 -0.050993705234092683 0 -0.020641944938073559 -0.0512843776083012 0 -0.020543259994958846 -0.050993705234092683 0 -0.021106044896324175 -0.050930425043474711 0 -0.020641944938073559 -0.0512843776083012 0 -0.021106044896324175 -0.050930425043474711 0 -0.021443782365496402 -0.051471255782518613 0 -0.021106044896324175 -0.050930425043474711 0 -0.021443782365496402 -0.051471255782518613 0 -0.022182398738773687 -0.051231535225271539 0 -0.0219190177379898 -0.051928827404261933 0 -0.020831690889395602 -0.051661033869891661 0 -0.021443782365496402 -0.051471255782518613 0 -0.022182398738773687 -0.051231535225271539 0 -0.021716682813711669 -0.050128643929712974 0 -0.023821658901135405 -0.051118189898868606 0 -0.02300167010584989 -0.051811476563942201 0 -0.022182398738773687 -0.051231535225271539 0 -0.023821658901135405 -0.051118189898868606 0 -0.02300167010584989 -0.051811476563942201 0 -0.0219190177379898 -0.051928827404261933 0 -0.022182398738773687 -0.051231535225271539 0 -0.0219190177379898 -0.051928827404261933 0 -0.021443782365496402 -0.051471255782518613 0 -0.022182398738773687 -0.051231535225271539 0 -0.021015293333340002 -0.050989843551949875 0 -0.022553750998864818 -0.051926365718982057 0 -0.022238148200579205 -0.050469066801840323 0 -0.021385542797768664 -0.050587817542973194 0 -0.023158380912685475 -0.05152342911357826 0 -0.021106044896324175 -0.050930425043474711 0 -0.022182398738773687 -0.051231535225271539 0 -0.021716682813711669 -0.050128643929712974 0 -0.021106044896324175 -0.050930425043474711 0 -0.021716682813711669 -0.050128643929712974 0 -0.020257209498428845 -0.050610409073889036 0 -0.021716682813711669 -0.050128643929712974 0 -0.020257209498428845 -0.050610409073889036 0 -0.019793701052038669 -0.049799920656343546 0 -0.020248421398106311 -0.051139661105727693 0 -0.020543259994958846 -0.050993705234092683 0 -0.020257209498428845 -0.050610409073889036 0 -0.020543259994958846 -0.050993705234092683 0 -0.021106044896324175 -0.050930425043474711 0 -0.020257209498428845 -0.050610409073889036 0 -0.021385542797768664 -0.050587817542973194 0 -0.020006306998182441 -0.049833556476829639 0 -0.021015293333340002 -0.050989843551949875 0 -0.019793701052038669 -0.049799920656343546 0 -0.020822958997752206 -0.049995801555621985 0 -0.021015293333340002 -0.050989843551949875 0 -0.020822958997752206 -0.049995801555621985 0 -0.022238148200579205 -0.050469066801840323 0 -0.020822958997752206 -0.049995801555621985 0 -0.022238148200579205 -0.050469066801840323 0 -0.021166029465974592 -0.049297919691803076 0 -0.0078084101800111614 -0.054264069010627476 0 -0.0080815611038071965 -0.053429327969991378 0 -0.0074876184617243824 -0.053487530147679659 0 -0.0071386617941747105 -0.054955951325379206 0 -0.0078084101800111614 -0.054264069010627476 0 -0.0074876184617243824 -0.053487530147679659 0 -0.002917460143817848 -0.055190216254021943 0 -0.0056432190867949841 -0.056174648985269485 0 -0.019876618601286353 -0.051345351734384551 0 -0.020257209498428845 -0.050610409073889036 0 -0.018959993213407488 -0.050126590665165879 0 -0.0083521412920030333 -0.054826817128270616 0 -0.0078084101800111614 -0.054264069010627476 0 -0.0080815611038071965 -0.053429327969991378 0 -0.010619915448694225 -0.052185819207151395 0 -0.014247905880580924 -0.051711706723399913 0 -0.020257209498428845 -0.050610409073889036 0 -0.019793701052038669 -0.049799920656343546 0 -0.018959993213407488 -0.050126590665165879 0 -0.019793701052038669 -0.049799920656343546 0 -0.018959993213407488 -0.050126590665165879 0 -0.018704070938943537 -0.049435972930994013 0 -0.0080815611038071965 -0.053429327969991378 0 -0.0074876184617243824 -0.053487530147679659 0 -0.007843655633468 -0.052037031850902346 0 -0.0043478378865667517 -0.057303509565911598 0 -0.0035282005483775686 -0.056601196418486814 0 -0.0029952209631003879 -0.057907883588668954 0 -0.003969326831983898 -0.059008620184946889 0 -0.0043478378865667517 -0.057303509565911598 0 -0.0029952209631003879 -0.057907883588668954 0 -0.0033832029538435528 -0.059112813504133735 0 -0.001105627527347264 -0.058375554516748709 0 -0.001386273743731236 -0.060096234211706789 0 -0.0037742809666113644 -0.059394173440676781 0 -0.0020961625979052352 -0.056512804664628137 0 -0.0033832029538435528 -0.059112813504133735 0 -0.0022470944573537979 -0.056764119658415206 0 -0.001105627527347264 -0.058375554516748709 0 -0.0035282005483775686 -0.056601196418486814 0 -0.0029952209631003879 -0.057907883588668954 0 -0.0022470944573537979 -0.056764119658415206 0 -0.0022470944573537979 -0.056764119658415206 0 -2.3457067028036956e-05 -0.056515641350857265 0 -0.001105627527347264 -0.058375554516748709 0 -2.3457067028036956e-05 -0.056515641350857265 0 0.00046681023849182764 -0.058237997375970851 0 -0.001105627527347264 -0.058375554516748709 0 -2.3457067028036956e-05 -0.056515641350857265 0 0.00046681023849182764 -0.058237997375970851 0 0.0024699887501448865 -0.058035994354329767 0 0.00046681023849182764 -0.058237997375970851 0 0.0024699887501448865 -0.058035994354329767 0 0.0015988709679810784 -0.058988096094245594 0 0.0015988709679810784 -0.058988096094245594 0 0.0001312271271358827 -0.059684843952137891 0 0.0012053933255686614 -0.060699823756218005 0 0.00046681023849182764 -0.058237997375970851 0 0.0015988709679810784 -0.058988096094245594 0 0.0001312271271358827 -0.059684843952137891 0 0.00046681023849182764 -0.058237997375970851 0 -0.001105627527347264 -0.058375554516748709 0 0.0001312271271358827 -0.059684843952137891 0 -0.001105627527347264 -0.058375554516748709 0 0.0001312271271358827 -0.059684843952137891 0 -0.001386273743731236 -0.060096234211706789 0 0.0001312271271358827 -0.059684843952137891 0 -0.001386273743731236 -0.060096234211706789 0 0.00030785453459035005 -0.061863804369693028 0 0.0029401450067743865 -0.055392368879608182 0 0.0019488882838193812 -0.055357907273564384 0 -0.001386273743731236 -0.060096234211706789 0 0.00030785453459035005 -0.061863804369693028 0 -0.0021713236211175092 -0.061577391390738624 0 0.0014050189151859466 -0.061052950567397096 0 0.0047389058630450936 -0.058197741423330604 0 0.0015988709679810784 -0.058988096094245594 0 0.0012053933255686614 -0.060699823756218005 0 0.0026412588515396605 -0.062037727409113369 0 0.0001312271271358827 -0.059684843952137891 0 0.00030785453459035005 -0.061863804369693028 0 0.0012053933255686614 -0.060699823756218005 0 0.0029401450067743865 -0.055392368879608182 0 0.0047389058630450936 -0.058197741423330604 0 0.00030785453459035005 -0.061863804369693028 0 0.0012053933255686614 -0.060699823756218005 0 0.0026412588515396605 -0.062037727409113369 0 0.0058677727076842058 -0.049232972179700289 0 0.0059687489844558305 -0.049342083216950751 0 0.0060512377795319278 -0.04928711068715784 0 0.0057895403611368454 -0.049343671335318549 0 0.0058677727076842058 -0.049232972179700289 0 0.0059687489844558305 -0.049342083216950751 0 0.0057895403611368454 -0.049343671335318549 0 0.0058677727076842058 -0.049232972179700289 0 0.005652991011610398 -0.04920222011401644 0 0.0057895403611368454 -0.049343671335318549 0 0.0055810131190208861 -0.04927975906805579 0 0.005652991011610398 -0.04920222011401644 0 0.0055810131190208861 -0.04927975906805579 0 0.0055296057525969092 -0.049245507088624477 0 0.005652991011610398 -0.04920222011401644 0 0.0054948614673476564 -0.049317994388768889 0 0.0053426701296207637 -0.049197237793232387 0 0.0053865693163240675 -0.049073189214441607 0 0.0059241833257160292 -0.048915753384056522 0 0.001994470135681858 -0.050597658605694117 0 0.0054948614673476564 -0.049317994388768889 0 0.0055810131190208861 -0.04927975906805579 0 0.0054613571815007112 -0.049248334104900607 0 0.0055810131190208861 -0.04927975906805579 0 0.0054613571815007112 -0.049248334104900607 0 0.0055296057525969092 -0.049245507088624477 0 -0.00047429434498778492 -0.056254615009053599 0 0.0019488882838193812 -0.055357907273564384 0 -0.0037742809666113644 -0.059394173440676781 0 -0.00047429434498778492 -0.056254615009053599 0 -0.003969326831983898 -0.059008620184946889 0 -0.0029952209631003879 -0.057907883588668954 0 -0.0036300964550098911 -0.059038471064280187 0 0.0055296057525969092 -0.049245507088624477 0 0.0054691046595517281 -0.049211102435068682 0 0.005652991011610398 -0.04920222011401644 0 -0.0033832029538435528 -0.059112813504133735 0 -0.0045009083012964995 -0.061303523754753238 0 -0.0021713236211175092 -0.061577391390738624 0 -0.002917460143817848 -0.055190216254021943 0 0.001994470135681858 -0.050597658605694117 0 0.0054613571815007112 -0.049248334104900607 0 0.0055296057525969092 -0.049245507088624477 0 0.0054691046595517281 -0.049211102435068682 0 0.0005762980457520219 -0.055324225433621248 0 0.00011006763356317728 -0.052728949496480111 0 -0.0012000711254428413 -0.055165397190773797 0 0.001994470135681858 -0.050597658605694117 0 -0.00047429434498778492 -0.056254615009053599 0 -0.002917460143817848 -0.055190216254021943 0 -0.00047429434498778492 -0.056254615009053599 0 -0.0033832029538435528 -0.059112813504133735 0 -0.001386273743731236 -0.060096234211706789 0 -0.0021713236211175092 -0.061577391390738624 0 -0.040878929775147593 -0.044912702437633852 0 -0.040426445116751045 -0.038339351252117716 0 -0.040873685513255251 -0.044902838227813976 0 -0.040917112947832679 -0.044938125241434528 0 -0.04086139820432394 -0.044773714031732068 0 -0.040873685513255251 -0.044902838227813976 0 -0.040917112947832679 -0.044938125241434528 0 -0.040935881710023658 -0.045010608504148869 0 -0.040778880387873993 -0.044906007710854935 0 -0.040873685513255251 -0.044902838227813976 0 -0.040935881710023658 -0.045010608504148869 0 -0.040572973025012407 -0.043854324951847788 0 -0.044169011238739217 -0.043230161254931343 0 -0.040938118872169388 -0.04420797783401053 0 -0.041015164621196962 -0.043711113682526025 0 -0.04090641967775465 -0.044271955857976997 0 -0.040938118872169388 -0.04420797783401053 0 -0.041015164621196962 -0.043711113682526025 0 -0.040757372111000521 -0.044725934461425115 0 -0.040223987861888168 -0.044186656882362986 0 -0.041015164621196962 -0.043711113682526025 0 -0.040757372111000521 -0.044725934461425115 0 -0.040878929775147593 -0.044912702437633852 0 -0.040626223714111051 -0.044600491795574716 0 -0.040223987861888168 -0.044186656882362986 0 -0.041015164621196962 -0.043711113682526025 0 -0.040521787691384523 -0.041927824542819819 0 -0.041015164621196962 -0.043711113682526025 0 -0.042371703420082667 -0.040782397347760867 0 -0.044116094822797561 -0.042907979568003594 0 -0.041015164621196962 -0.043711113682526025 0 -0.042371703420082667 -0.040782397347760867 0 -0.040521787691384523 -0.041927824542819819 0 -0.042371703420082667 -0.040782397347760867 0 -0.040521787691384523 -0.041927824542819819 0 -0.041086023689992472 -0.038279255323768864 0 -0.040521787691384523 -0.041927824542819819 0 -0.038115014172295889 -0.042228998482592504 0 -0.041086023689992472 -0.038279255323768864 0 -0.040426445116751045 -0.038339351252117716 0 -0.041499840369059168 -0.03253634925774293 0 -0.040223987861888168 -0.044186656882362986 0 -0.040521787691384523 -0.041927824542819819 0 -0.038115014172295889 -0.042228998482592504 0 -0.039695155634273539 -0.027030757965656241 0 -0.039910669716767988 -0.030921624765809411 0 -0.042270287389040997 -0.027276259979892813 0 -0.039695155634273539 -0.027030757965656241 0 -0.04128986004186435 -0.023889958661534962 0 -0.042270287389040997 -0.027276259979892813 0 -0.044151900243661217 -0.023106472000402636 0 -0.04128986004186435 -0.023889958661534962 0 -0.042270287389040997 -0.027276259979892813 0 -0.043816791857645483 -0.029278091962898548 0 -0.041499840369059168 -0.03253634925774293 0 -0.043683173181069568 -0.035340076232754945 0 -0.041086023689992472 -0.038279255323768864 0 -0.044086196068425974 -0.038038830133724805 0 -0.042371703420082667 -0.040782397347760867 0 -0.041086023689992472 -0.038279255323768864 0 -0.044086196068425974 -0.038038830133724805 0 -0.044086196068425974 -0.038038830133724805 0 -0.046855995022153603 -0.03831372221295249 0 -0.044826758002592129 -0.040389564788408085 0 -0.042371703420082667 -0.040782397347760867 0 -0.044086196068425974 -0.038038830133724805 0 -0.044826758002592129 -0.040389564788408085 0 -0.043683173181069568 -0.035340076232754945 0 -0.044086196068425974 -0.038038830133724805 0 -0.04559976088164764 -0.036057475497502524 0 -0.03710873273812506 -0.03416941336927333 0 -0.036725867377187291 -0.042317748949916474 0 -0.044086196068425974 -0.038038830133724805 0 -0.04559976088164764 -0.036057475497502524 0 -0.046855995022153603 -0.03831372221295249 0 -0.047147538518942773 -0.034618747567593179 0 -0.04559976088164764 -0.036057475497502524 0 -0.046855995022153603 -0.03831372221295249 0 -0.046855995022153603 -0.03831372221295249 0 -0.046507891649816266 -0.04227870659568448 0 -0.044826758002592129 -0.040389564788408085 0 -0.026084221425337589 -0.044895976051076009 0 -0.026008330803487481 -0.046015929219223366 0 -0.026481661561622242 -0.045410680942502855 0 -0.036725867377187291 -0.042317748949916474 0 -0.033865730970107123 -0.045846787120768763 0 -0.033865730970107123 -0.045846787120768763 0 -0.044169011238739217 -0.043230161254931343 0 -0.046507891649816266 -0.04227870659568448 0 -0.044826758002592129 -0.040389564788408085 0 -0.044116094822797561 -0.042907979568003594 0 -0.042371703420082667 -0.040782397347760867 0 -0.044826758002592129 -0.040389564788408085 0 -0.044116094822797561 -0.042907979568003594 0 -0.040942096006323585 -0.044298056022473706 0 -0.04090641967775465 -0.044271955857976997 0 -0.040882176321229285 -0.044415063311372759 0 -0.040938118872169388 -0.04420797783401053 0 -0.040882176321229285 -0.044415063311372759 0 -0.040757372111000521 -0.044725934461425115 0 -0.040938118872169388 -0.04420797783401053 0 -0.04090641967775465 -0.044271955857976997 0 -0.040882176321229285 -0.044415063311372759 0 -0.040942096006323585 -0.044298056022473706 0 -0.040882176321229285 -0.044415063311372759 0 -0.040835559821229495 -0.044597960398461305 0 -0.025524041765488951 -0.052104164055850131 0 -0.025954689186543926 -0.051884885100365173 0 -0.025626540039422215 -0.05197538794835941 0 -0.033865730970107123 -0.045846787120768763 0 -0.033312937251206452 -0.048743807309246254 0 -0.025524041765488951 -0.052104164055850131 0 -0.02518573428464212 -0.051972639423572713 0 -0.025626540039422215 -0.05197538794835941 0 -0.02518573428464212 -0.051972639423572713 0 -0.024674691668327024 -0.051821572828357414 0 -0.025227740672316194 -0.052033109354879446 0 -0.02518573428464212 -0.051972639423572713 0 -0.024674691668327024 -0.051821572828357414 0 -0.02483819616587413 -0.051846377249425937 0 -0.024674691668327024 -0.051821572828357414 0 -0.02483819616587413 -0.051846377249425937 0 -0.024554972241729065 -0.050487054157424494 0 -0.023979957785910087 -0.049335148635777246 0 -0.026326182154843388 -0.048243640915986458 0 -0.026008330803487481 -0.046015929219223366 0 -0.026597780160907063 -0.04590144951689188 0 -0.026481661561622242 -0.045410680942502855 0 -0.033865730970107123 -0.045846787120768763 0 -0.023979957785910087 -0.049335148635777246 0 -0.025524041765488951 -0.052104164055850131 0 -0.02518573428464212 -0.051972639423572713 0 -0.02483819616587413 -0.051846377249425937 0 -0.026084221425337589 -0.044895976051076009 0 -0.026481661561622242 -0.045410680942502855 0 -0.026550431754031358 -0.044642941915230466 0 -0.026453173241015801 -0.043762636324313549 0 -0.026084221425337589 -0.044895976051076009 0 -0.026550431754031358 -0.044642941915230466 0 -0.026481661561622242 -0.045410680942502855 0 -0.026550431754031358 -0.044642941915230466 0 -0.02673609960450115 -0.045443165328342812 0 -0.026876211832908638 -0.044627396134645399 0 -0.026550431754031358 -0.044642941915230466 0 -0.02673609960450115 -0.045443165328342812 0 -0.026876211832908638 -0.044627396134645399 0 -0.02673609960450115 -0.045443165328342812 0 -0.026933654793440388 -0.04529152274868261 0 -0.026597780160907063 -0.04590144951689188 0 -0.026481661561622242 -0.045410680942502855 0 -0.02673609960450115 -0.045443165328342812 0 -0.026597780160907063 -0.04590144951689188 0 -0.02673609960450115 -0.045443165328342812 0 -0.026866429395363982 -0.046241810192536925 0 -0.02673609960450115 -0.045443165328342812 0 -0.026952560795071395 -0.046226357983322995 0 -0.026866429395363982 -0.046241810192536925 0 -0.02673609960450115 -0.045443165328342812 0 -0.026933654793440388 -0.04529152274868261 0 -0.026952560795071395 -0.046226357983322995 0 -0.027344449556001203 -0.044897646319910008 0 -0.027689599913539358 -0.045818823499006026 0 -0.026933654793440388 -0.04529152274868261 0 -0.027689599913539358 -0.045818823499006026 0 -0.026933654793440388 -0.04529152274868261 0 -0.026952560795071395 -0.046226357983322995 0 -0.027140304683181439 -0.047743733855783718 0 -0.026952560795071395 -0.046226357983322995 0 -0.026866429395363982 -0.046241810192536925 0 -0.027689599913539358 -0.045818823499006026 0 -0.027140304683181439 -0.047743733855783718 0 -0.026952560795071395 -0.046226357983322995 0 -0.027140304683181439 -0.047743733855783718 0 -0.025820412889488907 -0.050131990633397641 0 -0.024554972241729065 -0.050487054157424494 0 -0.027079179596583236 -0.047826615441706868 0 -0.026326182154843388 -0.048243640915986458 0 -0.027120841860195397 -0.050768739297410402 0 -0.027140304683181439 -0.047743733855783718 0 -0.025820412889488907 -0.050131990633397641 0 -0.024674691668327024 -0.051821572828357414 0 -0.024554972241729065 -0.050487054157424494 0 -0.024967349273264747 -0.051433995108156064 0 -0.025820412889488907 -0.050131990633397641 0 -0.024554972241729065 -0.050487054157424494 0 -0.024967349273264747 -0.051433995108156064 0 -0.024674691668327024 -0.051821572828357414 0 -0.024967349273264747 -0.051433995108156064 0 -0.024835359048663273 -0.05205362686436054 0 -0.024601351061881192 -0.051877065610130384 0 -0.024386305574291486 -0.052120064272810955 0 -0.027120841860195397 -0.050768739297410402 0 -0.024967349273264747 -0.051433995108156064 0 -0.024423188001240628 -0.05228227830146881 0 -0.027120841860195397 -0.050768739297410402 0 -0.025820412889488907 -0.050131990633397641 0 -0.024967349273264747 -0.051433995108156064 0 -0.02483965020819499 -0.05205180816193717 0 -0.02460077702526977 -0.052218901834880198 0 -0.02300167010584989 -0.051811476563942201 0 -0.024423188001240628 -0.05228227830146881 0 -0.023821658901135405 -0.051118189898868606 0 -0.024423188001240628 -0.05228227830146881 0 -0.024835359048663273 -0.05205362686436054 0 -0.023821658901135405 -0.051118189898868606 0 -0.024967349273264747 -0.051433995108156064 0 -0.024423188001240628 -0.05228227830146881 0 -0.024835359048663273 -0.05205362686436054 0 -0.024056978813473996 -0.052335080497109852 0 -0.023870818824943855 -0.051740958244824276 0 -0.02469220983968658 -0.052108853416248394 0 -0.024056978813473996 -0.052335080497109852 0 -0.023870818824943855 -0.051740958244824276 0 -0.022553750998864818 -0.051926365718982057 0 -0.023870818824943855 -0.051740958244824276 0 -0.022553750998864818 -0.051926365718982057 0 -0.023077603490523655 -0.051229842369008821 0 -0.024386305574291486 -0.052120064272810955 0 -0.023158380912685475 -0.05152342911357826 0 -0.023077603490523655 -0.051229842369008821 0 -0.022238148200579205 -0.050469066801840323 0 -0.023598119386251341 -0.050758776328014295 0 -0.022553750998864818 -0.051926365718982057 0 -0.023077603490523655 -0.051229842369008821 0 -0.022238148200579205 -0.050469066801840323 0 -0.022238148200579205 -0.050469066801840323 0 -0.023081800733003754 -0.049689571153429687 0 -0.022232530418440737 -0.049151252861210748 0 -0.023891101392206814 -0.050057406428853014 0 -0.023081800733003754 -0.049689571153429687 0 -0.023598119386251341 -0.050758776328014295 0 -0.022238148200579205 -0.050469066801840323 0 -0.023081800733003754 -0.049689571153429687 0 -0.023598119386251341 -0.050758776328014295 0 -0.023891101392206814 -0.050057406428853014 0 -0.024443526922529171 -0.049439114582222915 0 -0.0235858090585334 -0.049417557800600406 0 -0.023891101392206814 -0.050057406428853014 0 -0.023081800733003754 -0.049689571153429687 0 -0.0235858090585334 -0.049417557800600406 0 -0.023891101392206814 -0.050057406428853014 0 -0.023598119386251341 -0.050758776328014295 0 -0.024488370545735213 -0.050526230075298439 0 -0.023870818824943855 -0.051740958244824276 0 -0.023077603490523655 -0.051229842369008821 0 -0.023598119386251341 -0.050758776328014295 0 -0.023870818824943855 -0.051740958244824276 0 -0.023598119386251341 -0.050758776328014295 0 -0.02436071448022439 -0.051214345446967159 0 -0.025013950481334445 -0.051134285537590862 0 -0.024488370545735213 -0.050526230075298439 0 -0.025817391001402915 -0.050386348894388221 0 -0.02436071448022439 -0.051214345446967159 0 -0.025013950481334445 -0.051134285537590862 0 -0.024921969393419091 -0.051727222374516678 0 -0.023598119386251341 -0.050758776328014295 0 -0.02436071448022439 -0.051214345446967159 0 -0.024488370545735213 -0.050526230075298439 0 -0.02436071448022439 -0.051214345446967159 0 -0.025013950481334445 -0.051134285537590862 0 -0.024488370545735213 -0.050526230075298439 0 -0.023891101392206814 -0.050057406428853014 0 -0.024488370545735213 -0.050526230075298439 0 -0.024443526922529171 -0.049439114582222915 0 -0.024488370545735213 -0.050526230075298439 0 -0.025817391001402915 -0.050386348894388221 0 -0.024443526922529171 -0.049439114582222915 0 -0.026375782687779285 -0.05206725746470986 0 -0.024593408074131656 -0.050574824190710806 0 -0.024956734371339665 -0.049950312141270783 0 -0.027932456570175099 -0.053515242477430766 0 -0.028530940285818623 -0.052780743741031325 0 -0.027300883806736884 -0.051999750579220176 0 -0.027021017106693149 -0.052244325329559742 0 -0.025450914696233687 -0.050957420356919879 0 -0.027021017106693149 -0.052244325329559742 0 -0.024315004068721127 -0.049812469087499263 0 -0.025817391001402915 -0.050386348894388221 0 -0.025658484419378784 -0.051536413028888194 0 -0.026954478847652837 -0.052233659222219196 0 -0.025013950481334445 -0.051134285537590862 0 -0.025817391001402915 -0.050386348894388221 0 -0.025658484419378784 -0.051536413028888194 0 -0.025013950481334445 -0.051134285537590862 0 -0.025658484419378784 -0.051536413028888194 0 -0.024921969393419091 -0.051727222374516678 0 -0.025658484419378784 -0.051536413028888194 0 -0.026241672849703322 -0.052041486147177948 0 -0.026954478847652837 -0.052233659222219196 0 -0.025658484419378784 -0.051536413028888194 0 -0.026241672849703322 -0.052041486147177948 0 -0.025733960644273832 -0.052057442692033343 0 -0.026241672849703322 -0.052041486147177948 0 -0.025733960644273832 -0.052057442692033343 0 -0.026376929060765518 -0.052067400508029368 0 -0.025733960644273832 -0.052057442692033343 0 -0.024921969393419091 -0.051727222374516678 0 -0.025152607415435606 -0.052027682261308397 0 -0.025658484419378784 -0.051536413028888194 0 -0.025733960644273832 -0.052057442692033343 0 -0.024921969393419091 -0.051727222374516678 0 -0.023870818824943855 -0.051740958244824276 0 -0.02436071448022439 -0.051214345446967159 0 -0.024921969393419091 -0.051727222374516678 0 -0.023870818824943855 -0.051740958244824276 0 -0.024921969393419091 -0.051727222374516678 0 -0.02469220983968658 -0.052108853416248394 0 -0.024921969393419091 -0.051727222374516678 0 -0.025152607415435606 -0.052027682261308397 0 -0.02469220983968658 -0.052108853416248394 0 -0.024674691668327024 -0.051821572828357414 0 -0.02469220983968658 -0.052108853416248394 0 -0.025227740672316194 -0.052033109354879446 0 -0.025152607415435606 -0.052027682261308397 0 -0.02469220983968658 -0.052108853416248394 0 -0.025227740672316194 -0.052033109354879446 0 -0.024674691668327024 -0.051821572828357414 0 -0.024056978813473996 -0.052335080497109852 0 -0.02469220983968658 -0.052108853416248394 0 -0.02518573428464212 -0.051972639423572713 0 -0.025227740672316194 -0.052033109354879446 0 -0.025626540039422215 -0.05197538794835941 0 -0.025733960644273832 -0.052057442692033343 0 -0.025227740672316194 -0.052033109354879446 0 -0.025626540039422215 -0.05197538794835941 0 -0.025733960644273832 -0.052057442692033343 0 -0.025626540039422215 -0.05197538794835941 0 -0.026376929060765518 -0.052067400508029368 0 -0.025733960644273832 -0.052057442692033343 0 -0.025152607415435606 -0.052027682261308397 0 -0.025227740672316194 -0.052033109354879446 0 -0.025954689186543926 -0.051884885100365173 0 -0.025626540039422215 -0.05197538794835941 0 -0.026376929060765518 -0.052067400508029368 0 -0.040882176321229285 -0.044415063311372759 0 -0.040835559821229495 -0.044597960398461305 0 -0.040666403093938798 -0.044699523605192054 0 -0.040882176321229285 -0.044415063311372759 0 -0.040666403093938798 -0.044699523605192054 0 -0.040757372111000521 -0.044725934461425115 0 -0.040835559821229495 -0.044597960398461305 0 -0.040666403093938798 -0.044699523605192054 0 -0.040537639729648689 -0.04472877844121205 0 -0.040835559821229495 -0.044597960398461305 0 -0.040537639729648689 -0.04472877844121205 0 -0.040414940480350471 -0.044809936651801496 0 -0.040666403093938798 -0.044699523605192054 0 -0.040537639729648689 -0.04472877844121205 0 -0.040493601286731823 -0.044738275589034003 0 -0.033312937251206452 -0.048743807309246254 0 -0.034016159117325376 -0.048596171621513133 0 -0.025954689186543926 -0.051884885100365173 0 -0.026376929060765518 -0.052067400508029368 0 -0.027429000010398899 -0.052823621493244183 0 -0.026376929060765518 -0.052067400508029368 0 -0.026954478847652837 -0.052233659222219196 0 -0.027429000010398899 -0.052823621493244183 0 -0.026241672849703322 -0.052041486147177948 0 -0.026376929060765518 -0.052067400508029368 0 -0.026954478847652837 -0.052233659222219196 0 -0.027021017106693149 -0.052244325329559742 0 -0.027159270862628766 -0.052186104941111193 0 -0.029022451354956041 -0.053555726978266625 0 -0.026954478847652837 -0.052233659222219196 0 -0.027497726368491487 -0.052805026186521102 0 -0.026954478847652837 -0.052233659222219196 0 -0.027497726368491487 -0.052805026186521102 0 -0.027429000010398899 -0.052823621493244183 0 -0.027497726368491487 -0.052805026186521102 0 -0.027429000010398899 -0.052823621493244183 0 -0.028399265593858813 -0.053181470553289534 0 -0.027932456570175099 -0.053515242477430766 0 -0.027497726368491487 -0.052805026186521102 0 -0.028399265593858813 -0.053181470553289534 0 -0.027021017106693149 -0.052244325329559742 0 -0.028053716293326821 -0.053239787082510412 0 -0.028399265593858813 -0.053181470553289534 0 -0.030890335044950732 -0.053041280547831707 0 -0.028530940285818623 -0.052780743741031325 0 -0.027932456570175099 -0.053515242477430766 0 -0.028399265593858813 -0.053181470553289534 0 -0.028530940285818623 -0.052780743741031325 0 -0.027429000010398899 -0.052823621493244183 0 -0.028399265593858813 -0.053181470553289534 0 -0.030890335044950732 -0.053041280547831707 0 -0.040098986919134633 -0.044869641101001362 0 -0.039898797696154835 -0.044924598727490349 0 -0.039575162721165257 -0.045242064241138163 0 -0.034016159117325376 -0.048596171621513133 0 -0.035207531723938493 -0.048759252982335424 0 -0.040414940480350471 -0.044809936651801496 0 -0.040098986919134633 -0.044869641101001362 0 -0.039575162721165257 -0.045242064241138163 0 -0.040098986919134633 -0.044869641101001362 0 -0.040354749676001181 -0.044770204900553903 0 -0.04039240026062664 -0.04472545337872056 0 -0.040414940480350471 -0.044809936651801496 0 -0.040098986919134633 -0.044869641101001362 0 -0.040354749676001181 -0.044770204900553903 0 -0.040537639729648689 -0.04472877844121205 0 -0.040414940480350471 -0.044809936651801496 0 -0.040354749676001181 -0.044770204900553903 0 -0.040537639729648689 -0.04472877844121205 0 -0.040354749676001181 -0.044770204900553903 0 -0.040493601286731823 -0.044738275589034003 0 -0.040354749676001181 -0.044770204900553903 0 -0.04039240026062664 -0.04472545337872056 0 -0.040493601286731823 -0.044738275589034003 0 -0.04039240026062664 -0.04472545337872056 0 -0.040567883732493273 -0.044706038985900733 0 -0.040493601286731823 -0.044738275589034003 0 -0.04039240026062664 -0.04472545337872056 0 -0.040657564353562346 -0.044572378657292099 0 -0.040567883732493273 -0.044706038985900733 0 -0.04039240026062664 -0.04472545337872056 0 -0.040392179023578723 -0.044653316316369179 0 -0.040657564353562346 -0.044572378657292099 0 -0.040098986919134633 -0.044869641101001362 0 -0.040392179023578723 -0.044653316316369179 0 -0.039898797696154835 -0.044924598727490349 0 -0.040098986919134633 -0.044869641101001362 0 -0.04039240026062664 -0.04472545337872056 0 -0.040392179023578723 -0.044653316316369179 0 -0.040392179023578723 -0.044653316316369179 0 -0.039898797696154835 -0.044924598727490349 0 -0.040280328376316989 -0.044724971480347132 0 -0.041264091358036832 -0.044005574601521762 0 -0.040718434300505015 -0.044424140462136261 0 -0.040938772847161194 -0.044311521184261328 0 -0.040392179023578723 -0.044653316316369179 0 -0.040718434300505015 -0.044424140462136261 0 -0.040280328376316989 -0.044724971480347132 0 -0.040718434300505015 -0.044424140462136261 0 -0.040938772847161194 -0.044311521184261328 0 -0.040280328376316989 -0.044724971480347132 0 -0.040392179023578723 -0.044653316316369179 0 -0.040718434300505015 -0.044424140462136261 0 -0.040873044271703823 -0.044370155528727202 0 -0.041264091358036832 -0.044005574601521762 0 -0.040718434300505015 -0.044424140462136261 0 -0.040873044271703823 -0.044370155528727202 0 -0.041148178433508549 -0.044301535475336343 0 -0.041264091358036832 -0.044005574601521762 0 -0.040873044271703823 -0.044370155528727202 0 -0.041148178433508549 -0.044301535475336343 0 -0.040873044271703823 -0.044370155528727202 0 -0.040657564353562346 -0.044572378657292099 0 -0.040392179023578723 -0.044653316316369179 0 -0.040873044271703823 -0.044370155528727202 0 -0.040657564353562346 -0.044572378657292099 0 -0.040657564353562346 -0.044572378657292099 0 -0.04084589329082168 -0.044616032903823287 0 -0.040567883732493273 -0.044706038985900733 0 -0.041148178433508549 -0.044301535475336343 0 -0.040657564353562346 -0.044572378657292099 0 -0.04084589329082168 -0.044616032903823287 0 -0.041148178433508549 -0.044301535475336343 0 -0.041137681326624154 -0.044688511133607098 0 -0.04084589329082168 -0.044616032903823287 0 -0.041137681326624154 -0.044688511133607098 0 -0.040920232400925724 -0.044817218363295226 0 -0.04084589329082168 -0.044616032903823287 0 -0.041364194479983012 -0.044910101605587428 0 -0.041137681326624154 -0.044688511133607098 0 -0.040920232400925724 -0.044817218363295226 0 -0.040920232400925724 -0.044817218363295226 0 -0.040717002935403382 -0.044745152201178709 0 -0.04077174566297443 -0.044812882701414355 0 -0.040920232400925724 -0.044817218363295226 0 -0.04084589329082168 -0.044616032903823287 0 -0.040717002935403382 -0.044745152201178709 0 -0.04084589329082168 -0.044616032903823287 0 -0.040567883732493273 -0.044706038985900733 0 -0.040717002935403382 -0.044745152201178709 0 -0.040567883732493273 -0.044706038985900733 0 -0.040636368295908741 -0.044747152199050122 0 -0.040717002935403382 -0.044745152201178709 0 -0.040567883732493273 -0.044706038985900733 0 -0.040493601286731823 -0.044738275589034003 0 -0.040636368295908741 -0.044747152199050122 0 -0.040666403093938798 -0.044699523605192054 0 -0.040493601286731823 -0.044738275589034003 0 -0.040636368295908741 -0.044747152199050122 0 -0.040636368295908741 -0.044747152199050122 0 -0.040717002935403382 -0.044745152201178709 0 -0.04077174566297443 -0.044812882701414355 0 -0.040636368295908741 -0.044747152199050122 0 -0.04077174566297443 -0.044812882701414355 0 -0.040757372111000521 -0.044725934461425115 0 -0.04077174566297443 -0.044812882701414355 0 -0.040757372111000521 -0.044725934461425115 0 -0.040935881710023658 -0.045010608504148869 0 -0.040666403093938798 -0.044699523605192054 0 -0.040636368295908741 -0.044747152199050122 0 -0.040757372111000521 -0.044725934461425115 0 -0.040917112947832679 -0.044938125241434528 0 -0.040757372111000521 -0.044725934461425115 0 -0.040935881710023658 -0.045010608504148869 0 -0.041364194479983012 -0.044910101605587428 0 -0.040920232400925724 -0.044817218363295226 0 -0.040935881710023658 -0.045010608504148869 0 -0.040920232400925724 -0.044817218363295226 0 -0.04077174566297443 -0.044812882701414355 0 -0.040935881710023658 -0.045010608504148869 0 -0.031441361835297776 -0.051622006027217518 0 -0.031498325806510498 -0.050143773802280273 0 -0.033704528580794098 -0.050799336841096186 0 -0.034312189496864855 -0.051163235554817318 0 -0.031441361835297776 -0.051622006027217518 0 -0.033704528580794098 -0.050799336841096186 0 -0.037797443294511693 -0.048226114738002673 0 -0.035487762895972171 -0.047803341019319046 0 -0.041504511573043974 -0.045166934878321276 0 -0.040838854457126976 -0.044702788120435939 0 -0.039557921614462192 -0.043983150758368457 0 -0.031441361835297776 -0.051622006027217518 0 -0.028895288640751905 -0.05072113766320218 0 -0.031498325806510498 -0.050143773802280273 0 -0.031441361835297776 -0.051622006027217518 0 -0.029090409102587655 -0.051021291684076681 0 -0.028895288640751905 -0.05072113766320218 0 -0.039557921614462192 -0.043983150758368457 0 -0.039848864983321498 -0.044824595118396766 0 -0.04033507159352881 -0.044563297775750799 0 -0.039557921614462192 -0.043983150758368457 0 -0.038515159265789634 -0.04483593972353235 0 -0.035468484758975141 -0.044752279470858844 0 -0.039557921614462192 -0.043983150758368457 0 -0.038515159265789634 -0.04483593972353235 0 -0.039848864983321498 -0.044824595118396766 0 -0.038515159265789634 -0.04483593972353235 0 -0.038902726971446609 -0.045140613854561959 0 -0.037631849139695132 -0.045251370089515679 0 -0.038515159265789634 -0.04483593972353235 0 -0.039848864983321498 -0.044824595118396766 0 -0.038902726971446609 -0.045140613854561959 0 -0.039848864983321498 -0.044824595118396766 0 -0.04033507159352881 -0.044563297775750799 0 -0.040855335620904459 -0.044707442148472165 0 -0.040838854457126976 -0.044702788120435939 0 -0.039557921614462192 -0.043983150758368457 0 -0.04033507159352881 -0.044563297775750799 0 -0.039848864983321498 -0.044824595118396766 0 -0.040855335620904459 -0.044707442148472165 0 -0.040546001105894083 -0.044764321548019112 0 -0.041413410093668446 -0.044863129031926324 0 -0.040838854457126976 -0.044702788120435939 0 -0.040855335620904459 -0.044707442148472165 0 -0.040838854457126976 -0.044702788120435939 0 -0.04033507159352881 -0.044563297775750799 0 -0.040855335620904459 -0.044707442148472165 0 -0.041509116746494219 -0.04446219949112485 0 -0.040855335620904459 -0.044707442148472165 0 -0.040546001105894083 -0.044764321548019112 0 -0.040546001105894083 -0.044764321548019112 0 -0.040381986747791754 -0.044754968845754403 0 -0.039627563414694672 -0.045075142226543803 0 -0.041173674121301754 -0.04431651978926094 0 -0.040546001105894083 -0.044764321548019112 0 -0.040381986747791754 -0.044754968845754403 0 -0.041173674121301754 -0.04431651978926094 0 -0.040381986747791754 -0.044754968845754403 0 -0.040938772847161194 -0.044311521184261328 0 -0.040381986747791754 -0.044754968845754403 0 -0.040938772847161194 -0.044311521184261328 0 -0.040280328376316989 -0.044724971480347132 0 -0.039898797696154835 -0.044924598727490349 0 -0.040280328376316989 -0.044724971480347132 0 -0.039511991869554508 -0.045138840555333029 0 -0.040381986747791754 -0.044754968845754403 0 -0.040280328376316989 -0.044724971480347132 0 -0.039511991869554508 -0.045138840555333029 0 -0.039511991869554508 -0.045138840555333029 0 -0.039627563414694672 -0.045075142226543803 0 -0.038512159310081791 -0.045409986704858095 0 -0.040381986747791754 -0.044754968845754403 0 -0.039511991869554508 -0.045138840555333029 0 -0.039627563414694672 -0.045075142226543803 0 -0.039848864983321498 -0.044824595118396766 0 -0.039627563414694672 -0.045075142226543803 0 -0.038902726971446609 -0.045140613854561959 0 -0.039848864983321498 -0.044824595118396766 0 -0.040546001105894083 -0.044764321548019112 0 -0.039627563414694672 -0.045075142226543803 0 -0.039627563414694672 -0.045075142226543803 0 -0.038902726971446609 -0.045140613854561959 0 -0.038512159310081791 -0.045409986704858095 0 -0.038902726971446609 -0.045140613854561959 0 -0.038512159310081791 -0.045409986704858095 0 -0.037631849139695132 -0.045251370089515679 0 -0.035207531723938493 -0.048759252982335424 0 -0.036089854213749425 -0.045268783362351482 0 -0.038512159310081791 -0.045409986704858095 0 -0.039575162721165257 -0.045242064241138163 0 -0.036132567437559174 -0.045433249340927143 0 -0.038512159310081791 -0.045409986704858095 0 -0.036132567437559174 -0.045433249340927143 0 -0.037631849139695132 -0.045251370089515679 0 -0.039511991869554508 -0.045138840555333029 0 -0.038512159310081791 -0.045409986704858095 0 -0.039575162721165257 -0.045242064241138163 0 -0.039898797696154835 -0.044924598727490349 0 -0.039511991869554508 -0.045138840555333029 0 -0.039575162721165257 -0.045242064241138163 0 -0.030890335044950732 -0.053041280547831707 0 -0.028734520266834956 -0.051617075267091028 0 -0.031395571510121012 -0.048512054471496903 0 -0.030890335044950732 -0.053041280547831707 0 -0.028530940285818623 -0.052780743741031325 0 -0.028734520266834956 -0.051617075267091028 0 -0.032015000740388017 -0.048154156606551847 0 -0.027207188264456564 -0.050196529927867418 0 -0.028734520266834956 -0.051617075267091028 0 -0.031395571510121012 -0.048512054471496903 0 -0.026756990562871882 -0.050357063511798396 0 -0.030890335044950732 -0.053041280547831707 0 -0.031395571510121012 -0.048512054471496903 0 -0.036132567437559174 -0.045433249340927143 0 -0.031395571510121012 -0.048512054471496903 0 -0.035468484758975141 -0.044752279470858844 0 -0.026756990562871882 -0.050357063511798396 0 -0.027481030348701602 -0.050836021403371498 0 -0.028620872550939171 -0.051370371214277233 0 -0.026756990562871882 -0.050357063511798396 0 -0.02820969295202324 -0.050962220191425101 0 -0.028620872550939171 -0.051370371214277233 0 -0.028500426552313919 -0.050914411499554862 0 -0.027481030348701602 -0.050836021403371498 0 -0.02820969295202324 -0.050962220191425101 0 -0.028224316296546703 -0.050687474040587557 0 -0.02820969295202324 -0.050962220191425101 0 -0.028500426552313919 -0.050914411499554862 0 -0.028224316296546703 -0.050687474040587557 0 -0.027481030348701602 -0.050836021403371498 0 -0.02820969295202324 -0.050962220191425101 0 -0.028620872550939171 -0.051370371214277233 0 -0.038515159265789634 -0.04483593972353235 0 -0.035468484758975141 -0.044752279470858844 0 -0.037631849139695132 -0.045251370089515679 0 -0.031395571510121012 -0.048512054471496903 0 -0.035468484758975141 -0.044752279470858844 0 -0.036132567437559174 -0.045433249340927143 0 -0.035487762895972171 -0.047803341019319046 0 -0.032015000740388017 -0.048154156606551847 0 -0.035468484758975141 -0.044752279470858844 0 -0.036132567437559174 -0.045433249340927143 0 -0.037631849139695132 -0.045251370089515679 0 -0.031441361835297776 -0.051622006027217518 0 -0.028620872550939171 -0.051370371214277233 0 -0.029090409102587655 -0.051021291684076681 0 -0.028620872550939171 -0.051370371214277233 0 -0.028500426552313919 -0.050914411499554862 0 -0.029090409102587655 -0.051021291684076681 0 -0.029090409102587655 -0.051021291684076681 0 -0.028895288640751905 -0.05072113766320218 0 -0.028443172363657083 -0.050692299663838737 0 -0.028500426552313919 -0.050914411499554862 0 -0.029090409102587655 -0.051021291684076681 0 -0.028443172363657083 -0.050692299663838737 0 -0.028895288640751905 -0.05072113766320218 0 -0.028443172363657083 -0.050692299663838737 0 -0.028322159481652086 -0.050925735989428088 0 -0.028443172363657083 -0.050692299663838737 0 -0.028352541880360908 -0.050317049568231055 0 -0.028322159481652086 -0.050925735989428088 0 -0.027481030348701602 -0.050836021403371498 0 -0.028352541880360908 -0.050317049568231055 0 -0.028224316296546703 -0.050687474040587557 0 -0.028500426552313919 -0.050914411499554862 0 -0.028443172363657083 -0.050692299663838737 0 -0.028224316296546703 -0.050687474040587557 0 -0.028443172363657083 -0.050692299663838737 0 -0.028352541880360908 -0.050317049568231055 0 -0.028224316296546703 -0.050687474040587557 0 -0.022221262365844943 -0.053024710180021237 0 -0.024775176534347045 -0.051736010478353342 0 -0.024240002205854819 -0.052752562270151092 0 -0.022221262365844943 -0.053024710180021237 0 -0.024775176534347045 -0.051736010478353342 0 -0.025810477762392668 -0.050704197098336026 0 -0.024240002205854819 -0.052752562270151092 0 -0.024772511784375981 -0.052701315094998737 0 -0.024183554635761245 -0.053705158330881554 0 -0.024240002205854819 -0.052752562270151092 0 -0.024772511784375981 -0.052701315094998737 0 -0.025080265696366264 -0.051837892104672059 0 -0.024772511784375981 -0.052701315094998737 0 -0.025311734666980997 -0.052129068821981171 0 -0.025054278341738019 -0.053164032399009589 0 -0.024772511784375981 -0.052701315094998737 0 -0.025080265696366264 -0.051837892104672059 0 -0.025311734666980997 -0.052129068821981171 0 -0.025080265696366264 -0.051837892104672059 0 -0.025453463868216827 -0.051351956064385529 0 -0.025311734666980997 -0.052129068821981171 0 -0.024775176534347045 -0.051736010478353342 0 -0.024240002205854819 -0.052752562270151092 0 -0.025080265696366264 -0.051837892104672059 0 -0.024775176534347045 -0.051736010478353342 0 -0.025080265696366264 -0.051837892104672059 0 -0.025521821680294925 -0.050957577632831291 0 -0.025080265696366264 -0.051837892104672059 0 -0.025453463868216827 -0.051351956064385529 0 -0.025521821680294925 -0.050957577632831291 0 -0.025453463868216827 -0.051351956064385529 0 -0.025521821680294925 -0.050957577632831291 0 -0.025540724742464258 -0.050837568073192466 0 -0.024775176534347045 -0.051736010478353342 0 -0.025521821680294925 -0.050957577632831291 0 -0.025810477762392668 -0.050704197098336026 0 -0.025521821680294925 -0.050957577632831291 0 -0.025810477762392668 -0.050704197098336026 0 -0.025982738318588151 -0.050753767217181091 0 -0.027481030348701602 -0.050836021403371498 0 -0.028352541880360908 -0.050317049568231055 0 -0.025810477762392668 -0.050704197098336026 0 -0.025294405152129846 -0.051838023040853831 0 -0.025673400945147532 -0.050912717805591153 0 -0.027481030348701602 -0.050836021403371498 0 -0.025810477762392668 -0.050704197098336026 0 -0.026756990562871882 -0.050357063511798396 0 -0.025810477762392668 -0.050704197098336026 0 -0.025982738318588151 -0.050753767217181091 0 -0.026756990562871882 -0.050357063511798396 0 -0.026214343651640045 -0.051092577733218 0 -0.026756990562871882 -0.050357063511798396 0 -0.027300883806736884 -0.051999750579220176 0 -0.025982738318588151 -0.050753767217181091 0 -0.026214343651640045 -0.051092577733218 0 -0.026756990562871882 -0.050357063511798396 0 -0.027932456570175099 -0.053515242477430766 0 -0.027300883806736884 -0.051999750579220176 0 -0.025878259152610789 -0.05173105877891232 0 -0.028734520266834956 -0.051617075267091028 0 -0.026756990562871882 -0.050357063511798396 0 -0.027300883806736884 -0.051999750579220176 0 -0.026214343651640045 -0.051092577733218 0 -0.027300883806736884 -0.051999750579220176 0 -0.025878259152610789 -0.05173105877891232 0 -0.028530940285818623 -0.052780743741031325 0 -0.028734520266834956 -0.051617075267091028 0 -0.027300883806736884 -0.051999750579220176 0 -0.024593408074131656 -0.050574824190710806 0 -0.024956734371339665 -0.049950312141270783 0 -0.022895031389622875 -0.049111181104432036 0 -0.025878259152610789 -0.05173105877891232 0 -0.025817980978871807 -0.050985631406174008 0 -0.025540724742464258 -0.050837568073192466 0 -0.025450914696233687 -0.050957420356919879 0 -0.024917261039699649 -0.049176303574756892 0 -0.026214343651640045 -0.051092577733218 0 -0.025878259152610789 -0.05173105877891232 0 -0.025817980978871807 -0.050985631406174008 0 -0.025982738318588151 -0.050753767217181091 0 -0.026214343651640045 -0.051092577733218 0 -0.025817980978871807 -0.050985631406174008 0 -0.025521821680294925 -0.050957577632831291 0 -0.025982738318588151 -0.050753767217181091 0 -0.025817980978871807 -0.050985631406174008 0 -0.025521821680294925 -0.050957577632831291 0 -0.025817980978871807 -0.050985631406174008 0 -0.025540724742464258 -0.050837568073192466 0 -0.024956734371339665 -0.049950312141270783 0 -0.022895031389622875 -0.049111181104432036 0 -0.023588703823298016 -0.047932636794568453 0 -0.022895031389622875 -0.049111181104432036 0 -0.02247865100756365 -0.047283459367981985 0 -0.023588703823298016 -0.047932636794568453 0 -0.023081800733003754 -0.049689571153429687 0 -0.022927238316045359 -0.04848619364058375 0 -0.0235858090585334 -0.049417557800600406 0 -0.024315004068721127 -0.049812469087499263 0 -0.022952919268471227 -0.048846555272567364 0 -0.024443526922529171 -0.049439114582222915 0 -0.022927238316045359 -0.04848619364058375 0 -0.0235858090585334 -0.049417557800600406 0 -0.023081800733003754 -0.049689571153429687 0 -0.022927238316045359 -0.04848619364058375 0 -0.022232530418440737 -0.049151252861210748 0 -0.022238148200579205 -0.050469066801840323 0 -0.022232530418440737 -0.049151252861210748 0 -0.021166029465974592 -0.049297919691803076 0 -0.022927238316045359 -0.04848619364058375 0 -0.022232530418440737 -0.049151252861210748 0 -0.021568175737980855 -0.048616951435322284 0 -0.022232530418440737 -0.049151252861210748 0 -0.021568175737980855 -0.048616951435322284 0 -0.021166029465974592 -0.049297919691803076 0 -0.022927238316045359 -0.04848619364058375 0 -0.021568175737980855 -0.048616951435322284 0 -0.021329743997261511 -0.047670333797839269 0 -0.022952919268471227 -0.048846555272567364 0 -0.021442406784792062 -0.047722159198780437 0 -0.022895031389622875 -0.049111181104432036 0 -0.02247865100756365 -0.047283459367981985 0 -0.021329743997261511 -0.047670333797839269 0 -0.021753781080337146 -0.046880979894036424 0 -0.02247865100756365 -0.047283459367981985 0 -0.021329743997261511 -0.047670333797839269 0 -0.021753781080337146 -0.046880979894036424 0 -0.02247865100756365 -0.047283459367981985 0 -0.022287891456933547 -0.046057898476988664 0 -0.024917261039699649 -0.049176303574756892 0 -0.021661636739896538 -0.051000451917716856 0 -0.02247865100756365 -0.047283459367981985 0 -0.023588703823298016 -0.047932636794568453 0 -0.022287891456933547 -0.046057898476988664 0 -0.025540724742464258 -0.050837568073192466 0 -0.025770462561077206 -0.051685593598509244 0 -0.026542054678640636 -0.052319354621100975 0 -0.025453463868216827 -0.051351956064385529 0 -0.025770462561077206 -0.051685593598509244 0 -0.025311734666980997 -0.052129068821981171 0 -0.025453463868216827 -0.051351956064385529 0 -0.025540724742464258 -0.050837568073192466 0 -0.025770462561077206 -0.051685593598509244 0 -0.025770462561077206 -0.051685593598509244 0 -0.02603952106282352 -0.052363429507688464 0 -0.026542054678640636 -0.052319354621100975 0 -0.025770462561077206 -0.051685593598509244 0 -0.025621129451673837 -0.052379301348237602 0 -0.02603952106282352 -0.052363429507688464 0 -0.025770462561077206 -0.051685593598509244 0 -0.025311734666980997 -0.052129068821981171 0 -0.025621129451673837 -0.052379301348237602 0 -0.025621129451673837 -0.052379301348237602 0 -0.025853462487848498 -0.052747507624858483 0 -0.025054278341738019 -0.053164032399009589 0 -0.025311734666980997 -0.052129068821981171 0 -0.025621129451673837 -0.052379301348237602 0 -0.025054278341738019 -0.053164032399009589 0 -0.02603952106282352 -0.052363429507688464 0 -0.025853462487848498 -0.052747507624858483 0 -0.02634128336179415 -0.05280367924282342 0 -0.025621129451673837 -0.052379301348237602 0 -0.02603952106282352 -0.052363429507688464 0 -0.025853462487848498 -0.052747507624858483 0 -0.024759541396269288 -0.054359410170530524 0 -0.021289975158419617 -0.054507312705105761 0 -0.021289975158419617 -0.054507312705105761 0 -0.017508159339855788 -0.054567555583670851 0 -0.021753781080337146 -0.046880979894036424 0 -0.022287891456933547 -0.046057898476988664 0 -0.02094710270943333 -0.046462274015402608 0 -0.022287891456933547 -0.046057898476988664 0 -0.021869844395203158 -0.045429977603882843 0 -0.02094710270943333 -0.046462274015402608 0 -0.020367685627410922 -0.053694810484460356 0 -0.020205491925856561 -0.054010975067149178 0 -0.019923258456692031 -0.053603247850651611 0 -0.02603952106282352 -0.052363429507688464 0 -0.02634128336179415 -0.05280367924282342 0 -0.026542054678640636 -0.052319354621100975 0 -0.021289975158419617 -0.054507312705105761 0 -0.021661636739896538 -0.051000451917716856 0 -0.021661636739896538 -0.051000451917716856 0 -0.017508159339855788 -0.054567555583670851 0 -0.016301522586490834 -0.058120151058170921 0 -0.015891858982956829 -0.058184628373520918 0 -0.016195019471062364 -0.057491556160806742 0 -0.017508159339855788 -0.054567555583670851 0 -0.014282808354008065 -0.059245922324770023 0 -0.016129465731272264 -0.058505719217434839 0 -0.016301522586490834 -0.058120151058170921 0 -0.015891858982956829 -0.058184628373520918 0 -0.013458813674637167 -0.060315733411181335 0 -0.012931031094570106 -0.059551974112463692 0 -0.012749813401805771 -0.059886203768557071 0 -0.016429254086044506 -0.058564924753905151 0 -0.016129465731272264 -0.058505719217434839 0 -0.016301522586490834 -0.058120151058170921 0 -0.025853462487848498 -0.052747507624858483 0 -0.025054278341738019 -0.053164032399009589 0 -0.024778791059340385 -0.054882024079257963 0 -0.025054278341738019 -0.053164032399009589 0 -0.024778791059340385 -0.054882024079257963 0 -0.024183554635761245 -0.053705158330881554 0 -0.021289975158419617 -0.054507312705105761 0 -0.020764355121063921 -0.056481959944807578 0 -0.016429254086044506 -0.058564924753905151 0 -0.016301522586490834 -0.058120151058170921 0 -0.016869847064308885 -0.057804496181981344 0 -0.025853462487848498 -0.052747507624858483 0 -0.026454909448505516 -0.052884761585288195 0 -0.024778791059340385 -0.054882024079257963 0 -0.020764355121063921 -0.056481959944807578 0 -0.019903340254103306 -0.056106970554945297 0 -0.016869847064308885 -0.057804496181981344 0 -0.016195019471062364 -0.057491556160806742 0 -0.016767949812045439 -0.057170426503916363 0 -0.016301522586490834 -0.058120151058170921 0 -0.016869847064308885 -0.057804496181981344 0 -0.016195019471062364 -0.057491556160806742 0 -0.014282808354008065 -0.059245922324770023 0 -0.015545911266826118 -0.058152485612917561 0 -0.014834933509721664 -0.058845670011009245 0 -0.01588680951361704 -0.056934574629539013 0 -0.013576409497995788 -0.056934412093792811 0 -0.015545911266826118 -0.058152485612917561 0 -0.016194031183234234 -0.056683797652757509 0 -0.01462373400234075 -0.054999990678578546 0 -0.01588680951361704 -0.056934574629539013 0 -0.013576409497995788 -0.056934412093792811 0 -0.01462373400234075 -0.054999990678578546 0 -0.016955353402460391 -0.054999989726209599 0 -0.01588680951361704 -0.056934574629539013 0 -0.01695652450137557 -0.055000082936456446 0 -0.01648195183365567 -0.05649071499569331 0 -0.017632329685484976 -0.056802188805973118 0 -0.016955249488419293 -0.055000397206302495 0 -0.016194031183234234 -0.056683797652757509 0 -0.016195019471062364 -0.057491556160806742 0 -0.01648195183365567 -0.05649071499569331 0 -0.016767949812045439 -0.057170426503916363 0 -0.01648195183365567 -0.05649071499569331 0 -0.016767949812045439 -0.057170426503916363 0 -0.017632329685484976 -0.056802188805973118 0 -0.016869847064308885 -0.057804496181981344 0 -0.016767949812045439 -0.057170426503916363 0 -0.017632329685484976 -0.056802188805973118 0 -0.01695652450137557 -0.055000082936456446 0 -0.017632329685484976 -0.056802188805973118 0 -0.018919961719752805 -0.054999818607670801 0 -0.019903340254103306 -0.056106970554945297 0 -0.018921685554609616 -0.054999991925822611 0 -0.022025130398896225 -0.055964944273699864 0 -0.018928160771384366 -0.055001273587405621 0 -0.021374306562959248 -0.055963354937589922 0 -0.018928160771384366 -0.055001273587405621 0 -0.021374306562959248 -0.055963354937589922 0 -0.021973090403306438 -0.054998573946550014 0 -0.021374306562959248 -0.055963354937589922 0 -0.022021761041452804 -0.055670966266765105 0 -0.022182720642535864 -0.055631861682388602 0 -0.022025130398896225 -0.055964944273699864 0 -0.021374306562959248 -0.055963354937589922 0 -0.022182720642535864 -0.055631861682388602 0 -0.022021761041452804 -0.055670966266765105 0 -0.022582198503073827 -0.05508769634752092 0 -0.022182720642535864 -0.055631861682388602 0 -0.022021761041452804 -0.055670966266765105 0 -0.022582198503073827 -0.05508769634752092 0 -0.02220764915857799 -0.054643595436668864 0 -0.022582198503073827 -0.05508769634752092 0 -0.023264585888426455 -0.05497861990730888 0 -0.023229239085452883 -0.054105976166180875 0 -0.022582198503073827 -0.05508769634752092 0 -0.022182720642535864 -0.055631861682388602 0 -0.023264585888426455 -0.05497861990730888 0 -0.024778791059340385 -0.054882024079257963 0 -0.022025130398896225 -0.055964944273699864 0 -0.023264585888426455 -0.05497861990730888 0 -0.022025130398896225 -0.055964944273699864 0 -0.022182720642535864 -0.055631861682388602 0 -0.023264585888426455 -0.05497861990730888 0 -0.023264585888426455 -0.05497861990730888 0 -0.024183554635761245 -0.053705158330881554 0 -0.023229239085452883 -0.054105976166180875 0 -0.024778791059340385 -0.054882024079257963 0 -0.023264585888426455 -0.05497861990730888 0 -0.024183554635761245 -0.053705158330881554 0 -0.024772511784375981 -0.052701315094998737 0 -0.025054278341738019 -0.053164032399009589 0 -0.024183554635761245 -0.053705158330881554 0 -0.024240002205854819 -0.052752562270151092 0 -0.024183554635761245 -0.053705158330881554 0 -0.023229239085452883 -0.054105976166180875 0 -0.022221262365844943 -0.053024710180021237 0 -0.024240002205854819 -0.052752562270151092 0 -0.023229239085452883 -0.054105976166180875 0 -0.022221262365844943 -0.053024710180021237 0 -0.023229239085452883 -0.054105976166180875 0 -0.02220764915857799 -0.054643595436668864 0 -0.022582198503073827 -0.05508769634752092 0 -0.023229239085452883 -0.054105976166180875 0 -0.02220764915857799 -0.054643595436668864 0 -0.025294405152129846 -0.051838023040853831 0 -0.024900504301127068 -0.054217413163401965 0 -0.028352541880360908 -0.050317049568231055 0 -0.028322159481652086 -0.050925735989428088 0 -0.028109324428321574 -0.052015168209155471 0 -0.028352541880360908 -0.050317049568231055 0 -0.028109324428321574 -0.052015168209155471 0 -0.028238444113938794 -0.052791205673146012 0 -0.022221262365844943 -0.053024710180021237 0 -0.02220764915857799 -0.054643595436668864 0 -0.021570713838691809 -0.055921689605254662 0 -0.028895288640751905 -0.05072113766320218 0 -0.028269772804145141 -0.051265881158615342 0 -0.027605524707537604 -0.051657313458771906 0 -0.028269772804145141 -0.051265881158615342 0 -0.028109324428321574 -0.052015168209155471 0 -0.027605524707537604 -0.051657313458771906 0 -0.028895288640751905 -0.05072113766320218 0 -0.028322159481652086 -0.050925735989428088 0 -0.028269772804145141 -0.051265881158615342 0 -0.028322159481652086 -0.050925735989428088 0 -0.028269772804145141 -0.051265881158615342 0 -0.028109324428321574 -0.052015168209155471 0 -0.027342216161180665 -0.052050343548222633 0 -0.028003093823565334 -0.052944521572837876 0 -0.028109324428321574 -0.052015168209155471 0 -0.025433264066465081 -0.054294451428716098 0 -0.024659092955678748 -0.053568120282944005 0 -0.028109324428321574 -0.052015168209155471 0 -0.025433264066465081 -0.054294451428716098 0 -0.028238444113938794 -0.052791205673146012 0 -0.02193906302485334 -0.055950417267305125 0 -0.021570713838691809 -0.055921689605254662 0 -0.022459444477786524 -0.055946836202086292 0 -0.02193906302485334 -0.055950417267305125 0 -0.021570713838691809 -0.055921689605254662 0 -0.021928143566042328 -0.055611577858822391 0 -0.022021761041452804 -0.055670966266765105 0 -0.02220764915857799 -0.054643595436668864 0 -0.021928143566042328 -0.055611577858822391 0 -0.02220764915857799 -0.054643595436668864 0 -0.021570713838691809 -0.055921689605254662 0 -0.021928143566042328 -0.055611577858822391 0 -0.022021761041452804 -0.055670966266765105 0 -0.02193906302485334 -0.055950417267305125 0 -0.021928143566042328 -0.055611577858822391 0 -0.021374306562959248 -0.055963354937589922 0 -0.022021761041452804 -0.055670966266765105 0 -0.02193906302485334 -0.055950417267305125 0 -0.021374306562959248 -0.055963354937589922 0 -0.02193906302485334 -0.055950417267305125 0 -0.022459444477786524 -0.055946836202086292 0 -0.021374306562959248 -0.055963354937589922 0 -0.022459444477786524 -0.055946836202086292 0 -0.021973090403306438 -0.054998573946550014 0 -0.021973090403306438 -0.054998573946550014 0 -0.024340224077596773 -0.055787616886402103 0 -0.025027538727461506 -0.054999917992803703 0 -0.022459444477786524 -0.055946836202086292 0 -0.021973090403306438 -0.054998573946550014 0 -0.024340224077596773 -0.055787616886402103 0 -0.021570713838691809 -0.055921689605254662 0 -0.022459444477786524 -0.055946836202086292 0 -0.024340224077596773 -0.055787616886402103 0 -0.025433264066465081 -0.054294451428716098 0 -0.028238444113938794 -0.052791205673146012 0 -0.024340224077596773 -0.055787616886402103 0 -0.024900504301127068 -0.054217413163401965 0 -0.024470444187164559 -0.055522878797288372 0 -0.025433264066465081 -0.054294451428716098 0 -0.024340224077596773 -0.055787616886402103 0 -0.025424654684363106 -0.055833377292132794 0 -0.024340224077596773 -0.055787616886402103 0 -0.025027538727461506 -0.054999917992803703 0 -0.025424654684363106 -0.055833377292132794 0 -0.028076715272018778 -0.054999265975574689 0 -0.025027538727461506 -0.054999917992803703 0 -0.025424654684363106 -0.055833377292132794 0 -0.028079798495022245 -0.054999011346897234 0 -0.025975590052674205 -0.056776494137015632 0 -0.03532389740874458 -0.047319040853927463 0 -0.031241978361668938 -0.047861682914624185 0 -0.032779441599940909 -0.049082094314704838 0 -0.025975590052674205 -0.056776494137015632 0 -0.028003093823565334 -0.052944521572837876 0 -0.028343474890876651 -0.058032059453208183 0 -0.027268659614365014 -0.056778461197712599 0 -0.026419121827829132 -0.058211127349216372 0 -0.031832058900638539 -0.053821667609591901 0 -0.028003093823565334 -0.052944521572837876 0 -0.025433264066465081 -0.054294451428716098 0 -0.025424654684363106 -0.055833377292132794 0 -0.024659092955678748 -0.053568120282944005 0 -0.028895288640751905 -0.05072113766320218 0 -0.031241978361668938 -0.047861682914624185 0 -0.031498325806510498 -0.050143773802280273 0 -0.029554113718836206 -0.049420478188465462 0 -0.028003093823565334 -0.052944521572837876 0 -0.031241978361668938 -0.047861682914624185 0 -0.031498325806510498 -0.050143773802280273 0 -0.032779441599940909 -0.049082094314704838 0 -0.031498325806510498 -0.050143773802280273 0 -0.033704528580794098 -0.050799336841096186 0 -0.032779441599940909 -0.049082094314704838 0 -0.03532389740874458 -0.047319040853927463 0 -0.033704528580794098 -0.050799336841096186 0 -0.032779441599940909 -0.049082094314704838 0 -0.0028742559014269817 -0.054343897569450371 0 -0.0024567488852920271 -0.053657610488849768 0 -0.003387930055124068 -0.053503347752344547 0 -0.0028742559014269817 -0.054343897569450371 0 -0.0024567488852920271 -0.053657610488849768 0 -0.0017369622695815217 -0.054452557834902 0 -0.0028742559014269817 -0.054343897569450371 0 -0.003387930055124068 -0.053503347752344547 0 -0.0042365974477558696 -0.05372466237469143 0 -0.003387930055124068 -0.053503347752344547 0 -0.0034489506873667765 -0.052973676551415418 0 -0.0036871611841973379 -0.052773798093677979 0 -0.003387930055124068 -0.053503347752344547 0 -0.0042365974477558696 -0.05372466237469143 0 -0.0036871611841973379 -0.052773798093677979 0 -0.0024567488852920271 -0.053657610488849768 0 -0.003387930055124068 -0.053503347752344547 0 -0.0029840778505784865 -0.053193484256559183 0 -0.003387930055124068 -0.053503347752344547 0 -0.0029840778505784865 -0.053193484256559183 0 -0.0034489506873667765 -0.052973676551415418 0 -0.0029840778505784865 -0.053193484256559183 0 -0.003220502690501842 -0.052976219651535844 0 -0.0034489506873667765 -0.052973676551415418 0 -0.0024567488852920271 -0.053657610488849768 0 -0.0029840778505784865 -0.053193484256559183 0 -0.0025061418879460773 -0.053214514474681049 0 -0.0029840778505784865 -0.053193484256559183 0 -0.0025061418879460773 -0.053214514474681049 0 -0.0028191743106269424 -0.052959915827154105 0 -0.0029840778505784865 -0.053193484256559183 0 -0.0028191743106269424 -0.052959915827154105 0 -0.003220502690501842 -0.052976219651535844 0 -0.0021640434622006437 -0.052925546453951304 0 -0.0020822427704989218 -0.053385273607000835 0 -0.0016505465817797708 -0.053853493956020293 0 -0.00093435392827289374 -0.055713049816322482 0 -0.00047488799025979485 -0.054586728807869481 0 0.00040217637360020374 -0.055210703279847693 0 0.0011243095215995153 -0.055689266054631037 0 0.00075605593059348774 -0.056207186357959162 0 -0.0025061418879460773 -0.053214514474681049 0 -0.0021640434622006437 -0.052925546453951304 0 -0.0020822427704989218 -0.053385273607000835 0 -0.0025061418879460773 -0.053214514474681049 0 -0.0021640434622006437 -0.052925546453951304 0 -0.0028191743106269424 -0.052959915827154105 0 -0.00093435392827289374 -0.055713049816322482 0 0.00085032226258502722 -0.057564912715528958 0 -0.0019278951992914726 -0.0532168120969604 0 -0.00047488799025979485 -0.054586728807869481 0 -0.0024567488852920271 -0.053657610488849768 0 -0.0025061418879460773 -0.053214514474681049 0 -0.0020822427704989218 -0.053385273607000835 0 0.00085032226258502722 -0.057564912715528958 0 0.002245801999330325 -0.058336677225817056 0 0.0013732027015090559 -0.056676402558229325 0 0.00075605593059348774 -0.056207186357959162 0 0.0014608861324635835 -0.057170913207933896 0 -0.00047488799025979485 -0.054586728807869481 0 0.0022789068516726814 -0.055938238243246716 0 0.00028784794294196267 -0.054526187718772309 0 0.00085352865505055502 -0.05530843095205909 0 0.0004966656914343672 -0.055121269505788967 0 0.0011243095215995153 -0.055689266054631037 0 0.0013483579035194889 -0.056279563679181556 0 0.0018326597575539941 -0.056170984711864248 0 0.0013483579035194889 -0.056279563679181556 0 0.0016516215772389821 -0.056648230841041328 0 0.0018326597575539941 -0.056170984711864248 0 0.0011243095215995153 -0.055689266054631037 0 0.0013483579035194889 -0.056279563679181556 0 0.00075605593059348774 -0.056207186357959162 0 0.0013483579035194889 -0.056279563679181556 0 0.0013732027015090559 -0.056676402558229325 0 0.00075605593059348774 -0.056207186357959162 0 0.0030761675875847429 -0.056950239326505787 0 0.002245801999330325 -0.058336677225817056 0 0.0013483579035194889 -0.056279563679181556 0 0.0013732027015090559 -0.056676402558229325 0 0.0016516215772389821 -0.056648230841041328 0 0.0020303969369526373 -0.056956433123911437 0 0.0030761675875847429 -0.056950239326505787 0 -0.0024567488852920271 -0.053657610488849768 0 -0.0020822427704989218 -0.053385273607000835 0 -0.0014233733089549553 -0.053800389464723597 0 -0.0024567488852920271 -0.053657610488849768 0 -0.0014233733089549553 -0.053800389464723597 0 -0.0017369622695815217 -0.054452557834902 0 -0.00047488799025979485 -0.054586728807869481 0 -0.00011183933957086108 -0.054880659309335091 0 -0.0014233733089549553 -0.053800389464723597 0 -0.0017369622695815217 -0.054452557834902 0 -0.00079530795432788081 -0.054598393784896823 0 -0.0017369622695815217 -0.054452557834902 0 -0.0011056164610588708 -0.055121000560088264 0 -0.00079530795432788081 -0.054598393784896823 0 -0.0017369622695815217 -0.054452557834902 0 -0.0011056164610588708 -0.055121000560088264 0 -0.0018987981205379994 -0.055304340165463567 0 0.0030761675875847429 -0.056950239326505787 0 0.0022789068516726814 -0.055938238243246716 0 0.0013732027015090559 -0.056676402558229325 0 0.001657034419579644 -0.056642669936102133 0 0.0014608861324635835 -0.057170913207933896 0 0.0052229669604301494 -0.056842366327866059 0 0.0050514350450742533 -0.057305465211308491 0 0.0054709621460876569 -0.057144067266719487 0 0.0022789068516726814 -0.055938238243246716 0 0.00084366913917027103 -0.05500139933464062 0 -0.00011183933957086108 -0.054880659309335091 0 0.00084366913917027103 -0.05500139933464062 0 0.00085352865505055502 -0.05530843095205909 0 0.0004966656914343672 -0.055121269505788967 0 0.00070322648070894871 -0.055712963982364791 0 -0.0011056164610588708 -0.055121000560088264 0 -0.00079530795432788081 -0.054598393784896823 0 -0.0001629394717474151 -0.055495724386830148 0 0.0024068995524331501 -0.057613184343518302 0 0.00084366913917027103 -0.05500139933464062 0 0.0024699887501448865 -0.058035994354329767 0 0.0013164029511520219 -0.054187096603927912 0 0.0038773721560372127 -0.055601324000838163 0 0.0018492190029912464 -0.052775837869665609 0 0.0013164029511520219 -0.054187096603927912 0 0.0038773721560372127 -0.055601324000838163 0 -2.3457067028036956e-05 -0.056515641350857265 0 0.0024699887501448865 -0.058035994354329767 0 0.00073690967107750238 -0.054356372083517089 0 -3.1779589782879322e-05 -0.056369939776072665 0 0.00084366913917027103 -0.05500139933464062 0 -0.0022470944573537979 -0.056764119658415206 0 -0.00096787750042103958 -0.055791892419360972 0 -0.0018987981205379994 -0.055304340165463567 0 -0.0022470944573537979 -0.056764119658415206 0 -2.3457067028036956e-05 -0.056515641350857265 0 -0.00096787750042103958 -0.055791892419360972 0 -0.0011056164610588708 -0.055121000560088264 0 -0.00096787750042103958 -0.055791892419360972 0 -0.0018987981205379994 -0.055304340165463567 0 -0.0011056164610588708 -0.055121000560088264 0 -0.0001629394717474151 -0.055495724386830148 0 -0.00096787750042103958 -0.055791892419360972 0 -2.3457067028036956e-05 -0.056515641350857265 0 -0.0001629394717474151 -0.055495724386830148 0 -0.00096787750042103958 -0.055791892419360972 0 -0.0022470944573537979 -0.056764119658415206 0 -0.0018987981205379994 -0.055304340165463567 0 -0.0032907624584382822 -0.055527622618560382 0 -0.0028742559014269817 -0.054343897569450371 0 -0.0017369622695815217 -0.054452557834902 0 -0.0018987981205379994 -0.055304340165463567 0 -0.0028742559014269817 -0.054343897569450371 0 -0.0018987981205379994 -0.055304340165463567 0 -0.0032907624584382822 -0.055527622618560382 0 -0.0028742559014269817 -0.054343897569450371 0 -0.0032907624584382822 -0.055527622618560382 0 -0.0042365974477558696 -0.05372466237469143 0 -0.0035282005483775686 -0.056601196418486814 0 -0.0022470944573537979 -0.056764119658415206 0 -0.0032907624584382822 -0.055527622618560382 0 -0.0035282005483775686 -0.056601196418486814 0 -0.0032907624584382822 -0.055527622618560382 0 -0.0047129565230390486 -0.055419583819148382 0 -0.0043478378865667517 -0.057303509565911598 0 -0.0035282005483775686 -0.056601196418486814 0 -0.0047129565230390486 -0.055419583819148382 0 -0.014247905880580924 -0.051711706723399913 0 -0.010515761689988752 -0.05200991100588731 0 -0.0056432190867949841 -0.056174648985269485 0 -0.010515761689988752 -0.05200991100588731 0 -0.019793701052038669 -0.049799920656343546 0 -0.018704070938943537 -0.049435972930994013 0 -0.018997678932383955 -0.049091501859917688 0 -0.018959993213407488 -0.050126590665165879 0 -0.018704070938943537 -0.049435972930994013 0 -0.017618791745419547 -0.049069979028126126 0 -0.018704070938943537 -0.049435972930994013 0 -0.018077857670111986 -0.048969173102544242 0 -0.017618791745419547 -0.049069979028126126 0 -0.018704070938943537 -0.049435972930994013 0 -0.018997678932383955 -0.049091501859917688 0 -0.018077857670111986 -0.048969173102544242 0 -0.018077857670111986 -0.048969173102544242 0 -0.018204099756753054 -0.04858954851958204 0 -0.017422805307647209 -0.048365050712356139 0 -0.018997678932383955 -0.049091501859917688 0 -0.018077857670111986 -0.048969173102544242 0 -0.018204099756753054 -0.04858954851958204 0 -0.018997678932383955 -0.049091501859917688 0 -0.018204099756753054 -0.04858954851958204 0 -0.019219528173172115 -0.048567082047768613 0 -0.018204099756753054 -0.04858954851958204 0 -0.019219528173172115 -0.048567082047768613 0 -0.018942419011406288 -0.047632515870239311 0 -0.018204099756753054 -0.04858954851958204 0 -0.017422805307647209 -0.048365050712356139 0 -0.017506328752740722 -0.04776941835884798 0 -0.010515761689988752 -0.05200991100588731 0 -0.0099748085065463916 -0.050526885587656764 0 -0.0032907624584382822 -0.055527622618560382 0 -0.0047129565230390486 -0.055419583819148382 0 -0.0042365974477558696 -0.05372466237469143 0 -0.017495667996589217 -0.048959950966712795 0 -0.017584483142928237 -0.049143428038065581 0 -0.01563625122100587 -0.047372678090835875 0 -0.017422805307647209 -0.048365050712356139 0 -0.017495667996589217 -0.048959950966712795 0 -0.01563625122100587 -0.047372678090835875 0 -0.018077857670111986 -0.048969173102544242 0 -0.017422805307647209 -0.048365050712356139 0 -0.017495667996589217 -0.048959950966712795 0 -0.011175414386831048 -0.051022786464882453 0 -0.010515761689988752 -0.05200991100588731 0 -0.018077857670111986 -0.048969173102544242 0 -0.017495667996589217 -0.048959950966712795 0 -0.017618791745419547 -0.049069979028126126 0 -0.021166029465974592 -0.049297919691803076 0 -0.019995620045980416 -0.049207420539178807 0 -0.020158638821692373 -0.048458199997784883 0 -0.020822958997752206 -0.049995801555621985 0 -0.021166029465974592 -0.049297919691803076 0 -0.019995620045980416 -0.049207420539178807 0 -0.019793701052038669 -0.049799920656343546 0 -0.020822958997752206 -0.049995801555621985 0 -0.019995620045980416 -0.049207420539178807 0 -0.019793701052038669 -0.049799920656343546 0 -0.018997678932383955 -0.049091501859917688 0 -0.019995620045980416 -0.049207420539178807 0 -0.018997678932383955 -0.049091501859917688 0 -0.019995620045980416 -0.049207420539178807 0 -0.019219528173172115 -0.048567082047768613 0 -0.019219528173172115 -0.048567082047768613 0 -0.020158638821692373 -0.048458199997784883 0 -0.018942419011406288 -0.047632515870239311 0 -0.019995620045980416 -0.049207420539178807 0 -0.019219528173172115 -0.048567082047768613 0 -0.020158638821692373 -0.048458199997784883 0 -0.021568175737980855 -0.048616951435322284 0 -0.021166029465974592 -0.049297919691803076 0 -0.020158638821692373 -0.048458199997784883 0 -0.021568175737980855 -0.048616951435322284 0 -0.020158638821692373 -0.048458199997784883 0 -0.021329743997261511 -0.047670333797839269 0 -0.021753781080337146 -0.046880979894036424 0 -0.021329743997261511 -0.047670333797839269 0 -0.02094710270943333 -0.046462274015402608 0 -0.020158638821692373 -0.048458199997784883 0 -0.021329743997261511 -0.047670333797839269 0 -0.018942419011406288 -0.047632515870239311 0 -0.021329743997261511 -0.047670333797839269 0 -0.018942419011406288 -0.047632515870239311 0 -0.02094710270943333 -0.046462274015402608 0 -0.018942419011406288 -0.047632515870239311 0 -0.019042954605930508 -0.046117889510371282 0 -0.017260913247827213 -0.046755303961009645 0 -0.018942419011406288 -0.047632515870239311 0 -0.019042954605930508 -0.046117889510371282 0 -0.02094710270943333 -0.046462274015402608 0 -0.019042954605930508 -0.046117889510371282 0 -0.02094710270943333 -0.046462274015402608 0 -0.01999861045505031 -0.044975067114345776 0 -0.021869844395203158 -0.045429977603882843 0 -0.02094710270943333 -0.046462274015402608 0 -0.01999861045505031 -0.044975067114345776 0 -0.017422805307647209 -0.048365050712356139 0 -0.01563625122100587 -0.047372678090835875 0 -0.017506328752740722 -0.04776941835884798 0 -0.01563625122100587 -0.047372678090835875 0 -0.017506328752740722 -0.04776941835884798 0 -0.017260913247827213 -0.046755303961009645 0 -0.018204099756753054 -0.04858954851958204 0 -0.018942419011406288 -0.047632515870239311 0 -0.017506328752740722 -0.04776941835884798 0 -0.018942419011406288 -0.047632515870239311 0 -0.017506328752740722 -0.04776941835884798 0 -0.017260913247827213 -0.046755303961009645 0 -0.017260913247827213 -0.046755303961009645 0 -0.014540685010683058 -0.045831393144060324 0 -0.017666412146372587 -0.044409615831042831 0 -0.019042954605930508 -0.046117889510371282 0 -0.017260913247827213 -0.046755303961009645 0 -0.017666412146372587 -0.044409615831042831 0 -0.01563625122100587 -0.047372678090835875 0 -0.014540685010683058 -0.045831393144060324 0 -0.012917595443806168 -0.045798720666261894 0 -0.01563625122100587 -0.047372678090835875 0 -0.017260913247827213 -0.046755303961009645 0 -0.014540685010683058 -0.045831393144060324 0 -0.0099748085065463916 -0.050526885587656764 0 -0.0082180656949877862 -0.049301968636951424 0 -0.013420917364311826 -0.045149279384794135 0 -0.012179293869829157 -0.050019741247335096 0 -0.014540685010683058 -0.045831393144060324 0 -0.011964057565349675 -0.046666255554508783 0 -0.012917595443806168 -0.045798720666261894 0 -0.014540685010683058 -0.045831393144060324 0 -0.014202930049264728 -0.043788692081271834 0 -0.017666412146372587 -0.044409615831042831 0 -0.012179293869829157 -0.050019741247335096 0 -0.011723498898507561 -0.049408238693406874 0 -0.011964057565349675 -0.046666255554508783 0 -0.011642513247185867 -0.04733356643053812 0 -0.012917595443806168 -0.045798720666261894 0 -0.012179293869829157 -0.050019741247335096 0 -0.013498369033289706 -0.052111794040744848 0 -0.0078683544115782707 -0.059236156770841923 0 -0.0097240233321501043 -0.059624767613086521 0 -0.0087638728804144347 -0.058146423708914617 0 -0.0097240233321501043 -0.059624767613086521 0 -0.0087638728804144347 -0.058146423708914617 0 -0.010134897026858708 -0.05801390215693436 0 -0.0078683544115782707 -0.059236156770841923 0 -0.0087638728804144347 -0.058146423708914617 0 -0.0073700162508263199 -0.057237525690130443 0 -0.010649506583908751 -0.047106902923763551 0 -0.011642513247185867 -0.04733356643053812 0 -0.0086331686273299121 -0.052894679837558016 0 -0.012179293869829157 -0.050019741247335096 0 -0.0077789336097296314 -0.055768169269753143 0 -0.013458813674637167 -0.060315733411181335 0 -0.012749813401805771 -0.059886203768557071 0 -0.011600826783650009 -0.059974499388195025 0 -0.017508159339855788 -0.054567555583670851 0 -0.015802745706472859 -0.052346453922276853 0 -0.012916703940592545 -0.059572344838712966 0 -0.011600826783650009 -0.059974499388195025 0 -0.01187673943343831 -0.058103831464044187 0 -0.014282808354008065 -0.059245922324770023 0 -0.013855441771853676 -0.059675713319014591 0 -0.012916703940592545 -0.059572344838712966 0 -0.012749813401805771 -0.059886203768557071 0 -0.011600826783650009 -0.059974499388195025 0 -0.0097240233321501043 -0.059624767613086521 0 -0.011600826783650009 -0.059974499388195025 0 -0.010835317456979826 -0.05892789949573897 0 -0.013498369033289706 -0.052111794040744848 0 -0.015802745706472859 -0.052346453922276853 0 -0.019042954605930508 -0.046117889510371282 0 -0.017666412146372587 -0.044409615831042831 0 -0.01999861045505031 -0.044975067114345776 0 -0.0097240233321501043 -0.059624767613086521 0 -0.010835317456979826 -0.05892789949573897 0 -0.010134897026858708 -0.05801390215693436 0 -0.010835317456979826 -0.05892789949573897 0 -0.010134897026858708 -0.05801390215693436 0 -0.01187673943343831 -0.058103831464044187 0 -0.011600826783650009 -0.059974499388195025 0 -0.010835317456979826 -0.05892789949573897 0 -0.01187673943343831 -0.058103831464044187 0 -0.014282808354008065 -0.059245922324770023 0 -0.012176554038470244 -0.058563874148230992 0 -0.013809136488500183 -0.060735720556541112 0 -0.014834933509721664 -0.058845670011009245 0 -0.012550035678339835 -0.05884810800285302 0 -0.012550035678339835 -0.05884810800285302 0 -0.013576409497995788 -0.056934412093792811 0 -0.011261618580520261 -0.056936282097390573 0 -0.014834933509721664 -0.058845670011009245 0 -0.012550035678339835 -0.05884810800285302 0 -0.013576409497995788 -0.056934412093792811 0 -0.012176554038470244 -0.058563874148230992 0 -0.011069653234676253 -0.056747915384961739 0 -0.010134897026858708 -0.05801390215693436 0 -0.01187673943343831 -0.058103831464044187 0 -0.010875333898813141 -0.056604221529355417 0 -0.011261618580520261 -0.056936282097390573 0 -0.012292113072910752 -0.054999988284699444 0 -0.0099604762657087252 -0.054999993746184264 0 -0.011069653234676253 -0.056747915384961739 0 -0.0099606900063004405 -0.05500040950102842 0 -0.013576409497995788 -0.056934412093792811 0 -0.011261618580520261 -0.056936282097390573 0 -0.012292113072910752 -0.054999988284699444 0 -0.01462373400234075 -0.054999990678578546 0 -0.013576409497995788 -0.056934412093792811 0 -0.012292113072910752 -0.054999988284699444 0 -0.0087638728804144347 -0.058146423708914617 0 -0.0073700162508263199 -0.057237525690130443 0 -0.0091473220668481705 -0.056641941023700945 0 -0.0087638728804144347 -0.058146423708914617 0 -0.010134897026858708 -0.05801390215693436 0 -0.0091473220668481705 -0.056641941023700945 0 -0.010134897026858708 -0.05801390215693436 0 -0.010875333898813141 -0.056604221529355417 0 -0.0091473220668481705 -0.056641941023700945 0 -0.010875333898813141 -0.056604221529355417 0 -0.0091473220668481705 -0.056641941023700945 0 -0.0099599341813294915 -0.054999930971119979 0 -0.0091473220668481705 -0.056641941023700945 0 -0.0099599341813294915 -0.054999930971119979 0 -0.0082909098397829055 -0.054999946036270467 0 -0.0073700162508263199 -0.057237525690130443 0 -0.0091473220668481705 -0.056641941023700945 0 -0.0082909098397829055 -0.054999946036270467 0 -0.0073700162508263199 -0.057237525690130443 0 -0.0082909098397829055 -0.054999946036270467 0 -0.0066216937120990513 -0.054999862524212351 0 -0.0077789336097296314 -0.055768169269753143 0 -0.0066217804969510765 -0.054999479078479033 0 -0.0054110236925024582 -0.054998718016610368 0 -0.0068159921796922133 -0.052745231135757381 0 -0.0054184700498888846 -0.054999481643144756 0 -0.0066157455501870185 -0.05499956915347122 0 -0.0098947211986600506 -0.052557637515084098 0 -0.0051309855929917818 -0.054999961298426589 0 -0.0042233293398170734 -0.057513151193911011 0 -0.0026522842265621588 -0.054999990809103068 0 -0.0054034564201680428 -0.055001604863569017 0 -0.0051374616421491076 -0.054998096478050179 0 -0.0045236390099727538 -0.053938856327630014 0 -0.0051306983024639067 -0.055000371429012401 0 -0.0045266889379820176 -0.055713652318466166 0 -0.0045236390099727538 -0.053938856327630014 0 -0.00381210088560894 -0.053691873043108365 0 -0.0040433575302393863 -0.053318969595801236 0 -0.0086331686273299121 -0.052894679837558016 0 -0.0066157455501870185 -0.05499956915347122 0 -0.0098947211986600506 -0.052557637515084098 0 -0.0054034564201680428 -0.055001604863569017 0 -0.0045236390099727538 -0.053938856327630014 0 -0.00381210088560894 -0.053691873043108365 0 -0.011642513247185867 -0.04733356643053812 0 -0.0086331686273299121 -0.052894679837558016 0 -0.0098947211986600506 -0.052557637515084098 0 -0.00381210088560894 -0.053691873043108365 0 -0.0036871611841973379 -0.052773798093677979 0 -0.0037522421350544479 -0.052969394582001381 0 -0.0068159921796922133 -0.052745231135757381 0 -0.0082180656949877862 -0.049301968636951424 0 -0.00381210088560894 -0.053691873043108365 0 -0.0040433575302393863 -0.053318969595801236 0 -0.0037522421350544479 -0.052969394582001381 0 -0.011642513247185867 -0.04733356643053812 0 -0.0098947211986600506 -0.052557637515084098 0 -0.012917595443806168 -0.045798720666261894 0 -0.0045266889379820176 -0.055713652318466166 0 -0.0025244820305987919 -0.056601960475779027 0 -0.0045236390099727538 -0.053938856327630014 0 -0.0040433575302393863 -0.053318969595801236 0 -0.0042584184476815888 -0.053003448583675013 0 -0.0040433575302393863 -0.053318969595801236 0 -0.0038916273374726799 -0.052974190490211216 0 -0.0042584184476815888 -0.053003448583675013 0 -0.0040433575302393863 -0.053318969595801236 0 -0.0037699598195912436 -0.052967982722537749 0 -0.0037522421350544479 -0.052969394582001381 0 -0.0040433575302393863 -0.053318969595801236 0 -0.0037699598195912436 -0.052967982722537749 0 -0.0038916273374726799 -0.052974190490211216 0 -0.0037699598195912436 -0.052967982722537749 0 -0.003501048295285596 -0.052862731948847233 0 -0.0037522421350544479 -0.052969394582001381 0 -0.001866138571934363 -0.055795321326053499 0 -0.0023578332697197254 -0.055464585473253496 0 -0.0020698925681517256 -0.055208994315854514 0 -0.0037699598195912436 -0.052967982722537749 0 -0.003610138176634625 -0.052793283527713342 0 -0.003501048295285596 -0.052862731948847233 0 -0.0037699598195912436 -0.052967982722537749 0 -0.0038916273374726799 -0.052974190490211216 0 -0.003610138176634625 -0.052793283527713342 0 -0.003610138176634625 -0.052793283527713342 0 -0.0033223302879844402 -0.052744406759106618 0 -0.003501048295285596 -0.052862731948847233 0 -0.0038916273374726799 -0.052974190490211216 0 -0.003610138176634625 -0.052793283527713342 0 -0.0037990179404590266 -0.052730050472158993 0 -0.0032630107373691586 -0.054161854879918231 0 -0.0031235355572500141 -0.054318093079520659 0 -0.0031235355572500141 -0.054318093079520659 0 -0.0025244820305987919 -0.056601960475779027 0 -0.0038916273374726799 -0.052974190490211216 0 -0.0037990179404590266 -0.052730050472158993 0 -0.0042584184476815888 -0.053003448583675013 0 -0.0021640434622006437 -0.052925546453951304 0 -0.0033223302879844402 -0.052744406759106618 0 -0.0028191743106269424 -0.052959915827154105 0 -0.00093435392827289374 -0.055713049816322482 0 -0.0031235355572500141 -0.054318093079520659 0 -0.0033223302879844402 -0.052744406759106618 0 -0.0032042607651592099 -0.052865846819117275 0 -0.0028191743106269424 -0.052959915827154105 0 -0.0032042607651592099 -0.052865846819117275 0 -0.0028191743106269424 -0.052959915827154105 0 -0.003220502690501842 -0.052976219651535844 0 -0.0033223302879844402 -0.052744406759106618 0 -0.0032042607651592099 -0.052865846819117275 0 -0.003501048295285596 -0.052862731948847233 0 -0.0032042607651592099 -0.052865846819117275 0 -0.003501048295285596 -0.052862731948847233 0 -0.003220502690501842 -0.052976219651535844 0 -0.003501048295285596 -0.052862731948847233 0 -0.003220502690501842 -0.052976219651535844 0 -0.0034489506873667765 -0.052973676551415418 0 -0.003501048295285596 -0.052862731948847233 0 -0.0034489506873667765 -0.052973676551415418 0 -0.0037522421350544479 -0.052969394582001381 0 -0.0034489506873667765 -0.052973676551415418 0 -0.0036871611841973379 -0.052773798093677979 0 -0.0037522421350544479 -0.052969394582001381 0 0.00038132062154342511 -0.059340248098252009 0 0.00042755966801430662 -0.058180244579389556 0 0.0016564799237772567 -0.058410574667949737 0 -0.00035543440171219553 -0.058845962680203596 0 0.00038132062154342511 -0.059340248098252009 0 0.00042755966801430662 -0.058180244579389556 0 -0.00035543440171219553 -0.058845962680203596 0 0.00042755966801430662 -0.058180244579389556 0 -0.00065548313136131516 -0.057982796707010273 0 -0.00093435392827289374 -0.055713049816322482 0 -0.0025244820305987919 -0.056601960475779027 0 -0.0025244820305987919 -0.056601960475779027 0 -0.00069002212423992508 -0.058056700073495046 0 0.00042755966801430662 -0.058180244579389556 0 -0.00065548313136131516 -0.057982796707010273 0 0.00026393276944835435 -0.057155393555768957 0 -0.0042233293398170734 -0.057513151193911011 0 -0.0033648700085849815 -0.059966918409265234 0 -0.001521776709890959 -0.058348391189828076 0 0.00042755966801430662 -0.058180244579389556 0 0.00026393276944835435 -0.057155393555768957 0 0.0012011748981765266 -0.057387474473133457 0 0.00026393276944835435 -0.057155393555768957 0 0.0012005370092437713 -0.056218199436830575 0 0.0012011748981765266 -0.057387474473133457 0 -0.001521776709890959 -0.058348391189828076 0 -0.0016459415933314718 -0.056516662192421172 0 0.00038313968228081849 -0.056695865390235418 0 -0.00069002212423992508 -0.058056700073495046 0 0.00082718923187755761 -0.056394634084652992 0 -0.0042233293398170734 -0.057513151193911011 0 -0.001521776709890959 -0.058348391189828076 0 -0.0016459415933314718 -0.056516662192421172 0 -0.0042233293398170734 -0.057513151193911011 0 -0.0026522842265621588 -0.054999990809103068 0 -0.0016459415933314718 -0.056516662192421172 0 -0.00017349473478541497 -0.054999970409570824 0 -0.0016459415933314718 -0.056516662192421172 0 0.00038313968228081849 -0.056695865390235418 0 -0.0026522842265621588 -0.054999990809103068 0 -0.00017349473478541497 -0.054999970409570824 0 -0.0016459415933314718 -0.056516662192421172 0 -0.00017349473478541497 -0.054999970409570824 0 0.0023053229583255039 -0.055000003933056991 0 0.00038313968228081849 -0.056695865390235418 0 0.0023065083952604538 -0.054999618123178655 0 0.0022198361451253976 -0.055882096961117483 0 0.0012005370092437713 -0.056218199436830575 0 0.002305001353346344 -0.055000354740841383 0 0.00082718923187755761 -0.056394634084652992 0 0.003217166155018803 -0.056698493944490211 0 0.0035002288480889105 -0.055000190818392879 0 0.0022198361451253976 -0.055882096961117483 0 0.0023222454559504082 -0.056985323132393816 0 0.0034989670247569551 -0.055000299580563745 0 0.0023065083952604538 -0.054999618123178655 0 0.0022198361451253976 -0.055882096961117483 0 0.0034989670247569551 -0.055000299580563745 0 0.0022198361451253976 -0.055882096961117483 0 0.0023222454559504082 -0.056985323132393816 0 0.0012005370092437713 -0.056218199436830575 0 0.0023222454559504082 -0.056985323132393816 0 0.0012005370092437713 -0.056218199436830575 0 0.0012011748981765266 -0.057387474473133457 0 0.0063747213061325974 -0.0549994264903872 0 0.0055564899657782182 -0.056481129532861329 0 0.0077846549332515232 -0.056492506906600105 0 0.0063747213061325974 -0.0549994264903872 0 0.0035028165014946728 -0.054999895992649581 0 0.0055564899657782182 -0.056481129532861329 0 0.0040786964169886395 -0.056669994267782013 0 0.0055564899657782182 -0.056481129532861329 0 0.0051384978805714895 -0.057349814563883814 0 0.0040786964169886395 -0.056669994267782013 0 0.0035028165014946728 -0.054999895992649581 0 0.0055564899657782182 -0.056481129532861329 0 0.0055564899657782182 -0.056481129532861329 0 0.0069459859440697321 -0.057526028611088652 0 0.0077846549332515232 -0.056492506906600105 0 0.0055564899657782182 -0.056481129532861329 0 0.0051384978805714895 -0.057349814563883814 0 0.0069459859440697321 -0.057526028611088652 0 0.0056529872439400166 -0.058199725283550531 0 0.0070303912565851771 -0.058375687191060642 0 0.0069459859440697321 -0.057526028611088652 0 0.0051384978805714895 -0.057349814563883814 0 0.0056529872439400166 -0.058199725283550531 0 0.0069459859440697321 -0.057526028611088652 0 0.00042755966801430662 -0.058180244579389556 0 0.0012011748981765266 -0.057387474473133457 0 0.0016564799237772567 -0.058410574667949737 0 0.0023222454559504082 -0.056985323132393816 0 0.0012011748981765266 -0.057387474473133457 0 0.0016564799237772567 -0.058410574667949737 0 0.0040786964169886395 -0.056669994267782013 0 0.0051384978805714895 -0.057349814563883814 0 0.0038940158286911845 -0.057956521154658609 0 0.003217166155018803 -0.056698493944490211 0 0.0027382767254736889 -0.058456277902753664 0 0.0051384978805714895 -0.057349814563883814 0 0.0056529872439400166 -0.058199725283550531 0 0.0038940158286911845 -0.057956521154658609 0 0.0056529872439400166 -0.058199725283550531 0 0.0038940158286911845 -0.057956521154658609 0 0.004509579908495806 -0.058818139736273999 0 0.00038132062154342511 -0.059340248098252009 0 0.0016564799237772567 -0.058410574667949737 0 0.0011054835981623779 -0.059819530169860427 0 0.0027382767254736889 -0.058456277902753664 0 0.002245801999330325 -0.058336677225817056 0 0.0038940158286911845 -0.057956521154658609 0 0.0034178709793708157 -0.059348058442099255 0 0.004509579908495806 -0.058818139736273999 0 0.0034178709793708157 -0.059348058442099255 0 0.0040214925547566831 -0.059759349912501196 0 0.004509579908495806 -0.058818139736273999 0 0.002245801999330325 -0.058336677225817056 0 0.005551975206035272 -0.058120182515407202 0 0.0030157119180873487 -0.058134567622145764 0 0.0033541343895295982 -0.057226886043425053 0 0.004450730637464876 -0.057968503873778776 0 0.0030761675875847429 -0.056950239326505787 0 0.005551975206035272 -0.058120182515407202 0 0.0052229669604301494 -0.056842366327866059 0 0.0058943393655348109 -0.056768408302494917 0 0.0054709621460876569 -0.057144067266719487 0 0.0076049965193159845 -0.058083533485547456 0 0.0077383306678479461 -0.058085030715250174 0 0.0077282607062776109 -0.058137521880101524 0 0.005551975206035272 -0.058120182515407202 0 0.0065462737022038897 -0.058912740749136105 0 0.0040214925547566831 -0.059759349912501196 0 0.004509579908495806 -0.058818139736273999 0 0.0052741568093401256 -0.059615383248661398 0 0.0056529872439400166 -0.058199725283550531 0 0.004509579908495806 -0.058818139736273999 0 0.0058710593505380817 -0.058951422985651994 0 0.004509579908495806 -0.058818139736273999 0 0.0058710593505380817 -0.058951422985651994 0 0.0052741568093401256 -0.059615383248661398 0 0.0056529872439400166 -0.058199725283550531 0 0.0058710593505380817 -0.058951422985651994 0 0.0070303912565851771 -0.058375687191060642 0 0.0058710593505380817 -0.058951422985651994 0 0.0066628610032263723 -0.059308113353517891 0 0.0070303912565851771 -0.058375687191060642 0 0.0079448847481087843 -0.058183970598154749 0 0.0077819440805471461 -0.058136390021514925 0 0.0079872805612332676 -0.058189258030990454 0 0.0079448847481087843 -0.058183970598154749 0 0.0077383306678479461 -0.058085030715250174 0 0.0077819440805471461 -0.058136390021514925 0 0.0072693860722208231 -0.058730603240962381 0 0.0065462737022038897 -0.058912740749136105 0 0.0058710593505380817 -0.058951422985651994 0 0.0066628610032263723 -0.059308113353517891 0 0.0052741568093401256 -0.059615383248661398 0 0.0077819440805471461 -0.058136390021514925 0 0.0076382960521147476 -0.058038916578789984 0 0.0077282607062776109 -0.058137521880101524 0 0.0077383306678479461 -0.058085030715250174 0 0.0077819440805471461 -0.058136390021514925 0 0.0077282607062776109 -0.058137521880101524 0 0.0075539222579745231 -0.057981433668603276 0 0.0073360674206869678 -0.057735960880609893 0 0.0079872805612332676 -0.058189258030990454 0 0.0076382960521147476 -0.058038916578789984 0 0.0081981107608341073 -0.058281416802801536 0 0.0077819440805471461 -0.058136390021514925 0 0.0079872805612332676 -0.058189258030990454 0 0.0076382960521147476 -0.058038916578789984 0 0.0079734567488892634 -0.05835489254143799 0 0.0076382960521147476 -0.058038916578789984 0 0.0081981107608341073 -0.058281416802801536 0 0.0079734567488892634 -0.05835489254143799 0 0.0076382960521147476 -0.058038916578789984 0 0.0074876083732348135 -0.058441834057363355 0 0.0076382960521147476 -0.058038916578789984 0 0.007077408642308115 -0.058238218154883746 0 0.0066684861470185756 -0.057287408735104788 0 0.0076382960521147476 -0.058038916578789984 0 0.007077408642308115 -0.058238218154883746 0 0.0074876083732348135 -0.058441834057363355 0 0.007077408642308115 -0.058238218154883746 0 0.0064398511092729309 -0.058064040700615861 0 0.006426619096169997 -0.058435391733207866 0 0.007077408642308115 -0.058238218154883746 0 0.0064398511092729309 -0.058064040700615861 0 0.0066684861470185756 -0.057287408735104788 0 0.0064398511092729309 -0.058064040700615861 0 0.0057154949002082966 -0.058166906704144997 0 0.0062531291504945531 -0.057608685042230851 0 0.0064398511092729309 -0.058064040700615861 0 0.0057154949002082966 -0.058166906704144997 0 0.006426619096169997 -0.058435391733207866 0 0.0057154949002082966 -0.058166906704144997 0 0.005770414850557278 -0.057476469734152734 0 0.0062531291504945531 -0.057608685042230851 0 0.0022789068516726814 -0.055938238243246716 0 0.0049144921817255551 -0.056819509561992027 0 0.0050514350450742533 -0.057305465211308491 0 0.005770414850557278 -0.057476469734152734 0 0.0054709621460876569 -0.057144067266719487 0 0.0050514350450742533 -0.057305465211308491 0 0.0057154949002082966 -0.058166906704144997 0 0.005770414850557278 -0.057476469734152734 0 0.0058943393655348109 -0.056768408302494917 0 0.005770414850557278 -0.057476469734152734 0 0.0062531291504945531 -0.057608685042230851 0 0.0058943393655348109 -0.056768408302494917 0 0.005770414850557278 -0.057476469734152734 0 0.0054709621460876569 -0.057144067266719487 0 0.0058943393655348109 -0.056768408302494917 0 0.0062531291504945531 -0.057608685042230851 0 0.0066684861470185756 -0.057287408735104788 0 0.0064398511092729309 -0.058064040700615861 0 0.0062531291504945531 -0.057608685042230851 0 0.0066684861470185756 -0.057287408735104788 0 0.005551975206035272 -0.058120182515407202 0 0.0073360674206869678 -0.057735960880609893 0 0.010995797247439449 -0.055166460930587941 0 0.013594398469188133 -0.052295326196034039 0 0.015603247405423204 -0.054783164227835808 0 0.010995797247439449 -0.055166460930587941 0 0.015603247405423204 -0.054783164227835808 0 0.01285955418878143 -0.057664278713676471 0 0.0083608450662369452 -0.05848660405437215 0 0.0084564955240383592 -0.058468929771417467 0 0.0088108077169576065 -0.058556911957744318 0 0.0097401237336184592 -0.056872030473860941 0 0.010968490419527608 -0.055226343642045359 0 0.013594398469188133 -0.052295326196034039 0 0.015807020997803706 -0.05164788931303399 0 0.015603247405423204 -0.054783164227835808 0 0.0097401237336184592 -0.056872030473860941 0 0.008630691159334257 -0.058191690005066792 0 0.0083608450662369452 -0.05848660405437215 0 0.008337045853009168 -0.058317355026538044 0 0.0081981107608341073 -0.058281416802801536 0 0.0083608450662369452 -0.05848660405437215 0 0.008337045853009168 -0.058317355026538044 0 0.0085987165188154187 -0.058304076632911282 0 0.0079734567488892634 -0.05835489254143799 0 0.008337045853009168 -0.058317355026538044 0 0.0081981107608341073 -0.058281416802801536 0 0.0079872805612332676 -0.058189258030990454 0 0.0081981107608341073 -0.058281416802801536 0 0.0082063782817771332 -0.058430790888534409 0 0.0083608450662369452 -0.05848660405437215 0 0.0081981107608341073 -0.058281416802801536 0 0.0082063782817771332 -0.058430790888534409 0 0.0083608450662369452 -0.05848660405437215 0 0.0082063782817771332 -0.058430790888534409 0 0.0084564955240383592 -0.058468929771417467 0 0.0082063782817771332 -0.058430790888534409 0 0.0080506744448597678 -0.058543558854933238 0 0.0084564955240383592 -0.058468929771417467 0 0.0079448847481087843 -0.058183970598154749 0 0.0079872805612332676 -0.058189258030990454 0 0.0080506744448597678 -0.058543558854933238 0 0.0072693860722208231 -0.058730603240962381 0 0.007942063259269657 -0.058585159555439983 0 0.0079872805612332676 -0.058189258030990454 0 0.0082063782817771332 -0.058430790888534409 0 0.0080506744448597678 -0.058543558854933238 0 0.0080506744448597678 -0.058543558854933238 0 0.0070303912565851771 -0.058375687191060642 0 0.0080922351803127835 -0.058122170406118098 0 0.0066628610032263723 -0.059308113353517891 0 0.0080506744448597678 -0.058543558854933238 0 0.0070303912565851771 -0.058375687191060642 0 0.0080506744448597678 -0.058543558854933238 0 0.0080922351803127835 -0.058122170406118098 0 0.0084564955240383592 -0.058468929771417467 0 0.0080922351803127835 -0.058122170406118098 0 0.0087327558621468453 -0.057986424561213265 0 0.0084564955240383592 -0.058468929771417467 0 0.0087327558621468453 -0.057986424561213265 0 0.0084564955240383592 -0.058468929771417467 0 0.0089746112869569569 -0.058264050188250337 0 0.0084564955240383592 -0.058468929771417467 0 0.0088108077169576065 -0.058556911957744318 0 0.0089746112869569569 -0.058264050188250337 0 0.0088108077169576065 -0.058556911957744318 0 0.0089746112869569569 -0.058264050188250337 0 0.0095348212448174863 -0.058162922290111031 0 0.010968490419527608 -0.055226343642045359 0 0.014760190072132905 -0.05536905545570632 0 0.0089746112869569569 -0.058264050188250337 0 0.0090986456799972103 -0.057962474384329686 0 0.0094388778763717252 -0.05810647463788722 0 0.0087327558621468453 -0.057986424561213265 0 0.0089746112869569569 -0.058264050188250337 0 0.0090986456799972103 -0.057962474384329686 0 0.0090986456799972103 -0.057962474384329686 0 0.0092637877765360879 -0.057452216066576661 0 0.0094388778763717252 -0.05810647463788722 0 0.0087327558621468453 -0.057986424561213265 0 0.0090986456799972103 -0.057962474384329686 0 0.0092637877765360879 -0.057452216066576661 0 0.0087327558621468453 -0.057986424561213265 0 0.0092637877765360879 -0.057452216066576661 0 0.00842346673412021 -0.057377458671042894 0 0.011969757039581152 -0.056828397961371797 0 0.010724148632899387 -0.055708654630121104 0 0.0092637877765360879 -0.057452216066576661 0 0.00842346673412021 -0.057377458671042894 0 0.0090935381212233803 -0.056526286888529918 0 0.015401903945121094 -0.055861578337761141 0 0.014755664617251545 -0.054804368527286221 0 0.016648473000185834 -0.054586593483380838 0 0.015401903945121094 -0.055861578337761141 0 0.014755664617251545 -0.054804368527286221 0 0.012456938233466001 -0.055237195601647943 0 0.0070303912565851771 -0.058375687191060642 0 0.0080922351803127835 -0.058122170406118098 0 0.0069459859440697321 -0.057526028611088652 0 0.0080922351803127835 -0.058122170406118098 0 0.00842346673412021 -0.057377458671042894 0 0.0069459859440697321 -0.057526028611088652 0 0.0080922351803127835 -0.058122170406118098 0 0.0087327558621468453 -0.057986424561213265 0 0.00842346673412021 -0.057377458671042894 0 0.00842346673412021 -0.057377458671042894 0 0.0069459859440697321 -0.057526028611088652 0 0.0077846549332515232 -0.056492506906600105 0 0.00842346673412021 -0.057377458671042894 0 0.0077846549332515232 -0.056492506906600105 0 0.0090935381212233803 -0.056526286888529918 0 0.0092488799175188801 -0.054999635520481073 0 0.010724148632899387 -0.055708654630121104 0 0.0077846549332515232 -0.056492506906600105 0 0.0092459736071979545 -0.055000093993471312 0 0.0090935381212233803 -0.056526286888529918 0 0.0063747213061325974 -0.0549994264903872 0 0.0077846549332515232 -0.056492506906600105 0 0.0092459736071979545 -0.055000093993471312 0 0.014755664617251545 -0.054804368527286221 0 0.015291803336445198 -0.053933986650364189 0 0.016648473000185834 -0.054586593483380838 0 0.014755664617251545 -0.054804368527286221 0 0.012456938233466001 -0.055237195601647943 0 0.013240113448354081 -0.054712054237946214 0 0.014755664617251545 -0.054804368527286221 0 0.013240113448354081 -0.054712054237946214 0 0.015291803336445198 -0.053933986650364189 0 0.012456938233466001 -0.055237195601647943 0 0.010922850991913924 -0.054998978422771364 0 0.013240113448354081 -0.054712054237946214 0 0.0092499579395647451 -0.055000621064508391 0 0.012456938233466001 -0.055237195601647943 0 0.010922850991913924 -0.054998978422771364 0 0.010922850991913924 -0.054998978422771364 0 0.012595502596749965 -0.054997789163047123 0 0.013240113448354081 -0.054712054237946214 0 0.013240113448354081 -0.054712054237946214 0 0.014095779103515661 -0.054275449676332799 0 0.015291803336445198 -0.053933986650364189 0 0.012595502596749965 -0.054997789163047123 0 0.013240113448354081 -0.054712054237946214 0 0.014095779103515661 -0.054275449676332799 0 0.012597006269015523 -0.054999579607914094 0 0.015886049390273976 -0.052208191339131751 0 0.012594760584656214 -0.054999997557225844 0 0.013486212626490877 -0.056031745562996706 0 0.015689525727976598 -0.054999939312911569 0 0.018264776637947931 -0.047434688827213772 0 0.020859148235967018 -0.049029507548322908 0 0.023833747383148855 -0.048438913092085083 0 0.015886049390273976 -0.052208191339131751 0 0.020257447274884533 -0.052503267135968437 0 0.013486212626490877 -0.056031745562996706 0 0.016706523403663399 -0.056633977974387364 0 0.015689525727976598 -0.054999939312911569 0 0.018264776637947931 -0.047434688827213772 0 0.019336341976697084 -0.048667134416613786 0 0.020859148235967018 -0.049029507548322908 0 0.015886049390273976 -0.052208191339131751 0 0.017219367952580219 -0.051589162604208635 0 0.015291803336445198 -0.053933986650364189 0 0.016648473000185834 -0.054586593483380838 0 0.018899294999365171 -0.053710503018306065 0 0.019336341976697084 -0.048667134416613786 0 0.020859148235967018 -0.049029507548322908 0 0.021892056153870208 -0.051636255656818703 0 0.017219367952580219 -0.051589162604208635 0 0.020602542004745684 -0.052865956885116243 0 0.023833747383148855 -0.048438913092085083 0 0.025457943198233125 -0.051604684469606907 0 0.021892056153870208 -0.051636255656818703 0 0.020859148235967018 -0.049029507548322908 0 0.023833747383148855 -0.048438913092085083 0 0.021892056153870208 -0.051636255656818703 0 0.016706523403663399 -0.056633977974387364 0 0.015689525727976598 -0.054999939312911569 0 0.018784325720943025 -0.055000078924660946 0 0.016706523403663399 -0.056633977974387364 0 0.018784325720943025 -0.055000078924660946 0 0.019924902061460928 -0.057244321933909346 0 0.018784325720943025 -0.055000078924660946 0 0.019924902061460928 -0.057244321933909346 0 0.021879280398107721 -0.054999423102211689 0 0.020257447274884533 -0.052503267135968437 0 0.02460039012151399 -0.053792849382212828 0 0.023833747383148855 -0.048438913092085083 0 0.029427220851353436 -0.05024569596610904 0 0.025457943198233125 -0.051604684469606907 0 0.029427220851353436 -0.05024569596610904 0 0.025457943198233125 -0.051604684469606907 0 0.027806995061785307 -0.053777783923488351 0 0.025457943198233125 -0.051604684469606907 0 0.027806995061785307 -0.053777783923488351 0 0.023892284558862522 -0.054584716369909678 0 0.029427220851353436 -0.05024569596610904 0 0.027806995061785307 -0.053777783923488351 0 0.030934394212736031 -0.053331950153903643 0 0.027806995061785307 -0.053777783923488351 0 0.030934394212736031 -0.053331950153903643 0 0.03106601714419131 -0.055819447641255467 0 0.027806995061785307 -0.053777783923488351 0 0.024428623892606218 -0.057818035112972788 0 0.03106601714419131 -0.055819447641255467 0 0.027806995061785307 -0.053777783923488351 0 0.023892284558862522 -0.054584716369909678 0 0.024428623892606218 -0.057818035112972788 0 0.023892284558862522 -0.054584716369909678 0 0.021788121457191837 -0.056617945831161337 0 0.019138253493781631 -0.055385344347904861 0 0.023892284558862522 -0.054584716369909678 0 0.021788121457191837 -0.056617945831161337 0 0.024428623892606218 -0.057818035112972788 0 0.011969757039581152 -0.056828397961371797 0 0.016660148280029805 -0.056808719570923275 0 0.021788121457191837 -0.056617945831161337 0 0.018940078950912945 -0.056931651447080622 0 0.019708104657750681 -0.058191930995991133 0 0.0092637877765360879 -0.057452216066576661 0 0.0094388778763717252 -0.05810647463788722 0 0.0095850227105230626 -0.058092052639768778 0 0.015401903945121094 -0.055861578337761141 0 0.018940078950912945 -0.056931651447080622 0 0.019165215001427725 -0.058700150750090288 0 0.015401903945121094 -0.055861578337761141 0 0.018940078950912945 -0.056931651447080622 0 0.019138253493781631 -0.055385344347904861 0 0.021788121457191837 -0.056617945831161337 0 0.018940078950912945 -0.056931651447080622 0 0.019138253493781631 -0.055385344347904861 0 0.015401903945121094 -0.055861578337761141 0 0.019138253493781631 -0.055385344347904861 0 0.016648473000185834 -0.054586593483380838 0 0.019138253493781631 -0.055385344347904861 0 0.016648473000185834 -0.054586593483380838 0 0.018899294999365171 -0.053710503018306065 0 0.025457943198233125 -0.051604684469606907 0 0.023892284558862522 -0.054584716369909678 0 0.021892056153870208 -0.051636255656818703 0 0.023545565882362108 -0.054746672034155237 0 0.020602542004745684 -0.052865956885116243 0 0.023892284558862522 -0.054584716369909678 0 0.019138253493781631 -0.055385344347904861 0 0.018899294999365171 -0.053710503018306065 0 0.027708006317455389 -0.05602338970655827 0 0.028859834920780706 -0.055858237832367437 0 0.028258790523648762 -0.055932831501911286 0 0.027708006317455389 -0.05602338970655827 0 0.029239452515802237 -0.056014186458286819 0 0.028859834920780706 -0.055858237832367437 0 0.027708006317455389 -0.05602338970655827 0 0.02497634773076372 -0.05499929422843438 0 0.028258790523648762 -0.055932831501911286 0 0.02497634773076372 -0.05499929422843438 0 0.028258790523648762 -0.055932831501911286 0 0.028068831952840552 -0.05499963940993912 0 0.027708006317455389 -0.05602338970655827 0 0.02497634773076372 -0.05499929422843438 0 0.025367383964902845 -0.056021541324301066 0 0.025367383964902845 -0.056021541324301066 0 0.023477001978383726 -0.057657266603085039 0 0.029239452515802237 -0.056014186458286819 0 0.02782976447136944 -0.055337842958852246 0 0.028919120362341358 -0.055912836367952558 0 0.027708006317455389 -0.05602338970655827 0 0.025367383964902845 -0.056021541324301066 0 0.029239452515802237 -0.056014186458286819 0 0.02497634773076372 -0.05499929422843438 0 0.025367383964902845 -0.056021541324301066 0 0.021879280398107721 -0.054999423102211689 0 0.025367383964902845 -0.056021541324301066 0 0.023477001978383726 -0.057657266603085039 0 0.021879280398107721 -0.054999423102211689 0 0.02460039012151399 -0.053792849382212828 0 0.02782976447136944 -0.055337842958852246 0 0.029427220851353436 -0.05024569596610904 0 0.032616293884352852 -0.053215432586453879 0 0.030934394212736031 -0.053331950153903643 0 0.019924902061460928 -0.057244321933909346 0 0.023477001978383726 -0.057657266603085039 0 0.021879280398107721 -0.054999423102211689 0 0.032616293884352852 -0.053215432586453879 0 0.030934394212736031 -0.053331950153903643 0 0.032430863065167306 -0.053765963955823455 0 0.030934394212736031 -0.053331950153903643 0 0.032430863065167306 -0.053765963955823455 0 0.03106601714419131 -0.055819447641255467 0 0.032430863065167306 -0.053765963955823455 0 0.031839626868226764 -0.05386924148193295 0 0.032567795390577921 -0.053139213929585538 0 0.032616293884352852 -0.053215432586453879 0 0.032430863065167306 -0.053765963955823455 0 0.031839626868226764 -0.05386924148193295 0 0.032616293884352852 -0.053215432586453879 0 0.031839626868226764 -0.05386924148193295 0 0.029239452515802237 -0.056014186458286819 0 0.030682552160075049 -0.05421698706603123 0 0.031839626868226764 -0.05386924148193295 0 0.029239452515802237 -0.056014186458286819 0 0.030682552160075049 -0.05421698706603123 0 0.031839626868226764 -0.05386924148193295 0 0.031725970403682448 -0.053377203259151622 0 0.031839626868226764 -0.05386924148193295 0 0.032567795390577921 -0.053139213929585538 0 0.031725970403682448 -0.053377203259151622 0 0.032567795390577921 -0.053139213929585538 0 0.031725970403682448 -0.053377203259151622 0 0.032203957462698843 -0.052575375841892036 0 0.030682552160075049 -0.05421698706603123 0 0.031725970403682448 -0.053377203259151622 0 0.031088045805620652 -0.053112240286059105 0 0.030682552160075049 -0.05421698706603123 0 0.031088045805620652 -0.053112240286059105 0 0.029668223843492353 -0.05479598761493451 0 0.031088045805620652 -0.053112240286059105 0 0.029668223843492353 -0.05479598761493451 0 0.029963149845338023 -0.053937155082275479 0 0.031725970403682448 -0.053377203259151622 0 0.031088045805620652 -0.053112240286059105 0 0.032203957462698843 -0.052575375841892036 0 0.030682552160075049 -0.05421698706603123 0 0.029668223843492353 -0.05479598761493451 0 0.029239452515802237 -0.056014186458286819 0 0.029668223843492353 -0.05479598761493451 0 0.029239452515802237 -0.056014186458286819 0 0.028859834920780706 -0.055858237832367437 0 0.032824238843116395 -0.050890974014203234 0 0.03330816635310644 -0.050210641282811622 0 0.03312313399744677 -0.050513856166246457 0 0.03332041317367769 -0.050688721765302286 0 0.032824238843116395 -0.050890974014203234 0 0.03330816635310644 -0.050210641282811622 0 0.03332041317367769 -0.050688721765302286 0 0.032811695737305351 -0.051531497112178061 0 0.032824238843116395 -0.050890974014203234 0 0.032811695737305351 -0.051531497112178061 0 0.032824238843116395 -0.050890974014203234 0 0.032068953989043809 -0.05142396560013969 0 0.032824238843116395 -0.050890974014203234 0 0.032068953989043809 -0.05142396560013969 0 0.03312313399744677 -0.050513856166246457 0 0.031088045805620652 -0.053112240286059105 0 0.032068953989043809 -0.05142396560013969 0 0.032203957462698843 -0.052575375841892036 0 0.031088045805620652 -0.053112240286059105 0 0.032068953989043809 -0.05142396560013969 0 0.03037595968172533 -0.052430323646217573 0 0.032811695737305351 -0.051531497112178061 0 0.032068953989043809 -0.05142396560013969 0 0.032203957462698843 -0.052575375841892036 0 0.032811695737305351 -0.051531497112178061 0 0.032203957462698843 -0.052575375841892036 0 0.032942249376071146 -0.052317208614486223 0 0.032567795390577921 -0.053139213929585538 0 0.032203957462698843 -0.052575375841892036 0 0.032942249376071146 -0.052317208614486223 0 0.032942249376071146 -0.052317208614486223 0 0.033520005722820004 -0.051253970770259602 0 0.033285402355494674 -0.0529734635253973 0 0.03332041317367769 -0.050688721765302286 0 0.032811695737305351 -0.051531497112178061 0 0.033520005722820004 -0.051253970770259602 0 0.032811695737305351 -0.051531497112178061 0 0.032942249376071146 -0.052317208614486223 0 0.033520005722820004 -0.051253970770259602 0 0.03332041317367769 -0.050688721765302286 0 0.033520005722820004 -0.051253970770259602 0 0.034086367747006872 -0.050027899786700948 0 0.033285402355494674 -0.0529734635253973 0 0.034421171453001762 -0.051799419800065222 0 0.034442141785222605 -0.05044574837143817 0 0.033520005722820004 -0.051253970770259602 0 0.033285402355494674 -0.0529734635253973 0 0.034442141785222605 -0.05044574837143817 0 0.032567795390577921 -0.053139213929585538 0 0.032942249376071146 -0.052317208614486223 0 0.033285402355494674 -0.0529734635253973 0 0.032430863065167306 -0.053765963955823455 0 0.032567795390577921 -0.053139213929585538 0 0.033285402355494674 -0.0529734635253973 0 0.032430863065167306 -0.053765963955823455 0 0.033285402355494674 -0.0529734635253973 0 0.03106601714419131 -0.055819447641255467 0 0.033569350771732301 -0.059110394697733694 0 0.031295796209569689 -0.054735481946409106 0 0.033285402355494674 -0.0529734635253973 0 0.034421171453001762 -0.051799419800065222 0 0.03106601714419131 -0.055819447641255467 0 0.034024612741234417 -0.06253539175795797 0 0.032060834821549145 -0.063113329419629632 0 0.030331487348671769 -0.06068450615088964 0 0.034024612741234417 -0.06253539175795797 0 0.033622532517437978 -0.064100040406103079 0 0.036289424947643582 -0.06662734447358877 0 0.032867355683073175 -0.063515731169602088 0 0.033622532517437978 -0.064100040406103079 0 0.031526304401423996 -0.064569247276090383 0 0.034024612741234417 -0.06253539175795797 0 0.032867355683073175 -0.063515731169602088 0 0.032060834821549145 -0.063113329419629632 0 0.034024612741234417 -0.06253539175795797 0 0.032867355683073175 -0.063515731169602088 0 0.033622532517437978 -0.064100040406103079 0 0.032867355683073175 -0.063515731169602088 0 0.032060834821549145 -0.063113329419629632 0 0.031526304401423996 -0.064569247276090383 0 0.033622532517437978 -0.064100040406103079 0 0.034146143116000054 -0.065480752874045436 0 0.031526304401423996 -0.064569247276090383 0 0.040846935491676339 -0.049819344430303468 0 0.038496210758400567 -0.050420864877834835 0 0.047006592107078422 -0.033894239404485466 0 0.048238016753371533 -0.034448462548807977 0 0.046820437467007939 -0.035211085795068806 0 0.047006592107078422 -0.033894239404485466 0 0.045848873609666559 -0.034519646509057915 0 0.046820437467007939 -0.035211085795068806 0 0.047006592107078422 -0.033894239404485466 0 0.045796149057952637 -0.033316713196211399 0 0.045848873609666559 -0.034519646509057915 0 0.033622532517437978 -0.064100040406103079 0 0.034146143116000054 -0.065480752874045436 0 0.036289424947643582 -0.06662734447358877 0 0.040846935491676339 -0.049819344430303468 0 0.04131015783116776 -0.046567184294277836 0 0.034421171453001762 -0.051799419800065222 0 0.035926472968140548 -0.04798180081929488 0 0.034442141785222605 -0.05044574837143817 0 0.035926472968140548 -0.04798180081929488 0 0.034442141785222605 -0.05044574837143817 0 0.035103672241369996 -0.048497506785229794 0 0.033569350771732301 -0.059110394697733694 0 0.04131015783116776 -0.046567184294277836 0 0.033520005722820004 -0.051253970770259602 0 0.034442141785222605 -0.05044574837143817 0 0.034086367747006872 -0.050027899786700948 0 0.03332041317367769 -0.050688721765302286 0 0.034086367747006872 -0.050027899786700948 0 0.033859354418743118 -0.049564119285706178 0 0.034086367747006872 -0.050027899786700948 0 0.03450491521918829 -0.048760193967130008 0 0.033859354418743118 -0.049564119285706178 0 0.034086367747006872 -0.050027899786700948 0 0.03450491521918829 -0.048760193967130008 0 0.035103672241369996 -0.048497506785229794 0 0.034442141785222605 -0.05044574837143817 0 0.034086367747006872 -0.050027899786700948 0 0.035103672241369996 -0.048497506785229794 0 0.035926472968140548 -0.04798180081929488 0 0.035399348558856493 -0.046881036841143309 0 0.035632139233673005 -0.045617135778349742 0 0.035926472968140548 -0.04798180081929488 0 0.035103672241369996 -0.048497506785229794 0 0.035399348558856493 -0.046881036841143309 0 0.035399348558856493 -0.046881036841143309 0 0.03554160272477732 -0.046005078989515662 0 0.035632139233673005 -0.045617135778349742 0 0.035399348558856493 -0.046881036841143309 0 0.034965588623812799 -0.047478441821426881 0 0.03554160272477732 -0.046005078989515662 0 0.035103672241369996 -0.048497506785229794 0 0.035399348558856493 -0.046881036841143309 0 0.034965588623812799 -0.047478441821426881 0 0.03450491521918829 -0.048760193967130008 0 0.035103672241369996 -0.048497506785229794 0 0.034965588623812799 -0.047478441821426881 0 0.034965588623812799 -0.047478441821426881 0 0.034561892639373343 -0.046979405621419473 0 0.034238093982531914 -0.04826086518652356 0 0.03450491521918829 -0.048760193967130008 0 0.034965588623812799 -0.047478441821426881 0 0.034238093982531914 -0.04826086518652356 0 0.034965588623812799 -0.047478441821426881 0 0.03554160272477732 -0.046005078989515662 0 0.034561892639373343 -0.046979405621419473 0 0.034788259096457372 -0.045688249329214024 0 0.034561892639373343 -0.046979405621419473 0 0.033611858142735804 -0.046796359648981024 0 0.03554160272477732 -0.046005078989515662 0 0.034788259096457372 -0.045688249329214024 0 0.034561892639373343 -0.046979405621419473 0 0.034561892639373343 -0.046979405621419473 0 0.033792879824536937 -0.047870817340612874 0 0.033611858142735804 -0.046796359648981024 0 0.034561892639373343 -0.046979405621419473 0 0.033792879824536937 -0.047870817340612874 0 0.034238093982531914 -0.04826086518652356 0 0.03356093370771434 -0.049088056786052721 0 0.034238093982531914 -0.04826086518652356 0 0.033859354418743118 -0.049564119285706178 0 0.033792879824536937 -0.047870817340612874 0 0.03356093370771434 -0.049088056786052721 0 0.034238093982531914 -0.04826086518652356 0 0.03450491521918829 -0.048760193967130008 0 0.034238093982531914 -0.04826086518652356 0 0.033859354418743118 -0.049564119285706178 0 0.03332041317367769 -0.050688721765302286 0 0.033859354418743118 -0.049564119285706178 0 0.03330816635310644 -0.050210641282811622 0 0.03356093370771434 -0.049088056786052721 0 0.03330816635310644 -0.050210641282811622 0 0.03312313399744677 -0.050513856166246457 0 0.03356093370771434 -0.049088056786052721 0 0.033859354418743118 -0.049564119285706178 0 0.03330816635310644 -0.050210641282811622 0 0.020224348250547065 -0.053446657467773981 0 0.022813247068361332 -0.052857808335974789 0 0.025045606561608192 -0.048925985936105955 0 0.028450439384525853 -0.050737170964103219 0 0.027185317109236655 -0.051636984142146111 0 0.020224348250547065 -0.053446657467773981 0 0.026629011729004101 -0.057547355161367414 0 0.015807020997803706 -0.05164788931303399 0 0.017135525328715377 -0.050082098633570576 0 0.019163882696252809 -0.052762133044473226 0 0.013594398469188133 -0.052295326196034039 0 0.015807020997803706 -0.05164788931303399 0 0.016172528105229792 -0.049533065132000724 0 0.015807020997803706 -0.05164788931303399 0 0.017135525328715377 -0.050082098633570576 0 0.016172528105229792 -0.049533065132000724 0 0.0089746112869569569 -0.058264050188250337 0 0.0095348212448174863 -0.058162922290111031 0 0.0094388778763717252 -0.05810647463788722 0 0.020220604672848707 -0.059917927428730568 0 0.019708104657750681 -0.058191930995991133 0 0.019221851102164164 -0.058770984794463979 0 0.020224348250547065 -0.053446657467773981 0 0.014760190072132905 -0.05536905545570632 0 0.020224348250547065 -0.053446657467773981 0 0.016660148280029805 -0.056808719570923275 0 0.018310803178744985 -0.05488293166634732 0 0.017552524954530663 -0.054454649475861615 0 0.01779434228982241 -0.054190810392740062 0 0.014760190072132905 -0.05536905545570632 0 0.016660148280029805 -0.056808719570923275 0 0.0095299160622120006 -0.058152703885843704 0 0.0094388778763717252 -0.05810647463788722 0 0.0095850227105230626 -0.058092052639768778 0 0.014760190072132905 -0.05536905545570632 0 0.013338720557059397 -0.055272164277250256 0 0.018940078950912945 -0.056931651447080622 0 0.019708104657750681 -0.058191930995991133 0 0.019165215001427725 -0.058700150750090288 0 0.017342151440486949 -0.056872916747600248 0 0.016660148280029805 -0.056808719570923275 0 0.020220604672848707 -0.059917927428730568 0 0.019708104657750681 -0.058191930995991133 0 0.024428623892606218 -0.057818035112972788 0 0.021788121457191837 -0.056617945831161337 0 0.019708104657750681 -0.058191930995991133 0 0.024428623892606218 -0.057818035112972788 0 0.020220604672848707 -0.059917927428730568 0 0.024428623892606218 -0.057818035112972788 0 0.02580758001984856 -0.0621457880398072 0 0.024428623892606218 -0.057818035112972788 0 0.03106601714419131 -0.055819447641255467 0 0.030331487348671769 -0.06068450615088964 0 0.030331487348671769 -0.06068450615088964 0 0.02580758001984856 -0.0621457880398072 0 0.031526304401423996 -0.064569247276090383 0 0.034024612741234417 -0.06253539175795797 0 0.03106601714419131 -0.055819447641255467 0 0.030331487348671769 -0.06068450615088964 0 0.024428623892606218 -0.057818035112972788 0 0.030331487348671769 -0.06068450615088964 0 0.02580758001984856 -0.0621457880398072 0 0.028450439384525853 -0.050737170964103219 0 0.031833359103280508 -0.052590741546020454 0 0.029284273136919056 -0.054379293841849669 0 0.030813434724428147 -0.045661279182573525 0 0.022813247068361332 -0.052857808335974789 0 0.028450439384525853 -0.050737170964103219 0 0.029284273136919056 -0.054379293841849669 0 0.027185317109236655 -0.051636984142146111 0 0.026629011729004101 -0.057547355161367414 0 0.038496210758400567 -0.050420864877834835 0 0.032060834821549145 -0.063113329419629632 0 0.030331487348671769 -0.06068450615088964 0 0.031526304401423996 -0.064569247276090383 0 0.045796149057952637 -0.033316713196211399 0 0.045848873609666559 -0.034519646509057915 0 0.04426165433343815 -0.034385190514574483 0 0.038496210758400567 -0.050420864877834835 0 0.030813434724428147 -0.045661279182573525 0 0.030813434724428147 -0.045661279182573525 0 0.038045631680042422 -0.037739864855491224 0 0.045848873609666559 -0.034519646509057915 0 0.04426165433343815 -0.034385190514574483 0 0.045366488814213533 -0.035667509661133995 0 0.021253706315975427 -0.055453131336172773 0 0.018447955852595337 -0.055256793116273031 0 0.01772878334670603 -0.057944726356832142 0 0.015603247405423204 -0.054783164227835808 0 0.01772878334670603 -0.057944726356832142 0 0.01285955418878143 -0.057664278713676471 0 0.030813434724428147 -0.045661279182573525 0 0.020819748646982199 -0.05046172921776082 0 0.018447955852595337 -0.055256793116273031 0 0.019163882696252809 -0.052762133044473226 0 0.015603247405423204 -0.054783164227835808 0 0.021253706315975427 -0.055453131336172773 0 0.018447955852595337 -0.055256793116273031 0 0.019163882696252809 -0.052762133044473226 0 0.015807020997803706 -0.05164788931303399 0 0.019163882696252809 -0.052762133044473226 0 0.015603247405423204 -0.054783164227835808 0 0.018447955852595337 -0.055256793116273031 0 0.015603247405423204 -0.054783164227835808 0 0.01772878334670603 -0.057944726356832142 0 0.020819748646982199 -0.05046172921776082 0 0.01891533025849066 -0.052081530051507306 0 0.025823161335101204 -0.044624589588058844 0 0.026246976612148157 -0.041887497082522367 0 0.023286739492842802 -0.044085174516160737 0 0.025823161335101204 -0.044624589588058844 0 0.026246976612148157 -0.041887497082522367 0 0.028677551834708586 -0.043858819886449317 0 0.026246976612148157 -0.041887497082522367 0 0.028775578264007333 -0.041783307218298732 0 0.028677551834708586 -0.043858819886449317 0 0.028775578264007333 -0.041783307218298732 0 0.030843881281335316 -0.041691166611300498 0 0.028677551834708586 -0.043858819886449317 0 0.029333370980067407 -0.039693034773287603 0 0.026246976612148157 -0.041887497082522367 0 0.028775578264007333 -0.041783307218298732 0 0.029333370980067407 -0.039693034773287603 0 0.028775578264007333 -0.041783307218298732 0 0.030843881281335316 -0.041691166611300498 0 0.045848873609666559 -0.034519646509057915 0 0.045366488814213533 -0.035667509661133995 0 0.046820437467007939 -0.035211085795068806 0 0.038045631680042422 -0.037739864855491224 0 0.039738667884767431 -0.040993154723462107 0 0.030843881281335316 -0.041691166611300498 0 0.028677551834708586 -0.043858819886449317 0 0.032379910298200802 -0.043682054855096727 0 0.028677551834708586 -0.043858819886449317 0 0.030219237548256703 -0.046416228288201619 0 0.026562292648102597 -0.047047022583346393 0 0.028677551834708586 -0.043858819886449317 0 0.030219237548256703 -0.046416228288201619 0 0.032379910298200802 -0.043682054855096727 0 0.033078000982255933 -0.03013864953355266 0 0.03621410331473443 -0.031850993010950082 0 0.033731512086920955 -0.033009495738713202 0 0.033078000982255933 -0.03013864953355266 0 0.031415071503869338 -0.032518536145202344 0 0.033731512086920955 -0.033009495738713202 0 0.030653996954906931 -0.038236249942665147 0 0.027877573607249382 -0.039194504581252509 0 0.033078000982255933 -0.03013864953355266 0 0.031415071503869338 -0.032518536145202344 0 0.028733849986586932 -0.031235994668636267 0 0.031415071503869338 -0.032518536145202344 0 0.028733849986586932 -0.031235994668636267 0 0.029839878543429631 -0.033443850907052708 0 0.027877573607249382 -0.039194504581252509 0 0.024748163869327929 -0.039535099346634815 0 0.028733849986586932 -0.031235994668636267 0 0.027120081021824782 -0.033291176420238669 0 0.026172115995612949 -0.032334092107526857 0 0.025823161335101204 -0.044624589588058844 0 0.023286739492842802 -0.044085174516160737 0 0.023029568686758418 -0.04758564626873002 0 0.025823161335101204 -0.044624589588058844 0 0.026562292648102597 -0.047047022583346393 0 0.023029568686758418 -0.04758564626873002 0 0.025823161335101204 -0.044624589588058844 0 0.028677551834708586 -0.043858819886449317 0 0.026562292648102597 -0.047047022583346393 0 0.051978882185960071 -0.036909477254484631 0 0.05098237932763694 -0.035485026768939387 0 0.052518079446060108 -0.037567200114501459 0 0.051978882185960071 -0.036909477254484631 0 0.051125424897976633 -0.036597275839828039 0 0.05098237932763694 -0.035485026768939387 0 0.043395603867795229 -0.038375080805603354 0 0.051074508023482575 -0.038246297575225553 0 0.051978882185960071 -0.036909477254484631 0 0.051125424897976633 -0.036597275839828039 0 0.051363993590038459 -0.037037053757671544 0 0.051125424897976633 -0.036597275839828039 0 0.050151149810515584 -0.036641787958764341 0 0.051363993590038459 -0.037037053757671544 0 0.051125424897976633 -0.036597275839828039 0 0.05098237932763694 -0.035485026768939387 0 0.050151149810515584 -0.036641787958764341 0 0.03687761480093437 -0.043007607214579795 0 0.035726529546762142 -0.04412806607098322 0 0.05006341062723927 -0.037413233687946926 0 0.034788259096457372 -0.045688249329214024 0 0.03687761480093437 -0.043007607214579795 0 0.033435502100900245 -0.045610653998002466 0 0.03554160272477732 -0.046005078989515662 0 0.03687761480093437 -0.043007607214579795 0 0.035632139233673005 -0.045617135778349742 0 0.03687761480093437 -0.043007607214579795 0 0.035726529546762142 -0.04412806607098322 0 0.035632139233673005 -0.045617135778349742 0 0.03554160272477732 -0.046005078989515662 0 0.034788259096457372 -0.045688249329214024 0 0.03687761480093437 -0.043007607214579795 0 0.035926472968140548 -0.04798180081929488 0 0.035726529546762142 -0.04412806607098322 0 0.035632139233673005 -0.045617135778349742 0 0.05098237932763694 -0.035485026768939387 0 0.049269124422832801 -0.035683696231192802 0 0.050151149810515584 -0.036641787958764341 0 0.04131015783116776 -0.046567184294277836 0 0.043395603867795229 -0.038375080805603354 0 0.048230011970256108 -0.034160341826392264 0 0.05098237932763694 -0.035485026768939387 0 0.049269124422832801 -0.035683696231192802 0 0.049269124422832801 -0.035683696231192802 0 0.050151149810515584 -0.036641787958764341 0 0.04824547078352133 -0.036940536249159599 0 0.050151149810515584 -0.036641787958764341 0 0.049508502931663492 -0.037990128694001576 0 0.051363993590038459 -0.037037053757671544 0 0.050151149810515584 -0.036641787958764341 0 0.04824547078352133 -0.036940536249159599 0 0.049508502931663492 -0.037990128694001576 0 0.048238016753371533 -0.034448462548807977 0 0.049269124422832801 -0.035683696231192802 0 0.047916196309667321 -0.035845044982623246 0 0.049269124422832801 -0.035683696231192802 0 0.04824547078352133 -0.036940536249159599 0 0.047916196309667321 -0.035845044982623246 0 0.048238016753371533 -0.034448462548807977 0 0.047916196309667321 -0.035845044982623246 0 0.046820437467007939 -0.035211085795068806 0 0.04131015783116776 -0.046567184294277836 0 0.048420311982223491 -0.033014029132245895 0 0.047916196309667321 -0.035845044982623246 0 0.046820437467007939 -0.035211085795068806 0 0.046455519675186845 -0.036983215140982913 0 0.045366488814213533 -0.035667509661133995 0 0.046820437467007939 -0.035211085795068806 0 0.046455519675186845 -0.036983215140982913 0 0.04824547078352133 -0.036940536249159599 0 0.047916196309667321 -0.035845044982623246 0 0.046455519675186845 -0.036983215140982913 0 0.04824547078352133 -0.036940536249159599 0 0.046455519675186845 -0.036983215140982913 0 0.04756130266171002 -0.038445324413278047 0 0.030219237548256703 -0.046416228288201619 0 0.032379910298200802 -0.043682054855096727 0 0.033944058550433989 -0.045710601664311755 0 0.039738667884767431 -0.040993154723462107 0 0.040526696186992762 -0.038495512763982449 0 0.030653996954906931 -0.038236249942665147 0 0.040526696186992762 -0.038495512763982449 0 0.033078000982255933 -0.03013864953355266 0 0.03812534658684797 -0.029547477465900907 0 0.03621410331473443 -0.031850993010950082 0 0.03621410331473443 -0.031850993010950082 0 0.03803685289235826 -0.032708288633520599 0 0.038071913667407899 -0.031542528047267926 0 0.03812534658684797 -0.029547477465900907 0 0.03621410331473443 -0.031850993010950082 0 0.038071913667407899 -0.031542528047267926 0 0.03812534658684797 -0.029547477465900907 0 0.038071913667407899 -0.031542528047267926 0 0.039875878527185257 -0.032041952041576428 0 0.040526696186992762 -0.038495512763982449 0 0.043389255758357934 -0.034919694642307174 0 0.03803685289235826 -0.032708288633520599 0 0.038071913667407899 -0.031542528047267926 0 0.039875878527185257 -0.032041952041576428 0 0.03803685289235826 -0.032708288633520599 0 0.039875878527185257 -0.032041952041576428 0 0.040033799425872423 -0.033395235324481812 0 0.040526696186992762 -0.038495512763982449 0 0.050230917369252108 -0.037090656502947357 0 0.045596434647611504 -0.036631735310080113 0 0.047331686941835226 -0.038857462014724273 0 0.048669828788243011 -0.036617681733042327 0 0.04824547078352133 -0.036940536249159599 0 0.04756130266171002 -0.038445324413278047 0 0.049508502931663492 -0.037990128694001576 0 0.050230917369252108 -0.037090656502947357 0 0.050609639797811884 -0.0371337107669154 0 0.048669828788243011 -0.036617681733042327 0 0.049751391834192471 -0.038856314144964439 0 0.051363993590038459 -0.037037053757671544 0 0.047331686941835226 -0.038857462014724273 0 0.049751391834192471 -0.038856314144964439 0 0.048920821761166272 -0.040904825090617249 0 0.047331686941835226 -0.038857462014724273 0 0.048669828788243011 -0.036617681733042327 0 0.049751391834192471 -0.038856314144964439 0 0.049751391834192471 -0.038856314144964439 0 0.051950949000845834 -0.038491397811768392 0 0.051152949888158279 -0.040362311238533254 0 0.051950949000845834 -0.038491397811768392 0 0.051152949888158279 -0.040362311238533254 0 0.053045487875992489 -0.039804060106271431 0 0.051950949000845834 -0.038491397811768392 0 0.051363993590038459 -0.037037053757671544 0 0.052377930377793432 -0.037285158661167141 0 0.049751391834192471 -0.038856314144964439 0 0.051950949000845834 -0.038491397811768392 0 0.051363993590038459 -0.037037053757671544 0 0.051978882185960071 -0.036909477254484631 0 0.051363993590038459 -0.037037053757671544 0 0.052377930377793432 -0.037285158661167141 0 0.048796489019267482 -0.044414937239730654 0 0.049231372356659919 -0.039857635319843605 0 0.053104521908494497 -0.041268128321516537 0 0.050629694401808541 -0.039998765075791649 0 0.052461768319546728 -0.039809236297387363 0 0.048796489019267482 -0.044414937239730654 0 0.049231372356659919 -0.039857635319843605 0 0.045745929409567197 -0.040192686845525592 0 0.050629694401808541 -0.039998765075791649 0 0.043828668082272412 -0.037460224676315663 0 0.049751391834192471 -0.038856314144964439 0 0.051152949888158279 -0.040362311238533254 0 0.048920821761166272 -0.040904825090617249 0 0.043389255758357934 -0.034919694642307174 0 0.043828668082272412 -0.037460224676315663 0 0.041788904571168087 -0.035476785816478763 0 0.040396789539925655 -0.033382500896771555 0 0.040105302410672679 -0.034517798408186001 0 0.048589372206726274 -0.036024604451066436 0 0.043828668082272412 -0.037460224676315663 0 0.041788904571168087 -0.035476785816478763 0 0.040105302410672679 -0.034517798408186001 0 0.040250785001272431 -0.035403953166411241 0 0.040396789539925655 -0.033382500896771555 0 0.040105302410672679 -0.034517798408186001 0 0.03913399147734322 -0.03409991272552302 0 0.040105302410672679 -0.034517798408186001 0 0.039245921471377287 -0.034960495985106158 0 0.040250785001272431 -0.035403953166411241 0 0.040105302410672679 -0.034517798408186001 0 0.039245921471377287 -0.034960495985106158 0 0.03913399147734322 -0.03409991272552302 0 0.039245921471377287 -0.034960495985106158 0 0.038118194220754853 -0.034618858079290063 0 0.03913399147734322 -0.03409991272552302 0 0.038118194220754853 -0.034618858079290063 0 0.03913399147734322 -0.03409991272552302 0 0.037915751239760792 -0.033403507011306996 0 0.039729622576701866 -0.033371242693796169 0 0.036652964812936062 -0.033668534814074377 0 0.040396789539925655 -0.033382500896771555 0 0.03913399147734322 -0.03409991272552302 0 0.037915751239760792 -0.033403507011306996 0 0.043828668082272412 -0.037460224676315663 0 0.037579010467329685 -0.03331591622105242 0 0.03803685289235826 -0.032708288633520599 0 0.040033799425872423 -0.033395235324481812 0 0.036154578569854143 -0.034440884832055652 0 0.041147445989314635 -0.034038024732230464 0 0.040033799425872423 -0.033395235324481812 0 0.038362786204080679 -0.033851233232982794 0 0.039875878527185257 -0.032041952041576428 0 0.041147445989314635 -0.034038024732230464 0 0.040033799425872423 -0.033395235324481812 0 0.040033799425872423 -0.033395235324481812 0 0.038362786204080679 -0.033851233232982794 0 0.037168520606862723 -0.032948874488063572 0 0.038362786204080679 -0.033851233232982794 0 0.037168520606862723 -0.032948874488063572 0 0.035437747337631713 -0.033526350463318484 0 0.03621410331473443 -0.031850993010950082 0 0.03803685289235826 -0.032708288633520599 0 0.036154578569854143 -0.034440884832055652 0 0.037915751239760792 -0.033403507011306996 0 0.036907171097840322 -0.034270798540114375 0 0.035437747337631713 -0.033526350463318484 0 0.037579010467329685 -0.03331591622105242 0 0.035874890892078071 -0.033664629518732878 0 0.038118194220754853 -0.034618858079290063 0 0.037915751239760792 -0.033403507011306996 0 0.036907171097840322 -0.034270798540114375 0 0.038118194220754853 -0.034618858079290063 0 0.036907171097840322 -0.034270798540114375 0 0.036924643887534643 -0.035370764683337212 0 0.036907171097840322 -0.034270798540114375 0 0.036924643887534643 -0.035370764683337212 0 0.03597940217125517 -0.034436511850413132 0 0.038118194220754853 -0.034618858079290063 0 0.036924643887534643 -0.035370764683337212 0 0.038357920560626438 -0.035626487564933987 0 0.036924643887534643 -0.035370764683337212 0 0.037666219600271632 -0.036366804663874833 0 0.038357920560626438 -0.035626487564933987 0 0.036924643887534643 -0.035370764683337212 0 0.036492788615316983 -0.036678317647365545 0 0.037666219600271632 -0.036366804663874833 0 0.036924643887534643 -0.035370764683337212 0 0.036492788615316983 -0.036678317647365545 0 0.035774614872669357 -0.036170691023259642 0 0.036492788615316983 -0.036678317647365545 0 0.035705279319043152 -0.037116738784598785 0 0.036103481072854007 -0.037818315302720666 0 0.036492788615316983 -0.036678317647365545 0 0.037653299145225728 -0.037470519171017451 0 0.036103481072854007 -0.037818315302720666 0 0.036492788615316983 -0.036678317647365545 0 0.037653299145225728 -0.037470519171017451 0 0.037666219600271632 -0.036366804663874833 0 0.037653299145225728 -0.037470519171017451 0 0.037666219600271632 -0.036366804663874833 0 0.038996151964145985 -0.036434006319524481 0 0.037653299145225728 -0.037470519171017451 0 0.038996151964145985 -0.036434006319524481 0 0.038608060796479958 -0.03855065396624132 0 0.038988417602197595 -0.036167735783678046 0 0.039229443504434365 -0.038585994318055143 0 0.038996151964145985 -0.036434006319524481 0 0.039895017276545576 -0.036795636789541203 0 0.039561158879035566 -0.037157301686159445 0 0.038996151964145985 -0.036434006319524481 0 0.038357920560626438 -0.035626487564933987 0 0.03954220524939743 -0.03581845840591643 0 0.037666219600271632 -0.036366804663874833 0 0.038996151964145985 -0.036434006319524481 0 0.038357920560626438 -0.035626487564933987 0 0.039245921471377287 -0.034960495985106158 0 0.038118194220754853 -0.034618858079290063 0 0.038357920560626438 -0.035626487564933987 0 0.039245921471377287 -0.034960495985106158 0 0.038357920560626438 -0.035626487564933987 0 0.03954220524939743 -0.03581845840591643 0 0.038996151964145985 -0.036434006319524481 0 0.03954220524939743 -0.03581845840591643 0 0.040218537643120021 -0.036342058974071563 0 0.040250785001272431 -0.035403953166411241 0 0.03954220524939743 -0.03581845840591643 0 0.040218537643120021 -0.036342058974071563 0 0.039245921471377287 -0.034960495985106158 0 0.040250785001272431 -0.035403953166411241 0 0.03954220524939743 -0.03581845840591643 0 0.041788904571168087 -0.035476785816478763 0 0.040250785001272431 -0.035403953166411241 0 0.040218537643120021 -0.036342058974071563 0 0.038996151964145985 -0.036434006319524481 0 0.040218537643120021 -0.036342058974071563 0 0.039895017276545576 -0.036795636789541203 0 0.039895017276545576 -0.036795636789541203 0 0.040402422772856418 -0.036635125679062921 0 0.040064197246012304 -0.037102936594970652 0 0.040218537643120021 -0.036342058974071563 0 0.039895017276545576 -0.036795636789541203 0 0.040402422772856418 -0.036635125679062921 0 0.040402422772856418 -0.036635125679062921 0 0.040835383352300685 -0.036420849363100589 0 0.040602505080042005 -0.037119283472893345 0 0.040633752863627644 -0.036059775884874259 0 0.040402422772856418 -0.036635125679062921 0 0.040835383352300685 -0.036420849363100589 0 0.065871218132417794 -0.031952448137229222 0 0.064747756066182313 -0.032798508518450814 0 0.064404332178796833 -0.03006009703717542 0 0.040633752863627644 -0.036059775884874259 0 0.040218537643120021 -0.036342058974071563 0 0.040402422772856418 -0.036635125679062921 0 0.048589372206726274 -0.036024604451066436 0 0.039070106917850865 -0.037336510681510754 0 0.048589372206726274 -0.036024604451066436 0 0.055118985486478117 -0.032626630769251715 0 0.02942140506188122 -0.032750081715674964 0 0.031619233160243912 -0.03378135455395892 0 0.03413794686854088 -0.032466571680900058 0 0.031619233160243912 -0.03378135455395892 0 0.029783783106795012 -0.033682067869677229 0 0.030294543019639769 -0.034582761482343898 0 0.031619233160243912 -0.03378135455395892 0 0.030294543019639769 -0.034582761482343898 0 0.031838202245621797 -0.035032738712417424 0 0.02942140506188122 -0.032750081715674964 0 0.031619233160243912 -0.03378135455395892 0 0.029783783106795012 -0.033682067869677229 0 0.029783783106795012 -0.033682067869677229 0 0.028346808939520164 -0.033469018469013283 0 0.030294543019639769 -0.034582761482343898 0 0.02942140506188122 -0.032750081715674964 0 0.029783783106795012 -0.033682067869677229 0 0.028346808939520164 -0.033469018469013283 0 0.028615096053216202 -0.034678278831284652 0 0.027120081021824782 -0.033291176420238669 0 0.026299606819036439 -0.033874204058119951 0 0.029088025199702893 -0.033733800939949397 0 0.026572683654479647 -0.033901137524771051 0 0.02942140506188122 -0.032750081715674964 0 0.028346808939520164 -0.033469018469013283 0 0.026299606819036439 -0.033874204058119951 0 0.028346808939520164 -0.033469018469013283 0 0.026999691828457701 -0.033921538200903822 0 0.026299606819036439 -0.033874204058119951 0 0.028615096053216202 -0.034678278831284652 0 0.027120081021824782 -0.033291176420238669 0 0.028528819109626135 -0.033263588320893801 0 0.028733849986586932 -0.031235994668636267 0 0.027120081021824782 -0.033291176420238669 0 0.028528819109626135 -0.033263588320893801 0 0.028733849986586932 -0.031235994668636267 0 0.028528819109626135 -0.033263588320893801 0 0.029839878543429631 -0.033443850907052708 0 0.028615096053216202 -0.034678278831284652 0 0.029839878543429631 -0.033443850907052708 0 0.03206439856381299 -0.034865910523144909 0 0.028615096053216202 -0.034678278831284652 0 0.028528819109626135 -0.033263588320893801 0 0.029839878543429631 -0.033443850907052708 0 0.031415071503869338 -0.032518536145202344 0 0.03206439856381299 -0.034865910523144909 0 0.033731512086920955 -0.033009495738713202 0 0.031415071503869338 -0.032518536145202344 0 0.029839878543429631 -0.033443850907052708 0 0.03206439856381299 -0.034865910523144909 0 0.037168520606862723 -0.032948874488063572 0 0.03413794686854088 -0.032466571680900058 0 0.035437747337631713 -0.033526350463318484 0 0.036652964812936062 -0.033668534814074377 0 0.0330555328563088 -0.033671494863555411 0 0.036154578569854143 -0.034440884832055652 0 0.03206439856381299 -0.034865910523144909 0 0.033731512086920955 -0.033009495738713202 0 0.03621410331473443 -0.031850993010950082 0 0.036154578569854143 -0.034440884832055652 0 0.033731512086920955 -0.033009495738713202 0 0.03597940217125517 -0.034436511850413132 0 0.034324618129719306 -0.03445680429064716 0 0.035518608183499709 -0.035209782540346006 0 0.035437747337631713 -0.033526350463318484 0 0.03597940217125517 -0.034436511850413132 0 0.034324618129719306 -0.03445680429064716 0 0.036907171097840322 -0.034270798540114375 0 0.035437747337631713 -0.033526350463318484 0 0.03597940217125517 -0.034436511850413132 0 0.029088025199702893 -0.033733800939949397 0 0.0330555328563088 -0.033671494863555411 0 0.031619233160243912 -0.03378135455395892 0 0.03413794686854088 -0.032466571680900058 0 0.033692499384986863 -0.033635020068138961 0 0.03413794686854088 -0.032466571680900058 0 0.035437747337631713 -0.033526350463318484 0 0.033692499384986863 -0.033635020068138961 0 0.033692499384986863 -0.033635020068138961 0 0.034324618129719306 -0.03445680429064716 0 0.032616218631805804 -0.034247543199893302 0 0.035437747337631713 -0.033526350463318484 0 0.033692499384986863 -0.033635020068138961 0 0.034324618129719306 -0.03445680429064716 0 0.031619233160243912 -0.03378135455395892 0 0.032616218631805804 -0.034247543199893302 0 0.031838202245621797 -0.035032738712417424 0 0.034324618129719306 -0.03445680429064716 0 0.032616218631805804 -0.034247543199893302 0 0.033022427220426365 -0.035030866177114518 0 0.031619233160243912 -0.03378135455395892 0 0.033692499384986863 -0.033635020068138961 0 0.032616218631805804 -0.034247543199893302 0 0.032616218631805804 -0.034247543199893302 0 0.033022427220426365 -0.035030866177114518 0 0.031838202245621797 -0.035032738712417424 0 0.033022427220426365 -0.035030866177114518 0 0.032515519990393933 -0.035734472142289156 0 0.031838202245621797 -0.035032738712417424 0 0.033022427220426365 -0.035030866177114518 0 0.033759145079204682 -0.035682700465222837 0 0.032515519990393933 -0.035734472142289156 0 0.034324618129719306 -0.03445680429064716 0 0.033759145079204682 -0.035682700465222837 0 0.034861416987182717 -0.035842926212179022 0 0.034324618129719306 -0.03445680429064716 0 0.033022427220426365 -0.035030866177114518 0 0.033759145079204682 -0.035682700465222837 0 0.033759145079204682 -0.035682700465222837 0 0.034185779927447209 -0.036416390093506543 0 0.034861416987182717 -0.035842926212179022 0 0.033759145079204682 -0.035682700465222837 0 0.034185779927447209 -0.036416390093506543 0 0.033165717048510672 -0.03622797749573492 0 0.033165717048510672 -0.03622797749573492 0 0.032515519990393933 -0.035734472142289156 0 0.031586831858744474 -0.036284722762521066 0 0.033165717048510672 -0.03622797749573492 0 0.033652517503208523 -0.036862120903591838 0 0.031586831858744474 -0.036284722762521066 0 0.033759145079204682 -0.035682700465222837 0 0.033165717048510672 -0.03622797749573492 0 0.032515519990393933 -0.035734472142289156 0 0.036924643887534643 -0.035370764683337212 0 0.03597940217125517 -0.034436511850413132 0 0.035518608183499709 -0.035209782540346006 0 0.036924643887534643 -0.035370764683337212 0 0.035518608183499709 -0.035209782540346006 0 0.035774614872669357 -0.036170691023259642 0 0.034324618129719306 -0.03445680429064716 0 0.035518608183499709 -0.035209782540346006 0 0.034861416987182717 -0.035842926212179022 0 0.034861416987182717 -0.035842926212179022 0 0.035774614872669357 -0.036170691023259642 0 0.035075698254424019 -0.036673126111444271 0 0.035518608183499709 -0.035209782540346006 0 0.034861416987182717 -0.035842926212179022 0 0.035774614872669357 -0.036170691023259642 0 0.034185779927447209 -0.036416390093506543 0 0.034861416987182717 -0.035842926212179022 0 0.035075698254424019 -0.036673126111444271 0 0.036492788615316983 -0.036678317647365545 0 0.035774614872669357 -0.036170691023259642 0 0.035705279319043152 -0.037116738784598785 0 0.035774614872669357 -0.036170691023259642 0 0.035075698254424019 -0.036673126111444271 0 0.035705279319043152 -0.037116738784598785 0 0.035075698254424019 -0.036673126111444271 0 0.035199281224885685 -0.037157813622712317 0 0.035705279319043152 -0.037116738784598785 0 0.035075698254424019 -0.036673126111444271 0 0.035199281224885685 -0.037157813622712317 0 0.034656563087016291 -0.036925113180838673 0 0.035199281224885685 -0.037157813622712317 0 0.034967006734759498 -0.037351843270454078 0 0.035531475546441552 -0.037524522103911502 0 0.035199281224885685 -0.037157813622712317 0 0.035705279319043152 -0.037116738784598785 0 0.035531475546441552 -0.037524522103911502 0 0.035705279319043152 -0.037116738784598785 0 0.035531475546441552 -0.037524522103911502 0 0.036103481072854007 -0.037818315302720666 0 0.031665274050134577 -0.036197111152422655 0 0.032468837522459458 -0.037071282897481427 0 0.033652517503208523 -0.036862120903591838 0 0.031586831858744474 -0.036284722762521066 0 0.035300665687184499 -0.037852478524833526 0 0.033652517503208523 -0.036862120903591838 0 0.034849406037793185 -0.037451017335571678 0 0.035300665687184499 -0.037852478524833526 0 0.034185779927447209 -0.036416390093506543 0 0.033165717048510672 -0.03622797749573492 0 0.033652517503208523 -0.036862120903591838 0 0.034185779927447209 -0.036416390093506543 0 0.033652517503208523 -0.036862120903591838 0 0.034656563087016291 -0.036925113180838673 0 0.034185779927447209 -0.036416390093506543 0 0.035075698254424019 -0.036673126111444271 0 0.034656563087016291 -0.036925113180838673 0 0.033652517503208523 -0.036862120903591838 0 0.034656563087016291 -0.036925113180838673 0 0.034967006734759498 -0.037351843270454078 0 0.033652517503208523 -0.036862120903591838 0 0.034967006734759498 -0.037351843270454078 0 0.034849406037793185 -0.037451017335571678 0 0.035199281224885685 -0.037157813622712317 0 0.034656563087016291 -0.036925113180838673 0 0.034967006734759498 -0.037351843270454078 0 0.031158945670583992 -0.036698333912195825 0 0.031586831858744474 -0.036284722762521066 0 0.030025270771693598 -0.036967203774349665 0 0.028987008985972749 -0.035271715503238682 0 0.028800595116332955 -0.035630546077690832 0 0.026939857408455125 -0.034054050831462346 0 0.026998530007154031 -0.034149395811787941 0 0.027337137893841415 -0.034210569025179001 0 0.026902453484348672 -0.034054011282647879 0 0.026939857408455125 -0.034054050831462346 0 0.026998530007154031 -0.034149395811787941 0 0.026902453484348672 -0.034054011282647879 0 0.026729762293549213 -0.034068952808064705 0 0.026998530007154031 -0.034149395811787941 0 0.026729762293549213 -0.034068952808064705 0 0.026485061578848671 -0.034208635688893298 0 0.026998530007154031 -0.034149395811787941 0 0.026902453484348672 -0.034054011282647879 0 0.026939857408455125 -0.034054050831462346 0 0.026967180278076208 -0.034022006800744929 0 0.026902453484348672 -0.034054011282647879 0 0.026967180278076208 -0.034022006800744929 0 0.026729762293549213 -0.034068952808064705 0 0.031158945670583992 -0.036698333912195825 0 0.031172710700379583 -0.035700721255092341 0 0.030294543019639769 -0.034582761482343898 0 0.028346808939520164 -0.033469018469013283 0 0.031158945670583992 -0.036698333912195825 0 0.030294543019639769 -0.034582761482343898 0 0.028312870502499959 -0.033450040694124127 0 0.028987008985972749 -0.035271715503238682 0 0.028346808939520164 -0.033469018469013283 0 0.026939857408455125 -0.034054050831462346 0 0.027232951966959663 -0.033953106375477368 0 0.031158945670583992 -0.036698333912195825 0 0.031586831858744474 -0.036284722762521066 0 0.031172710700379583 -0.035700721255092341 0 0.026939857408455125 -0.034054050831462346 0 0.027232951966959663 -0.033953106375477368 0 0.026967180278076208 -0.034022006800744929 0 0.031586831858744474 -0.036284722762521066 0 0.031172710700379583 -0.035700721255092341 0 0.031838202245621797 -0.035032738712417424 0 0.032515519990393933 -0.035734472142289156 0 0.031586831858744474 -0.036284722762521066 0 0.031838202245621797 -0.035032738712417424 0 0.031172710700379583 -0.035700721255092341 0 0.030294543019639769 -0.034582761482343898 0 0.031838202245621797 -0.035032738712417424 0 0.028346808939520164 -0.033469018469013283 0 0.026999691828457701 -0.033921538200903822 0 0.027232951966959663 -0.033953106375477368 0 0.027232951966959663 -0.033953106375477368 0 0.026573491186781914 -0.034043325776502063 0 0.026967180278076208 -0.034022006800744929 0 0.026999691828457701 -0.033921538200903822 0 0.027232951966959663 -0.033953106375477368 0 0.026573491186781914 -0.034043325776502063 0 0.026999691828457701 -0.033921538200903822 0 0.026573491186781914 -0.034043325776502063 0 0.026265971918596941 -0.033974150348774511 0 0.026573491186781914 -0.034043325776502063 0 0.026729762293549213 -0.034068952808064705 0 0.025943269283533653 -0.034100137637193662 0 0.026573491186781914 -0.034043325776502063 0 0.026967180278076208 -0.034022006800744929 0 0.026729762293549213 -0.034068952808064705 0 0.026729762293549213 -0.034068952808064705 0 0.025943269283533653 -0.034100137637193662 0 0.026485061578848671 -0.034208635688893298 0 0.025943269283533653 -0.034100137637193662 0 0.025827056073274932 -0.034042318979770607 0 0.025254147636573913 -0.034051712241021756 0 0.026573491186781914 -0.034043325776502063 0 0.025943269283533653 -0.034100137637193662 0 0.025827056073274932 -0.034042318979770607 0 0.025254147636573913 -0.034051712241021756 0 0.025385552359809414 -0.034063993318764696 0 0.025032228770160828 -0.034103817869796112 0 0.025827056073274932 -0.034042318979770607 0 0.025254147636573913 -0.034051712241021756 0 0.025385552359809414 -0.034063993318764696 0 0.025385552359809414 -0.034063993318764696 0 0.025257131618038827 -0.034084968953074654 0 0.025032228770160828 -0.034103817869796112 0 0.025385552359809414 -0.034063993318764696 0 0.025500979065789162 -0.033946937637386862 0 0.025257131618038827 -0.034084968953074654 0 0.025385552359809414 -0.034063993318764696 0 0.025738929031486193 -0.03398588612095356 0 0.025500979065789162 -0.033946937637386862 0 0.025827056073274932 -0.034042318979770607 0 0.025385552359809414 -0.034063993318764696 0 0.025738929031486193 -0.03398588612095356 0 0.025738929031486193 -0.03398588612095356 0 0.025500979065789162 -0.033946937637386862 0 0.02585939889415096 -0.03382492423753812 0 0.026573491186781914 -0.034043325776502063 0 0.025827056073274932 -0.034042318979770607 0 0.026265971918596941 -0.033974150348774511 0 0.025827056073274932 -0.034042318979770607 0 0.025738929031486193 -0.03398588612095356 0 0.026265971918596941 -0.033974150348774511 0 0.025738929031486193 -0.03398588612095356 0 0.026265971918596941 -0.033974150348774511 0 0.02585939889415096 -0.03382492423753812 0 0.026999691828457701 -0.033921538200903822 0 0.026265971918596941 -0.033974150348774511 0 0.026299606819036439 -0.033874204058119951 0 0.027120081021824782 -0.033291176420238669 0 0.026299606819036439 -0.033874204058119951 0 0.026021397633998713 -0.033467131708505522 0 0.026265971918596941 -0.033974150348774511 0 0.026299606819036439 -0.033874204058119951 0 0.02585939889415096 -0.03382492423753812 0 0.026299606819036439 -0.033874204058119951 0 0.02585939889415096 -0.03382492423753812 0 0.026021397633998713 -0.033467131708505522 0 0.025500979065789162 -0.033946937637386862 0 0.02585939889415096 -0.03382492423753812 0 0.025518220686072148 -0.033693989123803982 0 0.025500979065789162 -0.033946937637386862 0 0.025518220686072148 -0.033693989123803982 0 0.0252900454072543 -0.033936191055526407 0 0.02585939889415096 -0.03382492423753812 0 0.025518220686072148 -0.033693989123803982 0 0.026021397633998713 -0.033467131708505522 0 0.025518220686072148 -0.033693989123803982 0 0.025569249698224491 -0.033317510597821433 0 0.026021397633998713 -0.033467131708505522 0 0.025569249698224491 -0.033317510597821433 0 0.026172115995612949 -0.032334092107526857 0 0.025170897061957118 -0.033111829441015789 0 0.025518220686072148 -0.033693989123803982 0 0.025569249698224491 -0.033317510597821433 0 0.025259773486216504 -0.033645506120094155 0 0.027120081021824782 -0.033291176420238669 0 0.026021397633998713 -0.033467131708505522 0 0.026172115995612949 -0.032334092107526857 0 0.025569249698224491 -0.033317510597821433 0 0.026021397633998713 -0.033467131708505522 0 0.026172115995612949 -0.032334092107526857 0 0.01885710394167377 -0.04838697849263935 0 0.01835802142719142 -0.048862002848762014 0 0.018543377678975331 -0.047798797144700859 0 0.019592818440337102 -0.042362452362144677 0 0.011693270108590391 -0.056304599461121374 0 0.01885710394167377 -0.04838697849263935 0 0.018883030667072889 -0.047976183524255339 0 0.018543377678975331 -0.047798797144700859 0 0.01885710394167377 -0.04838697849263935 0 0.018883030667072889 -0.047976183524255339 0 0.019492343231463719 -0.047834198159845714 0 0.025042073536938846 -0.033639806394093329 0 0.025259773486216504 -0.033645506120094155 0 0.025170897061957118 -0.033111829441015789 0 0.022502129638315906 -0.040452438135672571 0 0.022153341377313489 -0.043326548748146863 0 0.025569249698224491 -0.033317510597821433 0 0.025259773486216504 -0.033645506120094155 0 0.025170897061957118 -0.033111829441015789 0 0.018179690288192187 -0.047307700142060524 0 0.022153341377313489 -0.043326548748146863 0 0.025042073536938846 -0.033639806394093329 0 0.025259773486216504 -0.033645506120094155 0 0.025158210003557002 -0.033954001054896557 0 0.025518220686072148 -0.033693989123803982 0 0.025259773486216504 -0.033645506120094155 0 0.0252900454072543 -0.033936191055526407 0 0.025259773486216504 -0.033645506120094155 0 0.0252900454072543 -0.033936191055526407 0 0.025158210003557002 -0.033954001054896557 0 0.025042073536938846 -0.033639806394093329 0 0.025158210003557002 -0.033954001054896557 0 0.025083699442496641 -0.034012284699512403 0 0.022502129638315906 -0.040452438135672571 0 0.019592818440337102 -0.042362452362144677 0 0.025158210003557002 -0.033954001054896557 0 0.025182746752295232 -0.034069019561308762 0 0.025083699442496641 -0.034012284699512403 0 0.025182746752295232 -0.034069019561308762 0 0.025083699442496641 -0.034012284699512403 0 0.025137086381421602 -0.034063215157449672 0 0.025182746752295232 -0.034069019561308762 0 0.02528278508609854 -0.034170896062956813 0 0.0252303621833458 -0.034114178225774047 0 0.025182746752295232 -0.034069019561308762 0 0.0252303621833458 -0.034114178225774047 0 0.025137086381421602 -0.034063215157449672 0 0.025158210003557002 -0.033954001054896557 0 0.025182746752295232 -0.034069019561308762 0 0.025222521812371571 -0.034085292730950241 0 0.025182746752295232 -0.034069019561308762 0 0.02528278508609854 -0.034170896062956813 0 0.025222521812371571 -0.034085292730950241 0 0.02528278508609854 -0.034170896062956813 0 0.025222521812371571 -0.034085292730950241 0 0.025209134815728902 -0.034174444713530532 0 0.02528278508609854 -0.034170896062956813 0 0.0252303621833458 -0.034114178225774047 0 0.025397298402876078 -0.034228581188937124 0 0.025500979065789162 -0.033946937637386862 0 0.0252900454072543 -0.033936191055526407 0 0.025257131618038827 -0.034084968953074654 0 0.0252900454072543 -0.033936191055526407 0 0.025158210003557002 -0.033954001054896557 0 0.025222521812371571 -0.034085292730950241 0 0.0252900454072543 -0.033936191055526407 0 0.025222521812371571 -0.034085292730950241 0 0.025257131618038827 -0.034084968953074654 0 0.025222521812371571 -0.034085292730950241 0 0.025257131618038827 -0.034084968953074654 0 0.025209134815728902 -0.034174444713530532 0 0.025257131618038827 -0.034084968953074654 0 0.025209134815728902 -0.034174444713530532 0 0.025032228770160828 -0.034103817869796112 0 0.025209134815728902 -0.034174444713530532 0 0.025083433336655223 -0.034073080978100058 0 0.025032228770160828 -0.034103817869796112 0 0.025365968074105259 -0.034252299825236927 0 0.025642775439431695 -0.034435379180919434 0 0.025397298402876078 -0.034228581188937124 0 0.02528278508609854 -0.034170896062956813 0 0.025365968074105259 -0.034252299825236927 0 0.025397298402876078 -0.034228581188937124 0 0.025209134815728902 -0.034174444713530532 0 0.025083433336655223 -0.034073080978100058 0 0.025365968074105259 -0.034252299825236927 0 0.02528278508609854 -0.034170896062956813 0 0.025209134815728902 -0.034174444713530532 0 0.025365968074105259 -0.034252299825236927 0 0.025083433336655223 -0.034073080978100058 0 0.025365968074105259 -0.034252299825236927 0 0.025476950415548202 -0.033978974103362404 0 0.025365968074105259 -0.034252299825236927 0 0.025642775439431695 -0.034435379180919434 0 0.025476950415548202 -0.033978974103362404 0 0.026044644650701717 -0.034643674184083581 0 0.024795664454940743 -0.033691857276262879 0 0.025642775439431695 -0.034435379180919434 0 0.025397298402876078 -0.034228581188937124 0 0.025226384261134285 -0.034119042644051807 0 0.025642775439431695 -0.034435379180919434 0 0.024805882637747217 -0.034419698750995362 0 0.025226384261134285 -0.034119042644051807 0 0.02418315046909629 -0.034320715808304494 0 0.02359582223670573 -0.033922393179390622 0 0.024218076318037858 -0.035421417251879098 0 0.02418315046909629 -0.034320715808304494 0 0.024805882637747217 -0.034419698750995362 0 0.024218076318037858 -0.035421417251879098 0 0.025642775439431695 -0.034435379180919434 0 0.024805882637747217 -0.034419698750995362 0 0.024218076318037858 -0.035421417251879098 0 0.018267737442288719 -0.037134830068382481 0 0.024795664454940743 -0.033691857276262879 0 0.020958608447653529 -0.036484279306352889 0 0.020650570379849884 -0.03456372663644474 0 0.020376063437431147 -0.034725051871567575 0 0.02418315046909629 -0.034320715808304494 0 0.024805882637747217 -0.034419698750995362 0 0.024652425366266342 -0.033925361840195095 0 0.02418315046909629 -0.034320715808304494 0 0.024570153689514946 -0.033939840756648458 0 0.02359582223670573 -0.033922393179390622 0 0.021851193918511452 -0.037027650501191382 0 0.016495134435634908 -0.041477154055416708 0 0.024570153689514946 -0.033939840756648458 0 0.02359582223670573 -0.033922393179390622 0 0.023498245909542741 -0.033705289420962313 0 0.016097702293269588 -0.044476795741632665 0 0.019110171837538499 -0.045187579661499215 0 0.016719389567378961 -0.046522721192797718 0 0.024654392785168015 -0.034039460518714058 0 0.021851193918511452 -0.037027650501191382 0 0.021851193918511452 -0.037027650501191382 0 0.019592818440337102 -0.042362452362144677 0 0.025178439276640249 -0.034136831336690945 0 0.025125607868807687 -0.03405933121062539 0 0.025137086381421602 -0.034063215157449672 0 0.016097702293269588 -0.044476795741632665 0 0.012837671329914865 -0.047666618367137634 0 0.016719389567378961 -0.046522721192797718 0 0.025178439276640249 -0.034136831336690945 0 0.0252303621833458 -0.034114178225774047 0 0.025137086381421602 -0.034063215157449672 0 0.025178439276640249 -0.034136831336690945 0 0.0252303621833458 -0.034114178225774047 0 0.025226384261134285 -0.034119042644051807 0 0.0252303621833458 -0.034114178225774047 0 0.025397298402876078 -0.034228581188937124 0 0.025226384261134285 -0.034119042644051807 0 0.024805882637747217 -0.034419698750995362 0 0.024652425366266342 -0.033925361840195095 0 0.025226384261134285 -0.034119042644051807 0 0.021851193918511452 -0.037027650501191382 0 0.025113997427265757 -0.035440289891324868 0 0.014719539652906136 -0.037556630747341023 0 0.014681722748325837 -0.036862873366871732 0 0.014240223133813542 -0.037161368996737394 0 0.014719539652906136 -0.037556630747341023 0 0.014240223133813542 -0.037161368996737394 0 0.014194541406740181 -0.037735071334430291 0 0.018267737442288719 -0.037134830068382481 0 0.020989734495799613 -0.035069120120386044 0 0.014719539652906136 -0.037556630747341023 0 0.015030910527267813 -0.037045817871122828 0 0.015237747134213303 -0.037890315683883589 0 0.014719539652906136 -0.037556630747341023 0 0.015030910527267813 -0.037045817871122828 0 0.014681722748325837 -0.036862873366871732 0 0.018267737442288719 -0.037134830068382481 0 0.016495134435634908 -0.041477154055416708 0 0.019110171837538499 -0.045187579661499215 0 0.019245638179461115 -0.04651079370537281 0 0.016719389567378961 -0.046522721192797718 0 0.016495134435634908 -0.041477154055416708 0 0.012005866780061039 -0.050671789282821469 0 0.013775684574878556 -0.04320002568288555 0 0.015565010973141707 -0.048018080020182485 0 0.014378324205735257 -0.048872962251735021 0 0.016495134435634908 -0.041477154055416708 0 0.011139713624042353 -0.048658880087332941 0 0.016495134435634908 -0.041477154055416708 0 0.011839956524301304 -0.041771334007401899 0 0.013842112623296604 -0.043220928394134488 0 0.013563281254802604 -0.042511696925748646 0 0.012860945510331769 -0.043004187400270046 0 0.011139713624042353 -0.048658880087332941 0 0.012005866780061039 -0.050671789282821469 0 0.011139713624042353 -0.048658880087332941 0 0.011839956524301304 -0.041771334007401899 0 0.015030910527267813 -0.037045817871122828 0 0.014980381571192865 -0.036925231964562134 0 0.014681722748325837 -0.036862873366871732 0 0.0094433555675829221 -0.043544179900543926 0 0.011839956524301304 -0.041771334007401899 0 0.0062885300247469047 -0.049538995160038943 0 0.0062423580149772251 -0.04956744824101985 0 0.006131709948073728 -0.049498859696997514 0 0.0060157318008552708 -0.049543326444536455 0 0.0062423580149772251 -0.04956744824101985 0 0.006131709948073728 -0.049498859696997514 0 0.013655188353298401 -0.037342255831829568 0 0.013776944664064726 -0.037455893038659677 0 0.013728249743126704 -0.037471386515046744 0 0.011839956524301304 -0.041771334007401899 0 0.014632730572833817 -0.036918228224012306 0 0.0059590087870592884 -0.049436748833802578 0 0.006131709948073728 -0.049498859696997514 0 0.0061594395908824654 -0.04940928580891437 0 0.0062885300247469047 -0.049538995160038943 0 0.006131709948073728 -0.049498859696997514 0 0.0061594395908824654 -0.04940928580891437 0 0.012005866780061039 -0.050671789282821469 0 0.0070153319669518195 -0.058407569663644479 0 0.0077960678596819041 -0.060317715666708564 0 0.0077476940089041919 -0.060555691079297341 0 0.0076439578203259502 -0.060637205218240842 0 0.011139713624042353 -0.048658880087332941 0 0.0065413570584524948 -0.051510679895832905 0 0.0062513755037891267 -0.051557372831072805 0 0.0067617453966188181 -0.054830588184655381 0 0.0076003381615023522 -0.054811899541511812 0 0.006484172607279768 -0.051389717829130536 0 0.0062513755037891267 -0.051557372831072805 0 0.0076003381615023522 -0.054811899541511812 0 0.0067617453966188181 -0.054830588184655381 0 0.0076003381615023522 -0.054811899541511812 0 0.0073316646195328381 -0.058023757622960588 0 0.012837671329914865 -0.047666618367137634 0 0.016719389567378961 -0.046522721192797718 0 0.015326139830211452 -0.049423821993269126 0 0.019592818440337102 -0.042362452362144677 0 0.021273266914559285 -0.038443524770998654 0 0.012005866780061039 -0.050671789282821469 0 0.011302118512995547 -0.055531691795002745 0 0.019245638179461115 -0.04651079370537281 0 0.016719389567378961 -0.046522721192797718 0 0.015326139830211452 -0.049423821993269126 0 0.0077476940089041919 -0.060555691079297341 0 0.0076439578203259502 -0.060637205218240842 0 0.0075140427157054344 -0.060659210461937264 0 0.011302118512995547 -0.055531691795002745 0 0.011693270108590391 -0.056304599461121374 0 0.012837671329914865 -0.047666618367137634 0 0.015326139830211452 -0.049423821993269126 0 0.011294465921325911 -0.052417096203925005 0 0.0076439578203259502 -0.060637205218240842 0 0.0075140427157054344 -0.060659210461937264 0 0.0081724037198069813 -0.060708893487182163 0 0.0075140427157054344 -0.060659210461937264 0 0.0080403512679552442 -0.060199890996142591 0 0.0081724037198069813 -0.060708893487182163 0 0.0075140427157054344 -0.060659210461937264 0 0.0067862019059328352 -0.060124738497041627 0 0.0076009107362963483 -0.059842277287126912 0 0.0080403512679552442 -0.060199890996142591 0 0.0076009107362963483 -0.059842277287126912 0 0.0081782299074880001 -0.059418658027585176 0 0.0075140427157054344 -0.060659210461937264 0 0.0080403512679552442 -0.060199890996142591 0 0.0076009107362963483 -0.059842277287126912 0 0.0065413570584524948 -0.051510679895832905 0 0.0047389058630450936 -0.058197741423330604 0 0.0059687489844558305 -0.049342083216950751 0 0.0061594395908824654 -0.04940928580891437 0 0.0060512377795319278 -0.04928711068715784 0 0.0076003381615023522 -0.054811899541511812 0 0.0087662152863994189 -0.058150682990239233 0 0.0073316646195328381 -0.058023757622960588 0 0.0047389058630450936 -0.058197741423330604 0 0.0062452875623156007 -0.060582215649574465 0 0.0077476940089041919 -0.060555691079297341 0 0.0075140427157054344 -0.060659210461937264 0 0.0077479684370728137 -0.06070016627295137 0 0.0070153319669518195 -0.058407569663644479 0 0.0062452875623156007 -0.060582215649574465 0 0.0076135378661981272 -0.060781812256629666 0 0.0062452875623156007 -0.060582215649574465 0 0.0067862019059328352 -0.060124738497041627 0 0.0055122661654450674 -0.061041041793395721 0 0.0058643990974509563 -0.060019614938307091 0 0.0075140427157054344 -0.060659210461937264 0 0.0067862019059328352 -0.060124738497041627 0 0.0055122661654450674 -0.061041041793395721 0 0.0067862019059328352 -0.060124738497041627 0 0.0058643990974509563 -0.060019614938307091 0 0.0063290598816795095 -0.059399574384085385 0 0.0055122661654450674 -0.061041041793395721 0 0.0058643990974509563 -0.060019614938307091 0 0.0044590415085281583 -0.059288064897740682 0 0.0062452875623156007 -0.060582215649574465 0 0.0043921957014173407 -0.060189308951097274 0 0.0035680939277051692 -0.063883259326341243 0 0.0053953558514393965 -0.064035966916203446 0 0.0044590415085281583 -0.059288064897740682 0 0.0015988709679810784 -0.058988096094245594 0 0.0035680939277051692 -0.063883259326341243 0 0.0044590415085281583 -0.059288064897740682 0 0.0024699887501448865 -0.058035994354329767 0 0.0015988709679810784 -0.058988096094245594 0 0.0044590415085281583 -0.059288064897740682 0 0.0058643990974509563 -0.060019614938307091 0 0.0044590415085281583 -0.059288064897740682 0 0.0063290598816795095 -0.059399574384085385 0 0.0044590415085281583 -0.059288064897740682 0 0.0060429922696618611 -0.058731578946083676 0 0.0063290598816795095 -0.059399574384085385 0 0.0060429922696618611 -0.058731578946083676 0 0.0063290598816795095 -0.059399574384085385 0 0.0066235341882377461 -0.058920102396697586 0 0.0057154949002082966 -0.058166906704144997 0 0.0060429922696618611 -0.058731578946083676 0 0.006426619096169997 -0.058435391733207866 0 0.0060429922696618611 -0.058731578946083676 0 0.0066235341882377461 -0.058920102396697586 0 0.006426619096169997 -0.058435391733207866 0 0.0049144921817255551 -0.056819509561992027 0 0.0059486434866593083 -0.058627605760179093 0 0.0038773721560372127 -0.055601324000838163 0 0.0044590415085281583 -0.059288064897740682 0 0.0060429922696618611 -0.058731578946083676 0 0.0024699887501448865 -0.058035994354329767 0 0.0038773721560372127 -0.055601324000838163 0 0.0044590415085281583 -0.059288064897740682 0 0.0076009107362963483 -0.059842277287126912 0 0.0076643757068215346 -0.058920159046229138 0 0.0081782299074880001 -0.059418658027585176 0 0.0076009107362963483 -0.059842277287126912 0 0.0070423763387518672 -0.059309177659988534 0 0.0076643757068215346 -0.058920159046229138 0 0.0076643757068215346 -0.058920159046229138 0 0.0082013192334664774 -0.058644771415461927 0 0.0081782299074880001 -0.059418658027585176 0 0.0067862019059328352 -0.060124738497041627 0 0.0076009107362963483 -0.059842277287126912 0 0.0070423763387518672 -0.059309177659988534 0 0.0067862019059328352 -0.060124738497041627 0 0.0063290598816795095 -0.059399574384085385 0 0.0070423763387518672 -0.059309177659988534 0 0.0066235341882377461 -0.058920102396697586 0 0.0070423763387518672 -0.059309177659988534 0 0.0069896590037726381 -0.058658893666653313 0 0.0063290598816795095 -0.059399574384085385 0 0.0066235341882377461 -0.058920102396697586 0 0.0070423763387518672 -0.059309177659988534 0 0.0070423763387518672 -0.059309177659988534 0 0.0069896590037726381 -0.058658893666653313 0 0.0076643757068215346 -0.058920159046229138 0 0.0069896590037726381 -0.058658893666653313 0 0.0074876083732348135 -0.058441834057363355 0 0.0076643757068215346 -0.058920159046229138 0 0.0066235341882377461 -0.058920102396697586 0 0.006426619096169997 -0.058435391733207866 0 0.0069896590037726381 -0.058658893666653313 0 0.007077408642308115 -0.058238218154883746 0 0.006426619096169997 -0.058435391733207866 0 0.0069896590037726381 -0.058658893666653313 0 0.007077408642308115 -0.058238218154883746 0 0.0069896590037726381 -0.058658893666653313 0 0.0074876083732348135 -0.058441834057363355 0 0.0079734567488892634 -0.05835489254143799 0 0.0074876083732348135 -0.058441834057363355 0 0.0076643757068215346 -0.058920159046229138 0 0.0079734567488892634 -0.05835489254143799 0 0.0076643757068215346 -0.058920159046229138 0 0.0082013192334664774 -0.058644771415461927 0 0.0079734567488892634 -0.05835489254143799 0 0.008337045853009168 -0.058317355026538044 0 0.0082013192334664774 -0.058644771415461927 0 0.008337045853009168 -0.058317355026538044 0 0.0085987165188154187 -0.058304076632911282 0 0.0082013192334664774 -0.058644771415461927 0 0.0085987165188154187 -0.058304076632911282 0 0.0085217053157629671 -0.058886948195587853 0 0.0082013192334664774 -0.058644771415461927 0 0.0085217053157629671 -0.058886948195587853 0 0.0081782299074880001 -0.059418658027585176 0 0.0087540773143565138 -0.060048101405221314 0 0.0085217053157629671 -0.058886948195587853 0 0.0082013192334664774 -0.058644771415461927 0 0.0081782299074880001 -0.059418658027585176 0 0.010771114961398242 -0.060300277426900722 0 0.0097857621714366703 -0.058537674862413264 0 0.011553977547050313 -0.058944306511731388 0 0.0085217053157629671 -0.058886948195587853 0 0.0097857621714366703 -0.058537674862413264 0 0.0087540773143565138 -0.060048101405221314 0 0.0099936077350094403 -0.058026312252458981 0 0.0084974477842980727 -0.061957769849782046 0 0.010771114961398242 -0.060300277426900722 0 0.0097857621714366703 -0.058537674862413264 0 0.0094301389419512039 -0.06128558225186502 0 0.010995797247439449 -0.055166460930587941 0 0.0085987165188154187 -0.058304076632911282 0 0.0097857621714366703 -0.058537674862413264 0 0.0085987165188154187 -0.058304076632911282 0 0.0085217053157629671 -0.058886948195587853 0 0.0097857621714366703 -0.058537674862413264 0 0.0097857621714366703 -0.058537674862413264 0 0.011553977547050313 -0.058944306511731388 0 0.01285955418878143 -0.057664278713676471 0 0.010995797247439449 -0.055166460930587941 0 0.0097857621714366703 -0.058537674862413264 0 0.01285955418878143 -0.057664278713676471 0 0.011553977547050313 -0.058944306511731388 0 0.01285955418878143 -0.057664278713676471 0 0.0141850935204785 -0.060306870987150242 0 0.01772878334670603 -0.057944726356832142 0 0.01285955418878143 -0.057664278713676471 0 0.0141850935204785 -0.060306870987150242 0 0.010771114961398242 -0.060300277426900722 0 0.011553977547050313 -0.058944306511731388 0 0.0141850935204785 -0.060306870987150242 0 0.01891533025849066 -0.052081530051507306 0 0.016194058307202098 -0.053920953992846105 0 0.010771114961398242 -0.060300277426900722 0 0.0141850935204785 -0.060306870987150242 0 0.010992464662189621 -0.062055038025067011 0 0.023286739492842802 -0.044085174516160737 0 0.020568776188677161 -0.046158474214201994 0 0.023029568686758418 -0.04758564626873002 0 0.020568776188677161 -0.046158474214201994 0 0.023029568686758418 -0.04758564626873002 0 0.020169510797306882 -0.047706906893458662 0 0.024748163869327929 -0.039535099346634815 0 0.022153341377313489 -0.043326548748146863 0 0.023029568686758418 -0.04758564626873002 0 0.020169510797306882 -0.047706906893458662 0 0.019948233820789318 -0.047896839211376066 0 0.020169510797306882 -0.047706906893458662 0 0.01998641995906527 -0.047858709821403521 0 0.018543377678975331 -0.047798797144700859 0 0.020568776188677161 -0.046158474214201994 0 0.020169510797306882 -0.047706906893458662 0 0.018543377678975331 -0.047798797144700859 0 0.016194058307202098 -0.053920953992846105 0 0.011693270108590391 -0.056304599461121374 0 0.021354820023345721 -0.044298444049324093 0 0.022153341377313489 -0.043326548748146863 0 0.011693270108590391 -0.056304599461121374 0 0.0084974477842980727 -0.061957769849782046 0 0.018883030667072889 -0.047976183524255339 0 0.01998641995906527 -0.047858709821403521 0 0.018543377678975331 -0.047798797144700859 0 0.0080403512679552442 -0.060199890996142591 0 0.0081724037198069813 -0.060708893487182163 0 0.0087540773143565138 -0.060048101405221314 0 0.0080403512679552442 -0.060199890996142591 0 0.0081782299074880001 -0.059418658027585176 0 0.0087540773143565138 -0.060048101405221314 0 0.010992464662189621 -0.062055038025067011 0 0.008806434682911252 -0.063380535341085772 0 0.0094301389419512039 -0.06128558225186502 0 0.010771114961398242 -0.060300277426900722 0 0.010992464662189621 -0.062055038025067011 0 0.0094301389419512039 -0.06128558225186502 0 0.056340027687753348 -0.043037252258015544 0 0.054999730668084966 -0.044275837603915881 0 0.056335269281282865 -0.041659236399338287 0 0.054952471942440351 -0.045821606454519714 0 0.054999033579775064 -0.044279498563567908 0 0.054999730668084966 -0.044275837603915881 0 0.056335269281282865 -0.041659236399338287 0 0.05499930594588831 -0.041194174779685615 0 0.056335269281282865 -0.041659236399338287 0 0.057174726756832321 -0.040701207962545262 0 0.057172804405366207 -0.041794354013223102 0 0.057172804405366207 -0.041794354013223102 0 0.057776319493509823 -0.041900879216663398 0 0.057812840296188966 -0.041109892374063067 0 0.057174726756832321 -0.040701207962545262 0 0.057172804405366207 -0.041794354013223102 0 0.057812840296188966 -0.041109892374063067 0 0.057172804405366207 -0.041794354013223102 0 0.057289541411591607 -0.042467461651526046 0 0.057776319493509823 -0.041900879216663398 0 0.056340027687753348 -0.043037252258015544 0 0.056335269281282865 -0.041659236399338287 0 0.057172804405366207 -0.041794354013223102 0 0.056340027687753348 -0.043037252258015544 0 0.057172804405366207 -0.041794354013223102 0 0.057289541411591607 -0.042467461651526046 0 0.054201479290924968 -0.048671443053610645 0 0.052509788240140083 -0.05199413812331305 0 0.053078205290783539 -0.051033770614360464 0 0.054952471942440351 -0.045821606454519714 0 0.054662797839485827 -0.047081203869360301 0 0.054662797839485827 -0.047081203869360301 0 0.054826538367581855 -0.048780152022610719 0 0.052509788240140083 -0.05199413812331305 0 0.052009931124648794 -0.052162792916807893 0 0.053078205290783539 -0.051033770614360464 0 0.052509788240140083 -0.05199413812331305 0 0.052009931124648794 -0.052162792916807893 0 0.051427232200477339 -0.053029711638498858 0 0.052009931124648794 -0.052162792916807893 0 0.051275555787932442 -0.052702196176657772 0 0.051427232200477339 -0.053029711638498858 0 0.052009931124648794 -0.052162792916807893 0 0.051717147288907209 -0.052162225248724603 0 0.051275555787932442 -0.052702196176657772 0 0.052009931124648794 -0.052162792916807893 0 0.051717147288907209 -0.052162225248724603 0 0.053078205290783539 -0.051033770614360464 0 0.053078205290783539 -0.051033770614360464 0 0.054201374155098896 -0.049937892520668992 0 0.05249707489834219 -0.051847282466837896 0 0.051717147288907209 -0.052162225248724603 0 0.053078205290783539 -0.051033770614360464 0 0.05249707489834219 -0.051847282466837896 0 0.054997650346705979 -0.044291350199507244 0 0.054201374155098896 -0.049937892520668992 0 0.05499545960431803 -0.050512128654769346 0 0.054201479290924968 -0.048671443053610645 0 0.053078205290783539 -0.051033770614360464 0 0.054201374155098896 -0.049937892520668992 0 0.054201479290924968 -0.048671443053610645 0 0.054997650346705979 -0.044291350199507244 0 0.054201374155098896 -0.049937892520668992 0 0.054201374155098896 -0.049937892520668992 0 0.053081815900124278 -0.052604735995210893 0 0.05249707489834219 -0.051847282466837896 0 0.054201374155098896 -0.049937892520668992 0 0.05499545960431803 -0.050512128654769346 0 0.053081815900124278 -0.052604735995210893 0 0.05499545960431803 -0.050512128654769346 0 0.054998564542974505 -0.054997071717507853 0 0.053081815900124278 -0.052604735995210893 0 0.054998564542974505 -0.054997071717507853 0 0.053081815900124278 -0.052604735995210893 0 0.049507572109917575 -0.054996607890455365 0 0.053081815900124278 -0.052604735995210893 0 0.049507572109917575 -0.054996607890455365 0 0.050908408970321312 -0.053001056051255907 0 0.049507572109917575 -0.054996607890455365 0 0.050908408970321312 -0.053001056051255907 0 0.048851363028255275 -0.053457023539284956 0 0.050908408970321312 -0.053001056051255907 0 0.05249707489834219 -0.051847282466837896 0 0.050396911185878343 -0.052642038568961311 0 0.053081815900124278 -0.052604735995210893 0 0.050908408970321312 -0.053001056051255907 0 0.05249707489834219 -0.051847282466837896 0 0.051717147288907209 -0.052162225248724603 0 0.05249707489834219 -0.051847282466837896 0 0.050396911185878343 -0.052642038568961311 0 0.050396911185878343 -0.052642038568961311 0 0.049102976255028435 -0.053051087513590403 0 0.048865411688356668 -0.052994588136330727 0 0.051717147288907209 -0.052162225248724603 0 0.050396911185878343 -0.052642038568961311 0 0.049987692931208652 -0.053070930394161601 0 0.050396911185878343 -0.052642038568961311 0 0.049102976255028435 -0.053051087513590403 0 0.049987692931208652 -0.053070930394161601 0 0.049102976255028435 -0.053051087513590403 0 0.047864233014874302 -0.052946104183291758 0 0.048253189861767729 -0.053451182360728058 0 0.049102976255028435 -0.053051087513590403 0 0.048865411688356668 -0.052994588136330727 0 0.047864233014874302 -0.052946104183291758 0 0.049102976255028435 -0.053051087513590403 0 0.048253189861767729 -0.053451182360728058 0 0.04902205996966251 -0.05359710598603859 0 0.048865411688356668 -0.052994588136330727 0 0.047642736631934697 -0.053113295636720542 0 0.047864233014874302 -0.052946104183291758 0 0.050908408970321312 -0.053001056051255907 0 0.050396911185878343 -0.052642038568961311 0 0.048851363028255275 -0.053457023539284956 0 0.050396911185878343 -0.052642038568961311 0 0.048865411688356668 -0.052994588136330727 0 0.048851363028255275 -0.053457023539284956 0 0.049507572109917575 -0.054996607890455365 0 0.048851363028255275 -0.053457023539284956 0 0.045604798315682822 -0.054995032799349607 0 0.048865411688356668 -0.052994588136330727 0 0.048851363028255275 -0.053457023539284956 0 0.047642736631934697 -0.053113295636720542 0 0.048851363028255275 -0.053457023539284956 0 0.047642736631934697 -0.053113295636720542 0 0.045604798315682822 -0.054995032799349607 0 0.042923605975908982 -0.055459815059730855 0 0.043021651927759232 -0.054999994086764058 0 0.040447579132381187 -0.054999974395876318 0 0.045234170625725677 -0.054375263505522659 0 0.041734379624504256 -0.054279358658732881 0 0.04710797368760828 -0.053251393788714255 0 0.046577781705492816 -0.052707752869099546 0 0.046396802071612703 -0.052571707250969914 0 0.047642736631934697 -0.053113295636720542 0 0.045604798315682822 -0.054995032799349607 0 0.04710797368760828 -0.053251393788714255 0 0.045594949736666723 -0.054999808978588173 0 0.045234170625725677 -0.054375263505522659 0 0.04559574391381533 -0.054999999362420095 0 0.042923605975908982 -0.055459815059730855 0 0.043021651927759232 -0.054999994086764058 0 0.047642736631934697 -0.053113295636720542 0 0.04710797368760828 -0.053251393788714255 0 0.047220614872707123 -0.052833509820717668 0 0.04710797368760828 -0.053251393788714255 0 0.047220614872707123 -0.052833509820717668 0 0.046577781705492816 -0.052707752869099546 0 0.047220614872707123 -0.052833509820717668 0 0.046577781705492816 -0.052707752869099546 0 0.046218948838758329 -0.052834183904866508 0 0.047220614872707123 -0.052833509820717668 0 0.046218948838758329 -0.052834183904866508 0 0.047864233014874302 -0.052946104183291758 0 0.047642736631934697 -0.053113295636720542 0 0.047220614872707123 -0.052833509820717668 0 0.047864233014874302 -0.052946104183291758 0 0.047864233014874302 -0.052946104183291758 0 0.048253189861767729 -0.053451182360728058 0 0.046988425269896605 -0.053559419296344696 0 0.046218948838758329 -0.052834183904866508 0 0.047864233014874302 -0.052946104183291758 0 0.046988425269896605 -0.053559419296344696 0 0.046218948838758329 -0.052834183904866508 0 0.046988425269896605 -0.053559419296344696 0 0.045041609611388804 -0.053942027025796112 0 0.046988425269896605 -0.053559419296344696 0 0.046283409702625254 -0.054746580542990288 0 0.047946484844611406 -0.054128232632631924 0 0.046988425269896605 -0.053559419296344696 0 0.046283409702625254 -0.054746580542990288 0 0.045041609611388804 -0.053942027025796112 0 0.046283409702625254 -0.054746580542990288 0 0.047856995402796372 -0.055458288834689756 0 0.044043543548564906 -0.056438381560023419 0 0.052124781495257476 -0.051146229667154229 0 0.049445190956820206 -0.050927587999032214 0 0.0560257168032606 -0.046739882257501184 0 0.056830828447844088 -0.046400734976927017 0 0.05503768116753277 -0.045627342957333769 0 0.0560257168032606 -0.046739882257501184 0 0.056830828447844088 -0.046400734976927017 0 0.057118381458143075 -0.046956325748625481 0 0.047856995402796372 -0.055458288834689756 0 0.047946484844611406 -0.054128232632631924 0 0.048762546029072949 -0.054291834328409221 0 0.046283409702625254 -0.054746580542990288 0 0.047856995402796372 -0.055458288834689756 0 0.047946484844611406 -0.054128232632631924 0 0.047946484844611406 -0.054128232632631924 0 0.04902205996966251 -0.05359710598603859 0 0.048762546029072949 -0.054291834328409221 0 0.048253189861767729 -0.053451182360728058 0 0.046988425269896605 -0.053559419296344696 0 0.047946484844611406 -0.054128232632631924 0 0.048253189861767729 -0.053451182360728058 0 0.047946484844611406 -0.054128232632631924 0 0.04902205996966251 -0.05359710598603859 0 0.049102976255028435 -0.053051087513590403 0 0.04902205996966251 -0.05359710598603859 0 0.049987692931208652 -0.053070930394161601 0 0.04902205996966251 -0.05359710598603859 0 0.049987692931208652 -0.053070930394161601 0 0.049665888309802092 -0.053967340573739545 0 0.04902205996966251 -0.05359710598603859 0 0.048762546029072949 -0.054291834328409221 0 0.049665888309802092 -0.053967340573739545 0 0.051717147288907209 -0.052162225248724603 0 0.049987692931208652 -0.053070930394161601 0 0.051275555787932442 -0.052702196176657772 0 0.049987692931208652 -0.053070930394161601 0 0.050635575192985123 -0.053336475613862011 0 0.049665888309802092 -0.053967340573739545 0 0.049987692931208652 -0.053070930394161601 0 0.051275555787932442 -0.052702196176657772 0 0.050635575192985123 -0.053336475613862011 0 0.052509788240140083 -0.05199413812331305 0 0.050818731952302389 -0.053748131767732792 0 0.051427232200477339 -0.053029711638498858 0 0.050635575192985123 -0.053336475613862011 0 0.05038702835348232 -0.054242333127750064 0 0.051427232200477339 -0.053029711638498858 0 0.051275555787932442 -0.052702196176657772 0 0.050635575192985123 -0.053336475613862011 0 0.051427232200477339 -0.053029711638498858 0 0.050635575192985123 -0.053336475613862011 0 0.05038702835348232 -0.054242333127750064 0 0.049665888309802092 -0.053967340573739545 0 0.054826538367581855 -0.048780152022610719 0 0.050166259252711655 -0.052510983958183731 0 0.047856995402796372 -0.055458288834689756 0 0.05038702835348232 -0.054242333127750064 0 0.049665888309802092 -0.053967340573739545 0 0.056830828447844088 -0.046400734976927017 0 0.058068610837703649 -0.046656439136683117 0 0.057118381458143075 -0.046956325748625481 0 0.047856995402796372 -0.055458288834689756 0 0.048762546029072949 -0.054291834328409221 0 0.049665888309802092 -0.053967340573739545 0 0.052124781495257476 -0.051146229667154229 0 0.054826538367581855 -0.048780152022610719 0 0.054826538367581855 -0.048780152022610719 0 0.058808824208507492 -0.043879146410478506 0 0.058096376223192005 -0.042363588408907728 0 0.058372558171479072 -0.041846193028221082 0 0.058868915822760867 -0.042105585030133501 0 0.058372558171479072 -0.041846193028221082 0 0.058700440690987121 -0.041599366613949022 0 0.058868915822760867 -0.042105585030133501 0 0.057289541411591607 -0.042467461651526046 0 0.058096376223192005 -0.042363588408907728 0 0.057776319493509823 -0.041900879216663398 0 0.058096376223192005 -0.042363588408907728 0 0.058372558171479072 -0.041846193028221082 0 0.058083742547123354 -0.041941179191083484 0 0.058096376223192005 -0.042363588408907728 0 0.058083742547123354 -0.041941179191083484 0 0.057776319493509823 -0.041900879216663398 0 0.058083742547123354 -0.041941179191083484 0 0.05806666720516418 -0.041606223938788725 0 0.057776319493509823 -0.041900879216663398 0 0.058372558171479072 -0.041846193028221082 0 0.058083742547123354 -0.041941179191083484 0 0.05806666720516418 -0.041606223938788725 0 0.057812840296188966 -0.041109892374063067 0 0.058250856321454332 -0.041231143642390923 0 0.058071809712107583 -0.040191526724982003 0 0.05806666720516418 -0.041606223938788725 0 0.057776319493509823 -0.041900879216663398 0 0.057812840296188966 -0.041109892374063067 0 0.05806666720516418 -0.041606223938788725 0 0.057812840296188966 -0.041109892374063067 0 0.058250856321454332 -0.041231143642390923 0 0.058372558171479072 -0.041846193028221082 0 0.058700440690987121 -0.041599366613949022 0 0.058250856321454332 -0.041231143642390923 0 0.058372558171479072 -0.041846193028221082 0 0.05806666720516418 -0.041606223938788725 0 0.058250856321454332 -0.041231143642390923 0 0.058700440690987121 -0.041599366613949022 0 0.058250856321454332 -0.041231143642390923 0 0.058494023737935129 -0.040795435226127802 0 0.058700440690987121 -0.041599366613949022 0 0.058868984349154156 -0.041393472252289037 0 0.058494023737935129 -0.040795435226127802 0 0.058700440690987121 -0.041599366613949022 0 0.059103806769152854 -0.041767046593453087 0 0.058868984349154156 -0.041393472252289037 0 0.059103806769152854 -0.041767046593453087 0 0.058868984349154156 -0.041393472252289037 0 0.059099400847118663 -0.042098725015047044 0 0.059103806769152854 -0.041767046593453087 0 0.059099400847118663 -0.042098725015047044 0 0.059671163260501675 -0.041786971368008213 0 0.059099400847118663 -0.042098725015047044 0 0.058672628552930317 -0.043202924922520647 0 0.058954219521428486 -0.041886397141701788 0 0.059099400847118663 -0.042098725015047044 0 0.059671163260501675 -0.041786971368008213 0 0.058672628552930317 -0.043202924922520647 0 0.057470631796169735 -0.045095901798271158 0 0.058808824208507492 -0.043879146410478506 0 0.0560257168032606 -0.046739882257501184 0 0.05564296685087132 -0.0476780030173675 0 0.057118381458143075 -0.046956325748625481 0 0.0560257168032606 -0.046739882257501184 0 0.05564296685087132 -0.0476780030173675 0 0.055289326541338155 -0.046804725899291001 0 0.059103806769152854 -0.041767046593453087 0 0.059671163260501675 -0.041786971368008213 0 0.058868915822760867 -0.042105585030133501 0 0.058700440690987121 -0.041599366613949022 0 0.059103806769152854 -0.041767046593453087 0 0.058868915822760867 -0.042105585030133501 0 0.054249233466287933 -0.047074361078607886 0 0.050996951412131945 -0.047658757494566835 0 0.052607907620349059 -0.046182282531011254 0 0.054122540316060619 -0.047898200413104199 0 0.054249233466287933 -0.047074361078607886 0 0.050996951412131945 -0.047658757494566835 0 0.054122540316060619 -0.047898200413104199 0 0.052129721924033617 -0.049148446310906112 0 0.050996951412131945 -0.047658757494566835 0 0.05564296685087132 -0.0476780030173675 0 0.054122540316060619 -0.047898200413104199 0 0.054249233466287933 -0.047074361078607886 0 0.05564296685087132 -0.0476780030173675 0 0.054249233466287933 -0.047074361078607886 0 0.055289326541338155 -0.046804725899291001 0 0.05564296685087132 -0.0476780030173675 0 0.054122540316060619 -0.047898200413104199 0 0.054647144343079365 -0.048050100288166489 0 0.057470631796169735 -0.045095901798271158 0 0.055091775658620612 -0.047405180391375971 0 0.059671163260501675 -0.041786971368008213 0 0.057359297287997366 -0.045493600714301169 0 0.054647144343079365 -0.048050100288166489 0 0.059671163260501675 -0.041786971368008213 0 0.057359297287997366 -0.045493600714301169 0 0.058672628552930317 -0.043202924922520647 0 0.058672628552930317 -0.043202924922520647 0 0.058742380786947143 -0.042818162912365475 0 0.058954219521428486 -0.041886397141701788 0 0.057359297287997366 -0.045493600714301169 0 0.058672628552930317 -0.043202924922520647 0 0.058742380786947143 -0.042818162912365475 0 0.057359297287997366 -0.045493600714301169 0 0.060371821338306389 -0.04207249638612337 0 0.058742380786947143 -0.042818162912365475 0 0.057359297287997366 -0.045493600714301169 0 0.06284023438214123 -0.04366253584519899 0 0.060371821338306389 -0.04207249638612337 0 0.057359297287997366 -0.045493600714301169 0 0.054647144343079365 -0.048050100288166489 0 0.051357895423426975 -0.052246529585781472 0 0.057221680417941241 -0.046106689257921343 0 0.05658883097825252 -0.047740900883672964 0 0.054122540316060619 -0.047898200413104199 0 0.054647144343079365 -0.048050100288166489 0 0.052129721924033617 -0.049148446310906112 0 0.054647144343079365 -0.048050100288166489 0 0.052129721924033617 -0.049148446310906112 0 0.051357895423426975 -0.052246529585781472 0 0.051357895423426975 -0.052246529585781472 0 0.047363902761740032 -0.050836548379924074 0 0.045231867190250873 -0.054732296567620749 0 0.05658883097825252 -0.047740900883672964 0 0.056214139502212483 -0.048754529318525176 0 0.052129721924033617 -0.049148446310906112 0 0.051357895423426975 -0.052246529585781472 0 0.047363902761740032 -0.050836548379924074 0 0.047363902761740032 -0.050836548379924074 0 0.041704320557386224 -0.052966730000031076 0 0.045231867190250873 -0.054732296567620749 0 0.047363902761740032 -0.050836548379924074 0 0.045574115697725466 -0.047893117493145482 0 0.041331338777490692 -0.050137258639701171 0 0.047363902761740032 -0.050836548379924074 0 0.050996951412131945 -0.047658757494566835 0 0.045574115697725466 -0.047893117493145482 0 0.052129721924033617 -0.049148446310906112 0 0.047363902761740032 -0.050836548379924074 0 0.050996951412131945 -0.047658757494566835 0 0.050996951412131945 -0.047658757494566835 0 0.049893775759399947 -0.0445001817319403 0 0.045574115697725466 -0.047893117493145482 0 0.050996951412131945 -0.047658757494566835 0 0.049893775759399947 -0.0445001817319403 0 0.052607907620349059 -0.046182282531011254 0 0.044057326797661535 -0.050100553521350115 0 0.039488627558431182 -0.049623162650900547 0 0.049893775759399947 -0.0445001817319403 0 0.045574115697725466 -0.047893117493145482 0 0.041904982979174082 -0.045793192996350554 0 0.038042938860408257 -0.055615836288159637 0 0.037427447455636087 -0.054212725160075019 0 0.036500269010473381 -0.053290472380138031 0 0.037427447455636087 -0.054212725160075019 0 0.036950787168547695 -0.053636925350428154 0 0.036500269010473381 -0.053290472380138031 0 0.038042938860408257 -0.055615836288159637 0 0.038597764837821846 -0.054490006435547515 0 0.040843941234541006 -0.055259993717583181 0 0.038042938860408257 -0.055615836288159637 0 0.037427447455636087 -0.054212725160075019 0 0.038597764837821846 -0.054490006435547515 0 0.037427447455636087 -0.054212725160075019 0 0.038597764837821846 -0.054490006435547515 0 0.037698335506092279 -0.054407175249628223 0 0.040843941234541006 -0.055259993717583181 0 0.045041609611388804 -0.053942027025796112 0 0.043941002043603399 -0.053010727765821906 0 0.04077486855217783 -0.055428788183312788 0 0.04110930572114805 -0.054032638803058239 0 0.038597764837821846 -0.054490006435547515 0 0.040843941234541006 -0.055259993717583181 0 0.038244053349104232 -0.054454411171765721 0 0.049893775759399947 -0.0445001817319403 0 0.052607907620349059 -0.046182282531011254 0 0.05503768116753277 -0.045627342957333769 0 0.054249233466287933 -0.047074361078607886 0 0.052607907620349059 -0.046182282531011254 0 0.05503768116753277 -0.045627342957333769 0 0.044057326797661535 -0.050100553521350115 0 0.049445190956820206 -0.050927587999032214 0 0.038042938860408257 -0.055615836288159637 0 0.040843941234541006 -0.055259993717583181 0 0.044043543548564906 -0.056438381560023419 0 0.0560257168032606 -0.046739882257501184 0 0.055289326541338155 -0.046804725899291001 0 0.05503768116753277 -0.045627342957333769 0 0.054249233466287933 -0.047074361078607886 0 0.055289326541338155 -0.046804725899291001 0 0.05503768116753277 -0.045627342957333769 0 0.040843941234541006 -0.055259993717583181 0 0.044043543548564906 -0.056438381560023419 0 0.045041609611388804 -0.053942027025796112 0 0.046283409702625254 -0.054746580542990288 0 0.044043543548564906 -0.056438381560023419 0 0.045041609611388804 -0.053942027025796112 0 0.046218948838758329 -0.052834183904866508 0 0.045041609611388804 -0.053942027025796112 0 0.043941002043603399 -0.053010727765821906 0 0.038597764837821846 -0.054490006435547515 0 0.038244053349104232 -0.054454411171765721 0 0.037698335506092279 -0.054407175249628223 0 0.038244053349104232 -0.054454411171765721 0 0.03765611491054479 -0.055132288800376301 0 0.037698335506092279 -0.054407175249628223 0 0.04110930572114805 -0.054032638803058239 0 0.041752144020876299 -0.053905886383145189 0 0.038244053349104232 -0.054454411171765721 0 0.037768487858933435 -0.055271096041846907 0 0.03765611491054479 -0.055132288800376301 0 0.046218948838758329 -0.052834183904866508 0 0.043941002043603399 -0.053010727765821906 0 0.045672283727502497 -0.05257452686712305 0 0.046577781705492816 -0.052707752869099546 0 0.046218948838758329 -0.052834183904866508 0 0.045672283727502497 -0.05257452686712305 0 0.046577781705492816 -0.052707752869099546 0 0.045672283727502497 -0.05257452686712305 0 0.046396802071612703 -0.052571707250969914 0 0.041752144020876299 -0.053905886383145189 0 0.041734379624504256 -0.054279358658732881 0 0.037768487858933435 -0.055271096041846907 0 0.038437752046210485 -0.055681098810030367 0 0.038127507081062544 -0.055731507084320182 0 0.037768487858933435 -0.055271096041846907 0 0.037757938616037677 -0.05555176006200372 0 0.03765611491054479 -0.055132288800376301 0 0.037768487858933435 -0.055271096041846907 0 0.037757938616037677 -0.05555176006200372 0 0.038437752046210485 -0.055681098810030367 0 0.038437752046210485 -0.055681098810030367 0 0.040446048166744013 -0.054999566072864797 0 0.037352301207104373 -0.054999313819811026 0 0.037757938616037677 -0.05555176006200372 0 0.038437752046210485 -0.055681098810030367 0 0.037630149074788954 -0.055521138646105271 0 0.038437752046210485 -0.055681098810030367 0 0.037352301207104373 -0.054999313819811026 0 0.037630149074788954 -0.055521138646105271 0 0.038437752046210485 -0.055681098810030367 0 0.040446048166744013 -0.054999566072864797 0 0.040059583871396458 -0.055777485578915889 0 0.040448358744154631 -0.055000635059809608 0 0.041734379624504256 -0.054279358658732881 0 0.042923605975908982 -0.055459815059730855 0 0.040447579132381187 -0.054999974395876318 0 0.04025475180358061 -0.055912899217329115 0 0.038102371792502344 -0.055540927498920527 0 0.041734379624504256 -0.054279358658732881 0 0.037352301207104373 -0.054999313819811026 0 0.03689276107427298 -0.055680867346992145 0 0.034259312856775831 -0.054999076081531199 0 0.03689276107427298 -0.055680867346992145 0 0.035220195104289809 -0.055945177443126694 0 0.034259312856775831 -0.054999076081531199 0 0.037352301207104373 -0.054999313819811026 0 0.037630149074788954 -0.055521138646105271 0 0.03689276107427298 -0.055680867346992145 0 0.037757938616037677 -0.05555176006200372 0 0.03689276107427298 -0.055680867346992145 0 0.03765611491054479 -0.055132288800376301 0 0.037757938616037677 -0.05555176006200372 0 0.037630149074788954 -0.055521138646105271 0 0.03689276107427298 -0.055680867346992145 0 0.03689276107427298 -0.055680867346992145 0 0.035220195104289809 -0.055945177443126694 0 0.036966966090204438 -0.055164720545913815 0 0.036608140063328444 -0.055192786226706564 0 0.03513669292856348 -0.055229415196261233 0 0.035220195104289809 -0.055945177443126694 0 0.036966966090204438 -0.055164720545913815 0 0.034045131995568682 -0.057430202794111561 0 0.036966966090204438 -0.055164720545913815 0 0.036950787168547695 -0.053636925350428154 0 0.036633442443083752 -0.053126123187490423 0 0.03689276107427298 -0.055680867346992145 0 0.036966966090204438 -0.055164720545913815 0 0.03765611491054479 -0.055132288800376301 0 0.036966966090204438 -0.055164720545913815 0 0.03765611491054479 -0.055132288800376301 0 0.037698335506092279 -0.054407175249628223 0 0.037427447455636087 -0.054212725160075019 0 0.037698335506092279 -0.054407175249628223 0 0.036950787168547695 -0.053636925350428154 0 0.036966966090204438 -0.055164720545913815 0 0.037698335506092279 -0.054407175249628223 0 0.036950787168547695 -0.053636925350428154 0 0.036950787168547695 -0.053636925350428154 0 0.036332933863302642 -0.052221002342035694 0 0.036633442443083752 -0.053126123187490423 0 0.03513669292856348 -0.055229415196261233 0 0.03409133172783517 -0.055274287769830711 0 0.036332933863302642 -0.052221002342035694 0 0.036633442443083752 -0.053126123187490423 0 0.036478636134785428 -0.05250031331028901 0 0.035220195104289809 -0.055945177443126694 0 0.034045131995568682 -0.057430202794111561 0 0.03289536539840645 -0.056028206034918204 0 0.034045131995568682 -0.057430202794111561 0 0.03289536539840645 -0.056028206034918204 0 0.031112928909956171 -0.05791537380046613 0 0.03289536539840645 -0.056028206034918204 0 0.029987948304104908 -0.056246738841986145 0 0.031112928909956171 -0.05791537380046613 0 0.03289536539840645 -0.056028206034918204 0 0.031163795915316546 -0.054999371590088955 0 0.034259312856775831 -0.054999076081531199 0 0.03289536539840645 -0.056028206034918204 0 0.031163795915316546 -0.054999371590088955 0 0.029987948304104908 -0.056246738841986145 0 0.035220195104289809 -0.055945177443126694 0 0.03289536539840645 -0.056028206034918204 0 0.034259312856775831 -0.054999076081531199 0 0.028258790523648762 -0.055932831501911286 0 0.028068831952840552 -0.05499963940993912 0 0.029987948304104908 -0.056246738841986145 0 0.031163795915316546 -0.054999371590088955 0 0.028068831952840552 -0.05499963940993912 0 0.029987948304104908 -0.056246738841986145 0 0.029987948304104908 -0.056246738841986145 0 0.028602507250671996 -0.057820360592327119 0 0.031112928909956171 -0.05791537380046613 0 0.028859834920780706 -0.055858237832367437 0 0.028258790523648762 -0.055932831501911286 0 0.02879715529077688 -0.05584897820111439 0 0.028258790523648762 -0.055932831501911286 0 0.029987948304104908 -0.056246738841986145 0 0.028602507250671996 -0.057820360592327119 0 0.028130294599356846 -0.056707790475381784 0 0.031688544086968522 -0.054764352245681498 0 0.029668223843492353 -0.05479598761493451 0 0.028859834920780706 -0.055858237832367437 0 0.028481287099208209 -0.055694515488621567 0 0.029668223843492353 -0.05479598761493451 0 0.028481287099208209 -0.055694515488621567 0 0.029963149845338023 -0.053937155082275479 0 0.029634971625220843 -0.054957282379806342 0 0.031688544086968522 -0.054764352245681498 0 0.031688544086968522 -0.054764352245681498 0 0.03409133172783517 -0.055274287769830711 0 0.036332933863302642 -0.052221002342035694 0 0.036478636134785428 -0.05250031331028901 0 0.036775286976310918 -0.05180932065038292 0 0.037520439874032786 -0.052674837326056052 0 0.036478636134785428 -0.05250031331028901 0 0.036775286976310918 -0.05180932065038292 0 0.036332933863302642 -0.052221002342035694 0 0.036775286976310918 -0.05180932065038292 0 0.036707441794088087 -0.051174687798312156 0 0.036775286976310918 -0.05180932065038292 0 0.036707441794088087 -0.051174687798312156 0 0.037085847249248398 -0.050691412459373614 0 0.037520439874032786 -0.052674837326056052 0 0.036775286976310918 -0.05180932065038292 0 0.037085847249248398 -0.050691412459373614 0 0.028481287099208209 -0.055694515488621567 0 0.029963149845338023 -0.053937155082275479 0 0.03037595968172533 -0.052430323646217573 0 0.031688544086968522 -0.054764352245681498 0 0.033942456202612936 -0.051663669618009445 0 0.031088045805620652 -0.053112240286059105 0 0.029963149845338023 -0.053937155082275479 0 0.03037595968172533 -0.052430323646217573 0 0.032068953989043809 -0.05142396560013969 0 0.03037595968172533 -0.052430323646217573 0 0.034347194556052153 -0.050331712608053733 0 0.033942456202612936 -0.051663669618009445 0 0.034230017123280283 -0.050752517030953667 0 0.032068953989043809 -0.05142396560013969 0 0.034347194556052153 -0.050331712608053733 0 0.03312313399744677 -0.050513856166246457 0 0.034347194556052153 -0.050331712608053733 0 0.036551259562990546 -0.049832766630374191 0 0.037367479246211394 -0.049980996428472119 0 0.037085847249248398 -0.050691412459373614 0 0.034347194556052153 -0.050331712608053733 0 0.036551259562990546 -0.049832766630374191 0 0.036707441794088087 -0.051174687798312156 0 0.037085847249248398 -0.050691412459373614 0 0.036551259562990546 -0.049832766630374191 0 0.036332933863302642 -0.052221002342035694 0 0.036707441794088087 -0.051174687798312156 0 0.036551259562990546 -0.049832766630374191 0 0.036332933863302642 -0.052221002342035694 0 0.036551259562990546 -0.049832766630374191 0 0.036500269010473381 -0.053290472380138031 0 0.037017998418450014 -0.049785655723920623 0 0.039488627558431182 -0.049623162650900547 0 0.036950787168547695 -0.053636925350428154 0 0.036332933863302642 -0.052221002342035694 0 0.036500269010473381 -0.053290472380138031 0 0.045574115697725466 -0.047893117493145482 0 0.041904982979174082 -0.045793192996350554 0 0.041331338777490692 -0.050137258639701171 0 0.041904982979174082 -0.045793192996350554 0 0.037367479246211394 -0.049980996428472119 0 0.041331338777490692 -0.050137258639701171 0 0.036551259562990546 -0.049832766630374191 0 0.041904982979174082 -0.045793192996350554 0 0.037367479246211394 -0.049980996428472119 0 0.037367479246211394 -0.049980996428472119 0 0.041331338777490692 -0.050137258639701171 0 0.035965665394188912 -0.052310367353954737 0 0.041704320557386224 -0.052966730000031076 0 0.039960991720804702 -0.055688375588903952 0 0.045231867190250873 -0.054732296567620749 0 0.047363902761740032 -0.050836548379924074 0 0.041331338777490692 -0.050137258639701171 0 0.041704320557386224 -0.052966730000031076 0 0.03143272932665693 -0.047483785709650637 0 0.031350977246628817 -0.046030196722396603 0 0.030697826123521739 -0.045996491239809 0 0.041704320557386224 -0.052966730000031076 0 0.035965665394188912 -0.052310367353954737 0 0.039960991720804702 -0.055688375588903952 0 0.041331338777490692 -0.050137258639701171 0 0.041704320557386224 -0.052966730000031076 0 0.035965665394188912 -0.052310367353954737 0 0.031618912914641403 -0.050591320158847548 0 0.047623813419865893 -0.044435425600894099 0 0.03143272932665693 -0.047483785709650637 0 0.03197915464542464 -0.045808801421182842 0 0.031350977246628817 -0.046030196722396603 0 0.03143272932665693 -0.047483785709650637 0 0.032584150789429632 -0.046720616576440901 0 0.03197915464542464 -0.045808801421182842 0 0.032584150789429632 -0.046720616576440901 0 0.033435502100900245 -0.045610653998002466 0 0.03197915464542464 -0.045808801421182842 0 0.03143272932665693 -0.047483785709650637 0 0.032584150789429632 -0.046720616576440901 0 0.032977603646598214 -0.048068158093394861 0 0.032584150789429632 -0.046720616576440901 0 0.033611858142735804 -0.046796359648981024 0 0.033435502100900245 -0.045610653998002466 0 0.034788259096457372 -0.045688249329214024 0 0.033611858142735804 -0.046796359648981024 0 0.033435502100900245 -0.045610653998002466 0 0.033792879824536937 -0.047870817340612874 0 0.033611858142735804 -0.046796359648981024 0 0.032977603646598214 -0.048068158093394861 0 0.032584150789429632 -0.046720616576440901 0 0.033611858142735804 -0.046796359648981024 0 0.032977603646598214 -0.048068158093394861 0 0.03356093370771434 -0.049088056786052721 0 0.03312313399744677 -0.050513856166246457 0 0.032977603646598214 -0.048068158093394861 0 0.034347194556052153 -0.050331712608053733 0 0.03312313399744677 -0.050513856166246457 0 0.035965665394188912 -0.052310367353954737 0 0.033922546228791838 -0.050360813745720788 0 0.031618912914641403 -0.050591320158847548 0 0.03312313399744677 -0.050513856166246457 0 0.03143272932665693 -0.047483785709650637 0 0.032977603646598214 -0.048068158093394861 0 0.033792879824536937 -0.047870817340612874 0 0.03356093370771434 -0.049088056786052721 0 0.032977603646598214 -0.048068158093394861 0 0.034347194556052153 -0.050331712608053733 0 0.037367479246211394 -0.049980996428472119 0 0.035965665394188912 -0.052310367353954737 0 0.046404780703785065 -0.037639753082202729 0 0.059315549509040451 -0.035301842543715496 0 0.055926779318773254 -0.03632524725399755 0 0.053595308030257909 -0.035489683634905497 0 0.05841318280156485 -0.035221585637862193 0 0.054123338448219836 -0.036807080492874303 0 0.052518079446060108 -0.037567200114501459 0 0.053595308030257909 -0.035489683634905497 0 0.055926779318773254 -0.03632524725399755 0 0.054123338448219836 -0.036807080492874303 0 0.053595308030257909 -0.035489683634905497 0 0.055926779318773254 -0.03632524725399755 0 0.054123338448219836 -0.036807080492874303 0 0.054493436551325596 -0.03697315155061074 0 0.054123338448219836 -0.036807080492874303 0 0.052518079446060108 -0.037567200114501459 0 0.054493436551325596 -0.03697315155061074 0 0.052518079446060108 -0.037567200114501459 0 0.054493436551325596 -0.03697315155061074 0 0.052995137593595344 -0.037112605152411174 0 0.035726529546762142 -0.04412806607098322 0 0.052518079446060108 -0.037567200114501459 0 0.05006341062723927 -0.037413233687946926 0 0.051978882185960071 -0.036909477254484631 0 0.052518079446060108 -0.037567200114501459 0 0.052995137593595344 -0.037112605152411174 0 0.052518079446060108 -0.037567200114501459 0 0.05006341062723927 -0.037413233687946926 0 0.053595308030257909 -0.035489683634905497 0 0.05098890519091652 -0.036528650767526795 0 0.046404780703785065 -0.037639753082202729 0 0.03687761480093437 -0.043007607214579795 0 0.033298164150357162 -0.04492886155450352 0 0.031752291334477822 -0.044649792869620314 0 0.03687761480093437 -0.043007607214579795 0 0.05006341062723927 -0.037413233687946926 0 0.054713289183228667 -0.033881512042039923 0 0.03687761480093437 -0.043007607214579795 0 0.033435502100900245 -0.045610653998002466 0 0.033298164150357162 -0.04492886155450352 0 0.037091361558221576 -0.042865828448904783 0 0.046404780703785065 -0.037639753082202729 0 0.033435502100900245 -0.045610653998002466 0 0.033298164150357162 -0.04492886155450352 0 0.03197915464542464 -0.045808801421182842 0 0.033298164150357162 -0.04492886155450352 0 0.03197915464542464 -0.045808801421182842 0 0.031752291334477822 -0.044649792869620314 0 0.03197915464542464 -0.045808801421182842 0 0.031752291334477822 -0.044649792869620314 0 0.031350977246628817 -0.046030196722396603 0 0.031752291334477822 -0.044649792869620314 0 0.031350977246628817 -0.046030196722396603 0 0.030697826123521739 -0.045996491239809 0 0.046404780703785065 -0.037639753082202729 0 0.047623813419865893 -0.044435425600894099 0 0.054007850455602704 -0.034601581626786747 0 0.0576844024167283 -0.033734277809385149 0 0.05720730781563766 -0.035411313397627819 0 0.066948838615439321 -0.041683727231851757 0 0.065654101427262981 -0.040138279311724236 0 0.064865172306387081 -0.041082109983249321 0 0.047623813419865893 -0.044435425600894099 0 0.064323400939231917 -0.037632706705065341 0 0.066948838615439321 -0.041683727231851757 0 0.064865172306387081 -0.041082109983249321 0 0.065070316354878269 -0.042326819950668441 0 0.047623813419865893 -0.044435425600894099 0 0.056214139502212483 -0.048754529318525176 0 0.059315549509040451 -0.035301842543715496 0 0.058966394818182319 -0.035371523848432188 0 0.059524318422720233 -0.035257208284630845 0 0.05720730781563766 -0.035411313397627819 0 0.059726910117067954 -0.035409233528029001 0 0.05841318280156485 -0.035221585637862193 0 0.059061638279743416 -0.036210154268371181 0 0.059328480810154807 -0.035693406813408934 0 0.05841318280156485 -0.035221585637862193 0 0.059328480810154807 -0.035693406813408934 0 0.059726910117067954 -0.035409233528029001 0 0.0576844024167283 -0.033734277809385149 0 0.059524318422720233 -0.035257208284630845 0 0.05720730781563766 -0.035411313397627819 0 0.05841318280156485 -0.035221585637862193 0 0.057988991293191725 -0.036323139536034756 0 0.059061638279743416 -0.036210154268371181 0 0.055926779318773254 -0.03632524725399755 0 0.05841318280156485 -0.035221585637862193 0 0.057988991293191725 -0.036323139536034756 0 0.057988991293191725 -0.036323139536034756 0 0.059061638279743416 -0.036210154268371181 0 0.058416942654374991 -0.037497534255135287 0 0.059061638279743416 -0.036210154268371181 0 0.059328480810154807 -0.035693406813408934 0 0.059870582166886274 -0.035582893352291943 0 0.059061638279743416 -0.036210154268371181 0 0.059808362534729938 -0.035606867807905888 0 0.059870582166886274 -0.035582893352291943 0 0.059328480810154807 -0.035693406813408934 0 0.059870582166886274 -0.035582893352291943 0 0.059726910117067954 -0.035409233528029001 0 0.059808362534729938 -0.035606867807905888 0 0.058416942654374991 -0.037497534255135287 0 0.060140269538803311 -0.035146578956720805 0 0.059061638279743416 -0.036210154268371181 0 0.059808362534729938 -0.035606867807905888 0 0.058416942654374991 -0.037497534255135287 0 0.058416942654374991 -0.037497534255135287 0 0.05488151849393462 -0.03839876229422564 0 0.053104521908494497 -0.041268128321516537 0 0.058083605822458056 -0.037532953143100796 0 0.059936957936698267 -0.03788062008864345 0 0.058416942654374991 -0.037497534255135287 0 0.055429174680113887 -0.037339237185146319 0 0.05488151849393462 -0.03839876229422564 0 0.058416942654374991 -0.037497534255135287 0 0.055429174680113887 -0.037339237185146319 0 0.056505194870093228 -0.036825982904987981 0 0.057988991293191725 -0.036323139536034756 0 0.058416942654374991 -0.037497534255135287 0 0.056505194870093228 -0.036825982904987981 0 0.055429174680113887 -0.037339237185146319 0 0.054493436551325596 -0.03697315155061074 0 0.056505194870093228 -0.036825982904987981 0 0.055926779318773254 -0.03632524725399755 0 0.054493436551325596 -0.03697315155061074 0 0.056505194870093228 -0.036825982904987981 0 0.055926779318773254 -0.03632524725399755 0 0.057988991293191725 -0.036323139536034756 0 0.056505194870093228 -0.036825982904987981 0 0.052377930377793432 -0.037285158661167141 0 0.052995137593595344 -0.037112605152411174 0 0.0534528502603848 -0.037613821023791641 0 0.051978882185960071 -0.036909477254484631 0 0.052377930377793432 -0.037285158661167141 0 0.052995137593595344 -0.037112605152411174 0 0.054493436551325596 -0.03697315155061074 0 0.052995137593595344 -0.037112605152411174 0 0.0534528502603848 -0.037613821023791641 0 0.055429174680113887 -0.037339237185146319 0 0.054493436551325596 -0.03697315155061074 0 0.0534528502603848 -0.037613821023791641 0 0.055429174680113887 -0.037339237185146319 0 0.0534528502603848 -0.037613821023791641 0 0.05488151849393462 -0.03839876229422564 0 0.051950949000845834 -0.038491397811768392 0 0.052377930377793432 -0.037285158661167141 0 0.0534528502603848 -0.037613821023791641 0 0.051950949000845834 -0.038491397811768392 0 0.0534528502603848 -0.037613821023791641 0 0.053283392928644979 -0.038527918447424744 0 0.05488151849393462 -0.03839876229422564 0 0.053045487875992489 -0.039804060106271431 0 0.053104521908494497 -0.041268128321516537 0 0.0534528502603848 -0.037613821023791641 0 0.053283392928644979 -0.038527918447424744 0 0.05488151849393462 -0.03839876229422564 0 0.053283392928644979 -0.038527918447424744 0 0.05488151849393462 -0.03839876229422564 0 0.053045487875992489 -0.039804060106271431 0 0.051950949000845834 -0.038491397811768392 0 0.053283392928644979 -0.038527918447424744 0 0.053045487875992489 -0.039804060106271431 0 0.049231372356659919 -0.039857635319843605 0 0.053045487875992489 -0.039804060106271431 0 0.053104521908494497 -0.041268128321516537 0 0.063783567437007346 -0.034768758436762276 0 0.061490005181012553 -0.034351843923310948 0 0.063472609955025225 -0.033146211865574086 0 0.058416942654374991 -0.037497534255135287 0 0.063783567437007346 -0.034768758436762276 0 0.061490005181012553 -0.034351843923310948 0 0.058416942654374991 -0.037497534255135287 0 0.061490005181012553 -0.034351843923310948 0 0.060140269538803311 -0.035146578956720805 0 0.061490005181012553 -0.034351843923310948 0 0.062397235160480242 -0.0325459629080933 0 0.063472609955025225 -0.033146211865574086 0 0.061490005181012553 -0.034351843923310948 0 0.062397235160480242 -0.0325459629080933 0 0.061044651068716177 -0.033702057061465444 0 0.062397235160480242 -0.0325459629080933 0 0.063472609955025225 -0.033146211865574086 0 0.063743631382972524 -0.031905024275528104 0 0.048589372206726274 -0.036024604451066436 0 0.059936957936698267 -0.03788062008864345 0 0.065871218132417794 -0.031952448137229222 0 0.063783567437007346 -0.034768758436762276 0 0.064747756066182313 -0.032798508518450814 0 0.063783567437007346 -0.034768758436762276 0 0.063472609955025225 -0.033146211865574086 0 0.064747756066182313 -0.032798508518450814 0 0.063472609955025225 -0.033146211865574086 0 0.064747756066182313 -0.032798508518450814 0 0.063743631382972524 -0.031905024275528104 0 0.064747756066182313 -0.032798508518450814 0 0.065013721395322771 -0.03075087299769062 0 0.063743631382972524 -0.031905024275528104 0 0.065013721395322771 -0.03075087299769062 0 0.063743631382972524 -0.031905024275528104 0 0.063051437486015757 -0.030455185093712835 0 0.065782938176648389 -0.03172132477372145 0 0.055118985486478117 -0.032626630769251715 0 0.062397235160480242 -0.0325459629080933 0 0.063743631382972524 -0.031905024275528104 0 0.063051437486015757 -0.030455185093712835 0 0.063051437486015757 -0.030455185093712835 0 0.064309135498206008 -0.029033279423088865 0 0.063342098960354226 -0.028681850770751076 0 0.050241435457684995 -0.032389765538429566 0 0.050320138070840806 -0.032560436867349489 0 0.050124537688073803 -0.032708893614668923 0 0.065013721395322771 -0.03075087299769062 0 0.063051437486015757 -0.030455185093712835 0 0.064309135498206008 -0.029033279423088865 0 0.055118985486478117 -0.032626630769251715 0 0.057431065052586175 -0.030678391549209955 0 0.055118985486478117 -0.032626630769251715 0 0.044354426921944821 -0.035819908562151122 0 0.061443676009836544 -0.030181960504403461 0 0.061341556265700509 -0.029336877221609894 0 0.061685906307253818 -0.028745843616867859 0 0.061443676009836544 -0.030181960504403461 0 0.061341556265700509 -0.029336877221609894 0 0.060910816634962416 -0.029237052160958042 0 0.061341556265700509 -0.029336877221609894 0 0.061348488522598436 -0.028700168473617935 0 0.061685906307253818 -0.028745843616867859 0 0.061341556265700509 -0.029336877221609894 0 0.061348488522598436 -0.028700168473617935 0 0.060910816634962416 -0.029237052160958042 0 0.061348488522598436 -0.028700168473617935 0 0.061685906307253818 -0.028745843616867859 0 0.061612539413947877 -0.028023499627726635 0 0.061443676009836544 -0.030181960504403461 0 0.061685906307253818 -0.028745843616867859 0 0.062395302345371877 -0.028782654763647303 0 0.063051437486015757 -0.030455185093712835 0 0.062395302345371877 -0.028782654763647303 0 0.063342098960354226 -0.028681850770751076 0 0.063051437486015757 -0.030455185093712835 0 0.061443676009836544 -0.030181960504403461 0 0.062395302345371877 -0.028782654763647303 0 0.063051437486015757 -0.030455185093712835 0 0.061443676009836544 -0.030181960504403461 0 0.061235142438172595 -0.032162698913594523 0 0.062397235160480242 -0.0325459629080933 0 0.063051437486015757 -0.030455185093712835 0 0.061235142438172595 -0.032162698913594523 0 0.061411521301865661 -0.032002699048355773 0 0.061266490041939625 -0.030309509246722315 0 0.061235142438172595 -0.032162698913594523 0 0.060693104579611537 -0.033281539146680229 0 0.061214988372244504 -0.032108810313293962 0 0.061235142438172595 -0.032162698913594523 0 0.061214988372244504 -0.032108810313293962 0 0.061574824321791399 -0.031465757582744155 0 0.061443676009836544 -0.030181960504403461 0 0.061235142438172595 -0.032162698913594523 0 0.060910816634962416 -0.029237052160958042 0 0.061235142438172595 -0.032162698913594523 0 0.060443233218836587 -0.034198709987415726 0 0.060693104579611537 -0.033281539146680229 0 0.061235142438172595 -0.032162698913594523 0 0.061044651068716177 -0.033702057061465444 0 0.060443233218836587 -0.034198709987415726 0 0.062397235160480242 -0.0325459629080933 0 0.061235142438172595 -0.032162698913594523 0 0.061044651068716177 -0.033702057061465444 0 0.061490005181012553 -0.034351843923310948 0 0.061044651068716177 -0.033702057061465444 0 0.060140269538803311 -0.035146578956720805 0 0.061044651068716177 -0.033702057061465444 0 0.060140269538803311 -0.035146578956720805 0 0.060443233218836587 -0.034198709987415726 0 0.059808362534729938 -0.035606867807905888 0 0.060140269538803311 -0.035146578956720805 0 0.060443233218836587 -0.034198709987415726 0 0.059808362534729938 -0.035606867807905888 0 0.060443233218836587 -0.034198709987415726 0 0.060294034037271287 -0.034501124984810248 0 0.060294034037271287 -0.034501124984810248 0 0.060491569578200816 -0.034061758506311164 0 0.060193800031578648 -0.035009768661033315 0 0.060443233218836587 -0.034198709987415726 0 0.060294034037271287 -0.034501124984810248 0 0.060693104579611537 -0.033281539146680229 0 0.060294034037271287 -0.034501124984810248 0 0.060491569578200816 -0.034061758506311164 0 0.060693104579611537 -0.033281539146680229 0 0.060491569578200816 -0.034061758506311164 0 0.06067795263198042 -0.03399302800756996 0 0.060277681864203757 -0.034680962574401196 0 0.060491569578200816 -0.034061758506311164 0 0.060810482178688077 -0.03303445918280528 0 0.060823946727992032 -0.033079808844238577 0 0.060491569578200816 -0.034061758506311164 0 0.060823946727992032 -0.033079808844238577 0 0.06067795263198042 -0.03399302800756996 0 0.060810482178688077 -0.03303445918280528 0 0.060823946727992032 -0.033079808844238577 0 0.060968667056719855 -0.032463364838788616 0 0.060491569578200816 -0.034061758506311164 0 0.060810482178688077 -0.03303445918280528 0 0.060693104579611537 -0.033281539146680229 0 0.060810482178688077 -0.03303445918280528 0 0.060693104579611537 -0.033281539146680229 0 0.061049107852705425 -0.032319199419417709 0 0.060693104579611537 -0.033281539146680229 0 0.061214988372244504 -0.032108810313293962 0 0.061049107852705425 -0.032319199419417709 0 0.061214988372244504 -0.032108810313293962 0 0.061260186674651905 -0.03194253867745505 0 0.061455337216231545 -0.031594212432390661 0 0.061214988372244504 -0.032108810313293962 0 0.061260186674651905 -0.03194253867745505 0 0.061049107852705425 -0.032319199419417709 0 0.061222304107858262 -0.03189439819907413 0 0.061260186674651905 -0.03194253867745505 0 0.061049107852705425 -0.032319199419417709 0 0.061222304107858262 -0.03189439819907413 0 0.061260186674651905 -0.03194253867745505 0 0.061302597588550417 -0.031759495982086404 0 0.060810482178688077 -0.03303445918280528 0 0.061049107852705425 -0.032319199419417709 0 0.060968667056719855 -0.032463364838788616 0 0.060968667056719855 -0.032463364838788616 0 0.061109741881539642 -0.031970752200718128 0 0.061059122326757205 -0.031895845400260567 0 0.061049107852705425 -0.032319199419417709 0 0.061109741881539642 -0.031970752200718128 0 0.061167627139874461 -0.031909866053893385 0 0.061049107852705425 -0.032319199419417709 0 0.060968667056719855 -0.032463364838788616 0 0.061109741881539642 -0.031970752200718128 0 0.061222304107858262 -0.03189439819907413 0 0.061049107852705425 -0.032319199419417709 0 0.061167627139874461 -0.031909866053893385 0 0.061222304107858262 -0.03189439819907413 0 0.061167627139874461 -0.031909866053893385 0 0.061269957257876213 -0.031606980435607099 0 0.061269957257876213 -0.031606980435607099 0 0.061251991676406381 -0.031329894921187873 0 0.061455337216231545 -0.031594212432390661 0 0.061188455937922596 -0.029979397405878197 0 0.061648835807826215 -0.031391291923617573 0 0.061023002071983488 -0.028510147431003927 0 0.061384751098243782 -0.029854466378514775 0 0.061455337216231545 -0.031594212432390661 0 0.061109741881539642 -0.031970752200718128 0 0.061167627139874461 -0.031909866053893385 0 0.061269957257876213 -0.031606980435607099 0 0.061109741881539642 -0.031970752200718128 0 0.061177600511868491 -0.031583944506817244 0 0.061059122326757205 -0.031895845400260567 0 0.061109741881539642 -0.031970752200718128 0 0.061269957257876213 -0.031606980435607099 0 0.061177600511868491 -0.031583944506817244 0 0.061269957257876213 -0.031606980435607099 0 0.061177600511868491 -0.031583944506817244 0 0.061251991676406381 -0.031329894921187873 0 0.061266490041939625 -0.030309509246722315 0 0.061124301397225661 -0.027593291191099909 0 0.061384751098243782 -0.029854466378514775 0 0.061574824321791399 -0.031465757582744155 0 0.061486152577504623 -0.027847415730302701 0 0.060910816634962416 -0.029237052160958042 0 0.061262942060524059 -0.028176756972755391 0 0.061159758239466379 -0.027703343191654246 0 0.061348488522598436 -0.028700168473617935 0 0.060910816634962416 -0.029237052160958042 0 0.061262942060524059 -0.028176756972755391 0 0.061214988372244504 -0.032108810313293962 0 0.061574824321791399 -0.031465757582744155 0 0.061455337216231545 -0.031594212432390661 0 0.061260186674651905 -0.03194253867745505 0 0.061455337216231545 -0.031594212432390661 0 0.061302597588550417 -0.031759495982086404 0 0.061269957257876213 -0.031606980435607099 0 0.061455337216231545 -0.031594212432390661 0 0.061302597588550417 -0.031759495982086404 0 0.061384751098243782 -0.029854466378514775 0 0.061574824321791399 -0.031465757582744155 0 0.061455337216231545 -0.031594212432390661 0 0.061222304107858262 -0.03189439819907413 0 0.061269957257876213 -0.031606980435607099 0 0.061302597588550417 -0.031759495982086404 0 0.060851223456583683 -0.03093297762540206 0 0.060310191355276543 -0.030194275786479478 0 0.061220318258307864 -0.029834161650529968 0 0.060851223456583683 -0.03093297762540206 0 0.061140970559289159 -0.031129207355935985 0 0.061220318258307864 -0.029834161650529968 0 0.060851223456583683 -0.03093297762540206 0 0.061140970559289159 -0.031129207355935985 0 0.060913175152923854 -0.031781209025945875 0 0.061177600511868491 -0.031583944506817244 0 0.061251991676406381 -0.031329894921187873 0 0.061140970559289159 -0.031129207355935985 0 0.061177600511868491 -0.031583944506817244 0 0.061140970559289159 -0.031129207355935985 0 0.061059122326757205 -0.031895845400260567 0 0.061140970559289159 -0.031129207355935985 0 0.060913175152923854 -0.031781209025945875 0 0.061059122326757205 -0.031895845400260567 0 0.060913175152923854 -0.031781209025945875 0 0.060908615673303822 -0.032445931138142203 0 0.060762920058934189 -0.032944277890624846 0 0.060913175152923854 -0.031781209025945875 0 0.061059122326757205 -0.031895845400260567 0 0.060908615673303822 -0.032445931138142203 0 0.060968667056719855 -0.032463364838788616 0 0.061059122326757205 -0.031895845400260567 0 0.060908615673303822 -0.032445931138142203 0 0.060823946727992032 -0.033079808844238577 0 0.060968667056719855 -0.032463364838788616 0 0.060908615673303822 -0.032445931138142203 0 0.060851223456583683 -0.03093297762540206 0 0.060913175152923854 -0.031781209025945875 0 0.060493435103112038 -0.031800740265675434 0 0.060493435103112038 -0.031800740265675434 0 0.060762920058934189 -0.032944277890624846 0 0.060262807771567471 -0.033084126788352257 0 0.060913175152923854 -0.031781209025945875 0 0.060493435103112038 -0.031800740265675434 0 0.060762920058934189 -0.032944277890624846 0 0.060762920058934189 -0.032944277890624846 0 0.060791316838655657 -0.034432724609452008 0 0.060262807771567471 -0.033084126788352257 0 0.060762920058934189 -0.032944277890624846 0 0.06067795263198042 -0.03399302800756996 0 0.060791316838655657 -0.034432724609452008 0 0.060823946727992032 -0.033079808844238577 0 0.060908615673303822 -0.032445931138142203 0 0.060762920058934189 -0.032944277890624846 0 0.060823946727992032 -0.033079808844238577 0 0.060762920058934189 -0.032944277890624846 0 0.06067795263198042 -0.03399302800756996 0 0.06067795263198042 -0.03399302800756996 0 0.060791316838655657 -0.034432724609452008 0 0.060277681864203757 -0.034680962574401196 0 0.060791316838655657 -0.034432724609452008 0 0.06019523698733336 -0.035717580924632002 0 0.059794974272083759 -0.034660362876752365 0 0.060791316838655657 -0.034432724609452008 0 0.059794974272083759 -0.034660362876752365 0 0.060262807771567471 -0.033084126788352257 0 0.060791316838655657 -0.034432724609452008 0 0.06019523698733336 -0.035717580924632002 0 0.060952721045484028 -0.036884691529740901 0 0.06019523698733336 -0.035717580924632002 0 0.060952721045484028 -0.036884691529740901 0 0.059865768935459293 -0.03735430060748491 0 0.060952721045484028 -0.036884691529740901 0 0.060477104055841766 -0.038561654051803923 0 0.059865768935459293 -0.03735430060748491 0 0.060477104055841766 -0.038561654051803923 0 0.059523914597569415 -0.038740758490712346 0 0.059865768935459293 -0.03735430060748491 0 0.060952721045484028 -0.036884691529740901 0 0.060477104055841766 -0.038561654051803923 0 0.062154400219352229 -0.038633727227523278 0 0.060952721045484028 -0.036884691529740901 0 0.062154400219352229 -0.038633727227523278 0 0.062519049396279489 -0.03642907358811167 0 0.060783908607561755 -0.034551154487664049 0 0.061454407631755116 -0.035593521164913086 0 0.060791316838655657 -0.034432724609452008 0 0.060952721045484028 -0.036884691529740901 0 0.062519049396279489 -0.03642907358811167 0 0.060277681864203757 -0.034680962574401196 0 0.060193800031578648 -0.035009768661033315 0 0.060150991634027942 -0.035426939571190412 0 0.060491569578200816 -0.034061758506311164 0 0.060277681864203757 -0.034680962574401196 0 0.060193800031578648 -0.035009768661033315 0 0.059808362534729938 -0.035606867807905888 0 0.060193800031578648 -0.035009768661033315 0 0.059870582166886274 -0.035582893352291943 0 0.059808362534729938 -0.035606867807905888 0 0.060294034037271287 -0.034501124984810248 0 0.060193800031578648 -0.035009768661033315 0 0.060193800031578648 -0.035009768661033315 0 0.059870582166886274 -0.035582893352291943 0 0.060150991634027942 -0.035426939571190412 0 0.059870582166886274 -0.035582893352291943 0 0.060150991634027942 -0.035426939571190412 0 0.059726910117067954 -0.035409233528029001 0 0.061454407631755116 -0.035593521164913086 0 0.061864547059340406 -0.036712733770276687 0 0.062154400219352229 -0.038633727227523278 0 0.062519049396279489 -0.03642907358811167 0 0.064068654359161828 -0.038222395415084043 0 0.062154400219352229 -0.038633727227523278 0 0.064068654359161828 -0.038222395415084043 0 0.063205135737438953 -0.039471415314025503 0 0.062154400219352229 -0.038633727227523278 0 0.063205135737438953 -0.039471415314025503 0 0.061984323907721094 -0.040394420557560935 0 0.064068654359161828 -0.038222395415084043 0 0.063205135737438953 -0.039471415314025503 0 0.064267429749899282 -0.039886056625425027 0 0.063205135737438953 -0.039471415314025503 0 0.063432095904282296 -0.040736124593060551 0 0.064267429749899282 -0.039886056625425027 0 0.063205135737438953 -0.039471415314025503 0 0.063432095904282296 -0.040736124593060551 0 0.061984323907721094 -0.040394420557560935 0 0.059524318422720233 -0.035257208284630845 0 0.060150991634027942 -0.035426939571190412 0 0.059726910117067954 -0.035409233528029001 0 0.065654101427262981 -0.040138279311724236 0 0.064068654359161828 -0.038222395415084043 0 0.064267429749899282 -0.039886056625425027 0 0.064323400939231917 -0.037632706705065341 0 0.061864547059340406 -0.036712733770276687 0 0.063432095904282296 -0.040736124593060551 0 0.064267429749899282 -0.039886056625425027 0 0.064865172306387081 -0.041082109983249321 0 0.065654101427262981 -0.040138279311724236 0 0.064267429749899282 -0.039886056625425027 0 0.064865172306387081 -0.041082109983249321 0 0.064865172306387081 -0.041082109983249321 0 0.065070316354878269 -0.042326819950668441 0 0.06377258536107111 -0.041913129264920024 0 0.06284023438214123 -0.04366253584519899 0 0.065070316354878269 -0.042326819950668441 0 0.06377258536107111 -0.041913129264920024 0 0.063432095904282296 -0.040736124593060551 0 0.062446436899795781 -0.041749402684387503 0 0.061984323907721094 -0.040394420557560935 0 0.063432095904282296 -0.040736124593060551 0 0.06377258536107111 -0.041913129264920024 0 0.062446436899795781 -0.041749402684387503 0 0.063432095904282296 -0.040736124593060551 0 0.064865172306387081 -0.041082109983249321 0 0.06377258536107111 -0.041913129264920024 0 0.06284023438214123 -0.04366253584519899 0 0.06377258536107111 -0.041913129264920024 0 0.062446436899795781 -0.041749402684387503 0 0.06284023438214123 -0.04366253584519899 0 0.062446436899795781 -0.041749402684387503 0 0.060371821338306389 -0.04207249638612337 0 0.062446436899795781 -0.041749402684387503 0 0.060371821338306389 -0.04207249638612337 0 0.061984323907721094 -0.040394420557560935 0 0.060371821338306389 -0.04207249638612337 0 0.060582330256616017 -0.040141954244570989 0 0.061984323907721094 -0.040394420557560935 0 0.060371821338306389 -0.04207249638612337 0 0.058742380786947143 -0.042818162912365475 0 0.059528582176513502 -0.041284165812314672 0 0.058742380786947143 -0.042818162912365475 0 0.059528582176513502 -0.041284165812314672 0 0.058954219521428486 -0.041886397141701788 0 0.059528582176513502 -0.041284165812314672 0 0.059421701188212009 -0.040187127157269777 0 0.058954219521428486 -0.041886397141701788 0 0.060371821338306389 -0.04207249638612337 0 0.059528582176513502 -0.041284165812314672 0 0.060582330256616017 -0.040141954244570989 0 0.059528582176513502 -0.041284165812314672 0 0.060582330256616017 -0.040141954244570989 0 0.059421701188212009 -0.040187127157269777 0 0.060477104055841766 -0.038561654051803923 0 0.059421701188212009 -0.040187127157269777 0 0.059523914597569415 -0.038740758490712346 0 0.060477104055841766 -0.038561654051803923 0 0.060582330256616017 -0.040141954244570989 0 0.059421701188212009 -0.040187127157269777 0 0.060477104055841766 -0.038561654051803923 0 0.062154400219352229 -0.038633727227523278 0 0.060582330256616017 -0.040141954244570989 0 0.062154400219352229 -0.038633727227523278 0 0.060582330256616017 -0.040141954244570989 0 0.061984323907721094 -0.040394420557560935 0 0.059003893467957744 -0.039431569349280417 0 0.058679538942197615 -0.040160966234442833 0 0.058548445594136488 -0.038416352096984858 0 0.058679538942197615 -0.040160966234442833 0 0.058369856589589299 -0.039827328909199003 0 0.058548445594136488 -0.038416352096984858 0 0.059003893467957744 -0.039431569349280417 0 0.059421701188212009 -0.040187127157269777 0 0.058903649078333037 -0.040983081760582067 0 0.059003893467957744 -0.039431569349280417 0 0.059523914597569415 -0.038740758490712346 0 0.059159999688207739 -0.038079147410498455 0 0.059003893467957744 -0.039431569349280417 0 0.059421701188212009 -0.040187127157269777 0 0.059523914597569415 -0.038740758490712346 0 0.059421701188212009 -0.040187127157269777 0 0.058903649078333037 -0.040983081760582067 0 0.058954219521428486 -0.041886397141701788 0 0.059099400847118663 -0.042098725015047044 0 0.058903649078333037 -0.040983081760582067 0 0.058954219521428486 -0.041886397141701788 0 0.058868984349154156 -0.041393472252289037 0 0.059099400847118663 -0.042098725015047044 0 0.058903649078333037 -0.040983081760582067 0 0.058868984349154156 -0.041393472252289037 0 0.058903649078333037 -0.040983081760582067 0 0.058679538942197615 -0.040160966234442833 0 0.059003893467957744 -0.039431569349280417 0 0.058903649078333037 -0.040983081760582067 0 0.058679538942197615 -0.040160966234442833 0 0.058868984349154156 -0.041393472252289037 0 0.058679538942197615 -0.040160966234442833 0 0.058494023737935129 -0.040795435226127802 0 0.058250856321454332 -0.041231143642390923 0 0.058494023737935129 -0.040795435226127802 0 0.058071809712107583 -0.040191526724982003 0 0.058494023737935129 -0.040795435226127802 0 0.058369856589589299 -0.039827328909199003 0 0.058071809712107583 -0.040191526724982003 0 0.058679538942197615 -0.040160966234442833 0 0.058494023737935129 -0.040795435226127802 0 0.058369856589589299 -0.039827328909199003 0 0.057812840296188966 -0.041109892374063067 0 0.058071809712107583 -0.040191526724982003 0 0.05762349160559864 -0.040042491421067958 0 0.058071809712107583 -0.040191526724982003 0 0.057767015897196031 -0.03905724820304253 0 0.05762349160559864 -0.040042491421067958 0 0.058071809712107583 -0.040191526724982003 0 0.057767015897196031 -0.03905724820304253 0 0.058144808082467456 -0.038910113967720671 0 0.057767015897196031 -0.03905724820304253 0 0.058144808082467456 -0.038910113967720671 0 0.057986361129019628 -0.037784514040294509 0 0.058369856589589299 -0.039827328909199003 0 0.058071809712107583 -0.040191526724982003 0 0.058144808082467456 -0.038910113967720671 0 0.058369856589589299 -0.039827328909199003 0 0.058144808082467456 -0.038910113967720671 0 0.058548445594136488 -0.038416352096984858 0 0.058144808082467456 -0.038910113967720671 0 0.057986361129019628 -0.037784514040294509 0 0.058548445594136488 -0.038416352096984858 0 0.057986361129019628 -0.037784514040294509 0 0.058414680356242282 -0.036363485515093406 0 0.058548445594136488 -0.038416352096984858 0 0.057986361129019628 -0.037784514040294509 0 0.057832695169728741 -0.036417371108225016 0 0.057356234576179152 -0.037381336126767715 0 0.057767015897196031 -0.03905724820304253 0 0.057986361129019628 -0.037784514040294509 0 0.057356234576179152 -0.037381336126767715 0 0.057832695169728741 -0.036417371108225016 0 0.057344119683202605 -0.035751857505785814 0 0.057356234576179152 -0.037381336126767715 0 0.057832695169728741 -0.036417371108225016 0 0.057796933016788704 -0.034964721725858933 0 0.057344119683202605 -0.035751857505785814 0 0.057986361129019628 -0.037784514040294509 0 0.057832695169728741 -0.036417371108225016 0 0.058414680356242282 -0.036363485515093406 0 0.057832695169728741 -0.036417371108225016 0 0.058414680356242282 -0.036363485515093406 0 0.057796933016788704 -0.034964721725858933 0 0.058414680356242282 -0.036363485515093406 0 0.059130640187891159 -0.036518868933237809 0 0.058801715601396874 -0.034823696579107326 0 0.059130640187891159 -0.036518868933237809 0 0.058548445594136488 -0.038416352096984858 0 0.059159999688207739 -0.038079147410498455 0 0.058414680356242282 -0.036363485515093406 0 0.059130640187891159 -0.036518868933237809 0 0.058548445594136488 -0.038416352096984858 0 0.059003893467957744 -0.039431569349280417 0 0.058548445594136488 -0.038416352096984858 0 0.059159999688207739 -0.038079147410498455 0 0.059130640187891159 -0.036518868933237809 0 0.059159999688207739 -0.038079147410498455 0 0.059865768935459293 -0.03735430060748491 0 0.059523914597569415 -0.038740758490712346 0 0.059159999688207739 -0.038079147410498455 0 0.059865768935459293 -0.03735430060748491 0 0.06019523698733336 -0.035717580924632002 0 0.059130640187891159 -0.036518868933237809 0 0.059865768935459293 -0.03735430060748491 0 0.06019523698733336 -0.035717580924632002 0 0.059130640187891159 -0.036518868933237809 0 0.059794974272083759 -0.034660362876752365 0 0.059794974272083759 -0.034660362876752365 0 0.058801715601396874 -0.034823696579107326 0 0.059517319528629903 -0.033447116727040892 0 0.059130640187891159 -0.036518868933237809 0 0.059794974272083759 -0.034660362876752365 0 0.058801715601396874 -0.034823696579107326 0 0.059517319528629903 -0.033447116727040892 0 0.059737047960883805 -0.031910572058775365 0 0.058752886367358786 -0.032385168021720381 0 0.058801715601396874 -0.034823696579107326 0 0.059517319528629903 -0.033447116727040892 0 0.058752886367358786 -0.032385168021720381 0 0.059794974272083759 -0.034660362876752365 0 0.059517319528629903 -0.033447116727040892 0 0.060262807771567471 -0.033084126788352257 0 0.059517319528629903 -0.033447116727040892 0 0.060262807771567471 -0.033084126788352257 0 0.059737047960883805 -0.031910572058775365 0 0.060493435103112038 -0.031800740265675434 0 0.060262807771567471 -0.033084126788352257 0 0.059737047960883805 -0.031910572058775365 0 0.060493435103112038 -0.031800740265675434 0 0.059737047960883805 -0.031910572058775365 0 0.060310191355276543 -0.030194275786479478 0 0.059737047960883805 -0.031910572058775365 0 0.058675173559955385 -0.030341107333275989 0 0.058752886367358786 -0.032385168021720381 0 0.059737047960883805 -0.031910572058775365 0 0.060310191355276543 -0.030194275786479478 0 0.058675173559955385 -0.030341107333275989 0 0.060310191355276543 -0.030194275786479478 0 0.058675173559955385 -0.030341107333275989 0 0.058896198084461934 -0.028383964920315165 0 0.060851223456583683 -0.03093297762540206 0 0.060493435103112038 -0.031800740265675434 0 0.060310191355276543 -0.030194275786479478 0 0.057676440257979765 -0.029904235904279645 0 0.058896198084461934 -0.028383964920315165 0 0.057716406627338034 -0.02767593575334008 0 0.057676440257979765 -0.029904235904279645 0 0.058675173559955385 -0.030341107333275989 0 0.058896198084461934 -0.028383964920315165 0 0.057676440257979765 -0.029904235904279645 0 0.058675173559955385 -0.030341107333275989 0 0.058752886367358786 -0.032385168021720381 0 0.057676440257979765 -0.029904235904279645 0 0.057328562450099894 -0.031733465041341752 0 0.058752886367358786 -0.032385168021720381 0 0.057251828698139884 -0.033874802156283843 0 0.058752886367358786 -0.032385168021720381 0 0.057796933016788704 -0.034964721725858933 0 0.058801715601396874 -0.034823696579107326 0 0.058752886367358786 -0.032385168021720381 0 0.057796933016788704 -0.034964721725858933 0 0.057385486599954211 -0.032791279916113497 0 0.058780279869256186 -0.032405801784463582 0 0.058414680356242282 -0.036363485515093406 0 0.058801715601396874 -0.034823696579107326 0 0.057796933016788704 -0.034964721725858933 0 0.057796933016788704 -0.034964721725858933 0 0.057119998763419715 -0.034731859038846617 0 0.057344119683202605 -0.035751857505785814 0 0.057251828698139884 -0.033874802156283843 0 0.057796933016788704 -0.034964721725858933 0 0.057119998763419715 -0.034731859038846617 0 0.057119998763419715 -0.034731859038846617 0 0.056835213453296 -0.035045515833023448 0 0.057344119683202605 -0.035751857505785814 0 0.056835213453296 -0.035045515833023448 0 0.056502206628396875 -0.034541990332268423 0 0.056323944182565699 -0.035110289277882935 0 0.056835213453296 -0.035045515833023448 0 0.056502206628396875 -0.034541990332268423 0 0.056629888946967105 -0.034204293847219611 0 0.057119998763419715 -0.034731859038846617 0 0.056835213453296 -0.035045515833023448 0 0.056629888946967105 -0.034204293847219611 0 0.056310362039466162 -0.032001921069762504 0 0.056499701029828035 -0.031112499845339363 0 0.055984706918228745 -0.031861412489034131 0 0.057328562450099894 -0.031733465041341752 0 0.056310362039466162 -0.032001921069762504 0 0.056499701029828035 -0.031112499845339363 0 0.057251828698139884 -0.033874802156283843 0 0.057119998763419715 -0.034731859038846617 0 0.056629888946967105 -0.034204293847219611 0 0.057385486599954211 -0.032791279916113497 0 0.056389146980062643 -0.033058415681901758 0 0.057697693367267482 -0.029884400078228776 0 0.056921946668439805 -0.030251052166591127 0 0.057676440257979765 -0.029904235904279645 0 0.057328562450099894 -0.031733465041341752 0 0.056499701029828035 -0.031112499845339363 0 0.056921946668439805 -0.030251052166591127 0 0.056134198557062885 -0.031060727605904174 0 0.057191206740282254 -0.029320891240147091 0 0.056664863780384857 -0.028922424247427657 0 0.056449359891073962 -0.030244326769971325 0 0.057104772801151109 -0.0283711664726694 0 0.056664863780384857 -0.028922424247427657 0 0.056236962148827445 -0.027451655447057109 0 0.057191206740282254 -0.029320891240147091 0 0.057104772801151109 -0.0283711664726694 0 0.056664863780384857 -0.028922424247427657 0 0.057676440257979765 -0.029904235904279645 0 0.057191206740282254 -0.029320891240147091 0 0.057104772801151109 -0.0283711664726694 0 0.057676440257979765 -0.029904235904279645 0 0.057104772801151109 -0.0283711664726694 0 0.057716406627338034 -0.02767593575334008 0 0.054999406899509662 -0.02892854636615888 0 0.055950618349332154 -0.029256756787293149 0 0.056236962148827445 -0.027451655447057109 0 0.056664863780384857 -0.028922424247427657 0 0.055950618349332154 -0.029256756787293149 0 0.056236962148827445 -0.027451655447057109 0 0.056664863780384857 -0.028922424247427657 0 0.055950618349332154 -0.029256756787293149 0 0.056449359891073962 -0.030244326769971325 0 0.054999406899509662 -0.02892854636615888 0 0.055950618349332154 -0.029256756787293149 0 0.054999774358793982 -0.031938195752856509 0 0.055950618349332154 -0.029256756787293149 0 0.054999774358793982 -0.031938195752856509 0 0.056449359891073962 -0.030244326769971325 0 0.055546362817639625 -0.032827647303996503 0 0.054999315532131589 -0.031942298639937076 0 0.055984706918228745 -0.031861412489034131 0 0.055000009575973952 -0.031939598193018698 0 0.056134198557062885 -0.031060727605904174 0 0.056629888946967105 -0.034204293847219611 0 0.055546362817639625 -0.032827647303996503 0 0.056062738103500639 -0.033933961701910084 0 0.056389146980062643 -0.033058415681901758 0 0.055490344290381549 -0.032922104459830487 0 0.056310362039466162 -0.032001921069762504 0 0.055546362817639625 -0.032827647303996503 0 0.055984706918228745 -0.031861412489034131 0 0.056502206628396875 -0.034541990332268423 0 0.056629888946967105 -0.034204293847219611 0 0.056062738103500639 -0.033933961701910084 0 0.056062738103500639 -0.033933961701910084 0 0.055790298463091983 -0.034668866289186695 0 0.056323944182565699 -0.035110289277882935 0 0.056502206628396875 -0.034541990332268423 0 0.056062738103500639 -0.033933961701910084 0 0.056323944182565699 -0.035110289277882935 0 0.055546362817639625 -0.032827647303996503 0 0.056062738103500639 -0.033933961701910084 0 0.055790298463091983 -0.034668866289186695 0 0.055546362817639625 -0.032827647303996503 0 0.054999315532131589 -0.031942298639937076 0 0.054999299482018149 -0.035024870026035944 0 0.055546362817639625 -0.032827647303996503 0 0.055790298463091983 -0.034668866289186695 0 0.054999299482018149 -0.035024870026035944 0 0.055790298463091983 -0.034668866289186695 0 0.054999299482018149 -0.035024870026035944 0 0.05589938462079784 -0.036405616539881003 0 0.05589938462079784 -0.036405616539881003 0 0.054999275475608941 -0.03810946038064851 0 0.056295387644289874 -0.03906907353058111 0 0.054999299482018149 -0.035024870026035944 0 0.05589938462079784 -0.036405616539881003 0 0.054999275475608941 -0.03810946038064851 0 0.05589938462079784 -0.036405616539881003 0 0.056703909429960599 -0.036731651799977241 0 0.056295387644289874 -0.03906907353058111 0 0.05589938462079784 -0.036405616539881003 0 0.056323944182565699 -0.035110289277882935 0 0.056703909429960599 -0.036731651799977241 0 0.055790298463091983 -0.034668866289186695 0 0.05589938462079784 -0.036405616539881003 0 0.056323944182565699 -0.035110289277882935 0 0.056835213453296 -0.035045515833023448 0 0.056323944182565699 -0.035110289277882935 0 0.056703909429960599 -0.036731651799977241 0 0.056835213453296 -0.035045515833023448 0 0.057056616761233282 -0.036221657259876937 0 0.056703909429960599 -0.036731651799977241 0 0.057056616761233282 -0.036221657259876937 0 0.057344119683202605 -0.035751857505785814 0 0.057356234576179152 -0.037381336126767715 0 0.056835213453296 -0.035045515833023448 0 0.057056616761233282 -0.036221657259876937 0 0.057344119683202605 -0.035751857505785814 0 0.057356234576179152 -0.037381336126767715 0 0.056703909429960599 -0.036731651799977241 0 0.057192972704699689 -0.038917212197529041 0 0.057056616761233282 -0.036221657259876937 0 0.057356234576179152 -0.037381336126767715 0 0.056703909429960599 -0.036731651799977241 0 0.056703909429960599 -0.036731651799977241 0 0.057192972704699689 -0.038917212197529041 0 0.056295387644289874 -0.03906907353058111 0 0.057767015897196031 -0.03905724820304253 0 0.057356234576179152 -0.037381336126767715 0 0.057192972704699689 -0.038917212197529041 0 0.057767015897196031 -0.03905724820304253 0 0.057192972704699689 -0.038917212197529041 0 0.05762349160559864 -0.040042491421067958 0 0.057174726756832321 -0.040701207962545262 0 0.057812840296188966 -0.041109892374063067 0 0.05762349160559864 -0.040042491421067958 0 0.057174726756832321 -0.040701207962545262 0 0.057192972704699689 -0.038917212197529041 0 0.05762349160559864 -0.040042491421067958 0 0.057174726756832321 -0.040701207962545262 0 0.057192972704699689 -0.038917212197529041 0 0.056295387644289874 -0.03906907353058111 0 0.056335269281282865 -0.041659236399338287 0 0.057174726756832321 -0.040701207962545262 0 0.056295387644289874 -0.03906907353058111 0 0.056335269281282865 -0.041659236399338287 0 0.05499930594588831 -0.041194174779685615 0 0.056295387644289874 -0.03906907353058111 0 0.05499930594588831 -0.041194174779685615 0 0.054999275475608941 -0.03810946038064851 0 0.056295387644289874 -0.03906907353058111 0 0.056177565438838215 -0.017952736241124981 0 0.05577384989973791 -0.016508934845559608 0 0.056068465573596869 -0.017087201499729518 0 0.056177565438838215 -0.017952736241124981 0 0.05577384989973791 -0.016508934845559608 0 0.055715579969231557 -0.018573517059468161 0 0.054999366558893842 -0.016885726687198132 0 0.05577384989973791 -0.016508934845559608 0 0.055715579969231557 -0.018573517059468161 0 0.054999366558893842 -0.016885726687198132 0 0.05577384989973791 -0.016508934845559608 0 0.054999355034475512 -0.013873224013340742 0 0.05577384989973791 -0.016508934845559608 0 0.054999355034475512 -0.013873224013340742 0 0.056288087168885462 -0.014102366057985009 0 0.055738462685312733 -0.016485354915543895 0 0.056730313370600381 -0.015579879848000806 0 0.05577384989973791 -0.016508934845559608 0 0.056288087168885462 -0.014102366057985009 0 0.057576022873475845 -0.014054895485631082 0 0.056730313370600381 -0.015579879848000806 0 0.05740360176093403 -0.014422347136884157 0 0.056068465573596869 -0.017087201499729518 0 0.056699071256626661 -0.017433480606034446 0 0.056623100195171111 -0.015906088932574881 0 0.056699071256626661 -0.017433480606034446 0 0.056696451827313706 -0.018667965833718776 0 0.057447602093782517 -0.018545327373099562 0 0.056177565438838215 -0.017952736241124981 0 0.056068465573596869 -0.017087201499729518 0 0.056696451827313706 -0.018667965833718776 0 0.056068465573596869 -0.017087201499729518 0 0.056699071256626661 -0.017433480606034446 0 0.056696451827313706 -0.018667965833718776 0 0.056177565438838215 -0.017952736241124981 0 0.056696451827313706 -0.018667965833718776 0 0.056281663104190048 -0.019732488828002191 0 0.056696451827313706 -0.018667965833718776 0 0.057097027754951915 -0.021277029249337269 0 0.056281663104190048 -0.019732488828002191 0 0.056696451827313706 -0.018667965833718776 0 0.057586814727052446 -0.020041411756620303 0 0.057447602093782517 -0.018545327373099562 0 0.056696451827313706 -0.018667965833718776 0 0.057097027754951915 -0.021277029249337269 0 0.057586814727052446 -0.020041411756620303 0 0.057097027754951915 -0.021277029249337269 0 0.056281663104190048 -0.019732488828002191 0 0.056257432051614771 -0.022487252609792618 0 0.056281663104190048 -0.019732488828002191 0 0.055756094792666515 -0.020759521942359336 0 0.055715579969231557 -0.018573517059468161 0 0.056281663104190048 -0.019732488828002191 0 0.055756094792666515 -0.020759521942359336 0 0.056257432051614771 -0.022487252609792618 0 0.056177565438838215 -0.017952736241124981 0 0.056281663104190048 -0.019732488828002191 0 0.055715579969231557 -0.018573517059468161 0 0.054999366558893842 -0.016885726687198132 0 0.055715579969231557 -0.018573517059468161 0 0.054999117497173441 -0.019895930646058928 0 0.055756094792666515 -0.020759521942359336 0 0.055715579969231557 -0.018573517059468161 0 0.054999117497173441 -0.019895930646058928 0 0.055756094792666515 -0.020759521942359336 0 0.056257432051614771 -0.022487252609792618 0 0.054999156272209589 -0.022906993623753532 0 0.055756094792666515 -0.020759521942359336 0 0.054999117497173441 -0.019895930646058928 0 0.054999156272209589 -0.022906993623753532 0 0.056257432051614771 -0.022487252609792618 0 0.054999156272209589 -0.022906993623753532 0 0.056085442577608981 -0.024781736876522489 0 0.054999156272209589 -0.022906993623753532 0 0.056085442577608981 -0.024781736876522489 0 0.054999208836787085 -0.025917859288351205 0 0.054999406899509662 -0.02892854636615888 0 0.056236962148827445 -0.027451655447057109 0 0.054999208836787085 -0.025917859288351205 0 0.056085442577608981 -0.024781736876522489 0 0.056236962148827445 -0.027451655447057109 0 0.054999208836787085 -0.025917859288351205 0 0.057104772801151109 -0.0283711664726694 0 0.057100642700375071 -0.026047813401854535 0 0.057716406627338034 -0.02767593575334008 0 0.057104772801151109 -0.0283711664726694 0 0.056236962148827445 -0.027451655447057109 0 0.057100642700375071 -0.026047813401854535 0 0.056085442577608981 -0.024781736876522489 0 0.057100642700375071 -0.026047813401854535 0 0.0569166443308022 -0.023839941976055982 0 0.056085442577608981 -0.024781736876522489 0 0.056236962148827445 -0.027451655447057109 0 0.057100642700375071 -0.026047813401854535 0 0.057100642700375071 -0.026047813401854535 0 0.0569166443308022 -0.023839941976055982 0 0.057733129513841318 -0.023563489745223761 0 0.056257432051614771 -0.022487252609792618 0 0.056085442577608981 -0.024781736876522489 0 0.0569166443308022 -0.023839941976055982 0 0.057097027754951915 -0.021277029249337269 0 0.056257432051614771 -0.022487252609792618 0 0.0569166443308022 -0.023839941976055982 0 0.057097027754951915 -0.021277029249337269 0 0.0569166443308022 -0.023839941976055982 0 0.057733129513841318 -0.023563489745223761 0 0.058800756947621047 -0.023429469730933718 0 0.057733129513841318 -0.023563489745223761 0 0.058348963934118862 -0.021362998096152105 0 0.057097027754951915 -0.021277029249337269 0 0.057733129513841318 -0.023563489745223761 0 0.058348963934118862 -0.021362998096152105 0 0.058800756947621047 -0.023429469730933718 0 0.059487875767142824 -0.022408714669813028 0 0.058348963934118862 -0.021362998096152105 0 0.058800756947621047 -0.023429469730933718 0 0.059097685283823621 -0.02527981623974946 0 0.058170765741055418 -0.025756582257344982 0 0.058800756947621047 -0.023429469730933718 0 0.057733129513841318 -0.023563489745223761 0 0.058170765741055418 -0.025756582257344982 0 0.057100642700375071 -0.026047813401854535 0 0.058170765741055418 -0.025756582257344982 0 0.057716406627338034 -0.02767593575334008 0 0.057100642700375071 -0.026047813401854535 0 0.057733129513841318 -0.023563489745223761 0 0.058170765741055418 -0.025756582257344982 0 0.059097685283823621 -0.02527981623974946 0 0.058170765741055418 -0.025756582257344982 0 0.058896198084461934 -0.028383964920315165 0 0.058170765741055418 -0.025756582257344982 0 0.058896198084461934 -0.028383964920315165 0 0.057716406627338034 -0.02767593575334008 0 0.060310191355276543 -0.030194275786479478 0 0.060536472458164889 -0.02779896632258497 0 0.061220318258307864 -0.029834161650529968 0 0.060310191355276543 -0.030194275786479478 0 0.058896198084461934 -0.028383964920315165 0 0.060536472458164889 -0.02779896632258497 0 0.059037897462381098 -0.025418748103723281 0 0.060035175200027713 -0.026654520236106975 0 0.059097685283823621 -0.02527981623974946 0 0.058896198084461934 -0.028383964920315165 0 0.060536472458164889 -0.02779896632258497 0 0.059705344206232788 -0.025563425027296707 0 0.05970883707911287 -0.024214808778424437 0 0.060393894105816866 -0.024396486599416532 0 0.058800756947621047 -0.023429469730933718 0 0.059097685283823621 -0.02527981623974946 0 0.05970883707911287 -0.024214808778424437 0 0.059097685283823621 -0.02527981623974946 0 0.059705344206232788 -0.025563425027296707 0 0.05970883707911287 -0.024214808778424437 0 0.058800756947621047 -0.023429469730933718 0 0.05970883707911287 -0.024214808778424437 0 0.059487875767142824 -0.022408714669813028 0 0.05970883707911287 -0.024214808778424437 0 0.059487875767142824 -0.022408714669813028 0 0.060236457118682134 -0.023066646356078767 0 0.05970883707911287 -0.024214808778424437 0 0.060236457118682134 -0.023066646356078767 0 0.060393894105816866 -0.024396486599416532 0 0.059487875767142824 -0.022408714669813028 0 0.060236457118682134 -0.023066646356078767 0 0.060350958757891628 -0.021086389419019153 0 0.060350958757891628 -0.021086389419019153 0 0.059908913864665479 -0.018738360923463988 0 0.060896763076718888 -0.019434249216698282 0 0.060350958757891628 -0.021086389419019153 0 0.059257078916196512 -0.020269542641621952 0 0.059908913864665479 -0.018738360923463988 0 0.059487875767142824 -0.022408714669813028 0 0.059257078916196512 -0.020269542641621952 0 0.058348963934118862 -0.021362998096152105 0 0.059487875767142824 -0.022408714669813028 0 0.060350958757891628 -0.021086389419019153 0 0.059257078916196512 -0.020269542641621952 0 0.057097027754951915 -0.021277029249337269 0 0.058348963934118862 -0.021362998096152105 0 0.057586814727052446 -0.020041411756620303 0 0.057586814727052446 -0.020041411756620303 0 0.058525538170428222 -0.01897592827903305 0 0.057447602093782517 -0.018545327373099562 0 0.058348963934118862 -0.021362998096152105 0 0.057586814727052446 -0.020041411756620303 0 0.058525538170428222 -0.01897592827903305 0 0.059257078916196512 -0.020269542641621952 0 0.058348963934118862 -0.021362998096152105 0 0.058525538170428222 -0.01897592827903305 0 0.058525538170428222 -0.01897592827903305 0 0.057447602093782517 -0.018545327373099562 0 0.058115210440803415 -0.016782319393474816 0 0.056699071256626661 -0.017433480606034446 0 0.057447602093782517 -0.018545327373099562 0 0.058115210440803415 -0.016782319393474816 0 0.056699071256626661 -0.017433480606034446 0 0.058115210440803415 -0.016782319393474816 0 0.056623100195171111 -0.015906088932574881 0 0.058525538170428222 -0.01897592827903305 0 0.058115210440803415 -0.016782319393474816 0 0.059557564645340948 -0.016372018213566319 0 0.059557564645340948 -0.016372018213566319 0 0.059908913864665479 -0.018738360923463988 0 0.060972190738827578 -0.017359862725711207 0 0.059908913864665479 -0.018738360923463988 0 0.060896763076718888 -0.019434249216698282 0 0.060972190738827578 -0.017359862725711207 0 0.059257078916196512 -0.020269542641621952 0 0.058525538170428222 -0.01897592827903305 0 0.059908913864665479 -0.018738360923463988 0 0.058525538170428222 -0.01897592827903305 0 0.059557564645340948 -0.016372018213566319 0 0.059908913864665479 -0.018738360923463988 0 0.061983075748645436 -0.019081475010137166 0 0.063082976594146911 -0.01979814515916167 0 0.061598577118053381 -0.02083934175835939 0 0.061983075748645436 -0.019081475010137166 0 0.062455824921104304 -0.017062793016678669 0 0.063082976594146911 -0.01979814515916167 0 0.061983075748645436 -0.019081475010137166 0 0.060896763076718888 -0.019434249216698282 0 0.061598577118053381 -0.02083934175835939 0 0.061983075748645436 -0.019081475010137166 0 0.060896763076718888 -0.019434249216698282 0 0.060972190738827578 -0.017359862725711207 0 0.061983075748645436 -0.019081475010137166 0 0.060972190738827578 -0.017359862725711207 0 0.062455824921104304 -0.017062793016678669 0 0.037608143689075904 -0.022720668348314262 0 0.039219294785770617 -0.022420384930070862 0 0.039291224710315618 -0.025256591813118533 0 0.039219294785770617 -0.022420384930070862 0 0.040271499180779519 -0.023827403794313737 0 0.039291224710315618 -0.025256591813118533 0 0.040271499180779519 -0.023827403794313737 0 0.040987163750300516 -0.022638680326976725 0 0.041471555830572493 -0.024875151780569104 0 0.039219294785770617 -0.022420384930070862 0 0.040271499180779519 -0.023827403794313737 0 0.040987163750300516 -0.022638680326976725 0 0.040271499180779519 -0.023827403794313737 0 0.039291224710315618 -0.025256591813118533 0 0.041471555830572493 -0.024875151780569104 0 0.050016949159620995 -0.019870821280387547 0 0.051138978533571938 -0.022460406997197799 0 0.063082976594146911 -0.01979814515916167 0 0.062136251246020964 -0.022261168302502927 0 0.061598577118053381 -0.02083934175835939 0 0.063082976594146911 -0.01979814515916167 0 0.063249768292982553 -0.02204071076124001 0 0.062136251246020964 -0.022261168302502927 0 0.039291224710315618 -0.025256591813118533 0 0.040800564330466541 -0.027318051586886456 0 0.041471555830572493 -0.024875151780569104 0 0.051138978533571938 -0.022460406997197799 0 0.052040413856694459 -0.024668684354060839 0 0.063249768292982553 -0.02204071076124001 0 0.062136251246020964 -0.022261168302502927 0 0.062488115301518925 -0.023744722951629587 0 0.062136251246020964 -0.022261168302502927 0 0.061598577118053381 -0.02083934175835939 0 0.06096921365532381 -0.022648017634507127 0 0.060350958757891628 -0.021086389419019153 0 0.060896763076718888 -0.019434249216698282 0 0.061598577118053381 -0.02083934175835939 0 0.060236457118682134 -0.023066646356078767 0 0.060350958757891628 -0.021086389419019153 0 0.06096921365532381 -0.022648017634507127 0 0.060350958757891628 -0.021086389419019153 0 0.061598577118053381 -0.02083934175835939 0 0.06096921365532381 -0.022648017634507127 0 0.06096921365532381 -0.022648017634507127 0 0.061337302347663387 -0.024100703938340403 0 0.060393894105816866 -0.024396486599416532 0 0.060236457118682134 -0.023066646356078767 0 0.06096921365532381 -0.022648017634507127 0 0.060393894105816866 -0.024396486599416532 0 0.062136251246020964 -0.022261168302502927 0 0.06096921365532381 -0.022648017634507127 0 0.061337302347663387 -0.024100703938340403 0 0.061337302347663387 -0.024100703938340403 0 0.060798633186733383 -0.025030487409061001 0 0.060393894105816866 -0.024396486599416532 0 0.061337302347663387 -0.024100703938340403 0 0.060798633186733383 -0.025030487409061001 0 0.061201550209341427 -0.025237359161750243 0 0.060798633186733383 -0.025030487409061001 0 0.060393894105816866 -0.024396486599416532 0 0.060287461883541497 -0.025532140638969143 0 0.059705344206232788 -0.025563425027296707 0 0.060287461883541497 -0.025532140638969143 0 0.06027060793993206 -0.02666931933745393 0 0.059705344206232788 -0.025563425027296707 0 0.060393894105816866 -0.024396486599416532 0 0.060287461883541497 -0.025532140638969143 0 0.060287461883541497 -0.025532140638969143 0 0.060804381821832364 -0.025790749839676733 0 0.06027060793993206 -0.02666931933745393 0 0.060798633186733383 -0.025030487409061001 0 0.060287461883541497 -0.025532140638969143 0 0.060804381821832364 -0.025790749839676733 0 0.061201550209341427 -0.025237359161750243 0 0.060804381821832364 -0.025790749839676733 0 0.061237693570837894 -0.026155919166040566 0 0.060798633186733383 -0.025030487409061001 0 0.061201550209341427 -0.025237359161750243 0 0.060804381821832364 -0.025790749839676733 0 0.061188455937922596 -0.029979397405878197 0 0.060713381782487356 -0.028251034025443159 0 0.061251991676406381 -0.031329894921187873 0 0.061140970559289159 -0.031129207355935985 0 0.061220318258307864 -0.029834161650529968 0 0.060759258487697268 -0.025984897035426859 0 0.061124301397225661 -0.027593291191099909 0 0.060804381821832364 -0.025790749839676733 0 0.060850584261478387 -0.027123543174232233 0 0.061486152577504623 -0.027847415730302701 0 0.060804381821832364 -0.025790749839676733 0 0.060850584261478387 -0.027123543174232233 0 0.06027060793993206 -0.02666931933745393 0 0.061023002071983488 -0.028510147431003927 0 0.060850584261478387 -0.027123543174232233 0 0.06027060793993206 -0.02666931933745393 0 0.060035175200027713 -0.026654520236106975 0 0.060713381782487356 -0.028251034025443159 0 0.060910816634962416 -0.029237052160958042 0 0.061159758239466379 -0.027703343191654246 0 0.060941044873630085 -0.027289522732150927 0 0.061386250249125078 -0.027116608506545983 0 0.061159758239466379 -0.027703343191654246 0 0.061255277002483108 -0.026924740286897873 0 0.061386250249125078 -0.027116608506545983 0 0.061496687387610369 -0.027518403833430471 0 0.061159758239466379 -0.027703343191654246 0 0.061386250249125078 -0.027116608506545983 0 0.061496687387610369 -0.027518403833430471 0 0.061768245599374258 -0.026780216211288753 0 0.061496687387610369 -0.027518403833430471 0 0.061768245599374258 -0.026780216211288753 0 0.061837963494262897 -0.02733702034323944 0 0.061496687387610369 -0.027518403833430471 0 0.061612539413947877 -0.028023499627726635 0 0.061837963494262897 -0.02733702034323944 0 0.061496687387610369 -0.027518403833430471 0 0.061262942060524059 -0.028176756972755391 0 0.061159758239466379 -0.027703343191654246 0 0.061496687387610369 -0.027518403833430471 0 0.061262942060524059 -0.028176756972755391 0 0.061612539413947877 -0.028023499627726635 0 0.061348488522598436 -0.028700168473617935 0 0.061262942060524059 -0.028176756972755391 0 0.061612539413947877 -0.028023499627726635 0 0.061023002071983488 -0.028510147431003927 0 0.061384751098243782 -0.029854466378514775 0 0.061486152577504623 -0.027847415730302701 0 0.060941044873630085 -0.027289522732150927 0 0.061255277002483108 -0.026924740286897873 0 0.061237693570837894 -0.026155919166040566 0 0.061023002071983488 -0.028510147431003927 0 0.060850584261478387 -0.027123543174232233 0 0.061486152577504623 -0.027847415730302701 0 0.061159758239466379 -0.027703343191654246 0 0.060941044873630085 -0.027289522732150927 0 0.061255277002483108 -0.026924740286897873 0 0.060804381821832364 -0.025790749839676733 0 0.060941044873630085 -0.027289522732150927 0 0.061237693570837894 -0.026155919166040566 0 0.061255277002483108 -0.026924740286897873 0 0.061237693570837894 -0.026155919166040566 0 0.061586513475085453 -0.026378433405536854 0 0.061201550209341427 -0.025237359161750243 0 0.061237693570837894 -0.026155919166040566 0 0.06182299776961802 -0.025248687834641629 0 0.061237693570837894 -0.026155919166040566 0 0.061586513475085453 -0.026378433405536854 0 0.06182299776961802 -0.025248687834641629 0 0.061586513475085453 -0.026378433405536854 0 0.062183360843175627 -0.026076670874034216 0 0.06182299776961802 -0.025248687834641629 0 0.061386250249125078 -0.027116608506545983 0 0.061586513475085453 -0.026378433405536854 0 0.061768245599374258 -0.026780216211288753 0 0.061386250249125078 -0.027116608506545983 0 0.061255277002483108 -0.026924740286897873 0 0.061586513475085453 -0.026378433405536854 0 0.061768245599374258 -0.026780216211288753 0 0.062183360843175627 -0.026076670874034216 0 0.062061833564961456 -0.026754821521276246 0 0.061586513475085453 -0.026378433405536854 0 0.061768245599374258 -0.026780216211288753 0 0.062183360843175627 -0.026076670874034216 0 0.061768245599374258 -0.026780216211288753 0 0.062061833564961456 -0.026754821521276246 0 0.061837963494262897 -0.02733702034323944 0 0.062548983716428849 -0.024988406503913704 0 0.06182299776961802 -0.025248687834641629 0 0.062488115301518925 -0.023744722951629587 0 0.062183360843175627 -0.026076670874034216 0 0.062548983716428849 -0.024988406503913704 0 0.06182299776961802 -0.025248687834641629 0 0.061337302347663387 -0.024100703938340403 0 0.06182299776961802 -0.025248687834641629 0 0.062488115301518925 -0.023744722951629587 0 0.061337302347663387 -0.024100703938340403 0 0.061201550209341427 -0.025237359161750243 0 0.06182299776961802 -0.025248687834641629 0 0.062136251246020964 -0.022261168302502927 0 0.061337302347663387 -0.024100703938340403 0 0.062488115301518925 -0.023744722951629587 0 0.062548983716428849 -0.024988406503913704 0 0.062488115301518925 -0.023744722951629587 0 0.063300414910047273 -0.023949313531555397 0 0.063249768292982553 -0.02204071076124001 0 0.062488115301518925 -0.023744722951629587 0 0.063300414910047273 -0.023949313531555397 0 0.042077120985977746 -0.028259721376481962 0 0.041970137081898902 -0.027980077899743706 0 0.042234504590807243 -0.028300523598275541 0 0.042077120985977746 -0.028259721376481962 0 0.041970137081898902 -0.027980077899743706 0 0.042158754944236487 -0.027625994034665632 0 0.063300414910047273 -0.023949313531555397 0 0.063729360863070628 -0.025792802674522775 0 0.062985386428361226 -0.025965053130368176 0 0.052475918658872259 -0.025714730720636802 0 0.053538202133913561 -0.028177593271129311 0 0.053538202133913561 -0.028177593271129311 0 0.064490809185055717 -0.02577843943953816 0 0.062548983716428849 -0.024988406503913704 0 0.063300414910047273 -0.023949313531555397 0 0.062985386428361226 -0.025965053130368176 0 0.062183360843175627 -0.026076670874034216 0 0.062548983716428849 -0.024988406503913704 0 0.062985386428361226 -0.025965053130368176 0 0.062183360843175627 -0.026076670874034216 0 0.062985386428361226 -0.025965053130368176 0 0.06244039761696514 -0.026786869542702093 0 0.062183360843175627 -0.026076670874034216 0 0.062061833564961456 -0.026754821521276246 0 0.06244039761696514 -0.026786869542702093 0 0.062061833564961456 -0.026754821521276246 0 0.06244039761696514 -0.026786869542702093 0 0.061837963494262897 -0.02733702034323944 0 0.062985386428361226 -0.025965053130368176 0 0.06244039761696514 -0.026786869542702093 0 0.063010981359793938 -0.02673846296996292 0 0.063010981359793938 -0.02673846296996292 0 0.062813977291158465 -0.027619563780801017 0 0.063700828631008261 -0.027377830038675572 0 0.063226964703502184 -0.026086875795072208 0 0.063010981359793938 -0.02673846296996292 0 0.063700828631008261 -0.027377830038675572 0 0.053538202133913561 -0.028177593271129311 0 0.057504142883634229 -0.030464419557550283 0 0.063226964703502184 -0.026086875795072208 0 0.062985386428361226 -0.025965053130368176 0 0.063010981359793938 -0.02673846296996292 0 0.06244039761696514 -0.026786869542702093 0 0.063010981359793938 -0.02673846296996292 0 0.062813977291158465 -0.027619563780801017 0 0.062813977291158465 -0.027619563780801017 0 0.063342098960354226 -0.028681850770751076 0 0.063700828631008261 -0.027377830038675572 0 0.062395302345371877 -0.028782654763647303 0 0.062813977291158465 -0.027619563780801017 0 0.063342098960354226 -0.028681850770751076 0 0.062395302345371877 -0.028782654763647303 0 0.062813977291158465 -0.027619563780801017 0 0.062135781578335193 -0.027818584039994626 0 0.061685906307253818 -0.028745843616867859 0 0.062395302345371877 -0.028782654763647303 0 0.062135781578335193 -0.027818584039994626 0 0.061685906307253818 -0.028745843616867859 0 0.061612539413947877 -0.028023499627726635 0 0.062135781578335193 -0.027818584039994626 0 0.061612539413947877 -0.028023499627726635 0 0.061837963494262897 -0.02733702034323944 0 0.062135781578335193 -0.027818584039994626 0 0.06244039761696514 -0.026786869542702093 0 0.061837963494262897 -0.02733702034323944 0 0.062135781578335193 -0.027818584039994626 0 0.06244039761696514 -0.026786869542702093 0 0.062813977291158465 -0.027619563780801017 0 0.062135781578335193 -0.027818584039994626 0 0.050320138070840806 -0.032560436867349489 0 0.050124537688073803 -0.032708893614668923 0 0.050239657890168994 -0.032857116126959539 0 0.050320138070840806 -0.032560436867349489 0 0.050465517610402612 -0.032747094693393403 0 0.050239657890168994 -0.032857116126959539 0 0.057431065052586175 -0.030678391549209955 0 0.057504142883634229 -0.030464419557550283 0 0.064309135498206008 -0.029033279423088865 0 0.063342098960354226 -0.028681850770751076 0 0.063700828631008261 -0.027377830038675572 0 0.050650142340660571 -0.032961006423472931 0 0.050465517610402612 -0.032747094693393403 0 0.050340634558471681 -0.033045599514536964 0 0.050465517610402612 -0.032747094693393403 0 0.050239657890168994 -0.032857116126959539 0 0.050340634558471681 -0.033045599514536964 0 0.050124537688073803 -0.032708893614668923 0 0.050239657890168994 -0.032857116126959539 0 0.050016836055279734 -0.03311239489360579 0 0.044354426921944821 -0.035819908562151122 0 0.042919173785291247 -0.033000216184963044 0 0.040536709334816699 -0.02753946650277022 0 0.041474638228992944 -0.027488102505526472 0 0.041185444638801985 -0.027987790655024471 0 0.042919173785291247 -0.033000216184963044 0 0.045076529358416197 -0.030402293409279711 0 0.050239657890168994 -0.032857116126959539 0 0.050016836055279734 -0.03311239489360579 0 0.050340634558471681 -0.033045599514536964 0 0.053538202133913561 -0.028177593271129311 0 0.045076529358416197 -0.030402293409279711 0 0.041970137081898902 -0.027980077899743706 0 0.041474638228992944 -0.027488102505526472 0 0.041185444638801985 -0.027987790655024471 0 0.041970137081898902 -0.027980077899743706 0 0.042158754944236487 -0.027625994034665632 0 0.041474638228992944 -0.027488102505526472 0 0.041185444638801985 -0.027987790655024471 0 0.040941859905114529 -0.028739711318554965 0 0.042234504590807243 -0.028300523598275541 0 0.041970137081898902 -0.027980077899743706 0 0.041185444638801985 -0.027987790655024471 0 0.042234504590807243 -0.028300523598275541 0 0.041185444638801985 -0.027987790655024471 0 0.040379258297142846 -0.028273738904982405 0 0.040941859905114529 -0.028739711318554965 0 0.040536709334816699 -0.02753946650277022 0 0.041185444638801985 -0.027987790655024471 0 0.040379258297142846 -0.028273738904982405 0 0.042919173785291247 -0.033000216184963044 0 0.04011831750604046 -0.028249836462513812 0 0.040379258297142846 -0.028273738904982405 0 0.040941859905114529 -0.028739711318554965 0 0.040075726571811014 -0.029482621429306705 0 0.04011831750604046 -0.028249836462513812 0 0.040074897328568254 -0.029705342304097389 0 0.040941859905114529 -0.028739711318554965 0 0.040608449188450024 -0.029494231489656464 0 0.041155428927973942 -0.029291268624922647 0 0.040941859905114529 -0.028739711318554965 0 0.040075726571811014 -0.029482621429306705 0 0.040608449188450024 -0.029494231489656464 0 0.040075726571811014 -0.029482621429306705 0 0.040284511938300058 -0.02972407047250001 0 0.040608449188450024 -0.029494231489656464 0 0.040284511938300058 -0.02972407047250001 0 0.040608449188450024 -0.029494231489656464 0 0.040610989233520765 -0.029777978485265866 0 0.040608449188450024 -0.029494231489656464 0 0.040610989233520765 -0.029777978485265866 0 0.041155428927973942 -0.029291268624922647 0 0.040284511938300058 -0.02972407047250001 0 0.040610989233520765 -0.029777978485265866 0 0.04030126012511008 -0.0299396076868442 0 0.041155428927973942 -0.029291268624922647 0 0.042234504590807243 -0.028300523598275541 0 0.041666059216779246 -0.029836467740896353 0 0.041155428927973942 -0.029291268624922647 0 0.041666059216779246 -0.029836467740896353 0 0.041059400652564255 -0.030062601658278645 0 0.040610989233520765 -0.029777978485265866 0 0.041155428927973942 -0.029291268624922647 0 0.041059400652564255 -0.030062601658278645 0 0.040941859905114529 -0.028739711318554965 0 0.041155428927973942 -0.029291268624922647 0 0.042234504590807243 -0.028300523598275541 0 0.042077120985977746 -0.028259721376481962 0 0.042234504590807243 -0.028300523598275541 0 0.042041629167228728 -0.027290783237776162 0 0.040800564330466541 -0.027318051586886456 0 0.042077120985977746 -0.028259721376481962 0 0.042041629167228728 -0.027290783237776162 0 0.052040413856694459 -0.024668684354060839 0 0.052475918658872259 -0.025714730720636802 0 0.040800564330466541 -0.027318051586886456 0 0.042041629167228728 -0.027290783237776162 0 0.041471555830572493 -0.024875151780569104 0 0.042041629167228728 -0.027290783237776162 0 0.043212968430034977 -0.025913228138060029 0 0.041471555830572493 -0.024875151780569104 0 0.04229010168783149 -0.028264198763821601 0 0.042332593576863344 -0.027571930756334604 0 0.042234504590807243 -0.028300523598275541 0 0.042041629167228728 -0.027290783237776162 0 0.043212968430034977 -0.025913228138060029 0 0.041666059216779246 -0.029836467740896353 0 0.041330682674707291 -0.030273144324065349 0 0.041059400652564255 -0.030062601658278645 0 0.042332593576863344 -0.027571930756334604 0 0.042624242728025209 -0.027637628262865827 0 0.043212968430034977 -0.025913228138060029 0 0.041471555830572493 -0.024875151780569104 0 0.043169161869035889 -0.023168291057404526 0 0.041471555830572493 -0.024875151780569104 0 0.041963908284505427 -0.022766781046197337 0 0.043169161869035889 -0.023168291057404526 0 0.040987163750300516 -0.022638680326976725 0 0.041471555830572493 -0.024875151780569104 0 0.041963908284505427 -0.022766781046197337 0 0.04101393781741404 -0.030288813701771031 0 0.040772843735336455 -0.030191048166925472 0 0.041059400652564255 -0.030062601658278645 0 0.041330682674707291 -0.030273144324065349 0 0.04101393781741404 -0.030288813701771031 0 0.041059400652564255 -0.030062601658278645 0 0.04101393781741404 -0.030288813701771031 0 0.040697267734469189 -0.030303632260462454 0 0.040772843735336455 -0.030191048166925472 0 0.040697267734469189 -0.030303632260462454 0 0.040554738853288898 -0.030175002864172098 0 0.040441629864276483 -0.030233077972972852 0 0.040697267734469189 -0.030303632260462454 0 0.040554738853288898 -0.030175002864172098 0 0.040772843735336455 -0.030191048166925472 0 0.040772843735336455 -0.030191048166925472 0 0.040562895493474013 -0.030041740171435044 0 0.041059400652564255 -0.030062601658278645 0 0.040554738853288898 -0.030175002864172098 0 0.040562895493474013 -0.030041740171435044 0 0.040274752951091675 -0.030055239857571536 0 0.040554738853288898 -0.030175002864172098 0 0.040772843735336455 -0.030191048166925472 0 0.040562895493474013 -0.030041740171435044 0 0.040610989233520765 -0.029777978485265866 0 0.040562895493474013 -0.030041740171435044 0 0.04030126012511008 -0.0299396076868442 0 0.040610989233520765 -0.029777978485265866 0 0.040562895493474013 -0.030041740171435044 0 0.041059400652564255 -0.030062601658278645 0 0.037199587223618949 -0.014089411356368936 0 0.037020219903232773 -0.013870365491578636 0 0.037229285812919524 -0.013678909302622473 0 0.037199587223618949 -0.014089411356368936 0 0.037229285812919524 -0.013678909302622473 0 0.037535146105565728 -0.013725162009318176 0 0.037199587223618949 -0.014089411356368936 0 0.037618318136398876 -0.014217887652497398 0 0.037535146105565728 -0.013725162009318176 0 0.040697267734469189 -0.030303632260462454 0 0.040956752802565367 -0.030502989231269016 0 0.04049469556291653 -0.030417968115581055 0 0.039392056983076434 -0.022561291101787898 0 0.037239601748161898 -0.020759503542282735 0 0.04101393781741404 -0.030288813701771031 0 0.040697267734469189 -0.030303632260462454 0 0.040956752802565367 -0.030502989231269016 0 0.04101393781741404 -0.030288813701771031 0 0.040956752802565367 -0.030502989231269016 0 0.041150683550604888 -0.030391209077719708 0 0.040956752802565367 -0.030502989231269016 0 0.041150683550604888 -0.030391209077719708 0 0.04125777415273376 -0.030463977615525925 0 0.041330682674707291 -0.030273144324065349 0 0.04101393781741404 -0.030288813701771031 0 0.041150683550604888 -0.030391209077719708 0 0.043169161869035889 -0.023168291057404526 0 0.042477093808042453 -0.021697036162642808 0 0.042778473196558767 -0.020835169233842328 0 0.041330682674707291 -0.030273144324065349 0 0.041150683550604888 -0.030391209077719708 0 0.04125777415273376 -0.030463977615525925 0 0.042624242728025209 -0.027637628262865827 0 0.039495001994686627 -0.021651474729785306 0 0.041963908284505427 -0.022766781046197337 0 0.043169161869035889 -0.023168291057404526 0 0.042477093808042453 -0.021697036162642808 0 0.040987163750300516 -0.022638680326976725 0 0.041963908284505427 -0.022766781046197337 0 0.041727278183842052 -0.021838376276807382 0 0.041963908284505427 -0.022766781046197337 0 0.042477093808042453 -0.021697036162642808 0 0.041727278183842052 -0.021838376276807382 0 0.042477093808042453 -0.021697036162642808 0 0.041727278183842052 -0.021838376276807382 0 0.042517872480850698 -0.020785810267975744 0 0.037862408486484415 -0.016334988034932291 0 0.037883115062761694 -0.016315160726975711 0 0.038085654996458308 -0.016476314661386618 0 0.039915638578583483 -0.018622273563349886 0 0.03984017498749641 -0.017522249717205764 0 0.042561002031047707 -0.020761947892834334 0 0.043946003584969244 -0.018983561381344313 0 0.041441883506606242 -0.018420651819665283 0 0.042121124865784072 -0.021110358644259784 0 0.039915638578583483 -0.018622273563349886 0 0.042477093808042453 -0.021697036162642808 0 0.042517872480850698 -0.020785810267975744 0 0.042778473196558767 -0.020835169233842328 0 0.039915638578583483 -0.018622273563349886 0 0.039495001994686627 -0.021651474729785306 0 0.037862408486484415 -0.016334988034932291 0 0.037883115062761694 -0.016315160726975711 0 0.037840412731986642 -0.016086855751018425 0 0.036737359802780457 -0.014030829043655602 0 0.036791977371654995 -0.014003603520478684 0 0.037040898427990139 -0.0135620880582485 0 0.037199587223618949 -0.014089411356368936 0 0.036799178781732167 -0.014033887519039551 0 0.037020219903232773 -0.013870365491578636 0 0.039392056983076434 -0.022561291101787898 0 0.039495001994686627 -0.021651474729785306 0 0.036737359802780457 -0.014030829043655602 0 0.036802043041770371 -0.014048272051315921 0 0.036791977371654995 -0.014003603520478684 0 0.039495001994686627 -0.021651474729785306 0 0.039332489435700446 -0.020869878132013631 0 0.036799178781732167 -0.014033887519039551 0 0.036791977371654995 -0.014003603520478684 0 0.037020219903232773 -0.013870365491578636 0 0.037862408486484415 -0.016334988034932291 0 0.037937257411118926 -0.015633029929687448 0 0.037840412731986642 -0.016086855751018425 0 0.037937257411118926 -0.015633029929687448 0 0.037840412731986642 -0.016086855751018425 0 0.037772198512376606 -0.016046219325668503 0 0.039915638578583483 -0.018622273563349886 0 0.037199482975128033 -0.014109705776837502 0 0.036791977371654995 -0.014003603520478684 0 0.037020219903232773 -0.013870365491578636 0 0.037040898427990139 -0.0135620880582485 0 0.037937257411118926 -0.015633029929687448 0 0.037772198512376606 -0.016046219325668503 0 0.037731350523971398 -0.015610860104771133 0 0.037883115062761694 -0.016315160726975711 0 0.037926648320624423 -0.016423692889792903 0 0.038085654996458308 -0.016476314661386618 0 0.037883115062761694 -0.016315160726975711 0 0.037926648320624423 -0.016423692889792903 0 0.037772198512376606 -0.016046219325668503 0 0.037883115062761694 -0.016315160726975711 0 0.037840412731986642 -0.016086855751018425 0 0.037772198512376606 -0.016046219325668503 0 0.037772198512376606 -0.016046219325668503 0 0.037720174996357686 -0.016091179334792392 0 0.037731350523971398 -0.015610860104771133 0 0.037926648320624423 -0.016423692889792903 0 0.037772198512376606 -0.016046219325668503 0 0.037720174996357686 -0.016091179334792392 0 0.039640735783280555 -0.015873817395165659 0 0.043438491542791516 -0.014038159571608942 0 0.041789409975127249 -0.015607287560871239 0 0.046831376711591502 -0.013334686546719357 0 0.042470688865443709 -0.011104367845967723 0 0.041789409975127249 -0.015607287560871239 0 0.042470688865443709 -0.011104367845967723 0 0.039595314063746258 -0.012409577796334465 0 0.037937257411118926 -0.015633029929687448 0 0.037649477858029322 -0.014779737617159292 0 0.037731350523971398 -0.015610860104771133 0 0.037720174996357686 -0.016091179334792392 0 0.037649477858029322 -0.014779737617159292 0 0.037731350523971398 -0.015610860104771133 0 0.037199482975128033 -0.014109705776837502 0 0.037444596884177478 -0.013947208992377287 0 0.037040898427990139 -0.0135620880582485 0 0.037417154104070309 -0.013589314841848095 0 0.037235689530854155 -0.013503434325122066 0 0.037937257411118926 -0.015633029929687448 0 0.037649477858029322 -0.014779737617159292 0 0.037417154104070309 -0.013589314841848095 0 0.037040898427990139 -0.0135620880582485 0 0.037235689530854155 -0.013503434325122066 0 0.037229285812919524 -0.013678909302622473 0 0.037020219903232773 -0.013870365491578636 0 0.037040898427990139 -0.0135620880582485 0 0.037229285812919524 -0.013678909302622473 0 0.0320338026573566 -0.010703282881712231 0 0.031123793990755537 -0.010748863390193203 0 0.037229285812919524 -0.013678909302622473 0 0.037226481384835468 -0.013333154677096915 0 0.037535146105565728 -0.013725162009318176 0 0.027183599752430305 -0.0076404063663886744 0 0.027235974612289427 -0.0083775053117568499 0 0.027134239130355581 -0.0088266751580292797 0 0.037235689530854155 -0.013503434325122066 0 0.037229285812919524 -0.013678909302622473 0 0.037226481384835468 -0.013333154677096915 0 0.0320338026573566 -0.010703282881712231 0 0.038299498639357173 -0.0081176555647261475 0 0.027395921026961558 -0.0075750151131007051 0 0.027183599752430305 -0.0076404063663886744 0 0.027235974612289427 -0.0083775053117568499 0 0.027395921026961558 -0.0075750151131007051 0 0.027183599752430305 -0.0076404063663886744 0 0.027286398757213413 -0.007170359667005321 0 0.027183599752430305 -0.0076404063663886744 0 0.027286398757213413 -0.007170359667005321 0 0.027219179802535329 -0.007248323304852926 0 0.037417154104070309 -0.013589314841848095 0 0.037226481384835468 -0.013333154677096915 0 0.037386129597658441 -0.013515911023821702 0 0.037417154104070309 -0.013589314841848095 0 0.037235689530854155 -0.013503434325122066 0 0.037226481384835468 -0.013333154677096915 0 0.027286398757213413 -0.007170359667005321 0 0.027189038318013631 -0.0064758810818402171 0 0.027902622416560944 -0.0072259745598824959 0 0.027286398757213413 -0.007170359667005321 0 0.027189038318013631 -0.0064758810818402171 0 0.027219179802535329 -0.007248323304852926 0 0.028513285358540679 -0.0035039608606886956 0 0.035018162458880037 -0.00038686052210381948 0 0.029900908672075208 -0.006467251163725013 0 0.023509534352640908 -0.0034037642616423706 0 0.038299498639357173 -0.0081176555647261475 0 0.043438491542791516 -0.014038159571608942 0 0.038299498639357173 -0.0081176555647261475 0 0.046831376711591502 -0.013334686546719357 0 0.053425901288294123 -0.010565234792048801 0 0.049088512783310168 -0.0092824731384292623 0 0.053425901288294123 -0.010565234792048801 0 0.049088512783310168 -0.0092824731384292623 0 0.05103942696276112 -0.0046163602783401017 0 0.038299498639357173 -0.0081176555647261475 0 0.043846474936652412 -0.0032551916834704176 0 0.037649477858029322 -0.014779737617159292 0 0.037417154104070309 -0.013589314841848095 0 0.037386129597658441 -0.013515911023821702 0 0.035018162458880037 -0.00038686052210381948 0 0.039148727752257938 -0.0081477832715683603 0 0.029900908672075208 -0.006467251163725013 0 0.043846474936652412 -0.0032551916834704176 0 0.022498097117376055 -5.9894777067873223e-05 0 0.043846474936652412 -0.0032551916834704176 0 0.04125294481437939 0.0025844522470560324 0 0.033667337692003869 0.0029006070525256305 0 0.032138028856177177 0.0031616195257481278 0 0.032758208900500387 0.0020004255969187715 0 0.013535438124862784 0.0012343263434919519 0 0.013328808251650609 0.0022458404911306399 0 0.0139873689814467 0.0018243297361493038 0 0.022498097117376055 -5.9894777067873223e-05 0 0.022850839331118616 0.0022691797847798081 0 0.023509534352640908 -0.0034037642616423706 0 0.022498097117376055 -5.9894777067873223e-05 0 0.013328808251650609 0.0022458404911306399 0 0.013846530458482107 0.0025650974364273193 0 0.013771177629142008 0.0030800011320763951 0 0.013328808251650609 0.0022458404911306399 0 0.013846530458482107 0.0025650974364273193 0 0.0139873689814467 0.0018243297361493038 0 0.033667337692003869 0.0029006070525256305 0 0.032758208900500387 0.0020004255969187715 0 0.034186212355077523 0.0019541604571835926 0 0.022850839331118616 0.0022691797847798081 0 0.029907209096158762 0.0056558237055671767 0 0.032758208900500387 0.0020004255969187715 0 0.033332271594550357 0.00088640753431812867 0 0.034186212355077523 0.0019541604571835926 0 0.036762435450062352 0.012269330680182954 0 0.037346085842255669 0.011972972843931295 0 0.037214738787451636 0.011919088152983436 0 0.036616581610854709 0.012505981684740044 0 0.036762435450062352 0.012269330680182954 0 0.037346085842255669 0.011972972843931295 0 0.036406743079322082 0.013005360275315479 0 0.036762435450062352 0.012269330680182954 0 0.035847999114827306 0.012342702953425322 0 0.029907209096158762 0.0056558237055671767 0 0.031731817507991256 0.0095816721727808932 0 0.036406743079322082 0.013005360275315479 0 0.035847999114827306 0.012342702953425322 0 0.034825308245087921 0.012936994143826886 0 0.029907209096158762 0.0056558237055671767 0 0.02418580254022908 0.0079102684821383377 0 0.035847999114827306 0.012342702953425322 0 0.034825308245087921 0.012936994143826886 0 0.035294347214559124 0.011760028054631321 0 0.013328808251650609 0.0022458404911306399 0 0.013183783674511743 0.0029882397201112742 0 0.013771177629142008 0.0030800011320763951 0 0.038023309410079018 0.011259770336918532 0 0.037809759940103729 0.011676494064540247 0 0.036787653573302451 0.011958712703324038 0 0.038269791546285285 0.0090162697979632306 0 0.039071050585460093 0.0068888075567455093 0 0.036888054376509292 0.0086130052978172274 0 0.037346997691216126 0.010619624681994646 0 0.038575192732300659 0.01048850982106748 0 0.036888054376509292 0.0086130052978172274 0 0.045062998123983816 0.0094871951430033821 0 0.041883201725803468 0.0043510495277370824 0 0.036888054376509292 0.0086130052978172274 0 0.037346997691216126 0.010619624681994646 0 0.036787653573302451 0.011958712703324038 0 0.037346997691216126 0.010619624681994646 0 0.038023309410079018 0.011259770336918532 0 0.036787653573302451 0.011958712703324038 0 0.037346997691216126 0.010619624681994646 0 0.038023309410079018 0.011259770336918532 0 0.038575192732300659 0.01048850982106748 0 0.038023309410079018 0.011259770336918532 0 0.037346085842255669 0.011972972843931295 0 0.037809759940103729 0.011676494064540247 0 0.036616581610854709 0.012505981684740044 0 0.037346085842255669 0.011972972843931295 0 0.037781082346827762 0.012062710060229838 0 0.038023309410079018 0.011259770336918532 0 0.037346085842255669 0.011972972843931295 0 0.037781082346827762 0.012062710060229838 0 0.033332271594550357 0.00088640753431812867 0 0.034708596354998275 0.0010281489142907139 0 0.034186212355077523 0.0019541604571835926 0 0.029907209096158762 0.0056558237055671767 0 0.039071050585460093 0.0068888075567455093 0 0.037346085842255669 0.011972972843931295 0 0.037809759940103729 0.011676494064540247 0 0.037214738787451636 0.011919088152983436 0 0.037766774348432501 0.010230200987843019 0 0.039071050585460093 0.0068888075567455093 0 0.045062998123983816 0.0094871951430033821 0 0.048544211128199566 0.0028562474195655738 0 0.041883201725803468 0.0043510495277370824 0 0.039071050585460093 0.0068888075567455093 0 0.04125294481437939 0.0025844522470560324 0 0.048544211128199566 0.0028562474195655738 0 0.041883201725803468 0.0043510495277370824 0 0.041932967578967764 -0.0018405382148674104 0 0.041883201725803468 0.0043510495277370824 0 0.036253552105041095 0.0023741805785759038 0 0.041932967578967764 -0.0018405382148674104 0 0.036888054376509292 0.0086130052978172274 0 0.041883201725803468 0.0043510495277370824 0 0.036253552105041095 0.0023741805785759038 0 0.036253552105041095 0.0023741805785759038 0 0.041932967578967764 -0.0018405382148674104 0 0.045186572965233845 -0.0080402334194004128 0 0.041156315786770155 -0.0038800312111862737 0 0.041821261867897204 -0.0075947337165107607 0 0.045186572965233845 -0.0080402334194004128 0 0.038294366573243449 -0.0015096090209211052 0 0.044943971902723548 -0.0074844247331650312 0 0.041156315786770155 -0.0038800312111862737 0 0.041821261867897204 -0.0075947337165107607 0 0.039700982522445125 -0.0060984062798953471 0 0.043846474936652412 -0.0032551916834704176 0 0.045456794616058317 -0.0025051218049436507 0 0.051819998694152866 -0.0034833177064892288 0 0.048544211128199566 0.0028562474195655738 0 0.041932967578967764 -0.0018405382148674104 0 0.05103942696276112 -0.0046163602783401017 0 0.041932967578967764 -0.0018405382148674104 0 0.045186572965233845 -0.0080402334194004128 0 0.049088512783310168 -0.0092824731384292623 0 0.05103942696276112 -0.0046163602783401017 0 0.045186572965233845 -0.0080402334194004128 0 0.046831376711591502 -0.013334686546719357 0 0.049088512783310168 -0.0092824731384292623 0 0.045186572965233845 -0.0080402334194004128 0 0.046831376711591502 -0.013334686546719357 0 0.045186572965233845 -0.0080402334194004128 0 0.042470688865443709 -0.011104367845967723 0 0.041821261867897204 -0.0075947337165107607 0 0.042470688865443709 -0.011104367845967723 0 0.039674527497142946 -0.0089857745238258908 0 0.041821261867897204 -0.0075947337165107607 0 0.045186572965233845 -0.0080402334194004128 0 0.042470688865443709 -0.011104367845967723 0 0.039674527497142946 -0.0089857745238258908 0 0.034691053857075146 -0.01025288217614184 0 0.037470562994571154 -0.0065074140211620205 0 0.039595314063746258 -0.012409577796334465 0 0.039674527497142946 -0.0089857745238258908 0 0.034691053857075146 -0.01025288217614184 0 0.042470688865443709 -0.011104367845967723 0 0.039595314063746258 -0.012409577796334465 0 0.039674527497142946 -0.0089857745238258908 0 0.034691053857075146 -0.01025288217614184 0 0.03515087401691909 -0.0051755334051246885 0 0.037470562994571154 -0.0065074140211620205 0 0.034691053857075146 -0.01025288217614184 0 0.03515087401691909 -0.0051755334051246885 0 0.031427147916150588 -0.0053617727139267431 0 0.03515087401691909 -0.0051755334051246885 0 0.037470562994571154 -0.0065074140211620205 0 0.037841534396850153 -0.0038082332605607113 0 0.039674527497142946 -0.0089857745238258908 0 0.037470562994571154 -0.0065074140211620205 0 0.039700982522445125 -0.0060984062798953471 0 0.041821261867897204 -0.0075947337165107607 0 0.039674527497142946 -0.0089857745238258908 0 0.039700982522445125 -0.0060984062798953471 0 0.037470562994571154 -0.0065074140211620205 0 0.039700982522445125 -0.0060984062798953471 0 0.037841534396850153 -0.0038082332605607113 0 0.041156315786770155 -0.0038800312111862737 0 0.037841534396850153 -0.0038082332605607113 0 0.037153546567397513 0.00018083527034554119 0 0.038294366573243449 -0.0015096090209211052 0 0.038749810734219389 0.010012151600894741 0 0.041156315786770155 -0.0038800312111862737 0 0.039700982522445125 -0.0060984062798953471 0 0.037841534396850153 -0.0038082332605607113 0 0.036888054376509292 0.0086130052978172274 0 0.036253552105041095 0.0023741805785759038 0 0.030572992551679896 0.010456306376937867 0 0.037841534396850153 -0.0038082332605607113 0 0.036044482398160327 -0.0020143909536959278 0 0.037153546567397513 0.00018083527034554119 0 0.03515087401691909 -0.0051755334051246885 0 0.036044482398160327 -0.0020143909536959278 0 0.031427147916150588 -0.0053617727139267431 0 0.03515087401691909 -0.0051755334051246885 0 0.037841534396850153 -0.0038082332605607113 0 0.036044482398160327 -0.0020143909536959278 0 0.036044482398160327 -0.0020143909536959278 0 0.034970917213871307 -0.0015460412286603239 0 0.034735308073307387 -0.0023326720812038371 0 0.036044482398160327 -0.0020143909536959278 0 0.037153546567397513 0.00018083527034554119 0 0.034970917213871307 -0.0015460412286603239 0 0.038749810734219389 0.010012151600894741 0 0.039060637358992845 0.0065918350844912229 0 0.042430104771230964 0.014268641844846922 0 0.044359420682206357 0.014987145744074623 0 0.044446373078877034 0.011940478683979888 0 0.038749810734219389 0.010012151600894741 0 0.037756056696399087 0.012654466044762462 0 0.036888054376509292 0.0086130052978172274 0 0.030572992551679896 0.010456306376937867 0 0.036787653573302451 0.011958712703324038 0 0.041938136676609353 0.014335672380281932 0 0.041066915377161513 0.013231514981239409 0 0.03969819764512366 0.013338047081735882 0 0.045607693972568447 0.0031039871434981438 0 0.050948954796477437 0.011809802381267737 0 0.04641547507065729 0.015593692729552288 0 0.047863701297046833 0.013900857557338889 0 0.046010536360574665 0.01359922678013928 0 0.044359420682206357 0.014987145744074623 0 0.04641547507065729 0.015593692729552288 0 0.046010536360574665 0.01359922678013928 0 0.039060637358992845 0.0065918350844912229 0 0.045607693972568447 0.0031039871434981438 0 0.034649394415393858 -0.0018370300208122841 0 0.037466782690115726 -0.0072274761415085619 0 0.036044482398160327 -0.0020143909536959278 0 0.034735308073307387 -0.0023326720812038371 0 0.034510342919639628 -0.0033671219380065273 0 0.034970917213871307 -0.0015460412286603239 0 0.034735308073307387 -0.0023326720812038371 0 0.03391623378592197 -0.0023484024154792815 0 0.045607693972568447 0.0031039871434981438 0 0.037466782690115726 -0.0072274761415085619 0 0.034735308073307387 -0.0023326720812038371 0 0.03391623378592197 -0.0023484024154792815 0 0.034510342919639628 -0.0033671219380065273 0 0.045709732545871677 -0.0078426132000143853 0 0.046378673145774665 -0.0066560486883997143 0 0.044802623892528572 -0.0066535868582352194 0 0.045709732545871677 -0.0078426132000143853 0 0.046378673145774665 -0.0066560486883997143 0 0.048266564162655179 -0.0071840089674286125 0 0.046378673145774665 -0.0066560486883997143 0 0.044802623892528572 -0.0066535868582352194 0 0.046956512459162339 -0.0054682929535149038 0 0.037366468684088897 -0.014147861769847494 0 0.037174007426703452 -0.015530176903920802 0 0.036142574203758535 -0.01515172557405638 0 0.037466782690115726 -0.0072274761415085619 0 0.040477454653613416 -0.010881698830484052 0 0.036148641749097085 -0.013159114326509054 0 0.037466782690115726 -0.0072274761415085619 0 0.038143595729018244 -0.015393671213405008 0 0.037174007426703452 -0.015530176903920802 0 0.037600533295504959 -0.016476116015400909 0 0.038143595729018244 -0.015393671213405008 0 0.037366468684088897 -0.014147861769847494 0 0.037174007426703452 -0.015530176903920802 0 0.037174007426703452 -0.015530176903920802 0 0.036142574203758535 -0.01515172557405638 0 0.036504136284290507 -0.01645683409513209 0 0.036504136284290507 -0.01645683409513209 0 0.037491498954116458 -0.017992109064576305 0 0.03568624562260464 -0.017882507035530126 0 0.036504136284290507 -0.01645683409513209 0 0.037491498954116458 -0.017992109064576305 0 0.037600533295504959 -0.016476116015400909 0 0.037491498954116458 -0.017992109064576305 0 0.037600533295504959 -0.016476116015400909 0 0.038159309009782157 -0.017092243805139913 0 0.037174007426703452 -0.015530176903920802 0 0.036504136284290507 -0.01645683409513209 0 0.037600533295504959 -0.016476116015400909 0 0.038143595729018244 -0.015393671213405008 0 0.037600533295504959 -0.016476116015400909 0 0.038157646722118611 -0.016362924892103163 0 0.036148641749097085 -0.013159114326509054 0 0.038620307960228237 -0.015516963059576956 0 0.038143595729018244 -0.015393671213405008 0 0.038157646722118611 -0.016362924892103163 0 0.038709081245534648 -0.015745319007939029 0 0.039595314063746258 -0.012409577796334465 0 0.034691053857075146 -0.01025288217614184 0 0.038709081245534648 -0.015745319007939029 0 0.041789409975127249 -0.015607287560871239 0 0.039595314063746258 -0.012409577796334465 0 0.038709081245534648 -0.015745319007939029 0 0.039640735783280555 -0.015873817395165659 0 0.038645947895383746 -0.016846304780067552 0 0.038454417646797065 -0.017073164652033138 0 0.038727141999601894 -0.017735863615225771 0 0.038085654996458308 -0.016476314661386618 0 0.037926648320624423 -0.016423692889792903 0 0.037720174996357686 -0.016091179334792392 0 0.038454417646797065 -0.017073164652033138 0 0.041789409975127249 -0.015607287560871239 0 0.038709081245534648 -0.015745319007939029 0 0.038454417646797065 -0.017073164652033138 0 0.037926648320624423 -0.016423692889792903 0 0.038454417646797065 -0.017073164652033138 0 0.038085654996458308 -0.016476314661386618 0 0.037491498954116458 -0.017992109064576305 0 0.038159309009782157 -0.017092243805139913 0 0.038727141999601894 -0.017735863615225771 0 0.037600533295504959 -0.016476116015400909 0 0.038157646722118611 -0.016362924892103163 0 0.038159309009782157 -0.017092243805139913 0 0.038157646722118611 -0.016362924892103163 0 0.038454417646797065 -0.017073164652033138 0 0.038159309009782157 -0.017092243805139913 0 0.038157646722118611 -0.016362924892103163 0 0.038709081245534648 -0.015745319007939029 0 0.038454417646797065 -0.017073164652033138 0 0.038454417646797065 -0.017073164652033138 0 0.038159309009782157 -0.017092243805139913 0 0.038727141999601894 -0.017735863615225771 0 0.037491498954116458 -0.017992109064576305 0 0.038727141999601894 -0.017735863615225771 0 0.038129157166452349 -0.020161435775412937 0 0.038727141999601894 -0.017735863615225771 0 0.040041664235859226 -0.020368471735741123 0 0.038129157166452349 -0.020161435775412937 0 0.038727141999601894 -0.017735863615225771 0 0.041441883506606242 -0.018420651819665283 0 0.040041664235859226 -0.020368471735741123 0 0.042561002031047707 -0.020761947892834334 0 0.041441883506606242 -0.018420651819665283 0 0.040041664235859226 -0.020368471735741123 0 0.038712254760565654 -0.017574553777127487 0 0.03984017498749641 -0.017522249717205764 0 0.040987163750300516 -0.022638680326976725 0 0.042561002031047707 -0.020761947892834334 0 0.040041664235859226 -0.020368471735741123 0 0.039219294785770617 -0.022420384930070862 0 0.040987163750300516 -0.022638680326976725 0 0.040041664235859226 -0.020368471735741123 0 0.041120743240894132 -0.022499200024727068 0 0.042121124865784072 -0.021110358644259784 0 0.037608143689075904 -0.022720668348314262 0 0.039219294785770617 -0.022420384930070862 0 0.038129157166452349 -0.020161435775412937 0 0.039219294785770617 -0.022420384930070862 0 0.040041664235859226 -0.020368471735741123 0 0.038129157166452349 -0.020161435775412937 0 0.050016949159620995 -0.019870821280387547 0 0.048984882676994107 -0.017207517902291164 0 0.037608143689075904 -0.022720668348314262 0 0.038129157166452349 -0.020161435775412937 0 0.036436363514318726 -0.019969046040008976 0 0.060972190738827578 -0.017359862725711207 0 0.062455824921104304 -0.017062793016678669 0 0.061402141860833606 -0.014434527805654665 0 0.037491498954116458 -0.017992109064576305 0 0.036436363514318726 -0.019969046040008976 0 0.03568624562260464 -0.017882507035530126 0 0.048984882676994107 -0.017207517902291164 0 0.047538234553431619 -0.015377102658697352 0 0.037491498954116458 -0.017992109064576305 0 0.038129157166452349 -0.020161435775412937 0 0.036436363514318726 -0.019969046040008976 0 0.059506195434735544 -0.013883115084907055 0 0.058240205233837494 -0.013522610144673283 0 0.059302354968223558 -0.012136062745666348 0 0.061402141860833606 -0.014434527805654665 0 0.059506195434735544 -0.013883115084907055 0 0.060373010075814477 -0.012340378832644472 0 0.059557564645340948 -0.016372018213566319 0 0.060972190738827578 -0.017359862725711207 0 0.061402141860833606 -0.014434527805654665 0 0.059557564645340948 -0.016372018213566319 0 0.061402141860833606 -0.014434527805654665 0 0.059506195434735544 -0.013883115084907055 0 0.059557564645340948 -0.016372018213566319 0 0.059506195434735544 -0.013883115084907055 0 0.058875895127915717 -0.015161210502536219 0 0.058115210440803415 -0.016782319393474816 0 0.059557564645340948 -0.016372018213566319 0 0.058875895127915717 -0.015161210502536219 0 0.058115210440803415 -0.016782319393474816 0 0.058875895127915717 -0.015161210502536219 0 0.058240205233837494 -0.013522610144673283 0 0.058115210440803415 -0.016782319393474816 0 0.058240205233837494 -0.013522610144673283 0 0.056623100195171111 -0.015906088932574881 0 0.058285314460816286 -0.013549553074292607 0 0.05740360176093403 -0.014422347136884157 0 0.058240205233837494 -0.013522610144673283 0 0.057839165305392327 -0.012189446846388749 0 0.058009963633378549 -0.01295963105143802 0 0.058240205233837494 -0.013522610144673283 0 0.058432975443059344 -0.011796161455135616 0 0.057839165305392327 -0.012189446846388749 0 0.059506195434735544 -0.013883115084907055 0 0.058875895127915717 -0.015161210502536219 0 0.058240205233837494 -0.013522610144673283 0 0.058240205233837494 -0.013522610144673283 0 0.058432975443059344 -0.011796161455135616 0 0.059302354968223558 -0.012136062745666348 0 0.058432975443059344 -0.011796161455135616 0 0.057668572908164024 -0.010605813935200046 0 0.057839165305392327 -0.012189446846388749 0 0.058432975443059344 -0.011796161455135616 0 0.058240986341544308 -0.010333800082740601 0 0.057668572908164024 -0.010605813935200046 0 0.06171711004828688 -0.010818917102108748 0 0.050964513156711154 -0.011478775746507734 0 0.058432975443059344 -0.011796161455135616 0 0.058240986341544308 -0.010333800082740601 0 0.05878813472774836 -0.010328091439885589 0 0.058432975443059344 -0.011796161455135616 0 0.05878813472774836 -0.010328091439885589 0 0.059648545009825513 -0.010348425182014844 0 0.059395069633838289 -0.011075146780347126 0 0.059302354968223558 -0.012136062745666348 0 0.060373010075814477 -0.012340378832644472 0 0.058432975443059344 -0.011796161455135616 0 0.059395069633838289 -0.011075146780347126 0 0.059302354968223558 -0.012136062745666348 0 0.059506195434735544 -0.013883115084907055 0 0.059302354968223558 -0.012136062745666348 0 0.060373010075814477 -0.012340378832644472 0 0.050964513156711154 -0.011478775746507734 0 0.047538234553431619 -0.015377102658697352 0 0.036504136284290507 -0.01645683409513209 0 0.034884718777240177 -0.016282100055315107 0 0.03568624562260464 -0.017882507035530126 0 0.040477454653613416 -0.010881698830484052 0 0.050964513156711154 -0.011478775746507734 0 0.036142574203758535 -0.01515172557405638 0 0.036504136284290507 -0.01645683409513209 0 0.034884718777240177 -0.016282100055315107 0 0.046956512459162339 -0.0054682929535149038 0 0.049001533281093697 -0.004377334707254558 0 0.04844166457839557 -0.0058494325935226779 0 0.05878813472774836 -0.010328091439885589 0 0.059648545009825513 -0.010348425182014844 0 0.059085507900568261 -0.0096854196533009435 0 0.049001533281093697 -0.004377334707254558 0 0.049759345488924654 -0.0053862843613152753 0 0.04844166457839557 -0.0058494325935226779 0 0.050964513156711154 -0.011478775746507734 0 0.054631695651695705 -0.0078746950602488659 0 0.049759345488924654 -0.0053862843613152753 0 0.04844166457839557 -0.0058494325935226779 0 0.05058603023808652 -0.0064276101449549927 0 0.04844166457839557 -0.0058494325935226779 0 0.048266564162655179 -0.0071840089674286125 0 0.05058603023808652 -0.0064276101449549927 0 0.051196244586399535 -0.00045938734478235285 0 0.055145729761628945 -0.0027511252459586728 0 0.046378673145774665 -0.0066560486883997143 0 0.046956512459162339 -0.0054682929535149038 0 0.04844166457839557 -0.0058494325935226779 0 0.046378673145774665 -0.0066560486883997143 0 0.04844166457839557 -0.0058494325935226779 0 0.048266564162655179 -0.0071840089674286125 0 0.054227944581499141 0.00717725189879642 0 0.053769697722071318 0.0065511415893541322 0 0.053992298473549381 0.0077019486168593328 0 0.045607693972568447 0.0031039871434981438 0 0.051196244586399535 -0.00045938734478235285 0 0.053769697722071318 0.0065511415893541322 0 0.053186518880446274 0.0067778621241890132 0 0.053288827490464791 0.0055345527168522831 0 0.053769697722071318 0.0065511415893541322 0 0.053420269818469625 0.007523111152912338 0 0.053186518880446274 0.0067778621241890132 0 0.053769697722071318 0.0065511415893541322 0 0.053420269818469625 0.007523111152912338 0 0.053992298473549381 0.0077019486168593328 0 0.053420269818469625 0.007523111152912338 0 0.053186518880446274 0.0067778621241890132 0 0.052664658588115365 0.0083753494344686319 0 0.053186518880446274 0.0067778621241890132 0 0.05263495273603927 0.0067468261116785258 0 0.052664658588115365 0.0083753494344686319 0 0.053186518880446274 0.0067778621241890132 0 0.05263495273603927 0.0067468261116785258 0 0.053288827490464791 0.0055345527168522831 0 0.056115950682472236 0.003839097389864622 0 0.055145729761628945 -0.0027511252459586728 0 0.055145729761628945 -0.0027511252459586728 0 0.059211917297978194 -0.0063956371357697817 0 0.059463059127344869 -0.00080920881292948009 0 0.059889759515662618 -0.0018865051286727445 0 0.059369316055910233 -0.0030213154185125611 0 0.054631695651695705 -0.0078746950602488659 0 0.055145729761628945 -0.0027511252459586728 0 0.059085507900568261 -0.0096854196533009435 0 0.05865525505663461 -0.0091532722575640556 0 0.058539743815428175 -0.0097708354042746783 0 0.058240986341544308 -0.010333800082740601 0 0.05878813472774836 -0.010328091439885589 0 0.058539743815428175 -0.0097708354042746783 0 0.05878813472774836 -0.010328091439885589 0 0.059085507900568261 -0.0096854196533009435 0 0.058539743815428175 -0.0097708354042746783 0 0.058240986341544308 -0.010333800082740601 0 0.057828168346012836 -0.0095239618520626523 0 0.057668572908164024 -0.010605813935200046 0 0.05865525505663461 -0.0091532722575640556 0 0.058539743815428175 -0.0097708354042746783 0 0.057828168346012836 -0.0095239618520626523 0 0.058240986341544308 -0.010333800082740601 0 0.058539743815428175 -0.0097708354042746783 0 0.057828168346012836 -0.0095239618520626523 0 0.059463059127344869 -0.00080920881292948009 0 0.059369316055910233 -0.0030213154185125611 0 0.058615336194296819 -0.0026318281018379379 0 0.057828168346012836 -0.0095239618520626523 0 0.057137998514065549 -0.0096334178326492048 0 0.057668572908164024 -0.010605813935200046 0 0.059211917297978194 -0.0063956371357697817 0 0.057550748929346189 -0.0071069945144145554 0 0.057550748929346189 -0.0071069945144145554 0 0.056475684112809454 -0.007659718660340451 0 0.058615336194296819 -0.0026318281018379379 0 0.058068672303166702 -0.0014209020766516554 0 0.057285787942421992 -0.0036405240457708619 0 0.058384043719627139 -0.0045529403657780642 0 0.058615336194296819 -0.0026318281018379379 0 0.057285787942421992 -0.0036405240457708619 0 0.059369316055910233 -0.0030213154185125611 0 0.058384043719627139 -0.0045529403657780642 0 0.058615336194296819 -0.0026318281018379379 0 0.059463059127344869 -0.00080920881292948009 0 0.058615336194296819 -0.0026318281018379379 0 0.058068672303166702 -0.0014209020766516554 0 0.058068672303166702 -0.0014209020766516554 0 0.056971672369311589 0.00055841715120883621 0 0.058967495902043504 0.00082552028848014889 0 0.059463059127344869 -0.00080920881292948009 0 0.058068672303166702 -0.0014209020766516554 0 0.058967495902043504 0.00082552028848014889 0 0.056115950682472236 0.003839097389864622 0 0.055696514012104216 0.0043598949752047958 0 0.054999755172742769 -0.0012665260850140039 0 0.056426676321747131 -0.0021991293171450162 0 0.056971672369311589 0.00055841715120883621 0 0.058068672303166702 -0.0014209020766516554 0 0.056426676321747131 -0.0021991293171450162 0 0.056971672369311589 0.00055841715120883621 0 0.058068672303166702 -0.0014209020766516554 0 0.056426676321747131 -0.0021991293171450162 0 0.057285787942421992 -0.0036405240457708619 0 0.054999755172742769 -0.0012665260850140039 0 0.056426676321747131 -0.0021991293171450162 0 0.054999721923582386 -0.004558095803709832 0 0.056426676321747131 -0.0021991293171450162 0 0.054999721923582386 -0.004558095803709832 0 0.057285787942421992 -0.0036405240457708619 0 0.058384043719627139 -0.0045529403657780642 0 0.057285787942421992 -0.0036405240457708619 0 0.056873007056764326 -0.006223096513972042 0 0.054999721923582386 -0.004558095803709832 0 0.057285787942421992 -0.0036405240457708619 0 0.056873007056764326 -0.006223096513972042 0 0.054999721923582386 -0.004558095803709832 0 0.054999777057935871 -0.0078500588057402593 0 0.056873007056764326 -0.006223096513972042 0 0.05499994801527449 -0.0078551367501054035 0 0.0564122540094949 -0.010135230728936634 0 0.056374418311547145 -0.0091023791947591661 0 0.054999967664561195 -0.0078513467408589683 0 0.056475684112809454 -0.007659718660340451 0 0.05499994801527449 -0.0078551367501054035 0 0.0564122540094949 -0.010135230728936634 0 0.054999635691229051 -0.010862187802494112 0 0.0564122540094949 -0.010135230728936634 0 0.056374418311547145 -0.0091023791947591661 0 0.057009450293707166 -0.010069907540583347 0 0.057009450293707166 -0.010069907540583347 0 0.057668572908164024 -0.010605813935200046 0 0.057344822889364912 -0.011195793719450222 0 0.057137998514065549 -0.0096334178326492048 0 0.056374418311547145 -0.0091023791947591661 0 0.057009450293707166 -0.010069907540583347 0 0.057137998514065549 -0.0096334178326492048 0 0.057009450293707166 -0.010069907540583347 0 0.057668572908164024 -0.010605813935200046 0 0.057668572908164024 -0.010605813935200046 0 0.057344822889364912 -0.011195793719450222 0 0.057839165305392327 -0.012189446846388749 0 0.0564122540094949 -0.010135230728936634 0 0.057009450293707166 -0.010069907540583347 0 0.057344822889364912 -0.011195793719450222 0 0.057344822889364912 -0.011195793719450222 0 0.057554694507641335 -0.012400400850345409 0 0.056650795009193032 -0.012288009419742112 0 0.057554694507641335 -0.012400400850345409 0 0.057839165305392327 -0.012189446846388749 0 0.058009963633378549 -0.01295963105143802 0 0.057344822889364912 -0.011195793719450222 0 0.057554694507641335 -0.012400400850345409 0 0.057839165305392327 -0.012189446846388749 0 0.057576022873475845 -0.014054895485631082 0 0.057554694507641335 -0.012400400850345409 0 0.058009963633378549 -0.01295963105143802 0 0.057576022873475845 -0.014054895485631082 0 0.057554694507641335 -0.012400400850345409 0 0.056650795009193032 -0.012288009419742112 0 0.056288087168885462 -0.014102366057985009 0 0.057576022873475845 -0.014054895485631082 0 0.056650795009193032 -0.012288009419742112 0 0.054999355034475512 -0.013873224013340742 0 0.056288087168885462 -0.014102366057985009 0 0.056650795009193032 -0.012288009419742112 0 0.054999355034475512 -0.013873224013340742 0 0.056650795009193032 -0.012288009419742112 0 0.054999635691229051 -0.010862187802494112 0 0.0564122540094949 -0.010135230728936634 0 0.056650795009193032 -0.012288009419742112 0 0.054999635691229051 -0.010862187802494112 0 0.0564122540094949 -0.010135230728936634 0 0.057344822889364912 -0.011195793719450222 0 0.056650795009193032 -0.012288009419742112 0 0.023068471032674655 -0.024383366997347822 0 0.026705964765209794 -0.02274938834443439 0 0.024368112231730306 -0.02811508664479551 0 0.023068471032674655 -0.024383366997347822 0 0.026705964765209794 -0.02274938834443439 0 0.022415469993007052 -0.021013390940246273 0 0.025194692947420712 -0.026791758473268271 0 0.025739189091738054 -0.028536074128596468 0 0.026364782438301041 -0.027127913074113039 0 0.025194692947420712 -0.026791758473268271 0 0.025739189091738054 -0.028536074128596468 0 0.024368112231730306 -0.02811508664479551 0 0.026062428332263403 -0.02562040220147678 0 0.024484839261413135 -0.027637993894277447 0 0.024368112231730306 -0.02811508664479551 0 0.020233134293414303 -0.026217721764115597 0 0.021245132451725327 -0.028593275482005461 0 0.023068471032674655 -0.024383366997347822 0 0.024368112231730306 -0.02811508664479551 0 0.020233134293414303 -0.026217721764115597 0 0.018672899421134974 -0.026432504442514285 0 0.018978552069457328 -0.028151057893104334 0 0.017451753848494064 -0.026726115795447779 0 0.020233134293414303 -0.026217721764115597 0 0.018978552069457328 -0.028151057893104334 0 0.021245132451725327 -0.028593275482005461 0 0.020233134293414303 -0.026217721764115597 0 0.018672899421134974 -0.026432504442514285 0 0.018978552069457328 -0.028151057893104334 0 0.020233134293414303 -0.026217721764115597 0 0.018672899421134974 -0.026432504442514285 0 0.01800503477435118 -0.024671498630097793 0 0.018672899421134974 -0.026432504442514285 0 0.01800503477435118 -0.024671498630097793 0 0.017451753848494064 -0.026726115795447779 0 0.015770125364180782 -0.024747416403616593 0 0.020540598369091501 -0.023012464973631398 0 0.015727477674503065 -0.024145801730797826 0 0.020328282314466241 -0.023036394477732619 0 0.015905717342253035 -0.021400665628804206 0 0.020233134293414303 -0.026217721764115597 0 0.01800503477435118 -0.024671498630097793 0 0.020328282314466241 -0.023036394477732619 0 0.023068471032674655 -0.024383366997347822 0 0.020233134293414303 -0.026217721764115597 0 0.020328282314466241 -0.023036394477732619 0 0.023068471032674655 -0.024383366997347822 0 0.020328282314466241 -0.023036394477732619 0 0.022415469993007052 -0.021013390940246273 0 0.020328282314466241 -0.023036394477732619 0 0.022415469993007052 -0.021013390940246273 0 0.018510626584432512 -0.019679881570816321 0 0.022415469993007052 -0.021013390940246273 0 0.018510626584432512 -0.019679881570816321 0 0.020468465092956717 -0.017292662956617723 0 0.020328282314466241 -0.023036394477732619 0 0.015905717342253035 -0.021400665628804206 0 0.018510626584432512 -0.019679881570816321 0 0.015905717342253035 -0.021400665628804206 0 0.018510626584432512 -0.019679881570816321 0 0.015639716792506399 -0.018612406856940777 0 0.018510626584432512 -0.019679881570816321 0 0.015639716792506399 -0.018612406856940777 0 0.017166133509585492 -0.016413325804302544 0 0.017166133509585492 -0.016413325804302544 0 0.018859598344577115 -0.013836417381141953 0 0.015584997785600421 -0.013234542714232198 0 0.015639716792506399 -0.018612406856940777 0 0.017166133509585492 -0.016413325804302544 0 0.014191155270041429 -0.016258202928331054 0 0.018510626584432512 -0.019679881570816321 0 0.017166133509585492 -0.016413325804302544 0 0.020468465092956717 -0.017292662956617723 0 0.017166133509585492 -0.016413325804302544 0 0.014191155270041429 -0.016258202928331054 0 0.015584997785600421 -0.013234542714232198 0 0.017166133509585492 -0.016413325804302544 0 0.020468465092956717 -0.017292662956617723 0 0.018859598344577115 -0.013836417381141953 0 0.020468465092956717 -0.017292662956617723 0 0.022272238249766457 -0.014908370807675611 0 0.018859598344577115 -0.013836417381141953 0 0.020468465092956717 -0.017292662956617723 0 0.022272238249766457 -0.014908370807675611 0 0.024887642579057071 -0.018520642024914047 0 0.022272238249766457 -0.014908370807675611 0 0.025675023792755415 -0.014320876405744684 0 0.024887642579057071 -0.018520642024914047 0 0.026705964765209794 -0.02274938834443439 0 0.022415469993007052 -0.021013390940246273 0 0.024887642579057071 -0.018520642024914047 0 0.022415469993007052 -0.021013390940246273 0 0.020468465092956717 -0.017292662956617723 0 0.024887642579057071 -0.018520642024914047 0 0.026705964765209794 -0.02274938834443439 0 0.024887642579057071 -0.018520642024914047 0 0.029124971230227774 -0.017007381101564148 0 0.026062428332263403 -0.02562040220147678 0 0.025184454271191883 -0.016819755367996025 0 0.025194692947420712 -0.026791758473268271 0 0.025890963596706965 -0.025154858596543119 0 0.026364782438301041 -0.027127913074113039 0 0.025675023792755415 -0.014320876405744684 0 0.024887642579057071 -0.018520642024914047 0 0.029124971230227774 -0.017007381101564148 0 0.02391673814581869 -0.01320271438908373 0 0.025184454271191883 -0.016819755367996025 0 0.023749897366221476 -0.0125687979192226 0 0.024899943997911567 -0.011804986576895118 0 0.024681892898775485 -0.010548006408497431 0 0.023749897366221476 -0.0125687979192226 0 0.024899943997911567 -0.011804986576895118 0 0.02548201271246817 -0.014004536870613043 0 0.024899943997911567 -0.011804986576895118 0 0.02548201271246817 -0.014004536870613043 0 0.026249966779939918 -0.011355026268715001 0 0.02548201271246817 -0.014004536870613043 0 0.027778027161471448 -0.013738257721767377 0 0.026249966779939918 -0.011355026268715001 0 0.025184454271191883 -0.016819755367996025 0 0.026399807286419927 -0.020484838230855673 0 0.025890963596706965 -0.025154858596543119 0 0.027207408626224856 -0.026337387376380288 0 0.026364782438301041 -0.027127913074113039 0 0.027067956487163897 -0.011573843462904181 0 0.026559305407692076 -0.011856949370428891 0 0.026249966779939918 -0.011355026268715001 0 0.027137810606668145 -0.012898625072674396 0 0.02628187919366896 -0.011375566015798141 0 0.02548201271246817 -0.014004536870613043 0 0.027778027161471448 -0.013738257721767377 0 0.027258050861211892 -0.01535697570089796 0 0.023960208841094732 -0.010839897750978343 0 0.023918283332554208 -0.0093808287416963405 0 0.025734815546286344 -0.011842041791788091 0 0.027067956487163897 -0.011573843462904181 0 0.026559305407692076 -0.011856949370428891 0 0.025734815546286344 -0.011842041791788091 0 0.026559305407692076 -0.011856949370428891 0 0.025245644006851895 -0.011660970519547346 0 0.027137810606668145 -0.012898625072674396 0 0.027198113266507059 -0.013316343323547359 0 0.027778027161471448 -0.013738257721767377 0 0.027258050861211892 -0.01535697570089796 0 0.029008862564399655 -0.015850609196520982 0 0.027920859194071324 -0.027686771403778832 0 0.027901527483631602 -0.027397659692671678 0 0.027904248579086913 -0.027740749171580818 0 0.02765691622649781 -0.02749977761417545 0 0.027509911873568018 -0.026829366289749402 0 0.028029008367373431 -0.027561121367553974 0 0.027904248579086913 -0.027740749171580818 0 0.027729649277092205 -0.027682948479475385 0 0.028029008367373431 -0.027561121367553974 0 0.027904248579086913 -0.027740749171580818 0 0.02765691622649781 -0.02749977761417545 0 0.027258050861211892 -0.01535697570089796 0 0.029008862564399655 -0.015850609196520982 0 0.028783149282315845 -0.016517993148291679 0 0.027449053203787346 -0.021244127548111037 0 0.028404496144327558 -0.022733007369912732 0 0.028029008367373431 -0.027561121367553974 0 0.02765691622649781 -0.02749977761417545 0 0.027112891446429432 -0.027515147621237759 0 0.02765691622649781 -0.02749977761417545 0 0.027112891446429432 -0.027515147621237759 0 0.027509911873568018 -0.026829366289749402 0 0.027207408626224856 -0.026337387376380288 0 0.026364782438301041 -0.027127913074113039 0 0.027354034447170959 -0.027501111707223365 0 0.027207408626224856 -0.026337387376380288 0 0.028029008367373431 -0.027561121367553974 0 0.027354034447170959 -0.027501111707223365 0 0.026399807286419927 -0.020484838230855673 0 0.027449053203787346 -0.021244127548111037 0 0.028029008367373431 -0.027561121367553974 0 0.027354034447170959 -0.027501111707223365 0 0.027729649277092205 -0.027682948479475385 0 0.027354034447170959 -0.027501111707223365 0 0.0275310008023231 -0.027907375305556013 0 0.026750087118934146 -0.028465060314684227 0 0.0275310008023231 -0.027907375305556013 0 0.026750087118934146 -0.028465060314684227 0 0.02768313591444611 -0.028185336739376548 0 0.026736015608964832 -0.02849442706244024 0 0.027273306572168827 -0.028779340669650634 0 0.027354034447170959 -0.027501111707223365 0 0.0275310008023231 -0.027907375305556013 0 0.027729649277092205 -0.027682948479475385 0 0.027904248579086913 -0.027740749171580818 0 0.0275310008023231 -0.027907375305556013 0 0.027729649277092205 -0.027682948479475385 0 0.027904248579086913 -0.027740749171580818 0 0.0275310008023231 -0.027907375305556013 0 0.02768313591444611 -0.028185336739376548 0 0.026364782438301041 -0.027127913074113039 0 0.027354034447170959 -0.027501111707223365 0 0.026750087118934146 -0.028465060314684227 0 0.025739189091738054 -0.028536074128596468 0 0.026364782438301041 -0.027127913074113039 0 0.026750087118934146 -0.028465060314684227 0 0.026750087118934146 -0.028465060314684227 0 0.026837437932641806 -0.029600546434511019 0 0.027122877388233716 -0.029449593196481716 0 0.025739189091738054 -0.028536074128596468 0 0.026750087118934146 -0.028465060314684227 0 0.026837437932641806 -0.029600546434511019 0 0.026837437932641806 -0.029600546434511019 0 0.027122877388233716 -0.029449593196481716 0 0.026957624464220863 -0.029592198271693456 0 0.027122877388233716 -0.029449593196481716 0 0.026957624464220863 -0.029592198271693456 0 0.026929098697770371 -0.029605335774839536 0 0.026837437932641806 -0.029600546434511019 0 0.026957624464220863 -0.029592198271693456 0 0.026940064546218993 -0.029548662650900882 0 0.02687543422245468 -0.029585497232341353 0 0.026811590627212001 -0.029477944964329476 0 0.026940064546218993 -0.029548662650900882 0 0.026957624464220863 -0.029592198271693456 0 0.02687543422245468 -0.029585497232341353 0 0.026940064546218993 -0.029548662650900882 0 0.027333262931518786 -0.032116100345796615 0 0.025487764024906916 -0.032347036563639957 0 0.025813544646722229 -0.030497004190719899 0 0.026837437932641806 -0.029600546434511019 0 0.027333262931518786 -0.032116100345796615 0 0.025813544646722229 -0.030497004190719899 0 0.026796563394524329 -0.029785553317082648 0 0.027347039631720919 -0.030427337318045821 0 0.028710387465298769 -0.028421310672403288 0 0.028419149267111955 -0.028187934086909595 0 0.028342850767455616 -0.028317934505673964 0 0.026616640017762264 -0.028203569249843758 0 0.027692924138861777 -0.029143950845063344 0 0.026616640017762264 -0.028203569249843758 0 0.027901527483631602 -0.027397659692671678 0 0.026152847128687581 -0.029840258938050725 0 0.026700394179141277 -0.029802721082056803 0 0.026466055222056733 -0.029704192531752924 0 0.026296548680737528 -0.026381490025496109 0 0.025760808797302095 -0.025334619424564289 0 0.027509911873568018 -0.026829366289749402 0 0.026296548680737528 -0.026381490025496109 0 0.027112891446429432 -0.027515147621237759 0 0.027509911873568018 -0.026829366289749402 0 0.026700394179141277 -0.029802721082056803 0 0.026642484249379522 -0.029681459715653447 0 0.026466055222056733 -0.029704192531752924 0 0.026700394179141277 -0.029802721082056803 0 0.026786897464042336 -0.02965917142128394 0 0.026642484249379522 -0.029681459715653447 0 0.027122877388233716 -0.029449593196481716 0 0.026700394179141277 -0.029802721082056803 0 0.026929098697770371 -0.029605335774839536 0 0.027904248579086913 -0.027740749171580818 0 0.02768313591444611 -0.028185336739376548 0 0.028342850767455616 -0.028317934505673964 0 0.027904248579086913 -0.027740749171580818 0 0.028419149267111955 -0.028187934086909595 0 0.028342850767455616 -0.028317934505673964 0 0.027273306572168827 -0.028779340669650634 0 0.027692924138861777 -0.029143950845063344 0 0.026700394179141277 -0.029802721082056803 0 0.026786897464042336 -0.02965917142128394 0 0.026929098697770371 -0.029605335774839536 0 0.026786897464042336 -0.02965917142128394 0 0.026929098697770371 -0.029605335774839536 0 0.026841545329833787 -0.029614527064297794 0 0.026957624464220863 -0.029592198271693456 0 0.026929098697770371 -0.029605335774839536 0 0.02687543422245468 -0.029585497232341353 0 0.02687543422245468 -0.029585497232341353 0 0.026718423938957497 -0.029521086930568555 0 0.026811590627212001 -0.029477944964329476 0 0.026929098697770371 -0.029605335774839536 0 0.02687543422245468 -0.029585497232341353 0 0.026841545329833787 -0.029614527064297794 0 0.02687543422245468 -0.029585497232341353 0 0.026718423938957497 -0.029521086930568555 0 0.026752531668299665 -0.029609182415136121 0 0.02687543422245468 -0.029585497232341353 0 0.026841545329833787 -0.029614527064297794 0 0.026752531668299665 -0.029609182415136121 0 0.026786897464042336 -0.02965917142128394 0 0.026841545329833787 -0.029614527064297794 0 0.026752531668299665 -0.029609182415136121 0 0.026786897464042336 -0.02965917142128394 0 0.026752531668299665 -0.029609182415136121 0 0.026642484249379522 -0.029681459715653447 0 0.026718423938957497 -0.029521086930568555 0 0.026549446308808445 -0.029584985756148104 0 0.026535614821269326 -0.029364877718283843 0 0.026252621916390689 -0.02960437429363344 0 0.026549446308808445 -0.029584985756148104 0 0.026535614821269326 -0.029364877718283843 0 0.026642484249379522 -0.029681459715653447 0 0.026549446308808445 -0.029584985756148104 0 0.026466055222056733 -0.029704192531752924 0 0.026752531668299665 -0.029609182415136121 0 0.026642484249379522 -0.029681459715653447 0 0.026549446308808445 -0.029584985756148104 0 0.026718423938957497 -0.029521086930568555 0 0.026752531668299665 -0.029609182415136121 0 0.026549446308808445 -0.029584985756148104 0 0.026252621916390689 -0.02960437429363344 0 0.026549446308808445 -0.029584985756148104 0 0.026466055222056733 -0.029704192531752924 0 0.026535614821269326 -0.029364877718283843 0 0.026811590627212001 -0.029477944964329476 0 0.026802670760328898 -0.029378242422321125 0 0.026718423938957497 -0.029521086930568555 0 0.026535614821269326 -0.029364877718283843 0 0.026811590627212001 -0.029477944964329476 0 0.014719539652906136 -0.037556630747341023 0 0.014448396663086003 -0.038300361591536269 0 0.015237747134213303 -0.037890315683883589 0 0.020986359684791293 -0.033525793620103016 0 0.020989734495799613 -0.035069120120386044 0 0.013854202326567016 -0.038019125041559285 0 0.014448396663086003 -0.038300361591536269 0 0.014194541406740181 -0.037735071334430291 0 0.014719539652906136 -0.037556630747341023 0 0.014448396663086003 -0.038300361591536269 0 0.014194541406740181 -0.037735071334430291 0 0.026579434293677005 -0.033031882800400002 0 0.027333262931518786 -0.032116100345796615 0 0.025487764024906916 -0.032347036563639957 0 0.026579434293677005 -0.033031882800400002 0 0.027333262931518786 -0.032116100345796615 0 0.027624049907711019 -0.033846157497349746 0 0.027347039631720919 -0.030427337318045821 0 0.024795664454940743 -0.033691857276262879 0 0.026811590627212001 -0.029477944964329476 0 0.026940064546218993 -0.029548662650900882 0 0.026802670760328898 -0.029378242422321125 0 0.026940064546218993 -0.029548662650900882 0 0.026802670760328898 -0.029378242422321125 0 0.026832598136027393 -0.029367186227543519 0 0.020989734495799613 -0.035069120120386044 0 0.024795664454940743 -0.033691857276262879 0 0.026579434293677005 -0.033031882800400002 0 0.027624049907711019 -0.033846157497349746 0 0.026216893284603301 -0.033743790735912459 0 0.025642775439431695 -0.034435379180919434 0 0.027624049907711019 -0.033846157497349746 0 0.026216893284603301 -0.033743790735912459 0 0.026579434293677005 -0.033031882800400002 0 0.026216893284603301 -0.033743790735912459 0 0.025812629355567246 -0.033367822320423735 0 0.025642775439431695 -0.034435379180919434 0 0.026216893284603301 -0.033743790735912459 0 0.025476950415548202 -0.033978974103362404 0 0.025476950415548202 -0.033978974103362404 0 0.025812629355567246 -0.033367822320423735 0 0.024998272594205517 -0.033679326784905539 0 0.026216893284603301 -0.033743790735912459 0 0.025476950415548202 -0.033978974103362404 0 0.025812629355567246 -0.033367822320423735 0 0.025083433336655223 -0.034073080978100058 0 0.025476950415548202 -0.033978974103362404 0 0.024998272594205517 -0.033679326784905539 0 0.024998272594205517 -0.033679326784905539 0 0.023740516432526965 -0.033951089539079465 0 0.024506839257244461 -0.034004388257619068 0 0.025083433336655223 -0.034073080978100058 0 0.024998272594205517 -0.033679326784905539 0 0.024506839257244461 -0.034004388257619068 0 0.025083433336655223 -0.034073080978100058 0 0.025032228770160828 -0.034103817869796112 0 0.024506839257244461 -0.034004388257619068 0 0.024998272594205517 -0.033679326784905539 0 0.025487764024906916 -0.032347036563639957 0 0.023740516432526965 -0.033951089539079465 0 0.025812629355567246 -0.033367822320423735 0 0.024998272594205517 -0.033679326784905539 0 0.025487764024906916 -0.032347036563639957 0 0.026579434293677005 -0.033031882800400002 0 0.025812629355567246 -0.033367822320423735 0 0.025487764024906916 -0.032347036563639957 0 0.025487764024906916 -0.032347036563639957 0 0.025813544646722229 -0.030497004190719899 0 0.024685500162992553 -0.030639004219520767 0 0.025487764024906916 -0.032347036563639957 0 0.024685500162992553 -0.030639004219520767 0 0.023740516432526965 -0.033951089539079465 0 0.025739189091738054 -0.028536074128596468 0 0.024368112231730306 -0.02811508664479551 0 0.024685500162992553 -0.030639004219520767 0 0.024368112231730306 -0.02811508664479551 0 0.024685500162992553 -0.030639004219520767 0 0.022527262652257785 -0.030549671123660891 0 0.025739189091738054 -0.028536074128596468 0 0.025813544646722229 -0.030497004190719899 0 0.024685500162992553 -0.030639004219520767 0 0.025739189091738054 -0.028536074128596468 0 0.026837437932641806 -0.029600546434511019 0 0.025813544646722229 -0.030497004190719899 0 0.02006784653382163 -0.029904671507593385 0 0.018978552069457328 -0.028151057893104334 0 0.018287572711488696 -0.029898116710721453 0 0.02006784653382163 -0.029904671507593385 0 0.018978552069457328 -0.028151057893104334 0 0.021245132451725327 -0.028593275482005461 0 0.024368112231730306 -0.02811508664479551 0 0.021245132451725327 -0.028593275482005461 0 0.022527262652257785 -0.030549671123660891 0 0.02006784653382163 -0.029904671507593385 0 0.021245132451725327 -0.028593275482005461 0 0.022527262652257785 -0.030549671123660891 0 0.022527262652257785 -0.030549671123660891 0 0.019260866628233467 -0.032431753130757239 0 0.023740516432526965 -0.033951089539079465 0 0.024685500162992553 -0.030639004219520767 0 0.022527262652257785 -0.030549671123660891 0 0.023740516432526965 -0.033951089539079465 0 0.02006784653382163 -0.029904671507593385 0 0.022527262652257785 -0.030549671123660891 0 0.019260866628233467 -0.032431753130757239 0 0.02006784653382163 -0.029904671507593385 0 0.019260866628233467 -0.032431753130757239 0 0.018287572711488696 -0.029898116710721453 0 0.025474756534420613 -0.035423539247170531 0 0.023740516432526965 -0.033951089539079465 0 0.025401382102575365 -0.034236126133397528 0 0.022019673337378337 -0.033823035799046157 0 0.023698067109200627 -0.034079450223050409 0 0.023740516432526965 -0.033951089539079465 0 0.024506839257244461 -0.034004388257619068 0 0.025401382102575365 -0.034236126133397528 0 0.025254147636573913 -0.034051712241021756 0 0.024506839257244461 -0.034004388257619068 0 0.025401382102575365 -0.034236126133397528 0 0.025254147636573913 -0.034051712241021756 0 0.025032228770160828 -0.034103817869796112 0 0.024506839257244461 -0.034004388257619068 0 0.025943269283533653 -0.034100137637193662 0 0.025254147636573913 -0.034051712241021756 0 0.025401382102575365 -0.034236126133397528 0 0.025943269283533653 -0.034100137637193662 0 0.025401382102575365 -0.034236126133397528 0 0.026485061578848671 -0.034208635688893298 0 0.025401382102575365 -0.034236126133397528 0 0.026485061578848671 -0.034208635688893298 0 0.026388843228560461 -0.034536594620373853 0 0.026485061578848671 -0.034208635688893298 0 0.026388843228560461 -0.034536594620373853 0 0.026801168938732477 -0.034273060074199682 0 0.025474756534420613 -0.035423539247170531 0 0.026388843228560461 -0.034536594620373853 0 0.02657571966440618 -0.035093187000882535 0 0.025474756534420613 -0.035423539247170531 0 0.025401382102575365 -0.034236126133397528 0 0.026388843228560461 -0.034536594620373853 0 0.027393071818811818 -0.034989051032944619 0 0.027603691045190729 -0.035410302077995184 0 0.027146826364290763 -0.03532594202943598 0 0.027393071818811818 -0.034989051032944619 0 0.026960971233733318 -0.034828858483103034 0 0.027146826364290763 -0.03532594202943598 0 0.02657571966440618 -0.035093187000882535 0 0.026960971233733318 -0.034828858483103034 0 0.027146826364290763 -0.03532594202943598 0 0.026388843228560461 -0.034536594620373853 0 0.026960971233733318 -0.034828858483103034 0 0.026972517133174383 -0.034447408992789065 0 0.026388843228560461 -0.034536594620373853 0 0.02657571966440618 -0.035093187000882535 0 0.026960971233733318 -0.034828858483103034 0 0.026960971233733318 -0.034828858483103034 0 0.027268872784466467 -0.034617810578990389 0 0.026972517133174383 -0.034447408992789065 0 0.027393071818811818 -0.034989051032944619 0 0.026960971233733318 -0.034828858483103034 0 0.027268872784466467 -0.034617810578990389 0 0.027268872784466467 -0.034617810578990389 0 0.02721520225355464 -0.034394919298470564 0 0.026972517133174383 -0.034447408992789065 0 0.027268872784466467 -0.034617810578990389 0 0.02721520225355464 -0.034394919298470564 0 0.027356433597422777 -0.034494905067279903 0 0.02721520225355464 -0.034394919298470564 0 0.027075712190605724 -0.034276480467027359 0 0.027337137893841415 -0.034210569025179001 0 0.02721520225355464 -0.034394919298470564 0 0.027075712190605724 -0.034276480467027359 0 0.026972517133174383 -0.034447408992789065 0 0.026388843228560461 -0.034536594620373853 0 0.026972517133174383 -0.034447408992789065 0 0.026801168938732477 -0.034273060074199682 0 0.027075712190605724 -0.034276480467027359 0 0.026972517133174383 -0.034447408992789065 0 0.026801168938732477 -0.034273060074199682 0 0.026485061578848671 -0.034208635688893298 0 0.026801168938732477 -0.034273060074199682 0 0.026998530007154031 -0.034149395811787941 0 0.027075712190605724 -0.034276480467027359 0 0.026801168938732477 -0.034273060074199682 0 0.026998530007154031 -0.034149395811787941 0 0.027075712190605724 -0.034276480467027359 0 0.026998530007154031 -0.034149395811787941 0 0.027337137893841415 -0.034210569025179001 0 0.031158945670583992 -0.036698333912195825 0 0.030025270771693598 -0.036967203774349665 0 0.030198132182046589 -0.036871739822433802 0 0.034849406037793185 -0.037451017335571678 0 0.035300665687184499 -0.037852478524833526 0 0.035321666968494245 -0.037612916378006594 0 0.035300665687184499 -0.037852478524833526 0 0.035321666968494245 -0.037612916378006594 0 0.035719880602985733 -0.037376060634429026 0 0.034967006734759498 -0.037351843270454078 0 0.035321666968494245 -0.037612916378006594 0 0.035531475546441552 -0.037524522103911502 0 0.034967006734759498 -0.037351843270454078 0 0.034849406037793185 -0.037451017335571678 0 0.035321666968494245 -0.037612916378006594 0 0.027356433597422777 -0.034494905067279903 0 0.027337137893841415 -0.034210569025179001 0 0.027622310059648394 -0.034770289639131778 0 0.02721520225355464 -0.034394919298470564 0 0.027356433597422777 -0.034494905067279903 0 0.027337137893841415 -0.034210569025179001 0 0.035531475546441552 -0.037524522103911502 0 0.035836780888801323 -0.037405289876661488 0 0.036103481072854007 -0.037818315302720666 0 0.035321666968494245 -0.037612916378006594 0 0.035531475546441552 -0.037524522103911502 0 0.035719880602985733 -0.037376060634429026 0 0.035531475546441552 -0.037524522103911502 0 0.035719880602985733 -0.037376060634429026 0 0.035836780888801323 -0.037405289876661488 0 0.035719880602985733 -0.037376060634429026 0 0.035836780888801323 -0.037405289876661488 0 0.035951821765153727 -0.036934687097103937 0 0.035719880602985733 -0.037376060634429026 0 0.035951821765153727 -0.036934687097103937 0 0.036917168772306108 -0.035761129980825292 0 0.035836780888801323 -0.037405289876661488 0 0.035951821765153727 -0.036934687097103937 0 0.03565475885251046 -0.036884502186017007 0 0.035951821765153727 -0.036934687097103937 0 0.035973267109960273 -0.036212514549149248 0 0.03565475885251046 -0.036884502186017007 0 0.035951821765153727 -0.036934687097103937 0 0.035973267109960273 -0.036212514549149248 0 0.036917168772306108 -0.035761129980825292 0 0.035973267109960273 -0.036212514549149248 0 0.036092179938068056 -0.035325707006647548 0 0.035531982639620562 -0.035860685570890997 0 0.030025270771693598 -0.036967203774349665 0 0.028337318525153393 -0.035401857095058629 0 0.027999384317252077 -0.035303343262807201 0 0.028800595116332955 -0.035630546077690832 0 0.028430121912489316 -0.035451005299359725 0 0.027337137893841415 -0.034210569025179001 0 0.027622310059648394 -0.034770289639131778 0 0.028337318525153393 -0.035401857095058629 0 0.030025270771693598 -0.036967203774349665 0 0.030198132182046589 -0.036871739822433802 0 0.028337318525153393 -0.035401857095058629 0 0.032468837522459458 -0.037071282897481427 0 0.032831143015032684 -0.035774299055379592 0 0.035300665687184499 -0.037852478524833526 0 0.035719880602985733 -0.037376060634429026 0 0.036917168772306108 -0.035761129980825292 0 0.027393071818811818 -0.034989051032944619 0 0.027268872784466467 -0.034617810578990389 0 0.027622310059648394 -0.034770289639131778 0 0.027268872784466467 -0.034617810578990389 0 0.027356433597422777 -0.034494905067279903 0 0.027622310059648394 -0.034770289639131778 0 0.027622310059648394 -0.034770289639131778 0 0.027758947475002953 -0.035210094805018223 0 0.028337318525153393 -0.035401857095058629 0 0.027393071818811818 -0.034989051032944619 0 0.027622310059648394 -0.034770289639131778 0 0.027758947475002953 -0.035210094805018223 0 0.027393071818811818 -0.034989051032944619 0 0.027758947475002953 -0.035210094805018223 0 0.027603691045190729 -0.035410302077995184 0 0.027603691045190729 -0.035410302077995184 0 0.027936001001404358 -0.035444240957122321 0 0.027876364222590738 -0.035638075431813118 0 0.027758947475002953 -0.035210094805018223 0 0.027603691045190729 -0.035410302077995184 0 0.027936001001404358 -0.035444240957122321 0 0.027758947475002953 -0.035210094805018223 0 0.027936001001404358 -0.035444240957122321 0 0.028337318525153393 -0.035401857095058629 0 0.027936001001404358 -0.035444240957122321 0 0.028337318525153393 -0.035401857095058629 0 0.028041364414285636 -0.035446068711496408 0 0.028337318525153393 -0.035401857095058629 0 0.028041364414285636 -0.035446068711496408 0 0.027999384317252077 -0.035303343262807201 0 0.027936001001404358 -0.035444240957122321 0 0.028041364414285636 -0.035446068711496408 0 0.027876364222590738 -0.035638075431813118 0 0.028041364414285636 -0.035446068711496408 0 0.027876364222590738 -0.035638075431813118 0 0.028068258395048149 -0.03569135812475828 0 0.027876364222590738 -0.035638075431813118 0 0.028068258395048149 -0.03569135812475828 0 0.028080216928261719 -0.035893651882425819 0 0.027876364222590738 -0.035638075431813118 0 0.027467048257360727 -0.035725284749658137 0 0.027863644670939484 -0.035976130170020749 0 0.027603691045190729 -0.035410302077995184 0 0.027876364222590738 -0.035638075431813118 0 0.027467048257360727 -0.035725284749658137 0 0.036917168772306108 -0.035761129980825292 0 0.036292833233754193 -0.034200249501628255 0 0.036026653110212151 -0.0317508649013701 0 0.035973267109960273 -0.036212514549149248 0 0.036092179938068056 -0.035325707006647548 0 0.036917168772306108 -0.035761129980825292 0 0.028041364414285636 -0.035446068711496408 0 0.027999384317252077 -0.035303343262807201 0 0.028068258395048149 -0.03569135812475828 0 0.036092179938068056 -0.035325707006647548 0 0.036917168772306108 -0.035761129980825292 0 0.036292833233754193 -0.034200249501628255 0 0.036292833233754193 -0.034200249501628255 0 0.035487014783838658 -0.034743458025031239 0 0.035802902568305373 -0.033415430693507629 0 0.036092179938068056 -0.035325707006647548 0 0.036292833233754193 -0.034200249501628255 0 0.035487014783838658 -0.034743458025031239 0 0.036292833233754193 -0.034200249501628255 0 0.036026653110212151 -0.0317508649013701 0 0.035284994042804517 -0.031801228318726227 0 0.036292833233754193 -0.034200249501628255 0 0.035802902568305373 -0.033415430693507629 0 0.035853603158382305 -0.032318013104063285 0 0.032831143015032684 -0.035774299055379592 0 0.029862348068150472 -0.033000858744505923 0 0.028068258395048149 -0.03569135812475828 0 0.028080216928261719 -0.035893651882425819 0 0.028512510678821747 -0.036243863616060801 0 0.036151853859194186 -0.033707057274511953 0 0.035788947369578029 -0.032748716540634742 0 0.027999384317252077 -0.035303343262807201 0 0.028068258395048149 -0.03569135812475828 0 0.028512510678821747 -0.036243863616060801 0 0.028117599805001468 -0.03610949810928709 0 0.028512510678821747 -0.036243863616060801 0 0.028103457167020594 -0.036369920447480782 0 0.028080216928261719 -0.035893651882425819 0 0.028117599805001468 -0.03610949810928709 0 0.028512510678821747 -0.036243863616060801 0 0.026599707403761282 -0.032837874293554975 0 0.025107641722785706 -0.028229824581385028 0 0.027863644670939484 -0.035976130170020749 0 0.027505387995008033 -0.036117932785555078 0 0.028103457167020594 -0.036369920447480782 0 0.027467048257360727 -0.035725284749658137 0 0.027863644670939484 -0.035976130170020749 0 0.027505387995008033 -0.036117932785555078 0 0.027876364222590738 -0.035638075431813118 0 0.028080216928261719 -0.035893651882425819 0 0.027863644670939484 -0.035976130170020749 0 0.028080216928261719 -0.035893651882425819 0 0.028117599805001468 -0.03610949810928709 0 0.027863644670939484 -0.035976130170020749 0 0.028117599805001468 -0.03610949810928709 0 0.027863644670939484 -0.035976130170020749 0 0.028103457167020594 -0.036369920447480782 0 0.027467048257360727 -0.035725284749658137 0 0.027505387995008033 -0.036117932785555078 0 0.026763778895316576 -0.035842092396311788 0 0.024289998087342741 -0.02861381639684428 0 0.024962170580841825 -0.029026133150287278 0 0.024841087838727908 -0.027753925264286123 0 0.0234833201439066 -0.032447739526599552 0 0.019926290529059476 -0.023662913379267909 0 0.026599707403761282 -0.032837874293554975 0 0.0234833201439066 -0.032447739526599552 0 0.017130169236171271 -0.028299250770004589 0 0.015685947510655787 -0.03056186099968209 0 0.015224872406750776 -0.025718930014773218 0 0.018978552069457328 -0.028151057893104334 0 0.017130169236171271 -0.028299250770004589 0 0.018287572711488696 -0.029898116710721453 0 0.017130169236171271 -0.028299250770004589 0 0.018287572711488696 -0.029898116710721453 0 0.015685947510655787 -0.03056186099968209 0 0.022019673337378337 -0.033823035799046157 0 0.0234833201439066 -0.032447739526599552 0 0.019260866628233467 -0.032431753130757239 0 0.018287572711488696 -0.029898116710721453 0 0.015685947510655787 -0.03056186099968209 0 0.025474756534420613 -0.035423539247170531 0 0.02657571966440618 -0.035093187000882535 0 0.026614779773831233 -0.036056289477817 0 0.026776609495756675 -0.036449843127160965 0 0.0234833201439066 -0.032447739526599552 0 0.027467048257360727 -0.035725284749658137 0 0.027146826364290763 -0.03532594202943598 0 0.026763778895316576 -0.035842092396311788 0 0.02657571966440618 -0.035093187000882535 0 0.027146826364290763 -0.03532594202943598 0 0.026763778895316576 -0.035842092396311788 0 0.027603691045190729 -0.035410302077995184 0 0.027467048257360727 -0.035725284749658137 0 0.027146826364290763 -0.03532594202943598 0 0.040602505080042005 -0.037119283472893345 0 0.040484562859138803 -0.037658541562984059 0 0.040144562037205359 -0.037410548330776783 0 0.040402422772856418 -0.036635125679062921 0 0.040602505080042005 -0.037119283472893345 0 0.040064197246012304 -0.037102936594970652 0 0.040602505080042005 -0.037119283472893345 0 0.040144562037205359 -0.037410548330776783 0 0.040064197246012304 -0.037102936594970652 0 0.039895017276545576 -0.036795636789541203 0 0.040064197246012304 -0.037102936594970652 0 0.039561158879035566 -0.037157301686159445 0 0.040064197246012304 -0.037102936594970652 0 0.039847211146917035 -0.037300937534988005 0 0.039561158879035566 -0.037157301686159445 0 0.040144562037205359 -0.037410548330776783 0 0.040064197246012304 -0.037102936594970652 0 0.039847211146917035 -0.037300937534988005 0 0.040144562037205359 -0.037410548330776783 0 0.039847211146917035 -0.037300937534988005 0 0.039664559331217729 -0.037451619794617523 0 0.039847211146917035 -0.037300937534988005 0 0.039664559331217729 -0.037451619794617523 0 0.039561158879035566 -0.037157301686159445 0 0.037216252384863979 -0.035373746904181588 0 0.039229443504434365 -0.038585994318055143 0 0.038563693862827132 -0.040670976973267145 0 0.038608060796479958 -0.03855065396624132 0 0.037521110978984813 -0.039397631826044888 0 0.033567126004142966 -0.035625581404216941 0 0.034718937727531797 -0.036983653871582679 0 0.034886381295014625 -0.036103036100285632 0 0.033567126004142966 -0.035625581404216941 0 0.034886381295014625 -0.036103036100285632 0 0.034698623189637401 -0.03508622201401497 0 0.037216252384863979 -0.035373746904181588 0 0.036263639214606312 -0.038341483596405809 0 0.037653299145225728 -0.037470519171017451 0 0.038608060796479958 -0.03855065396624132 0 0.037521110978984813 -0.039397631826044888 0 0.035836780888801323 -0.037405289876661488 0 0.036103481072854007 -0.037818315302720666 0 0.03565475885251046 -0.036884502186017007 0 0.037653299145225728 -0.037470519171017451 0 0.036103481072854007 -0.037818315302720666 0 0.037521110978984813 -0.039397631826044888 0 0.036103481072854007 -0.037818315302720666 0 0.03565475885251046 -0.036884502186017007 0 0.034718937727531797 -0.036983653871582679 0 0.035982972029859256 -0.03778073240797819 0 0.036263639214606312 -0.038341483596405809 0 0.03565475885251046 -0.036884502186017007 0 0.034718937727531797 -0.036983653871582679 0 0.034886381295014625 -0.036103036100285632 0 0.034886381295014625 -0.036103036100285632 0 0.035531982639620562 -0.035860685570890997 0 0.034698623189637401 -0.03508622201401497 0 0.03565475885251046 -0.036884502186017007 0 0.034886381295014625 -0.036103036100285632 0 0.035531982639620562 -0.035860685570890997 0 0.035973267109960273 -0.036212514549149248 0 0.03565475885251046 -0.036884502186017007 0 0.035531982639620562 -0.035860685570890997 0 0.035531982639620562 -0.035860685570890997 0 0.034698623189637401 -0.03508622201401497 0 0.035487014783838658 -0.034743458025031239 0 0.036092179938068056 -0.035325707006647548 0 0.035531982639620562 -0.035860685570890997 0 0.035487014783838658 -0.034743458025031239 0 0.034698623189637401 -0.03508622201401497 0 0.035105430760029116 -0.033832617157048481 0 0.035487014783838658 -0.034743458025031239 0 0.034698623189637401 -0.03508622201401497 0 0.035105430760029116 -0.033832617157048481 0 0.034402588153673586 -0.034219303944834141 0 0.035105430760029116 -0.033832617157048481 0 0.034715524807540935 -0.033310468775199886 0 0.034402588153673586 -0.034219303944834141 0 0.035105430760029116 -0.033832617157048481 0 0.035487014783838658 -0.034743458025031239 0 0.035802902568305373 -0.033415430693507629 0 0.035802902568305373 -0.033415430693507629 0 0.035558378226025658 -0.032788888415915735 0 0.035259746118171703 -0.032955334094424311 0 0.035105430760029116 -0.033832617157048481 0 0.035802902568305373 -0.033415430693507629 0 0.035259746118171703 -0.032955334094424311 0 0.035802902568305373 -0.033415430693507629 0 0.035558378226025658 -0.032788888415915735 0 0.035853603158382305 -0.032318013104063285 0 0.035558378226025658 -0.032788888415915735 0 0.035348964694690073 -0.032456911168188982 0 0.035259746118171703 -0.032955334094424311 0 0.035558378226025658 -0.032788888415915735 0 0.035348964694690073 -0.032456911168188982 0 0.035853603158382305 -0.032318013104063285 0 0.035348964694690073 -0.032456911168188982 0 0.035006970176056709 -0.032297688538384724 0 0.035169669075309967 -0.031924843555470969 0 0.035006970176056709 -0.032297688538384724 0 0.035259746118171703 -0.032955334094424311 0 0.034715524807540935 -0.033310468775199886 0 0.035348964694690073 -0.032456911168188982 0 0.035006970176056709 -0.032297688538384724 0 0.035259746118171703 -0.032955334094424311 0 0.035105430760029116 -0.033832617157048481 0 0.035259746118171703 -0.032955334094424311 0 0.034715524807540935 -0.033310468775199886 0 0.034715524807540935 -0.033310468775199886 0 0.033821613592140837 -0.033288059865446799 0 0.034402588153673586 -0.034219303944834141 0 0.034749159860073785 -0.030066668129309439 0 0.035155549822629452 -0.031598969597708297 0 0.035006970176056709 -0.032297688538384724 0 0.034715524807540935 -0.033310468775199886 0 0.033821613592140837 -0.033288059865446799 0 0.035006970176056709 -0.032297688538384724 0 0.033821613592140837 -0.033288059865446799 0 0.035266167810182256 -0.031203258061428624 0 0.035799542912490434 -0.028227957634538923 0 0.036489454618843481 -0.030163627785790435 0 0.035266167810182256 -0.031203258061428624 0 0.03602294293958961 -0.026964346507546279 0 0.035799542912490434 -0.028227957634538923 0 0.036762490113453242 -0.027980826102210879 0 0.033567126004142966 -0.035625581404216941 0 0.033821613592140837 -0.033288059865446799 0 0.034402588153673586 -0.034219303944834141 0 0.037216252384863979 -0.035373746904181588 0 0.034749159860073785 -0.030066668129309439 0 0.033567126004142966 -0.035625581404216941 0 0.034698623189637401 -0.03508622201401497 0 0.034402588153673586 -0.034219303944834141 0 0.037216252384863979 -0.035373746904181588 0 0.038439832824214162 -0.030837581689924173 0 0.040144562037205359 -0.037410548330776783 0 0.039664559331217729 -0.037451619794617523 0 0.039926255744049552 -0.037708247982153137 0 0.03602294293958961 -0.026964346507546279 0 0.036919518873028086 -0.02795955823564945 0 0.036762490113453242 -0.027980826102210879 0 0.038439832824214162 -0.030837581689924173 0 0.038224669667656433 -0.03071553840370194 0 0.035799542912490434 -0.028227957634538923 0 0.036762490113453242 -0.027980826102210879 0 0.036600441031485152 -0.028456453020720637 0 0.035799542912490434 -0.028227957634538923 0 0.036600441031485152 -0.028456453020720637 0 0.036733599264889547 -0.02904077641340265 0 0.03700588568665604 -0.027914543916868689 0 0.036864203950828067 -0.028276570242623398 0 0.037297262249898808 -0.028709327509711686 0 0.03700588568665604 -0.027914543916868689 0 0.037297262249898808 -0.028709327509711686 0 0.03967425369247056 -0.029701490164973549 0 0.036762490113453242 -0.027980826102210879 0 0.036864203950828067 -0.028276570242623398 0 0.036600441031485152 -0.028456453020720637 0 0.03700588568665604 -0.027914543916868689 0 0.036762490113453242 -0.027980826102210879 0 0.036864203950828067 -0.028276570242623398 0 0.036864203950828067 -0.028276570242623398 0 0.036600441031485152 -0.028456453020720637 0 0.037297262249898808 -0.028709327509711686 0 0.036733599264889547 -0.02904077641340265 0 0.037297262249898808 -0.028709327509711686 0 0.03727345006534151 -0.029672912553200259 0 0.035799542912490434 -0.028227957634538923 0 0.036733599264889547 -0.02904077641340265 0 0.036489454618843481 -0.030163627785790435 0 0.036733599264889547 -0.02904077641340265 0 0.03727345006534151 -0.029672912553200259 0 0.036489454618843481 -0.030163627785790435 0 0.036600441031485152 -0.028456453020720637 0 0.036733599264889547 -0.02904077641340265 0 0.037297262249898808 -0.028709327509711686 0 0.037297262249898808 -0.028709327509711686 0 0.038996966721769229 -0.029832761168106396 0 0.03727345006534151 -0.029672912553200259 0 0.039750404389619992 -0.029592116031016684 0 0.039751190528343923 -0.029623790340850879 0 0.039718901888423822 -0.029610283230852474 0 0.038439832824214162 -0.030837581689924173 0 0.039400417639491626 -0.0289673789273578 0 0.039633024049426979 -0.029597665812756697 0 0.039692174597998106 -0.029633271595316712 0 0.03967425369247056 -0.029701490164973549 0 0.039633024049426979 -0.029597665812756697 0 0.039692174597998106 -0.029633271595316712 0 0.039718901888423822 -0.029610283230852474 0 0.039751190528343923 -0.029623790340850879 0 0.039692174597998106 -0.029633271595316712 0 0.03967425369247056 -0.029701490164973549 0 0.039751190528343923 -0.029623790340850879 0 0.039692174597998106 -0.029633271595316712 0 0.039718901888423822 -0.029610283230852474 0 0.040484562859138803 -0.037658541562984059 0 0.040144562037205359 -0.037410548330776783 0 0.039926255744049552 -0.037708247982153137 0 0.039750404389619992 -0.029592116031016684 0 0.039633024049426979 -0.029597665812756697 0 0.039718901888423822 -0.029610283230852474 0 0.042919173785291247 -0.033000216184963044 0 0.038439832824214162 -0.030837581689924173 0 0.038721576481085269 -0.032422822341744838 0 0.037280133396554546 -0.032106874469509952 0 0.038894177895955118 -0.034462224737649989 0 0.040284511938300058 -0.02972407047250001 0 0.039951473197054367 -0.0298429951181905 0 0.04030126012511008 -0.0299396076868442 0 0.040075726571811014 -0.029482621429306705 0 0.040284511938300058 -0.02972407047250001 0 0.039951473197054367 -0.0298429951181905 0 0.039751190528343923 -0.029623790340850879 0 0.040075726571811014 -0.029482621429306705 0 0.03967425369247056 -0.029701490164973549 0 0.040075726571811014 -0.029482621429306705 0 0.039951473197054367 -0.0298429951181905 0 0.03967425369247056 -0.029701490164973549 0 0.037297262249898808 -0.028709327509711686 0 0.03967425369247056 -0.029701490164973549 0 0.038996966721769229 -0.029832761168106396 0 0.039951473197054367 -0.0298429951181905 0 0.03967425369247056 -0.029701490164973549 0 0.038996966721769229 -0.029832761168106396 0 0.038721576481085269 -0.032422822341744838 0 0.038996966721769229 -0.029832761168106396 0 0.03800838655860108 -0.031302649380901396 0 0.039447059336613556 -0.031877490249246826 0 0.039022789195216602 -0.029565321096863446 0 0.03800838655860108 -0.031302649380901396 0 0.03715867603217074 -0.030777543292830136 0 0.037280133396554546 -0.032106874469509952 0 0.038996966721769229 -0.029832761168106396 0 0.03800838655860108 -0.031302649380901396 0 0.03715867603217074 -0.030777543292830136 0 0.038996966721769229 -0.029832761168106396 0 0.03715867603217074 -0.030777543292830136 0 0.03727345006534151 -0.029672912553200259 0 0.03715867603217074 -0.030777543292830136 0 0.036489454618843481 -0.030163627785790435 0 0.035266167810182256 -0.031203258061428624 0 0.03715867603217074 -0.030777543292830136 0 0.03727345006534151 -0.029672912553200259 0 0.036489454618843481 -0.030163627785790435 0 0.03715867603217074 -0.030777543292830136 0 0.037280133396554546 -0.032106874469509952 0 0.035266167810182256 -0.031203258061428624 0 0.036049833044673102 -0.032784656181109248 0 0.037280133396554546 -0.032106874469509952 0 0.038894177895955118 -0.034462224737649989 0 0.036049833044673102 -0.032784656181109248 0 0.037280133396554546 -0.032106874469509952 0 0.035266167810182256 -0.031203258061428624 0 0.038721576481085269 -0.032422822341744838 0 0.03800838655860108 -0.031302649380901396 0 0.037280133396554546 -0.032106874469509952 0 0.036049833044673102 -0.032784656181109248 0 0.035266167810182256 -0.031203258061428624 0 0.034908364881236068 -0.031587383918187023 0 0.033540655203455221 -0.022165063088414358 0 0.035061390889381823 -0.023420760544319741 0 0.034137245809983736 -0.020008438910018442 0 0.03291759211872624 -0.021993100804023096 0 0.033540655203455221 -0.022165063088414358 0 0.035061390889381823 -0.023420760544319741 0 0.034991849189180795 -0.027649662551079444 0 0.032405684258652694 -0.02649240032542452 0 0.035006970176056709 -0.032297688538384724 0 0.035266167810182256 -0.031203258061428624 0 0.035169669075309967 -0.031924843555470969 0 0.035266167810182256 -0.031203258061428624 0 0.034908364881236068 -0.031587383918187023 0 0.035169669075309967 -0.031924843555470969 0 0.035284994042804517 -0.031801228318726227 0 0.033370759822121968 -0.028017350927903372 0 0.03502421540909767 -0.028935291214405537 0 0.035853603158382305 -0.032318013104063285 0 0.034908364881236068 -0.031587383918187023 0 0.035169669075309967 -0.031924843555470969 0 0.035788947369578029 -0.032748716540634742 0 0.032405684258652694 -0.02649240032542452 0 0.035348964694690073 -0.032456911168188982 0 0.035853603158382305 -0.032318013104063285 0 0.035169669075309967 -0.031924843555470969 0 0.032405684258652694 -0.02649240032542452 0 0.025516108654559805 -0.024331682683403796 0 0.025516108654559805 -0.024331682683403796 0 0.019865382755460258 -0.015580616784122571 0 0.020310818552547846 -0.018832814286828679 0 0.020332533468751361 -0.01618333132241756 0 0.018488705901859893 -0.014218693797628662 0 0.032405684258652694 -0.02649240032542452 0 0.026528395231470478 -0.018230911559328437 0 0.023429382174396295 -0.024837076158407481 0 0.025464439807294216 -0.025968561544802028 0 0.022165549993769469 -0.017903151752981791 0 0.023429382174396295 -0.024837076158407481 0 0.022165549993769469 -0.017903151752981791 0 0.020071954867388973 -0.017735456127122001 0 0.020253682981588531 -0.0147747987361416 0 0.018488705901859893 -0.014218693797628662 0 0.019773447369648776 -0.013861387023354306 0 0.020332533468751361 -0.01618333132241756 0 0.020253682981588531 -0.0147747987361416 0 0.018488705901859893 -0.014218693797628662 0 0.018488705901859893 -0.014218693797628662 0 0.019643074021564618 -0.012896306154612309 0 0.019773447369648776 -0.013861387023354306 0 0.020253682981588531 -0.0147747987361416 0 0.019773447369648776 -0.013861387023354306 0 0.02069239074254178 -0.013555689164466313 0 0.019643074021564618 -0.012896306154612309 0 0.019773447369648776 -0.013861387023354306 0 0.02069239074254178 -0.013555689164466313 0 0.018488705901859893 -0.014218693797628662 0 0.019643074021564618 -0.012896306154612309 0 0.01913079894973508 -0.011214424292330527 0 0.019643074021564618 -0.012896306154612309 0 0.02069239074254178 -0.013555689164466313 0 0.020957460867857759 -0.011752104974937587 0 0.018488705901859893 -0.014218693797628662 0 0.01913079894973508 -0.011214424292330527 0 0.016842688937750715 -0.0093461256976351686 0 0.019643074021564618 -0.012896306154612309 0 0.01913079894973508 -0.011214424292330527 0 0.020957460867857759 -0.011752104974937587 0 0.020341315417721023 -0.010266414728752563 0 0.01913079894973508 -0.011214424292330527 0 0.020957460867857759 -0.011752104974937587 0 0.020341315417721023 -0.010266414728752563 0 0.01913079894973508 -0.011214424292330527 0 0.018707672682520209 -0.0093347600253224326 0 0.034137245809983736 -0.020008438910018442 0 0.031062967463100093 -0.018159905818164995 0 0.03198706141258708 -0.015002047888816709 0 0.026528395231470478 -0.018230911559328437 0 0.024590082153605482 -0.013311132109603144 0 0.020071954867388973 -0.017735456127122001 0 0.017014748380399645 -0.01131503837081879 0 0.018886091777616004 -0.010643729500434526 0 0.022165549993769469 -0.017903151752981791 0 0.020071954867388973 -0.017735456127122001 0 0.018886091777616004 -0.010643729500434526 0 0.019865382755460258 -0.015580616784122571 0 0.017964355989288781 -0.010144628624991336 0 0.03291759211872624 -0.021993100804023096 0 0.033540655203455221 -0.022165063088414358 0 0.032746211502585124 -0.021342695765640875 0 0.033540655203455221 -0.022165063088414358 0 0.034137245809983736 -0.020008438910018442 0 0.031062967463100093 -0.018159905818164995 0 0.033394038681803899 -0.021978739581179508 0 0.031933896888036536 -0.019952990717120013 0 0.03291759211872624 -0.021993100804023096 0 0.032746211502585124 -0.021342695765640875 0 0.032437881983997489 -0.021585058216365482 0 0.034991849189180795 -0.027649662551079444 0 0.036177407895883855 -0.02794067722435491 0 0.031933896888036536 -0.019952990717120013 0 0.031110477876439505 -0.016318885607896461 0 0.031062967463100093 -0.018159905818164995 0 0.03198706141258708 -0.015002047888816709 0 0.030660077723601444 -0.013904365794995523 0 0.036509855058034967 -0.026213000681347052 0 0.036177407895883855 -0.02794067722435491 0 0.040554738853288898 -0.030175002864172098 0 0.040441629864276483 -0.030233077972972852 0 0.040274752951091675 -0.030055239857571536 0 0.032746211502585124 -0.021342695765640875 0 0.032470643407124578 -0.021301567223115783 0 0.032573511680491808 -0.021118413027479521 0 0.032746211502585124 -0.021342695765640875 0 0.032470643407124578 -0.021301567223115783 0 0.032437881983997489 -0.021585058216365482 0 0.039447059336613556 -0.031877490249246826 0 0.036177407895883855 -0.02794067722435491 0 0.039951473197054367 -0.0298429951181905 0 0.040274752951091675 -0.030055239857571536 0 0.04030126012511008 -0.0299396076868442 0 0.040562895493474013 -0.030041740171435044 0 0.040274752951091675 -0.030055239857571536 0 0.04030126012511008 -0.0299396076868442 0 0.019926290529059476 -0.023662913379267909 0 0.015413498916597655 -0.018701402792511475 0 0.02569287070808721 -0.017121960986697476 0 0.027457721507110778 -0.018452185042399448 0 0.02718182947678921 -0.015069459732208509 0 0.02569287070808721 -0.017121960986697476 0 0.024277867577796351 -0.015717400735670954 0 0.02718182947678921 -0.015069459732208509 0 0.013837508813583137 -0.023724725355979772 0 0.015413498916597655 -0.018701402792511475 0 0.014776617415694833 -0.023921146664997513 0 0.012277625818582565 -0.025227751357271431 0 0.01199615374839221 -0.021400435169780904 0 0.015770125364180782 -0.024747416403616593 0 0.019926290529059476 -0.023662913379267909 0 0.015905717342253035 -0.021400665628804206 0 0.014776617415694833 -0.023921146664997513 0 0.013772135483184109 -0.019454748294181881 0 0.015727477674503065 -0.024145801730797826 0 0.014776617415694833 -0.023921146664997513 0 0.012277625818582565 -0.025227751357271431 0 0.015727477674503065 -0.024145801730797826 0 0.015905717342253035 -0.021400665628804206 0 0.014776617415694833 -0.023921146664997513 0 0.01800503477435118 -0.024671498630097793 0 0.017451753848494064 -0.026726115795447779 0 0.015224872406750776 -0.025718930014773218 0 0.017130169236171271 -0.028299250770004589 0 0.017451753848494064 -0.026726115795447779 0 0.015224872406750776 -0.025718930014773218 0 0.018978552069457328 -0.028151057893104334 0 0.017130169236171271 -0.028299250770004589 0 0.017451753848494064 -0.026726115795447779 0 0.024289998087342741 -0.02861381639684428 0 0.024841087838727908 -0.027753925264286123 0 0.024239578781960619 -0.027993781718905431 0 0.019926290529059476 -0.023662913379267909 0 0.025514839991904993 -0.02341582902953274 0 0.02569287070808721 -0.017121960986697476 0 0.027457721507110778 -0.018452185042399448 0 0.02509968641924468 -0.019286319865120957 0 0.024289998087342741 -0.02861381639684428 0 0.024239578781960619 -0.027993781718905431 0 0.023649473513062808 -0.028217562747379785 0 0.02360612060963117 -0.018765718681682236 0 0.02509968641924468 -0.019286319865120957 0 0.022721273419402718 -0.020167272047395376 0 0.025514839991904993 -0.02341582902953274 0 0.025107641722785706 -0.028229824581385028 0 0.02360612060963117 -0.018765718681682236 0 0.02257494176306633 -0.018087742012074619 0 0.024037340700064132 -0.017354260079791482 0 0.02360612060963117 -0.018765718681682236 0 0.02509968641924468 -0.019286319865120957 0 0.024037340700064132 -0.017354260079791482 0 0.036026653110212151 -0.0317508649013701 0 0.035284994042804517 -0.031801228318726227 0 0.03502421540909767 -0.028935291214405537 0 0.025516108654559805 -0.024331682683403796 0 0.025107641722785706 -0.028229824581385028 0 0.029862348068150472 -0.033000858744505923 0 0.025516108654559805 -0.024331682683403796 0 0.026685337448894085 -0.028850993970105487 0 0.026092874162146291 -0.02731274089484742 0 0.027967255240758569 -0.02840002937901508 0 0.029862348068150472 -0.033000858744505923 0 0.025107641722785706 -0.028229824581385028 0 0.022721273419402718 -0.020167272047395376 0 0.02257494176306633 -0.018087742012074619 0 0.021722685238407171 -0.018602384624688717 0 0.02360612060963117 -0.018765718681682236 0 0.022721273419402718 -0.020167272047395376 0 0.02257494176306633 -0.018087742012074619 0 0.020310818552547846 -0.018832814286828679 0 0.021722685238407171 -0.018602384624688717 0 0.021278017835500387 -0.017308205205409728 0 0.020310818552547846 -0.018832814286828679 0 0.022721273419402718 -0.020167272047395376 0 0.021722685238407171 -0.018602384624688717 0 0.020310818552547846 -0.018832814286828679 0 0.020332533468751361 -0.01618333132241756 0 0.021278017835500387 -0.017308205205409728 0 0.02257494176306633 -0.018087742012074619 0 0.021278017835500387 -0.017308205205409728 0 0.022607517340617035 -0.01645219410485043 0 0.02257494176306633 -0.018087742012074619 0 0.021722685238407171 -0.018602384624688717 0 0.021278017835500387 -0.017308205205409728 0 0.022607517340617035 -0.01645219410485043 0 0.024277867577796351 -0.015717400735670954 0 0.022134209953047351 -0.014461830210758902 0 0.022607517340617035 -0.01645219410485043 0 0.021314934835511612 -0.015774557559606526 0 0.022134209953047351 -0.014461830210758902 0 0.020332533468751361 -0.01618333132241756 0 0.021278017835500387 -0.017308205205409728 0 0.021314934835511612 -0.015774557559606526 0 0.020332533468751361 -0.01618333132241756 0 0.020253682981588531 -0.0147747987361416 0 0.021314934835511612 -0.015774557559606526 0 0.021278017835500387 -0.017308205205409728 0 0.022607517340617035 -0.01645219410485043 0 0.021314934835511612 -0.015774557559606526 0 0.02569287070808721 -0.017121960986697476 0 0.02509968641924468 -0.019286319865120957 0 0.024037340700064132 -0.017354260079791482 0 0.02257494176306633 -0.018087742012074619 0 0.022607517340617035 -0.01645219410485043 0 0.024037340700064132 -0.017354260079791482 0 0.022607517340617035 -0.01645219410485043 0 0.024037340700064132 -0.017354260079791482 0 0.024277867577796351 -0.015717400735670954 0 0.02569287070808721 -0.017121960986697476 0 0.024037340700064132 -0.017354260079791482 0 0.024277867577796351 -0.015717400735670954 0 0.024277867577796351 -0.015717400735670954 0 0.024277172358830923 -0.014236495634741921 0 0.02718182947678921 -0.015069459732208509 0 0.024277867577796351 -0.015717400735670954 0 0.024277172358830923 -0.014236495634741921 0 0.022134209953047351 -0.014461830210758902 0 0.024277172358830923 -0.014236495634741921 0 0.022134209953047351 -0.014461830210758902 0 0.022842627078514283 -0.012967074647366522 0 0.024277172358830923 -0.014236495634741921 0 0.022842627078514283 -0.012967074647366522 0 0.024934953748337759 -0.012977755066345735 0 0.020253682981588531 -0.0147747987361416 0 0.022134209953047351 -0.014461830210758902 0 0.02069239074254178 -0.013555689164466313 0 0.020253682981588531 -0.0147747987361416 0 0.021314934835511612 -0.015774557559606526 0 0.022134209953047351 -0.014461830210758902 0 0.022134209953047351 -0.014461830210758902 0 0.02069239074254178 -0.013555689164466313 0 0.022842627078514283 -0.012967074647366522 0 0.02069239074254178 -0.013555689164466313 0 0.020957460867857759 -0.011752104974937587 0 0.022842627078514283 -0.012967074647366522 0 0.022119691545799576 -0.012682049364754424 0 0.019217580669871441 -0.010738163966085033 0 0.020957460867857759 -0.011752104974937587 0 0.022842627078514283 -0.012967074647366522 0 0.022777092832549525 -0.010711362821628795 0 0.020341315417721023 -0.010266414728752563 0 0.020957460867857759 -0.011752104974937587 0 0.022777092832549525 -0.010711362821628795 0 0.022842627078514283 -0.012967074647366522 0 0.022693550276702643 -0.010963496437708208 0 0.024934953748337759 -0.012977755066345735 0 0.019217580669871441 -0.010738163966085033 0 0.017785905422869185 -0.013875266456366102 0 0.0086631827702102308 -0.013131684265682808 0 0.0106247089311481 -0.014920143841137641 0 0.010615265379397276 -0.012925830247682178 0 0.0106247089311481 -0.014920143841137641 0 0.010615265379397276 -0.012925830247682178 0 0.012374552103838107 -0.013894859733477594 0 0.011095255956643084 -0.016106556125127579 0 0.011238320871440088 -0.020657569391306023 0 0.013772135483184109 -0.019454748294181881 0 0.017785905422869185 -0.013875266456366102 0 0.015413498916597655 -0.018701402792511475 0 0.0106247089311481 -0.014920143841137641 0 0.012374552103838107 -0.013894859733477594 0 0.012677497962672467 -0.016743473265432674 0 0.024277172358830923 -0.014236495634741921 0 0.024934953748337759 -0.012977755066345735 0 0.02718182947678921 -0.015069459732208509 0 0.011584848686952609 -0.015008041070581594 0 0.015413498916597655 -0.018701402792511475 0 0.014776617415694833 -0.023921146664997513 0 0.011238320871440088 -0.020657569391306023 0 0.013772135483184109 -0.019454748294181881 0 0.015905717342253035 -0.021400665628804206 0 0.015639716792506399 -0.018612406856940777 0 0.013772135483184109 -0.019454748294181881 0 0.015639716792506399 -0.018612406856940777 0 0.013772135483184109 -0.019454748294181881 0 0.014191155270041429 -0.016258202928331054 0 0.011095255956643084 -0.016106556125127579 0 0.013772135483184109 -0.019454748294181881 0 0.014191155270041429 -0.016258202928331054 0 0.011095255956643084 -0.016106556125127579 0 0.014191155270041429 -0.016258202928331054 0 0.013091468330683453 -0.013839232626568379 0 0.014191155270041429 -0.016258202928331054 0 0.013091468330683453 -0.013839232626568379 0 0.015584997785600421 -0.013234542714232198 0 0.013091468330683453 -0.013839232626568379 0 0.013771969194174798 -0.011023727518575881 0 0.011302146910548202 -0.012012815697123093 0 0.013091468330683453 -0.013839232626568379 0 0.013771969194174798 -0.011023727518575881 0 0.015584997785600421 -0.013234542714232198 0 0.013771969194174798 -0.011023727518575881 0 0.014360702775347133 -0.0085628870038864571 0 0.011638647366963985 -0.0085139132438293835 0 0.013771969194174798 -0.011023727518575881 0 0.015584997785600421 -0.013234542714232198 0 0.016301544793638965 -0.0098059507977839144 0 0.013771969194174798 -0.011023727518575881 0 0.014360702775347133 -0.0085628870038864571 0 0.016301544793638965 -0.0098059507977839144 0 0.011676560920624843 -0.011591830028156731 0 0.011600787116498076 -0.0088351365311908209 0 0.012022137698219405 -0.0111338900142365 0 0.010072186744163613 -0.0096811719829232364 0 0.011638647366963985 -0.0085139132438293835 0 0.013771969194174798 -0.011023727518575881 0 0.011302146910548202 -0.012012815697123093 0 0.011638647366963985 -0.0085139132438293835 0 0.010615265379397276 -0.012925830247682178 0 0.012374552103838107 -0.013894859733477594 0 0.012022137698219405 -0.0111338900142365 0 0.011095255956643084 -0.016106556125127579 0 0.013091468330683453 -0.013839232626568379 0 0.011302146910548202 -0.012012815697123093 0 0.011584848686952609 -0.015008041070581594 0 0.011676560920624843 -0.011591830028156731 0 0.010615265379397276 -0.012925830247682178 0 0.012022137698219405 -0.0111338900142365 0 0.010022661551986506 -0.011438949798439069 0 0.0086631827702102308 -0.013131684265682808 0 0.010022661551986506 -0.011438949798439069 0 0.0084482670370608255 -0.010150719185705093 0 0.0086631827702102308 -0.013131684265682808 0 0.010615265379397276 -0.012925830247682178 0 0.010022661551986506 -0.011438949798439069 0 0.012022137698219405 -0.0111338900142365 0 0.010022661551986506 -0.011438949798439069 0 0.010072186744163613 -0.0096811719829232364 0 0.019217580669871441 -0.010738163966085033 0 0.014514395552551183 -0.0084706850933084551 0 0.020341315417721023 -0.010266414728752563 0 0.022777092832549525 -0.010711362821628795 0 0.020174528313775159 -0.0083291752546552182 0 0.021310664553381941 -0.00930767304453365 0 0.021187327252691866 -0.0067581277310807221 0 0.01951693362772423 -0.0076847788521140301 0 0.019217580669871441 -0.010738163966085033 0 0.020164622340411036 -0.0080953025479093849 0 0.014514395552551183 -0.0084706850933084551 0 0.014535118588075055 -0.0058685158809987318 0 0.021187327252691866 -0.0067581277310807221 0 0.021061223118706163 -0.0041183619845421762 0 0.019613367616038845 -0.0057809135703020794 0 0.021187327252691866 -0.0067581277310807221 0 0.01951693362772423 -0.0076847788521140301 0 0.019613367616038845 -0.0057809135703020794 0 0.0084482670370608255 -0.010150719185705093 0 0.010072186744163613 -0.0096811719829232364 0 0.0082454420083661224 -0.0071872964951309251 0 0.010022661551986506 -0.011438949798439069 0 0.0084482670370608255 -0.010150719185705093 0 0.010072186744163613 -0.0096811719829232364 0 0.0082454420083661224 -0.0071872964951309251 0 0.010787941270075971 -0.0054957437622484215 0 0.011638647366963985 -0.0085139132438293835 0 0.010072186744163613 -0.0096811719829232364 0 0.0082454420083661224 -0.0071872964951309251 0 0.011638647366963985 -0.0085139132438293835 0 0.021061223118706163 -0.0041183619845421762 0 0.019059368060527972 -0.0024643506737140868 0 0.02087705969570338 -0.001487628810294849 0 0.019245927777307152 -0.0020100877381979913 0 0.016457548893362456 -0.0016164851862821255 0 0.014535118588075055 -0.0058685158809987318 0 0.016457548893362456 -0.0016164851862821255 0 0.0082454420083661224 -0.0071872964951309251 0 0.010787941270075971 -0.0054957437622484215 0 0.0080689353426853152 -0.0041261578143879192 0 0.010787941270075971 -0.0054957437622484215 0 0.013079490161686847 -0.0042815922121800798 0 0.013773958081328102 -0.0066764839748405316 0 0.013079490161686847 -0.0042815922121800798 0 0.013773958081328102 -0.0066764839748405316 0 0.01552833628918711 -0.0041786190658819802 0 0.013773958081328102 -0.0066764839748405316 0 0.01552833628918711 -0.0041786190658819802 0 0.016521818620028363 -0.0067330607345779253 0 0.013773958081328102 -0.0066764839748405316 0 0.014360702775347133 -0.0085628870038864571 0 0.011638647366963985 -0.0085139132438293835 0 0.013773958081328102 -0.0066764839748405316 0 0.014360702775347133 -0.0085628870038864571 0 0.016521818620028363 -0.0067330607345779253 0 0.010787941270075971 -0.0054957437622484215 0 0.013773958081328102 -0.0066764839748405316 0 0.011638647366963985 -0.0085139132438293835 0 0.031110477876439505 -0.016318885607896461 0 0.031123793990755537 -0.010748863390193203 0 0.028883701220025353 -0.013366502916525991 0 0.029779977315205226 -0.010400238662427196 0 0.027237204221807775 -0.0092641985815593731 0 0.032375614038494115 -0.017443071135186415 0 0.03477465987414239 -0.017940458102489093 0 0.031745839176646952 -0.0121260335707736 0 0.037239601748161898 -0.020759503542282735 0 0.031123793990755537 -0.010748863390193203 0 0.032470643407124578 -0.021301567223115783 0 0.032489669414396176 -0.021122576756320663 0 0.032573511680491808 -0.021118413027479521 0 0.036509855058034967 -0.026213000681347052 0 0.037239601748161898 -0.020759503542282735 0 0.040697267734469189 -0.030303632260462454 0 0.040441629864276483 -0.030233077972972852 0 0.04049469556291653 -0.030417968115581055 0 0.037239601748161898 -0.020759503542282735 0 0.031110477876439505 -0.016318885607896461 0 0.031110477876439505 -0.016318885607896461 0 0.029716661361069461 -0.014588550013373305 0 0.024590082153605482 -0.013311132109603144 0 0.022267260998555315 -0.0082696788455363553 0 0.017014748380399645 -0.01131503837081879 0 0.014576465985435832 -0.0060668889318933068 0 0.018886091777616004 -0.010643729500434526 0 0.031062967463100093 -0.018159905818164995 0 0.02866496152532421 -0.013497969981526222 0 0.030660077723601444 -0.013904365794995523 0 0.03198706141258708 -0.015002047888816709 0 0.030660077723601444 -0.013904365794995523 0 0.029779977315205226 -0.010400238662427196 0 0.028883701220025353 -0.013366502916525991 0 0.030660077723601444 -0.013904365794995523 0 0.029779977315205226 -0.010400238662427196 0 0.014576465985435832 -0.0060668889318933068 0 0.018886091777616004 -0.010643729500434526 0 0.015897225261118621 -0.0051234094769635023 0 0.017721218546719607 -0.0061336386666276882 0 0.017732531453140552 -0.0076702809511869328 0 0.015897225261118621 -0.0051234094769635023 0 0.016842688937750715 -0.0093461256976351686 0 0.017732531453140552 -0.0076702809511869328 0 0.015897225261118621 -0.0051234094769635023 0 0.017964355989288781 -0.010144628624991336 0 0.015975074266774424 -0.0053277351607466687 0 0.016842688937750715 -0.0093461256976351686 0 0.017732531453140552 -0.0076702809511869328 0 0.018707672682520209 -0.0093347600253224326 0 0.017732531453140552 -0.0076702809511869328 0 0.018707672682520209 -0.0093347600253224326 0 0.020174528313775159 -0.0083291752546552182 0 0.01913079894973508 -0.011214424292330527 0 0.016842688937750715 -0.0093461256976351686 0 0.018707672682520209 -0.0093347600253224326 0 0.020341315417721023 -0.010266414728752563 0 0.018707672682520209 -0.0093347600253224326 0 0.020174528313775159 -0.0083291752546552182 0 0.017784290191510767 -0.0062140037862352723 0 0.020164622340411036 -0.0080953025479093849 0 0.017721218546719607 -0.0061336386666276882 0 0.017732531453140552 -0.0076702809511869328 0 0.020174528313775159 -0.0083291752546552182 0 0.017721218546719607 -0.0061336386666276882 0 0.01951693362772423 -0.0076847788521140301 0 0.019613367616038845 -0.0057809135703020794 0 0.017721218546719607 -0.0061336386666276882 0 0.019613367616038845 -0.0057809135703020794 0 0.018671279600851149 -0.0043682814947041473 0 0.021061223118706163 -0.0041183619845421762 0 0.018671279600851149 -0.0043682814947041473 0 0.019059368060527972 -0.0024643506737140868 0 0.021061223118706163 -0.0041183619845421762 0 0.019613367616038845 -0.0057809135703020794 0 0.018671279600851149 -0.0043682814947041473 0 0.018671279600851149 -0.0043682814947041473 0 0.019059368060527972 -0.0024643506737140868 0 0.01710026443401556 -0.0033485101976865467 0 0.019245927777307152 -0.0020100877381979913 0 0.0170164012932668 -0.0033258740337148316 0 0.018372060572138145 -0.0020642088514757073 0 0.01710026443401556 -0.0033485101976865467 0 0.016989762035323961 -0.00077123085706216942 0 0.01710026443401556 -0.0033485101976865467 0 0.01563662357778978 -0.0020468864366352136 0 0.016989762035323961 -0.00077123085706216942 0 0.01710026443401556 -0.0033485101976865467 0 0.015723908823327023 -0.0038415432183733565 0 0.01563662357778978 -0.0020468864366352136 0 0.01710026443401556 -0.0033485101976865467 0 0.017008760669752161 -0.0046282905520632477 0 0.015723908823327023 -0.0038415432183733565 0 0.017721218546719607 -0.0061336386666276882 0 0.017008760669752161 -0.0046282905520632477 0 0.015897225261118621 -0.0051234094769635023 0 0.018671279600851149 -0.0043682814947041473 0 0.01710026443401556 -0.0033485101976865467 0 0.017008760669752161 -0.0046282905520632477 0 0.017721218546719607 -0.0061336386666276882 0 0.018671279600851149 -0.0043682814947041473 0 0.017008760669752161 -0.0046282905520632477 0 0.017008760669752161 -0.0046282905520632477 0 0.015897225261118621 -0.0051234094769635023 0 0.015723908823327023 -0.0038415432183733565 0 0.014576465985435832 -0.0060668889318933068 0 0.015723908823327023 -0.0038415432183733565 0 0.014031767144802944 -0.0030265742479774335 0 0.014576465985435832 -0.0060668889318933068 0 0.015897225261118621 -0.0051234094769635023 0 0.015723908823327023 -0.0038415432183733565 0 0.015723908823327023 -0.0038415432183733565 0 0.01563662357778978 -0.0020468864366352136 0 0.014031767144802944 -0.0030265742479774335 0 0.01563662357778978 -0.0020468864366352136 0 0.014031767144802944 -0.0030265742479774335 0 0.014699313689926519 -0.0014648024585275285 0 0.027395921026961558 -0.0075750151131007051 0 0.027902622416560944 -0.0072259745598824959 0 0.027235974612289427 -0.0083775053117568499 0 0.027395921026961558 -0.0075750151131007051 0 0.027286398757213413 -0.007170359667005321 0 0.027902622416560944 -0.0072259745598824959 0 0.022267260998555315 -0.0082696788455363553 0 0.020587282218895376 -0.0052153160343713888 0 0.029779977315205226 -0.010400238662427196 0 0.027902622416560944 -0.0072259745598824959 0 0.027237204221807775 -0.0092641985815593731 0 0.027902622416560944 -0.0072259745598824959 0 0.027235974612289427 -0.0083775053117568499 0 0.027237204221807775 -0.0092641985815593731 0 0.029484241734653496 -0.008673261105281509 0 0.031123793990755537 -0.010748863390193203 0 0.022498097117376055 -5.9894777067873223e-05 0 0.013044679960958769 0.00027300447372516237 0 0.013791425924671153 -0.0013024102992723076 0 0.013674903340817543 -0.0010075990007856941 0 0.014416217035028305 -0.00080508095814279049 0 0.013535438124862784 0.0012343263434919519 0 0.014369926596961222 0.00077609941461355999 0 0.0139873689814467 0.0018243297361493038 0 0.014369926596961222 0.00077609941461355999 0 0.0139873689814467 0.0018243297361493038 0 0.014980167233400257 0.0017740997550308257 0 0.023509534352640908 -0.0034037642616423706 0 0.020587282218895376 -0.0052153160343713888 0 0.013791425924671153 -0.0013024102992723076 0 0.014416217035028305 -0.00080508095814279049 0 0.014699313689926519 -0.0014648024585275285 0 0.013791425924671153 -0.0013024102992723076 0 0.014031767144802944 -0.0030265742479774335 0 0.014699313689926519 -0.0014648024585275285 0 0.014416217035028305 -0.00080508095814279049 0 0.015576388785595228 -4.1058747355186728e-05 0 0.014699313689926519 -0.0014648024585275285 0 0.013044679960958769 0.00027300447372516237 0 0.016022650267625779 -0.00018710842876124793 0 0.01563662357778978 -0.0020468864366352136 0 0.015576388785595228 -4.1058747355186728e-05 0 0.014699313689926519 -0.0014648024585275285 0 0.015576388785595228 -4.1058747355186728e-05 0 0.014980167233400257 0.0017740997550308257 0 0.016335069020754361 0.0012532200054209519 0 0.014369926596961222 0.00077609941461355999 0 0.015576388785595228 -4.1058747355186728e-05 0 0.014980167233400257 0.0017740997550308257 0 0.014980167233400257 0.0017740997550308257 0 0.016335069020754361 0.0012532200054209519 0 0.015934342629294423 0.0026539984045104445 0 0.016335069020754361 0.0012532200054209519 0 0.017372135999939184 0.00096783138148552562 0 0.01691491778487398 0.0025471980232763423 0 0.016335069020754361 0.0012532200054209519 0 0.016989762035323961 -0.00077123085706216942 0 0.017372135999939184 0.00096783138148552562 0 0.01563662357778978 -0.0020468864366352136 0 0.015576388785595228 -4.1058747355186728e-05 0 0.016989762035323961 -0.00077123085706216942 0 0.015576388785595228 -4.1058747355186728e-05 0 0.016335069020754361 0.0012532200054209519 0 0.016989762035323961 -0.00077123085706216942 0 0.016989762035323961 -0.00077123085706216942 0 0.018390630693022002 -6.8231085788690392e-05 0 0.017372135999939184 0.00096783138148552562 0 0.018372060572138145 -0.0020642088514757073 0 0.018390630693022002 -6.8231085788690392e-05 0 0.019841451285258823 -0.00098877929194872189 0 0.018372060572138145 -0.0020642088514757073 0 0.016989762035323961 -0.00077123085706216942 0 0.018390630693022002 -6.8231085788690392e-05 0 0.017372135999939184 0.00096783138148552562 0 0.018005100661007425 0.0023132255860767465 0 0.01691491778487398 0.0025471980232763423 0 0.018390630693022002 -6.8231085788690392e-05 0 0.017372135999939184 0.00096783138148552562 0 0.018005100661007425 0.0023132255860767465 0 0.018005100661007425 0.0023132255860767465 0 0.017469063131264489 0.0035459124148029034 0 0.018174569030039008 0.0035687062202804467 0 0.018005100661007425 0.0023132255860767465 0 0.017469063131264489 0.0035459124148029034 0 0.01691491778487398 0.0025471980232763423 0 0.017469063131264489 0.0035459124148029034 0 0.018174569030039008 0.0035687062202804467 0 0.017998129661640085 0.0045351977407714749 0 0.017469063131264489 0.0035459124148029034 0 0.017998129661640085 0.0045351977407714749 0 0.017123097149172869 0.0048673226937419496 0 0.017469063131264489 0.0035459124148029034 0 0.016287378878229633 0.0042805719273243852 0 0.017123097149172869 0.0048673226937419496 0 0.016287378878229633 0.0042805719273243852 0 0.01691491778487398 0.0025471980232763423 0 0.015934342629294423 0.0026539984045104445 0 0.017469063131264489 0.0035459124148029034 0 0.016287378878229633 0.0042805719273243852 0 0.01691491778487398 0.0025471980232763423 0 0.016335069020754361 0.0012532200054209519 0 0.01691491778487398 0.0025471980232763423 0 0.015934342629294423 0.0026539984045104445 0 0.014980167233400257 0.0017740997550308257 0 0.015261164416866018 0.0032373305683275275 0 0.015934342629294423 0.0026539984045104445 0 0.014980167233400257 0.0017740997550308257 0 0.015261164416866018 0.0032373305683275275 0 0.014306688973268143 0.0025085779328077123 0 0.016287378878229633 0.0042805719273243852 0 0.015261164416866018 0.0032373305683275275 0 0.014377993269572153 0.0040125742601758458 0 0.016287378878229633 0.0042805719273243852 0 0.015336473060588484 0.0042994954526157196 0 0.015779767713646215 0.0047381719231304005 0 0.016287378878229633 0.0042805719273243852 0 0.015261164416866018 0.0032373305683275275 0 0.015934342629294423 0.0026539984045104445 0 0.014105726610890884 0.0036331330249357217 0 0.019950264307481036 0.0072114530002093538 0 0.034825308245087921 0.012936994143826886 0 0.033427067399604063 0.012813036911045907 0 0.034275783222871947 0.011919230685050797 0 0.013846530458482107 0.0025650974364273193 0 0.013771177629142008 0.0030800011320763951 0 0.014448779951951934 0.0031816721465076471 0 0.019950264307481036 0.0072114530002093538 0 0.014413622467132552 0.0013388662010814891 0 0.015261164416866018 0.0032373305683275275 0 0.014377993269572153 0.0040125742601758458 0 0.014306688973268143 0.0025085779328077123 0 0.02418580254022908 0.0079102684821383377 0 0.019950264307481036 0.0072114530002093538 0 0.013846530458482107 0.0025650974364273193 0 0.014448779951951934 0.0031816721465076471 0 0.014306688973268143 0.0025085779328077123 0 0.0139873689814467 0.0018243297361493038 0 0.014980167233400257 0.0017740997550308257 0 0.014306688973268143 0.0025085779328077123 0 0.013846530458482107 0.0025650974364273193 0 0.0139873689814467 0.0018243297361493038 0 0.014306688973268143 0.0025085779328077123 0 0.018387228013642478 0.003629328500164885 0 0.018430551462532061 0.0037725824821010271 0 0.018463832661159925 0.0039437529049467243 0 0.018771026759639698 0.0039445263865411874 0 0.018387228013642478 0.003629328500164885 0 0.018463832661159925 0.0039437529049467243 0 0.017102503473879926 0.0018393521549006004 0 0.014382556214108839 0.00084696910540622123 0 0.015157792391724515 -0.00024586122784990983 0 0.014151314711602738 -0.002225598943079346 0 0.011603457104748409 -0.0021486167634018221 0 0.015157792391724515 -0.00024586122784990983 0 0.014151314711602738 -0.002225598943079346 0 0.015347188679534217 -0.0013958720406786853 0 0.014151314711602738 -0.002225598943079346 0 0.015347188679534217 -0.0013958720406786853 0 0.015958820053267982 -0.002082594936246357 0 0.013079490161686847 -0.0042815922121800798 0 0.014151314711602738 -0.002225598943079346 0 0.01552833628918711 -0.0041786190658819802 0 0.014151314711602738 -0.002225598943079346 0 0.015958820053267982 -0.002082594936246357 0 0.01552833628918711 -0.0041786190658819802 0 0.010787941270075971 -0.0054957437622484215 0 0.013079490161686847 -0.0042815922121800798 0 0.011603457104748409 -0.0021486167634018221 0 0.013079490161686847 -0.0042815922121800798 0 0.014151314711602738 -0.002225598943079346 0 0.011603457104748409 -0.0021486167634018221 0 0.010787941270075971 -0.0054957437622484215 0 0.011603457104748409 -0.0021486167634018221 0 0.0080689353426853152 -0.0041261578143879192 0 0.018387228013642478 0.003629328500164885 0 0.018537340376933994 0.0036267914783499355 0 0.018567189531699065 0.0035930799573742163 0 0.014382556214108839 0.00084696910540622123 0 0.016457548893362456 -0.0016164851862821255 0 0.016457548893362456 -0.0016164851862821255 0 0.018877714359501648 0.0026199165485533485 0 0.018390630693022002 -6.8231085788690392e-05 0 0.019841451285258823 -0.00098877929194872189 0 0.019546707369807535 0.00086819956602946641 0 0.018390630693022002 -6.8231085788690392e-05 0 0.018005100661007425 0.0023132255860767465 0 0.019546707369807535 0.00086819956602946641 0 0.018877714359501648 0.0026199165485533485 0 0.018820410521713172 0.0027513414343382594 0 0.018567189531699065 0.0035930799573742163 0 0.018451030440622133 0.0035483177185073665 0 0.018692650784462566 0.0030642901848283474 0 0.018005100661007425 0.0023132255860767465 0 0.019546707369807535 0.00086819956602946641 0 0.018692650784462566 0.0030642901848283474 0 0.018451030440622133 0.0035483177185073665 0 0.018430551462532061 0.0037725824821010271 0 0.018692650784462566 0.0030642901848283474 0 0.018387228013642478 0.003629328500164885 0 0.018567189531699065 0.0035930799573742163 0 0.018451030440622133 0.0035483177185073665 0 0.018387228013642478 0.003629328500164885 0 0.018451030440622133 0.0035483177185073665 0 0.018430551462532061 0.0037725824821010271 0 0.018430551462532061 0.0037725824821010271 0 0.018692650784462566 0.0030642901848283474 0 0.018377125412699306 0.0039850115453107524 0 0.018430551462532061 0.0037725824821010271 0 0.018377125412699306 0.0039850115453107524 0 0.018426004912327806 0.0044278044784009365 0 0.018692650784462566 0.0030642901848283474 0 0.018174569030039008 0.0035687062202804467 0 0.018377125412699306 0.0039850115453107524 0 0.018005100661007425 0.0023132255860767465 0 0.018692650784462566 0.0030642901848283474 0 0.018174569030039008 0.0035687062202804467 0 0.017998129661640085 0.0045351977407714749 0 0.018377125412699306 0.0039850115453107524 0 0.018333367077106848 0.0046759433116032841 0 0.018174569030039008 0.0035687062202804467 0 0.017998129661640085 0.0045351977407714749 0 0.018377125412699306 0.0039850115453107524 0 0.018377125412699306 0.0039850115453107524 0 0.018426004912327806 0.0044278044784009365 0 0.018333367077106848 0.0046759433116032841 0 0.018426004912327806 0.0044278044784009365 0 0.018333367077106848 0.0046759433116032841 0 0.018449377596969775 0.0050312455755676241 0 0.018426004912327806 0.0044278044784009365 0 0.018477958517633186 0.004801757416714408 0 0.018449377596969775 0.0050312455755676241 0 0.018477958517633186 0.004801757416714408 0 0.018468544829383166 0.004253618408329083 0 0.018507558419796708 0.0045308498998633496 0 0.018426004912327806 0.0044278044784009365 0 0.018477958517633186 0.004801757416714408 0 0.018468544829383166 0.004253618408329083 0 0.018430551462532061 0.0037725824821010271 0 0.018426004912327806 0.0044278044784009365 0 0.018468544829383166 0.004253618408329083 0 0.018468544829383166 0.004253618408329083 0 0.018544809031024258 0.0041123710892972615 0 0.018507558419796708 0.0045308498998633496 0 0.018468544829383166 0.004253618408329083 0 0.018463832661159925 0.0039437529049467243 0 0.018544809031024258 0.0041123710892972615 0 0.018430551462532061 0.0037725824821010271 0 0.018468544829383166 0.004253618408329083 0 0.018463832661159925 0.0039437529049467243 0 0.018771026759639698 0.0039445263865411874 0 0.018463832661159925 0.0039437529049467243 0 0.018544809031024258 0.0041123710892972615 0 0.018771026759639698 0.0039445263865411874 0 0.018665950317637566 0.0041312808359062802 0 0.018544809031024258 0.0041123710892972615 0 0.018665950317637566 0.0041312808359062802 0 0.018544809031024258 0.0041123710892972615 0 0.018584475740170425 0.0043919121708561881 0 0.018544809031024258 0.0041123710892972615 0 0.018584475740170425 0.0043919121708561881 0 0.018507558419796708 0.0045308498998633496 0 0.018584475740170425 0.0043919121708561881 0 0.018569534998114999 0.0046927093910481563 0 0.018507558419796708 0.0045308498998633496 0 0.018665950317637566 0.0041312808359062802 0 0.018683005555423023 0.0043738406827744615 0 0.018850915331257552 0.0044535790510474476 0 0.018584475740170425 0.0043919121708561881 0 0.018667927860857244 0.0045072396355155626 0 0.018569534998114999 0.0046927093910481563 0 0.018665950317637566 0.0041312808359062802 0 0.018584475740170425 0.0043919121708561881 0 0.018683005555423023 0.0043738406827744615 0 0.018584475740170425 0.0043919121708561881 0 0.018683005555423023 0.0043738406827744615 0 0.018667927860857244 0.0045072396355155626 0 0.018569534998114999 0.0046927093910481563 0 0.018482905941147494 0.0049919588225336405 0 0.018539455957359702 0.0050349474883497154 0 0.018569534998114999 0.0046927093910481563 0 0.018539455957359702 0.0050349474883497154 0 0.018685201501439042 0.0047240898615301796 0 0.018667927860857244 0.0045072396355155626 0 0.018569534998114999 0.0046927093910481563 0 0.018685201501439042 0.0047240898615301796 0 0.018569534998114999 0.0046927093910481563 0 0.018507558419796708 0.0045308498998633496 0 0.018482905941147494 0.0049919588225336405 0 0.018477958517633186 0.004801757416714408 0 0.018507558419796708 0.0045308498998633496 0 0.018482905941147494 0.0049919588225336405 0 0.018477958517633186 0.004801757416714408 0 0.018482905941147494 0.0049919588225336405 0 0.018508118397095645 0.0053032688712859382 0 0.018482905941147494 0.0049919588225336405 0 0.018539455957359702 0.0050349474883497154 0 0.018403148813295109 0.0054914914380733999 0 0.018539455957359702 0.0050349474883497154 0 0.018453538633614628 0.0054031052865661728 0 0.018403148813295109 0.0054914914380733999 0 0.018539455957359702 0.0050349474883497154 0 0.018691541541147581 0.0049717082966610733 0 0.018453538633614628 0.0054031052865661728 0 0.018539455957359702 0.0050349474883497154 0 0.018691541541147581 0.0049717082966610733 0 0.018685201501439042 0.0047240898615301796 0 0.018691541541147581 0.0049717082966610733 0 0.018685201501439042 0.0047240898615301796 0 0.018846350921127769 0.00468735480851468 0 0.018685201501439042 0.0047240898615301796 0 0.018846350921127769 0.00468735480851468 0 0.018850915331257552 0.0044535790510474476 0 0.018956359153761631 0.0046107648226476157 0 0.018846350921127769 0.00468735480851468 0 0.018991917505035746 0.004791549266242482 0 0.018691541541147581 0.0049717082966610733 0 0.018846350921127769 0.00468735480851468 0 0.018991917505035746 0.004791549266242482 0 0.018857993193006257 0.0051301459277109064 0 0.018746531644945719 0.0055864660608113577 0 0.018453538633614628 0.0054031052865661728 0 0.018691541541147581 0.0049717082966610733 0 0.018991917505035746 0.004791549266242482 0 0.018857993193006257 0.0051301459277109064 0 0.018691541541147581 0.0049717082966610733 0 0.018857993193006257 0.0051301459277109064 0 0.018453538633614628 0.0054031052865661728 0 0.019757420169241795 0.0042110535973106959 0 0.02000720973805532 0.0040433021238229965 0 0.021056122058237463 0.0043924417281125247 0 0.019329269336066185 0.0050019464228110867 0 0.019118550028266013 0.0052953383441414776 0 0.019492794811960975 0.0055338336767150297 0 0.018857993193006257 0.0051301459277109064 0 0.019118550028266013 0.0052953383441414776 0 0.018746531644945719 0.0055864660608113577 0 0.018857993193006257 0.0051301459277109064 0 0.019329269336066185 0.0050019464228110867 0 0.019118550028266013 0.0052953383441414776 0 0.019876053476502776 0.0051785668564337277 0 0.01914105185952078 0.0045281837605496708 0 0.020782332870056784 0.0050226667736297309 0 0.018991917505035746 0.004791549266242482 0 0.018857993193006257 0.0051301459277109064 0 0.019329269336066185 0.0050019464228110867 0 0.019329269336066185 0.0050019464228110867 0 0.019876053476502776 0.0051785668564337277 0 0.019492794811960975 0.0055338336767150297 0 0.019329269336066185 0.0050019464228110867 0 0.019876053476502776 0.0051785668564337277 0 0.01914105185952078 0.0045281837605496708 0 0.018991917505035746 0.004791549266242482 0 0.019329269336066185 0.0050019464228110867 0 0.01914105185952078 0.0045281837605496708 0 0.018956359153761631 0.0046107648226476157 0 0.018991917505035746 0.004791549266242482 0 0.01914105185952078 0.0045281837605496708 0 0.018300872190484097 0.0016879006945356358 0 0.018651240370774425 0.0010679701059519927 0 0.017870516674997918 0.00093922821205080862 0 0.019031847793550483 0.0017486364414754498 0 0.018651240370774425 0.0010679701059519927 0 0.019356261344180236 0.0011277566656405385 0 0.018300872190484097 0.0016879006945356358 0 0.019031847793550483 0.0017486364414754498 0 0.018651240370774425 0.0010679701059519927 0 0.018651240370774425 0.0010679701059519927 0 0.019057556611633962 0.00037156072241792865 0 0.019356261344180236 0.0011277566656405385 0 0.018651240370774425 0.0010679701059519927 0 0.018357819493930512 0.00030534637384074001 0 0.017870516674997918 0.00093922821205080862 0 0.018357819493930512 0.00030534637384074001 0 0.019057556611633962 0.00037156072241792865 0 0.018771558476435826 -0.00034711188473735943 0 0.018651240370774425 0.0010679701059519927 0 0.018357819493930512 0.00030534637384074001 0 0.019057556611633962 0.00037156072241792865 0 0.018357819493930512 0.00030534637384074001 0 0.017379681838604884 0.00010685638298885078 0 0.017870516674997918 0.00093922821205080862 0 0.017102503473879926 0.0018393521549006004 0 0.019176466270202312 0.0029347426917628147 0 0.018771026759639698 0.0039445263865411874 0 0.019757420169241795 0.0042110535973106959 0 0.02000720973805532 0.0040433021238229965 0 0.018771026759639698 0.0039445263865411874 0 0.018665950317637566 0.0041312808359062802 0 0.019757420169241795 0.0042110535973106959 0 0.015157792391724515 -0.00024586122784990983 0 0.017379681838604884 0.00010685638298885078 0 0.017870516674997918 0.00093922821205080862 0 0.015157792391724515 -0.00024586122784990983 0 0.018300872190484097 0.0016879006945356358 0 0.017870516674997918 0.00093922821205080862 0 0.018665950317637566 0.0041312808359062802 0 0.01914105185952078 0.0045281837605496708 0 0.018850915331257552 0.0044535790510474476 0 0.018680173102385979 0.0041220670598545112 0 0.019447107735085005 0.0043443805804511283 0 0.018683005555423023 0.0043738406827744615 0 0.018667927860857244 0.0045072396355155626 0 0.018850915331257552 0.0044535790510474476 0 0.018667927860857244 0.0045072396355155626 0 0.018685201501439042 0.0047240898615301796 0 0.018850915331257552 0.0044535790510474476 0 0.018956359153761631 0.0046107648226476157 0 0.01914105185952078 0.0045281837605496708 0 0.018850915331257552 0.0044535790510474476 0 0.018956359153761631 0.0046107648226476157 0 0.018846350921127769 0.00468735480851468 0 0.018850915331257552 0.0044535790510474476 0 0.021374531648140769 0.0043911688309126104 0 0.021056122058237463 0.0043924417281125247 0 0.021949580275066216 0.0054258124724297536 0 0.021374531648140769 0.0043911688309126104 0 0.021884510072636094 0.0048228619824150047 0 0.021949580275066216 0.0054258124724297536 0 0.022434750923715722 0.0029446578464332675 0 0.021802693421025303 0.0043831733080047924 0 0.021612298048648348 0.0036661415812090912 0 0.021802693421025303 0.0043831733080047924 0 0.021374531648140769 0.0043911688309126104 0 0.021884510072636094 0.0048228619824150047 0 0.021802693421025303 0.0043831733080047924 0 0.021374531648140769 0.0043911688309126104 0 0.021612298048648348 0.0036661415812090912 0 0.021374531648140769 0.0043911688309126104 0 0.021195797361380976 0.0032578587397060119 0 0.020475962105793281 0.0030443011804387487 0 0.021374531648140769 0.0043911688309126104 0 0.021612298048648348 0.0036661415812090912 0 0.021195797361380976 0.0032578587397060119 0 0.021612298048648348 0.0036661415812090912 0 0.021195797361380976 0.0032578587397060119 0 0.021579284846896567 0.0025899092235525572 0 0.022434750923715722 0.0029446578464332675 0 0.021612298048648348 0.0036661415812090912 0 0.021579284846896567 0.0025899092235525572 0 0.021195797361380976 0.0032578587397060119 0 0.020942202141362491 0.0025213423683969473 0 0.021579284846896567 0.0025899092235525572 0 0.018300872190484097 0.0016879006945356358 0 0.021374531648140769 0.0043911688309126104 0 0.020475962105793281 0.0030443011804387487 0 0.019176466270202312 0.0029347426917628147 0 0.021351044887246269 0.0043145498726827186 0 0.02000720973805532 0.0040433021238229965 0 0.021374531648140769 0.0043911688309126104 0 0.021056122058237463 0.0043924417281125247 0 0.019447107735085005 0.0043443805804511283 0 0.020914508007151805 0.004765238389466085 0 0.021195797361380976 0.0032578587397060119 0 0.020475962105793281 0.0030443011804387487 0 0.020942202141362491 0.0025213423683969473 0 0.020782332870056784 0.0050226667736297309 0 0.020448270050692687 0.0054165499324631133 0 0.020839491099586289 0.0054676843934736274 0 0.019876053476502776 0.0051785668564337277 0 0.020782332870056784 0.0050226667736297309 0 0.020448270050692687 0.0054165499324631133 0 0.018300872190484097 0.0016879006945356358 0 0.019031847793550483 0.0017486364414754498 0 0.020475962105793281 0.0030443011804387487 0 0.019031847793550483 0.0017486364414754498 0 0.020475962105793281 0.0030443011804387487 0 0.019895007561991713 0.0018101991056041588 0 0.019895007561991713 0.0018101991056041588 0 0.019356261344180236 0.0011277566656405385 0 0.020160021930303373 0.001145784304878582 0 0.019031847793550483 0.0017486364414754498 0 0.019895007561991713 0.0018101991056041588 0 0.019356261344180236 0.0011277566656405385 0 0.019057556611633962 0.00037156072241792865 0 0.019356261344180236 0.0011277566656405385 0 0.019858180125454459 0.00037614588806869712 0 0.019356261344180236 0.0011277566656405385 0 0.019858180125454459 0.00037614588806869712 0 0.020160021930303373 0.001145784304878582 0 0.020695085491987883 0.00035641874998752348 0 0.02126277581452023 0.0013547320844152558 0 0.021427596833126956 -0.00019278767885111463 0 0.020160021930303373 0.001145784304878582 0 0.020695085491987883 0.00035641874998752348 0 0.02126277581452023 0.0013547320844152558 0 0.019858180125454459 0.00037614588806869712 0 0.020160021930303373 0.001145784304878582 0 0.020695085491987883 0.00035641874998752348 0 0.02047042207943767 0.002027280126701279 0 0.020942202141362491 0.0025213423683969473 0 0.02126277581452023 0.0013547320844152558 0 0.020160021930303373 0.001145784304878582 0 0.02047042207943767 0.002027280126701279 0 0.02126277581452023 0.0013547320844152558 0 0.019895007561991713 0.0018101991056041588 0 0.020160021930303373 0.001145784304878582 0 0.02047042207943767 0.002027280126701279 0 0.020475962105793281 0.0030443011804387487 0 0.019895007561991713 0.0018101991056041588 0 0.02047042207943767 0.002027280126701279 0 0.020475962105793281 0.0030443011804387487 0 0.02047042207943767 0.002027280126701279 0 0.020942202141362491 0.0025213423683969473 0 0.020942202141362491 0.0025213423683969473 0 0.021579284846896567 0.0025899092235525572 0 0.02126277581452023 0.0013547320844152558 0 0.021579284846896567 0.0025899092235525572 0 0.02126277581452023 0.0013547320844152558 0 0.022207628693509972 0.0016005086553814005 0 0.02126277581452023 0.0013547320844152558 0 0.022363225876802749 0.00030722425671780938 0 0.022207628693509972 0.0016005086553814005 0 0.02126277581452023 0.0013547320844152558 0 0.022363225876802749 0.00030722425671780938 0 0.021427596833126956 -0.00019278767885111463 0 0.022363225876802749 0.00030722425671780938 0 0.023002617031368362 0.00089101267670625706 0 0.022207628693509972 0.0016005086553814005 0 0.022363225876802749 0.00030722425671780938 0 0.023002617031368362 0.00089101267670625706 0 0.023430163411366937 0.00015792967984737887 0 0.023002617031368362 0.00089101267670625706 0 0.023128012297258731 0.0019791866725698093 0 0.023581706819571498 0.0010371674458541399 0 0.023002617031368362 0.00089101267670625706 0 0.023128012297258731 0.0019791866725698093 0 0.022207628693509972 0.0016005086553814005 0 0.023128012297258731 0.0019791866725698093 0 0.022207628693509972 0.0016005086553814005 0 0.022318246054298448 0.002285501233314109 0 0.021579284846896567 0.0025899092235525572 0 0.022207628693509972 0.0016005086553814005 0 0.022318246054298448 0.002285501233314109 0 0.022434750923715722 0.0029446578464332675 0 0.021579284846896567 0.0025899092235525572 0 0.022318246054298448 0.002285501233314109 0 0.022434750923715722 0.0029446578464332675 0 0.023128012297258731 0.0019791866725698093 0 0.022318246054298448 0.002285501233314109 0 0.022893667331617417 -0.0017687329855867917 0 0.023100763585634111 -0.0007745256535830711 0 0.022129389984341021 -0.00096094582947765415 0 0.022893667331617417 -0.0017687329855867917 0 0.023100763585634111 -0.0007745256535830711 0 0.023851077294724823 -0.0015925121916237953 0 0.022363225876802749 0.00030722425671780938 0 0.023100763585634111 -0.0007745256535830711 0 0.022129389984341021 -0.00096094582947765415 0 0.022363225876802749 0.00030722425671780938 0 0.023100763585634111 -0.0007745256535830711 0 0.023430163411366937 0.00015792967984737887 0 0.022363225876802749 0.00030722425671780938 0 0.022129389984341021 -0.00096094582947765415 0 0.021427596833126956 -0.00019278767885111463 0 0.022129389984341021 -0.00096094582947765415 0 0.021427596833126956 -0.00019278767885111463 0 0.021106651005072873 -0.0011923346921298786 0 0.022129389984341021 -0.00096094582947765415 0 0.021923223461721333 -0.0020944349338954953 0 0.021106651005072873 -0.0011923346921298786 0 0.022893667331617417 -0.0017687329855867917 0 0.022129389984341021 -0.00096094582947765415 0 0.021923223461721333 -0.0020944349338954953 0 0.021923223461721333 -0.0020944349338954953 0 0.021106651005072873 -0.0011923346921298786 0 0.020957950984771549 -0.0024009832727582554 0 0.021106651005072873 -0.0011923346921298786 0 0.020113494472441741 -0.0012729352359547876 0 0.020957950984771549 -0.0024009832727582554 0 0.021427596833126956 -0.00019278767885111463 0 0.021106651005072873 -0.0011923346921298786 0 0.0204229749248525 -0.00037143036791768998 0 0.020695085491987883 0.00035641874998752348 0 0.021427596833126956 -0.00019278767885111463 0 0.0204229749248525 -0.00037143036791768998 0 0.019858180125454459 0.00037614588806869712 0 0.020695085491987883 0.00035641874998752348 0 0.0204229749248525 -0.00037143036791768998 0 0.021106651005072873 -0.0011923346921298786 0 0.0204229749248525 -0.00037143036791768998 0 0.020113494472441741 -0.0012729352359547876 0 0.0204229749248525 -0.00037143036791768998 0 0.01949492475492225 -0.00038516421900070392 0 0.020113494472441741 -0.0012729352359547876 0 0.019858180125454459 0.00037614588806869712 0 0.0204229749248525 -0.00037143036791768998 0 0.01949492475492225 -0.00038516421900070392 0 0.019057556611633962 0.00037156072241792865 0 0.019858180125454459 0.00037614588806869712 0 0.01949492475492225 -0.00038516421900070392 0 0.01949492475492225 -0.00038516421900070392 0 0.020113494472441741 -0.0012729352359547876 0 0.01913818942737798 -0.0013824299204919764 0 0.019954000707823005 -0.0025848731828587465 0 0.01913818942737798 -0.0013824299204919764 0 0.019099983666578824 -0.002326878189840397 0 0.020113494472441741 -0.0012729352359547876 0 0.019954000707823005 -0.0025848731828587465 0 0.020957950984771549 -0.0024009832727582554 0 0.020113494472441741 -0.0012729352359547876 0 0.019954000707823005 -0.0025848731828587465 0 0.01913818942737798 -0.0013824299204919764 0 0.019954000707823005 -0.0025848731828587465 0 0.020020082025024782 -0.0042971631924882334 0 0.020798135465484861 -0.003545036596045003 0 0.019954000707823005 -0.0025848731828587465 0 0.020020082025024782 -0.0042971631924882334 0 0.018948912457586991 -0.0032741231375921897 0 0.020798135465484861 -0.003545036596045003 0 0.021775292085293798 -0.0033796968541696237 0 0.021338674702748663 -0.0047373797888667739 0 0.020020082025024782 -0.0042971631924882334 0 0.020798135465484861 -0.003545036596045003 0 0.021338674702748663 -0.0047373797888667739 0 0.019954000707823005 -0.0025848731828587465 0 0.020798135465484861 -0.003545036596045003 0 0.020957950984771549 -0.0024009832727582554 0 0.020798135465484861 -0.003545036596045003 0 0.020957950984771549 -0.0024009832727582554 0 0.021775292085293798 -0.0033796968541696237 0 0.021923223461721333 -0.0020944349338954953 0 0.020957950984771549 -0.0024009832727582554 0 0.021775292085293798 -0.0033796968541696237 0 0.021923223461721333 -0.0020944349338954953 0 0.021775292085293798 -0.0033796968541696237 0 0.022783043980456559 -0.0031110741290792917 0 0.021775292085293798 -0.0033796968541696237 0 0.021338674702748663 -0.0047373797888667739 0 0.022584286753925188 -0.0045416114008034556 0 0.021775292085293798 -0.0033796968541696237 0 0.022783043980456559 -0.0031110741290792917 0 0.022584286753925188 -0.0045416114008034556 0 0.022783043980456559 -0.0031110741290792917 0 0.022584286753925188 -0.0045416114008034556 0 0.023721355460643516 -0.0041495581345486173 0 0.022893667331617417 -0.0017687329855867917 0 0.021923223461721333 -0.0020944349338954953 0 0.022783043980456559 -0.0031110741290792917 0 0.022893667331617417 -0.0017687329855867917 0 0.022783043980456559 -0.0031110741290792917 0 0.023804624710907073 -0.0026623020743167889 0 0.022783043980456559 -0.0031110741290792917 0 0.023804624710907073 -0.0026623020743167889 0 0.023721355460643516 -0.0041495581345486173 0 0.015157792391724515 -0.00024586122784990983 0 0.017379681838604884 0.00010685638298885078 0 0.016942110678911462 -0.00038472390445349106 0 0.017113367939740498 -0.0015256993760026814 0 0.016108737774636159 -0.0010494723439521951 0 0.015958820053267982 -0.002082594936246357 0 0.015347188679534217 -0.0013958720406786853 0 0.016108737774636159 -0.0010494723439521951 0 0.015958820053267982 -0.002082594936246357 0 0.015157792391724515 -0.00024586122784990983 0 0.016108737774636159 -0.0010494723439521951 0 0.016942110678911462 -0.00038472390445349106 0 0.015157792391724515 -0.00024586122784990983 0 0.015347188679534217 -0.0013958720406786853 0 0.016108737774636159 -0.0010494723439521951 0 0.017113367939740498 -0.0015256993760026814 0 0.016108737774636159 -0.0010494723439521951 0 0.016942110678911462 -0.00038472390445349106 0 0.017113367939740498 -0.0015256993760026814 0 0.016942110678911462 -0.00038472390445349106 0 0.018057673944012677 -0.00071060668880299795 0 0.017379681838604884 0.00010685638298885078 0 0.016942110678911462 -0.00038472390445349106 0 0.018057673944012677 -0.00071060668880299795 0 0.018357819493930512 0.00030534637384074001 0 0.017379681838604884 0.00010685638298885078 0 0.018057673944012677 -0.00071060668880299795 0 0.018057673944012677 -0.00071060668880299795 0 0.018771558476435826 -0.00034711188473735943 0 0.01913818942737798 -0.0013824299204919764 0 0.019057556611633962 0.00037156072241792865 0 0.01949492475492225 -0.00038516421900070392 0 0.018771558476435826 -0.00034711188473735943 0 0.018357819493930512 0.00030534637384074001 0 0.018057673944012677 -0.00071060668880299795 0 0.018771558476435826 -0.00034711188473735943 0 0.01949492475492225 -0.00038516421900070392 0 0.018771558476435826 -0.00034711188473735943 0 0.01913818942737798 -0.0013824299204919764 0 0.018057673944012677 -0.00071060668880299795 0 0.01913818942737798 -0.0013824299204919764 0 0.018298577658687837 -0.0020800468867940344 0 0.01913818942737798 -0.0013824299204919764 0 0.018298577658687837 -0.0020800468867940344 0 0.019099983666578824 -0.002326878189840397 0 0.017113367939740498 -0.0015256993760026814 0 0.018057673944012677 -0.00071060668880299795 0 0.018298577658687837 -0.0020800468867940344 0 0.017113367939740498 -0.0015256993760026814 0 0.018298577658687837 -0.0020800468867940344 0 0.017234959541461842 -0.0028916014606927155 0 0.018298577658687837 -0.0020800468867940344 0 0.018948912457586991 -0.0032741231375921897 0 0.017234959541461842 -0.0028916014606927155 0 0.019954000707823005 -0.0025848731828587465 0 0.019099983666578824 -0.002326878189840397 0 0.018948912457586991 -0.0032741231375921897 0 0.018298577658687837 -0.0020800468867940344 0 0.019099983666578824 -0.002326878189840397 0 0.018948912457586991 -0.0032741231375921897 0 0.018948912457586991 -0.0032741231375921897 0 0.017500512536079708 -0.0042645941868544772 0 0.017234959541461842 -0.0028916014606927155 0 0.017500512536079708 -0.0042645941868544772 0 0.017234959541461842 -0.0028916014606927155 0 0.01552833628918711 -0.0041786190658819802 0 0.017113367939740498 -0.0015256993760026814 0 0.017234959541461842 -0.0028916014606927155 0 0.015958820053267982 -0.002082594936246357 0 0.017234959541461842 -0.0028916014606927155 0 0.015958820053267982 -0.002082594936246357 0 0.01552833628918711 -0.0041786190658819802 0 0.017500512536079708 -0.0042645941868544772 0 0.01552833628918711 -0.0041786190658819802 0 0.016521818620028363 -0.0067330607345779253 0 0.017500512536079708 -0.0042645941868544772 0 0.016521818620028363 -0.0067330607345779253 0 0.018824707054407835 -0.0055854016024852876 0 0.016521818620028363 -0.0067330607345779253 0 0.018365801093559432 -0.0077956268880191026 0 0.016301544793638965 -0.0098059507977839144 0 0.014360702775347133 -0.0085628870038864571 0 0.016521818620028363 -0.0067330607345779253 0 0.016301544793638965 -0.0098059507977839144 0 0.016521818620028363 -0.0067330607345779253 0 0.018365801093559432 -0.0077956268880191026 0 0.018824707054407835 -0.0055854016024852876 0 0.018365801093559432 -0.0077956268880191026 0 0.019762650714968924 -0.0069619026281800564 0 0.018824707054407835 -0.0055854016024852876 0 0.02007152955147087 -0.0082966547120103418 0 0.018365801093559432 -0.0077956268880191026 0 0.019317430789319689 -0.0095772144498757466 0 0.02007152955147087 -0.0082966547120103418 0 0.018365801093559432 -0.0077956268880191026 0 0.019762650714968924 -0.0069619026281800564 0 0.020020082025024782 -0.0042971631924882334 0 0.018948912457586991 -0.0032741231375921897 0 0.018824707054407835 -0.0055854016024852876 0 0.018948912457586991 -0.0032741231375921897 0 0.017500512536079708 -0.0042645941868544772 0 0.018824707054407835 -0.0055854016024852876 0 0.019762650714968924 -0.0069619026281800564 0 0.018824707054407835 -0.0055854016024852876 0 0.020515481709501238 -0.0058395726192924527 0 0.020020082025024782 -0.0042971631924882334 0 0.018824707054407835 -0.0055854016024852876 0 0.020515481709501238 -0.0058395726192924527 0 0.020020082025024782 -0.0042971631924882334 0 0.021338674702748663 -0.0047373797888667739 0 0.020515481709501238 -0.0058395726192924527 0 0.020515481709501238 -0.0058395726192924527 0 0.022028260578442881 -0.0061841431772223336 0 0.02114971304271247 -0.0074950321005931835 0 0.021338674702748663 -0.0047373797888667739 0 0.020515481709501238 -0.0058395726192924527 0 0.022028260578442881 -0.0061841431772223336 0 0.022584286753925188 -0.0045416114008034556 0 0.023369497126217189 -0.006133791846466099 0 0.023721355460643516 -0.0041495581345486173 0 0.021338674702748663 -0.0047373797888667739 0 0.022584286753925188 -0.0045416114008034556 0 0.022028260578442881 -0.0061841431772223336 0 0.022584286753925188 -0.0045416114008034556 0 0.022028260578442881 -0.0061841431772223336 0 0.023369497126217189 -0.006133791846466099 0 0.023369497126217189 -0.006133791846466099 0 0.02258219822805458 -0.0079997815662554168 0 0.02438289570561928 -0.0082323363013573677 0 0.022028260578442881 -0.0061841431772223336 0 0.023369497126217189 -0.006133791846466099 0 0.02258219822805458 -0.0079997815662554168 0 0.019762650714968924 -0.0069619026281800564 0 0.020515481709501238 -0.0058395726192924527 0 0.02114971304271247 -0.0074950321005931835 0 0.02007152955147087 -0.0082966547120103418 0 0.019762650714968924 -0.0069619026281800564 0 0.02114971304271247 -0.0074950321005931835 0 0.022028260578442881 -0.0061841431772223336 0 0.02258219822805458 -0.0079997815662554168 0 0.02114971304271247 -0.0074950321005931835 0 0.02258219822805458 -0.0079997815662554168 0 0.02114971304271247 -0.0074950321005931835 0 0.021384846563454411 -0.0093185380293982125 0 0.02007152955147087 -0.0082966547120103418 0 0.02114971304271247 -0.0074950321005931835 0 0.021384846563454411 -0.0093185380293982125 0 0.021384846563454411 -0.0093185380293982125 0 0.022954379279546355 -0.010502751248014102 0 0.021302397849630846 -0.011630715899088357 0 0.021384846563454411 -0.0093185380293982125 0 0.021302397849630846 -0.011630715899088357 0 0.019317430789319689 -0.0095772144498757466 0 0.02258219822805458 -0.0079997815662554168 0 0.021384846563454411 -0.0093185380293982125 0 0.022954379279546355 -0.010502751248014102 0 0.02258219822805458 -0.0079997815662554168 0 0.022954379279546355 -0.010502751248014102 0 0.02438289570561928 -0.0082323363013573677 0 0.022342319211828703 -0.01209327863480638 0 0.02367542812782529 -0.013125112474052528 0 0.022954379279546355 -0.010502751248014102 0 0.02367542812782529 -0.013125112474052528 0 0.022954379279546355 -0.010502751248014102 0 0.024681892898775485 -0.010548006408497431 0 0.022342319211828703 -0.01209327863480638 0 0.022954379279546355 -0.010502751248014102 0 0.021302397849630846 -0.011630715899088357 0 0.02391673814581869 -0.01320271438908373 0 0.02168568428403991 -0.0117604981703459 0 0.022272238249766457 -0.014908370807675611 0 0.025675023792755415 -0.014320876405744684 0 0.021302397849630846 -0.011630715899088357 0 0.022272238249766457 -0.014908370807675611 0 0.021302397849630846 -0.011630715899088357 0 0.018859598344577115 -0.013836417381141953 0 0.021302397849630846 -0.011630715899088357 0 0.018859598344577115 -0.013836417381141953 0 0.018211868570163145 -0.011303756904078458 0 0.018859598344577115 -0.013836417381141953 0 0.018211868570163145 -0.011303756904078458 0 0.015584997785600421 -0.013234542714232198 0 0.018211868570163145 -0.011303756904078458 0 0.015584997785600421 -0.013234542714232198 0 0.016301544793638965 -0.0098059507977839144 0 0.018365801093559432 -0.0077956268880191026 0 0.016301544793638965 -0.0098059507977839144 0 0.019317430789319689 -0.0095772144498757466 0 0.018211868570163145 -0.011303756904078458 0 0.016301544793638965 -0.0098059507977839144 0 0.019317430789319689 -0.0095772144498757466 0 0.021302397849630846 -0.011630715899088357 0 0.018211868570163145 -0.011303756904078458 0 0.019317430789319689 -0.0095772144498757466 0 0.02007152955147087 -0.0082966547120103418 0 0.021384846563454411 -0.0093185380293982125 0 0.019317430789319689 -0.0095772144498757466 0 0.027728239917048848 -0.0097546648985238453 0 0.026249966779939918 -0.011355026268715001 0 0.026264973544973133 -0.0092333116700977456 0 0.021904757842669941 -0.0050429553484478357 0 0.019683563082281849 -0.0043279026545687349 0 0.020650840007426362 -0.0029272221442583533 0 0.023918283332554208 -0.0093808287416963405 0 0.023696672257053256 -0.0069951631027402577 0 0.021904757842669941 -0.0050429553484478357 0 0.020816245495384716 -0.0073560936971420951 0 0.019683563082281849 -0.0043279026545687349 0 0.027067956487163897 -0.011573843462904181 0 0.027728239917048848 -0.0097546648985238453 0 0.026249966779939918 -0.011355026268715001 0 0.026249966779939918 -0.011355026268715001 0 0.024681892898775485 -0.010548006408497431 0 0.026264973544973133 -0.0092333116700977456 0 0.025184454271191883 -0.016819755367996025 0 0.024516616046916496 -0.0092152796716590893 0 0.024899943997911567 -0.011804986576895118 0 0.026249966779939918 -0.011355026268715001 0 0.024681892898775485 -0.010548006408497431 0 0.022954379279546355 -0.010502751248014102 0 0.024681892898775485 -0.010548006408497431 0 0.02438289570561928 -0.0082323363013573677 0 0.024681892898775485 -0.010548006408497431 0 0.026264973544973133 -0.0092333116700977456 0 0.02438289570561928 -0.0082323363013573677 0 0.026264973544973133 -0.0092333116700977456 0 0.026002990752737251 -0.007273589645639276 0 0.02438289570561928 -0.0082323363013573677 0 0.026264973544973133 -0.0092333116700977456 0 0.026002990752737251 -0.007273589645639276 0 0.027848377155871885 -0.0066153588569197418 0 0.026002990752737251 -0.007273589645639276 0 0.02438289570561928 -0.0082323363013573677 0 0.02485396779843382 -0.0054763281617517794 0 0.023369497126217189 -0.006133791846466099 0 0.02438289570561928 -0.0082323363013573677 0 0.02485396779843382 -0.0054763281617517794 0 0.023369497126217189 -0.006133791846466099 0 0.02485396779843382 -0.0054763281617517794 0 0.023721355460643516 -0.0041495581345486173 0 0.026228380439220694 -0.0057120592818625101 0 0.027848377155871885 -0.0066153588569197418 0 0.026708911802889968 -0.0042942868949276906 0 0.026002990752737251 -0.007273589645639276 0 0.026228380439220694 -0.0057120592818625101 0 0.027848377155871885 -0.0066153588569197418 0 0.026002990752737251 -0.007273589645639276 0 0.02485396779843382 -0.0054763281617517794 0 0.026228380439220694 -0.0057120592818625101 0 0.02485396779843382 -0.0054763281617517794 0 0.026228380439220694 -0.0057120592818625101 0 0.025565054094528968 -0.00366596245276005 0 0.018825499916158537 -0.0014080905427776133 0 0.020039800242276355 -0.00041368860042589379 0 0.01932470524489955 0.0002283764657182631 0 0.023696672257053256 -0.0069951631027402577 0 0.023298893435979413 -0.0039237143802076969 0 0.027728239917048848 -0.0097546648985238453 0 0.026264973544973133 -0.0092333116700977456 0 0.027848377155871885 -0.0066153588569197418 0 0.019683563082281849 -0.0043279026545687349 0 0.018825499916158537 -0.0014080905427776133 0 0.020650840007426362 -0.0029272221442583533 0 0.018825499916158537 -0.0014080905427776133 0 0.020650840007426362 -0.0029272221442583533 0 0.020924171566555662 -0.0014498537185857216 0 0.02224137627005441 -0.0030536352978285759 0 0.020650840007426362 -0.0029272221442583533 0 0.020924171566555662 -0.0014498537185857216 0 0.018825499916158537 -0.0014080905427776133 0 0.020924171566555662 -0.0014498537185857216 0 0.020039800242276355 -0.00041368860042589379 0 0.020924171566555662 -0.0014498537185857216 0 0.020039800242276355 -0.00041368860042589379 0 0.021013587364466492 -7.7119062454929955e-06 0 0.021610394360587541 -0.00075511221717925001 0 0.020924171566555662 -0.0014498537185857216 0 0.021013587364466492 -7.7119062454929955e-06 0 0.021761440902756331 0.00071862262707152505 0 0.021013587364466492 -7.7119062454929955e-06 0 0.020895260347336204 0.00087416578497254485 0 0.021013587364466492 -7.7119062454929955e-06 0 0.020895260347336204 0.00087416578497254485 0 0.02011504499639331 0.00054291150130681093 0 0.021244949862088754 0.0016400770170821991 0 0.020895260347336204 0.00087416578497254485 0 0.020348486816914833 0.0013842547773977659 0 0.020895260347336204 0.00087416578497254485 0 0.020348486816914833 0.0013842547773977659 0 0.02011504499639331 0.00054291150130681093 0 0.020348486816914833 0.0013842547773977659 0 0.02011504499639331 0.00054291150130681093 0 0.019513978428395442 0.001511970452246599 0 0.020039800242276355 -0.00041368860042589379 0 0.02011504499639331 0.00054291150130681093 0 0.01932470524489955 0.0002283764657182631 0 0.020039800242276355 -0.00041368860042589379 0 0.021013587364466492 -7.7119062454929955e-06 0 0.02011504499639331 0.00054291150130681093 0 0.023298893435979413 -0.0039237143802076969 0 0.022813918616671893 -0.0009302820676524166 0 0.018825499916158537 -0.0014080905427776133 0 0.01861077240602399 0.0010077054263612809 0 0.018099016270293988 0.0012371807505924103 0 0.018825499916158537 -0.0014080905427776133 0 0.01932470524489955 0.0002283764657182631 0 0.01861077240602399 0.0010077054263612809 0 0.02011504499639331 0.00054291150130681093 0 0.01932470524489955 0.0002283764657182631 0 0.019513978428395442 0.001511970452246599 0 0.01932470524489955 0.0002283764657182631 0 0.01861077240602399 0.0010077054263612809 0 0.019513978428395442 0.001511970452246599 0 0.019513978428395442 0.001511970452246599 0 0.019972141242847099 0.0023480788340109805 0 0.018668102486620038 0.0030831566591604798 0 0.01861077240602399 0.0010077054263612809 0 0.019513978428395442 0.001511970452246599 0 0.018668102486620038 0.0030831566591604798 0 0.018741360205949877 0.00019546181831358808 0 0.017307880466866942 0.0055117717248209857 0 0.01861077240602399 0.0010077054263612809 0 0.018099016270293988 0.0012371807505924103 0 0.018714631556578345 0.0027571364849315301 0 0.018091984088409657 0.0049407644605504435 0 0.017307880466866942 0.0055117717248209857 0 0.011013395629332484 0.0082696822462193353 0 0.0070581421881617057 0.015227176522814157 0 0.016981958820577375 0.0071105752654279071 0 0.01547563172603726 0.0079732123802510706 0 0.016070990582990389 0.0089730295706825086 0 0.013438528478331782 0.0074359791070045438 0 0.012751440660237107 0.0078244182813996237 0 0.011322774151866952 0.013265893265999102 0 0.012751440660237107 0.0078244182813996237 0 0.011322774151866952 0.013265893265999102 0 0.01008258177161753 0.013248239857744815 0 0.015415188498368542 0.0059934693055989675 0 0.013045619489190436 0.011119166473539815 0 0.021244949862088754 0.0016400770170821991 0 0.020348486816914833 0.0013842547773977659 0 0.019972141242847099 0.0023480788340109805 0 0.015415188498368542 0.0059934693055989675 0 0.018091984088409657 0.0049407644605504435 0 0.020348486816914833 0.0013842547773977659 0 0.019513978428395442 0.001511970452246599 0 0.019972141242847099 0.0023480788340109805 0 0.023804624710907073 -0.0026623020743167889 0 0.024532018353733743 -0.0036213784400003983 0 0.024684321308369783 -0.0024709878342177266 0 0.023804624710907073 -0.0026623020743167889 0 0.023721355460643516 -0.0041495581345486173 0 0.024532018353733743 -0.0036213784400003983 0 0.02485396779843382 -0.0054763281617517794 0 0.023721355460643516 -0.0041495581345486173 0 0.024532018353733743 -0.0036213784400003983 0 0.02485396779843382 -0.0054763281617517794 0 0.024532018353733743 -0.0036213784400003983 0 0.025565054094528968 -0.00366596245276005 0 0.024532018353733743 -0.0036213784400003983 0 0.024684321308369783 -0.0024709878342177266 0 0.025565054094528968 -0.00366596245276005 0 0.024684321308369783 -0.0024709878342177266 0 0.025565054094528968 -0.00366596245276005 0 0.025539097822884528 -0.0020843666750992584 0 0.027848377155871885 -0.0066153588569197418 0 0.026708911802889968 -0.0042942868949276906 0 0.027412923854260286 -0.0026853721856442787 0 0.026328982486656976 -0.0026934224852164955 0 0.025565054094528968 -0.00366596245276005 0 0.025539097822884528 -0.0020843666750992584 0 0.026328982486656976 -0.0026934224852164955 0 0.025565054094528968 -0.00366596245276005 0 0.026708911802889968 -0.0042942868949276906 0 0.026228380439220694 -0.0057120592818625101 0 0.025565054094528968 -0.00366596245276005 0 0.026708911802889968 -0.0042942868949276906 0 0.026328982486656976 -0.0026934224852164955 0 0.026708911802889968 -0.0042942868949276906 0 0.027412923854260286 -0.0026853721856442787 0 0.026328982486656976 -0.0026934224852164955 0 0.027412923854260286 -0.0026853721856442787 0 0.026555363250974025 -0.0018807682825866627 0 0.018099016270293988 0.0012371807505924103 0 0.017481041559005754 0.0034679528390617782 0 0.018714631556578345 0.0027571364849315301 0 0.022813918616671893 -0.0009302820676524166 0 0.021591256841790866 0.0034946106081856485 0 0.027412923854260286 -0.0026853721856442787 0 0.026358788562167255 -0.00048590147410721633 0 0.026437332070910539 0.0015898242014544006 0 0.027412923854260286 -0.0026853721856442787 0 0.026358788562167255 -0.00048590147410721633 0 0.026555363250974025 -0.0018807682825866627 0 0.026358788562167255 -0.00048590147410721633 0 0.025536689463892617 -0.00097222241930032711 0 0.025535459867037529 3.1906718581160452e-05 0 0.026358788562167255 -0.00048590147410721633 0 0.026124440722099962 -0.0016488479056801825 0 0.025536689463892617 -0.00097222241930032711 0 0.026358788562167255 -0.00048590147410721633 0 0.026124440722099962 -0.0016488479056801825 0 0.026555363250974025 -0.0018807682825866627 0 0.026124440722099962 -0.0016488479056801825 0 0.025539097822884528 -0.0020843666750992584 0 0.025536689463892617 -0.00097222241930032711 0 0.026328982486656976 -0.0026934224852164955 0 0.026124440722099962 -0.0016488479056801825 0 0.026555363250974025 -0.0018807682825866627 0 0.026328982486656976 -0.0026934224852164955 0 0.026124440722099962 -0.0016488479056801825 0 0.025539097822884528 -0.0020843666750992584 0 0.024684321308369783 -0.0024709878342177266 0 0.025539097822884528 -0.0020843666750992584 0 0.024770080158968415 -0.0013383955375341624 0 0.025539097822884528 -0.0020843666750992584 0 0.024770080158968415 -0.0013383955375341624 0 0.025536689463892617 -0.00097222241930032711 0 0.025536689463892617 -0.00097222241930032711 0 0.025535459867037529 3.1906718581160452e-05 0 0.024855638330131716 -0.00029540345970210003 0 0.024770080158968415 -0.0013383955375341624 0 0.025536689463892617 -0.00097222241930032711 0 0.024855638330131716 -0.00029540345970210003 0 0.024770080158968415 -0.0013383955375341624 0 0.024855638330131716 -0.00029540345970210003 0 0.024026764010776573 -0.0005778584284861309 0 0.024855638330131716 -0.00029540345970210003 0 0.024026764010776573 -0.0005778584284861309 0 0.024211517238482781 0.00043656690242349736 0 0.023100763585634111 -0.0007745256535830711 0 0.024026764010776573 -0.0005778584284861309 0 0.023430163411366937 0.00015792967984737887 0 0.024026764010776573 -0.0005778584284861309 0 0.023430163411366937 0.00015792967984737887 0 0.024211517238482781 0.00043656690242349736 0 0.023100763585634111 -0.0007745256535830711 0 0.024026764010776573 -0.0005778584284861309 0 0.023851077294724823 -0.0015925121916237953 0 0.024770080158968415 -0.0013383955375341624 0 0.024026764010776573 -0.0005778584284861309 0 0.023851077294724823 -0.0015925121916237953 0 0.024684321308369783 -0.0024709878342177266 0 0.024770080158968415 -0.0013383955375341624 0 0.023851077294724823 -0.0015925121916237953 0 0.023804624710907073 -0.0026623020743167889 0 0.024684321308369783 -0.0024709878342177266 0 0.023851077294724823 -0.0015925121916237953 0 0.022893667331617417 -0.0017687329855867917 0 0.023804624710907073 -0.0026623020743167889 0 0.023851077294724823 -0.0015925121916237953 0 0.022434750923715722 0.0029446578464332675 0 0.023128012297258731 0.0019791866725698093 0 0.025454551287370009 0.001740147147025578 0 0.021802693421025303 0.0043831733080047924 0 0.025454551287370009 0.001740147147025578 0 0.026210853220978627 0.0019164083529944343 0 0.023128012297258731 0.0019791866725698093 0 0.024268936663983699 0.0012401218424147437 0 0.025454551287370009 0.001740147147025578 0 0.023128012297258731 0.0019791866725698093 0 0.023581706819571498 0.0010371674458541399 0 0.024268936663983699 0.0012401218424147437 0 0.023002617031368362 0.00089101267670625706 0 0.023581706819571498 0.0010371674458541399 0 0.023430163411366937 0.00015792967984737887 0 0.023581706819571498 0.0010371674458541399 0 0.023430163411366937 0.00015792967984737887 0 0.024211517238482781 0.00043656690242349736 0 0.023581706819571498 0.0010371674458541399 0 0.024211517238482781 0.00043656690242349736 0 0.024268936663983699 0.0012401218424147437 0 0.024211517238482781 0.00043656690242349736 0 0.024268936663983699 0.0012401218424147437 0 0.025038365684626852 0.00069442372269364462 0 0.024268936663983699 0.0012401218424147437 0 0.025038365684626852 0.00069442372269364462 0 0.025454551287370009 0.001740147147025578 0 0.024855638330131716 -0.00029540345970210003 0 0.024211517238482781 0.00043656690242349736 0 0.025038365684626852 0.00069442372269364462 0 0.025535459867037529 3.1906718581160452e-05 0 0.025038365684626852 0.00069442372269364462 0 0.025810604839944608 0.00090346187193912706 0 0.025535459867037529 3.1906718581160452e-05 0 0.024855638330131716 -0.00029540345970210003 0 0.025038365684626852 0.00069442372269364462 0 0.025038365684626852 0.00069442372269364462 0 0.025454551287370009 0.001740147147025578 0 0.025810604839944608 0.00090346187193912706 0 0.025454551287370009 0.001740147147025578 0 0.026003048604901248 0.0018500278835584007 0 0.025810604839944608 0.00090346187193912706 0 0.022527035111006646 0.0042887746874250045 0 0.022426791332526796 0.0043179937947114607 0 0.022160504983523194 0.0045431048890390742 0 0.024175948821708246 0.0034413431445980483 0 0.023178593487718158 0.0035687991982936043 0 0.021867910600939743 0.0044283314590988282 0 0.017283909653193475 0.009094310884908318 0 0.021591256841790866 0.0034946106081856485 0 0.017307880466866942 0.0055117717248209857 0 0.020031912838014487 0.0060075954905662934 0 0.01841353162958383 0.0069040475670171311 0 0.018334563607326076 0.0054030197426226416 0 0.020102894112814473 0.0057920914620943767 0 0.020031912838014487 0.0060075954905662934 0 0.018334563607326076 0.0054030197426226416 0 0.021867910600939743 0.0044283314590988282 0 0.023178593487718158 0.0035687991982936043 0 0.021867910600939743 0.0044283314590988282 0 0.021591256841790866 0.0034946106081856485 0 0.026437332070910539 0.0015898242014544006 0 0.026003048604901248 0.0018500278835584007 0 0.025810604839944608 0.00090346187193912706 0 0.021591256841790866 0.0034946106081856485 0 0.023178593487718158 0.0035687991982936043 0 0.021623828732366807 0.0035178732761086068 0 0.021586426859184885 0.0036288644720510943 0 0.021741917459033738 0.0035449315107835533 0 0.026358788562167255 -0.00048590147410721633 0 0.025535459867037529 3.1906718581160452e-05 0 0.025810604839944608 0.00090346187193912706 0 0.026358788562167255 -0.00048590147410721633 0 0.026437332070910539 0.0015898242014544006 0 0.025810604839944608 0.00090346187193912706 0 0.02161557960577018 0.0069881080174451155 0 0.021372509564098762 0.0061391421786595665 0 0.020670856942882631 0.0067647890696747662 0 0.021372509564098762 0.0061391421786595665 0 0.020670856942882631 0.0067647890696747662 0 0.021102186058099603 0.0058457048052253302 0 0.02161557960577018 0.0069881080174451155 0 0.021372509564098762 0.0061391421786595665 0 0.021976426006696078 0.0054710087626934824 0 0.022527035111006646 0.0042887746874250045 0 0.022096857380327555 0.0048807268833000158 0 0.021976426006696078 0.0054710087626934824 0 0.02239075384539253 0.0041229517990775408 0 0.023178593487718158 0.0035687991982936043 0 0.021802693421025303 0.0043831733080047924 0 0.022426791332526796 0.0043179937947114607 0 0.022160504983523194 0.0045431048890390742 0 0.021867910600939743 0.0044283314590988282 0 0.021983928129015406 0.0059632840114713257 0 0.022434750923715722 0.0029446578464332675 0 0.021802693421025303 0.0043831733080047924 0 0.025454551287370009 0.001740147147025578 0 0.022527035111006646 0.0042887746874250045 0 0.022160504983523194 0.0045431048890390742 0 0.022096857380327555 0.0048807268833000158 0 0.022160504983523194 0.0045431048890390742 0 0.022096857380327555 0.0048807268833000158 0 0.02202137606839373 0.0048088578046297428 0 0.021802693421025303 0.0043831733080047924 0 0.022160504983523194 0.0045431048890390742 0 0.02202137606839373 0.0048088578046297428 0 0.021802693421025303 0.0043831733080047924 0 0.02202137606839373 0.0048088578046297428 0 0.021884510072636094 0.0048228619824150047 0 0.02202137606839373 0.0048088578046297428 0 0.02197994776059882 0.0050851320248730117 0 0.022025396644335057 0.0051023428756860655 0 0.022096857380327555 0.0048807268833000158 0 0.02202137606839373 0.0048088578046297428 0 0.022025396644335057 0.0051023428756860655 0 0.02202137606839373 0.0048088578046297428 0 0.021884510072636094 0.0048228619824150047 0 0.02197994776059882 0.0050851320248730117 0 0.01008258177161753 0.013248239857744815 0 0.0074182789021072166 0.018616609224264131 0 0.0092046655818528306 0.019037654056283087 0 0.013045619489190436 0.011119166473539815 0 0.012330737879846527 0.016845663827757727 0 0.0070581421881617057 0.015227176522814157 0 0.0071753042112896919 0.022130497376364456 0 0.0064377701681204123 0.015195620416115684 0 0.0030646245735312743 0.01688250756562196 0 0.0033358453450315021 0.022509356097246518 0 0.0030646245735312743 0.01688250756562196 0 0.0012013776746106269 0.022007197948167502 0 0.0033358453450315021 0.022509356097246518 0 0.011322774151866952 0.013265893265999102 0 0.01008258177161753 0.013248239857744815 0 0.0092046655818528306 0.019037654056283087 0 0.016070990582990389 0.0089730295706825086 0 0.014936404575020544 0.0094346237758463469 0 0.015144060618946253 0.010843742760848063 0 0.01547563172603726 0.0079732123802510706 0 0.016070990582990389 0.0089730295706825086 0 0.014936404575020544 0.0094346237758463469 0 0.01547563172603726 0.0079732123802510706 0 0.014936404575020544 0.0094346237758463469 0 0.013956306633413882 0.0088247646102124731 0 0.017307880466866942 0.0055117717248209857 0 0.017283909653193475 0.009094310884908318 0 0.014936404575020544 0.0094346237758463469 0 0.015144060618946253 0.010843742760848063 0 0.014037780192002016 0.010567045770745992 0 0.014936404575020544 0.0094346237758463469 0 0.013956306633413882 0.0088247646102124731 0 0.014037780192002016 0.010567045770745992 0 0.012330737879846527 0.016845663827757727 0 0.016705265174668346 0.015485363117823274 0 0.011783779460182827 0.021988254309723999 0 0.011187189772489173 0.023285122307285185 0 0.011679141084043838 0.023567273830665706 0 0.017283909653193475 0.009094310884908318 0 0.016705265174668346 0.015485363117823274 0 0.020670856942882631 0.0067647890696747662 0 0.020665932072056362 0.0058280476484608565 0 0.021102186058099603 0.0058457048052253302 0 0.016296944793707038 0.01349745301346356 0 0.015618409915410737 0.013325652828785034 0 0.015702816123520692 0.014720810633538474 0 0.012330737879846527 0.016845663827757727 0 0.017283909653193475 0.009094310884908318 0 0.0059880440725214061 0.043098538077172344 0 0.0077815517720615547 0.043861924988099307 0 0.0086102819331275691 0.041923478921813494 0 0.0060299086415402424 0.030440584393435343 0 0.0065729678588561475 0.030590189800109364 0 0.0061085322424860727 0.03176532738180822 0 0.011783779460182827 0.021988254309723999 0 0.012173640013097377 0.02209187394026025 0 0.011679141084043838 0.023567273830665706 0 0.0071753042112896919 0.022130497376364456 0 0.010189016094616895 0.031719963959158014 0 0.012330737879846527 0.016845663827757727 0 0.0071753042112896919 0.022130497376364456 0 0.0071753042112896919 0.022130497376364456 0 0.002235070095505773 0.027718577777357551 0 0.002235070095505773 0.027718577777357551 0 0.0066147847619683316 0.039688571516760571 0 0.0067024245939734011 0.042368706927200565 0 0.0052249862983892292 0.045195143127581508 0 0.0058421837469555043 0.043273800275647117 0 0.0050885031620091989 0.044086092118723878 0 0.0043756685221136597 0.043888895958688015 0 0.0060299086415402424 0.030440584393435343 0 0.0061085322424860727 0.03176532738180822 0 0.0055153008222434581 0.031977837273912083 0 0.0050885031620091989 0.044086092118723878 0 0.004030457890542182 0.044518298180689683 0 0.0061457724367995079 0.0446226916097546 0 0.0050885031620091989 0.044086092118723878 0 0.004030457890542182 0.044518298180689683 0 0.0043756685221136597 0.043888895958688015 0 0.0067024245939734011 0.042368706927200565 0 0.0066147847619683316 0.039688571516760571 0 0.0083802284019392579 0.037610058619100384 0 0.0078149689873253086 0.038881893343340496 0 0.0090975753224634363 0.038422308866132071 0 0.0066147847619683316 0.039688571516760571 0 0.010189016094616895 0.031719963959158014 0 0.011187189772489173 0.023285122307285185 0 0.011219870597311252 0.023730955355648856 0 0.011679141084043838 0.023567273830665706 0 0.020665932072056362 0.0058280476484608565 0 0.0208557565162092 0.0055150154049227384 0 0.021102186058099603 0.0058457048052253302 0 0.016705265174668346 0.015485363117823274 0 0.01484940730689626 0.025894343760419419 0 0.018020486980933444 0.022661580545620733 0 0.01484940730689626 0.025894343760419419 0 0.016705265174668346 0.015485363117823274 0 0.018020486980933444 0.022661580545620733 0 0.019706543379362035 0.013788401410907638 0 0.017671515345572982 0.017862393911768769 0 0.019879541167149718 0.017069175770114062 0 0.016726102589360699 0.031897095081757421 0 0.013339165611616636 0.033101648347081576 0 0.013172832709324378 0.029993554716751504 0 0.013416429834322858 0.036332529242260346 0 0.013707039717171481 0.03562291488763239 0 0.01484940730689626 0.025894343760419419 0 0.013416429834322858 0.036332529242260346 0 0.013676710347090374 0.032243065454744257 0 0.01361068808101904 0.030996733899473338 0 0.012726069830007767 0.031845391173056355 0 0.016726102589360699 0.031897095081757421 0 0.013172832709324378 0.029993554716751504 0 0.017865179393947085 0.029650241662193821 0 0.018020486980933444 0.022661580545620733 0 0.013707039717171481 0.03562291488763239 0 0.010189016094616895 0.031719963959158014 0 0.010613367371443505 0.038053501272968401 0 0.0083802284019392579 0.037610058619100384 0 0.0090975753224634363 0.038422308866132071 0 0.0094370562692956475 0.03752871970183063 0 0.01484940730689626 0.025894343760419419 0 0.010189016094616895 0.031719963959158014 0 0.011442059127501625 0.033038401472644884 0 0.012726069830007767 0.031845391173056355 0 0.012174183755554562 0.03110415728257683 0 0.013676710347090374 0.032243065454744257 0 0.011442059127501625 0.033038401472644884 0 0.012726069830007767 0.031845391173056355 0 0.01361068808101904 0.030996733899473338 0 0.012726069830007767 0.031845391173056355 0 0.012174183755554562 0.03110415728257683 0 0.013416429834322858 0.036332529242260346 0 0.010613367371443505 0.038053501272968401 0 0.0067024245939734011 0.042368706927200565 0 0.010613367371443505 0.038053501272968401 0 0.010079583850224933 0.041616102087261131 0 0.008488183021309114 0.041735735713285579 0 0.0076037258323390306 0.044128315063891484 0 0.010079583850224933 0.041616102087261131 0 0.0076037258323390306 0.044128315063891484 0 0.0077543678973536322 0.046993786827729915 0 0.0067024245939734011 0.042368706927200565 0 0.0074043735702522713 0.047019366334088139 0 0.0051823671833772771 0.045351609028987223 0 0.0054030656042518823 0.046012567251954024 0 0.0054352129974223036 0.046421997648115103 0 0.010613367371443505 0.038053501272968401 0 0.0099861011676540649 0.045746255602117279 0 0.010412366115689537 0.037756184720520183 0 0.013123433702099152 0.037551544729993253 0 0.010740556594359081 0.043978361143558103 0 0.010265945720121818 0.047530522463026338 0 0.010203898709672246 0.047560460860523152 0 0.010262812590089827 0.047642429827366814 0 0.010203898709672246 0.047560460860523152 0 0.010262812590089827 0.047642429827366814 0 0.010238265512201673 0.047664032821366761 0 0.013416429834322858 0.036332529242260346 0 0.0099861011676540649 0.045746255602117279 0 0.0099861011676540649 0.045746255602117279 0 0.0098212331454032558 0.048163396015922837 0 0.010262812590089827 0.047642429827366814 0 0.010238265512201673 0.047664032821366761 0 0.010090038163423042 0.047640058991838714 0 0.0099861011676540649 0.045746255602117279 0 0.0074043735702522713 0.047019366334088139 0 0.0054030656042518823 0.046012567251954024 0 0.0055652711200582326 0.045819236272016353 0 0.0054518022961419993 0.046384360036892766 0 0.0051823671833772771 0.045351609028987223 0 0.0055652711200582326 0.045819236272016353 0 0.0061457724367995079 0.0446226916097546 0 0.0051823671833772771 0.045351609028987223 0 0.0054030656042518823 0.046012567251954024 0 0.0055652711200582326 0.045819236272016353 0 0.021800110452506315 0.0055368617423363796 0 0.021406551778107533 0.0053504538230232665 0 0.021732293025428152 0.0058198173573321228 0 0.021785510863046937 0.005637684037473647 0 0.021949580275066216 0.0054258124724297536 0 0.021609827210530095 0.0056583318534721696 0 0.021785510863046937 0.005637684037473647 0 0.021800110452506315 0.0055368617423363796 0 0.021732293025428152 0.0058198173573321228 0 0.021785510863046937 0.005637684037473647 0 0.021949580275066216 0.0054258124724297536 0 0.021800110452506315 0.0055368617423363796 0 0.021884510072636094 0.0048228619824150047 0 0.02197994776059882 0.0050851320248730117 0 0.021949580275066216 0.0054258124724297536 0 0.02197994776059882 0.0050851320248730117 0 0.021988169506154717 0.0052732928027472356 0 0.021949580275066216 0.0054258124724297536 0 0.02197994776059882 0.0050851320248730117 0 0.021988169506154717 0.0052732928027472356 0 0.022025396644335057 0.0051023428756860655 0 0.021976426006696078 0.0054710087626934824 0 0.021800110452506315 0.0055368617423363796 0 0.021593207730540395 0.0056063367954715601 0 0.021988169506154717 0.0052732928027472356 0 0.021949580275066216 0.0054258124724297536 0 0.021976426006696078 0.0054710087626934824 0 0.022096857380327555 0.0048807268833000158 0 0.021976426006696078 0.0054710087626934824 0 0.022025396644335057 0.0051023428756860655 0 0.021949580275066216 0.0054258124724297536 0 0.021976426006696078 0.0054710087626934824 0 0.021800110452506315 0.0055368617423363796 0 0.021988169506154717 0.0052732928027472356 0 0.021976426006696078 0.0054710087626934824 0 0.022025396644335057 0.0051023428756860655 0 0.021800110452506315 0.0055368617423363796 0 0.021593207730540395 0.0056063367954715601 0 0.021406551778107533 0.0053504538230232665 0 0.021372509564098762 0.0061391421786595665 0 0.021976426006696078 0.0054710087626934824 0 0.021593207730540395 0.0056063367954715601 0 0.021372509564098762 0.0061391421786595665 0 0.021593207730540395 0.0056063367954715601 0 0.021102186058099603 0.0058457048052253302 0 0.018020486980933444 0.022661580545620733 0 0.015958926616609928 0.022255632422842599 0 0.014984988779318247 0.02534385880686774 0 0.015688468581647776 0.023950583367020686 0 0.019734067931451129 0.023654425083643203 0 0.0208557565162092 0.0055150154049227384 0 0.021102186058099603 0.0058457048052253302 0 0.021406551778107533 0.0053504538230232665 0 0.021593207730540395 0.0056063367954715601 0 0.021102186058099603 0.0058457048052253302 0 0.021406551778107533 0.0053504538230232665 0 0.013707039717171481 0.03562291488763239 0 0.015958926616609928 0.022255632422842599 0 0.010203898709672246 0.047560460860523152 0 0.010238265512201673 0.047664032821366761 0 0.010384112859965757 0.047723510686372282 0 0.014238679094613706 0.047623862650745953 0 0.015007538010583844 0.047813419883373592 0 0.014068637814004616 0.04725698091567835 0 0.014110778102522238 0.047600163409176624 0 0.014238679094613706 0.047623862650745953 0 0.014068637814004616 0.04725698091567835 0 0.013707039717171481 0.03562291488763239 0 0.011462499402068591 0.049647906310584827 0 0.015958926616609928 0.022255632422842599 0 0.017191445827590413 0.0064146660996778296 0 0.011496591659128195 0.010884257630760336 0 0.012180198448254071 0.0099491613136666775 0 0.012334334674712694 0.010242840442724962 0 0.015958926616609928 0.022255632422842599 0 0.012800186191706468 0.029790565225477919 0 0.015007538010583844 0.047813419883373592 0 0.014924689816115224 0.047043388731956688 0 0.014068637814004616 0.04725698091567835 0 0.014924689816115224 0.047043388731956688 0 0.014068637814004616 0.04725698091567835 0 0.013956577204443561 0.046231453724911921 0 0.011462499402068591 0.049647906310584827 0 0.012904226629091983 0.045974519240623297 0 0.010384112859965757 0.047723510686372282 0 0.01044935871157962 0.047178212779281282 0 0.011338567580994519 0.046919233889260913 0 0.010238265512201673 0.047664032821366761 0 0.010384112859965757 0.047723510686372282 0 0.010090038163423042 0.047640058991838714 0 0.010384112859965757 0.047723510686372282 0 0.01044935871157962 0.047178212779281282 0 0.010090038163423042 0.047640058991838714 0 0.01044935871157962 0.047178212779281282 0 0.010013896954512543 0.046215685456438241 0 0.010090038163423042 0.047640058991838714 0 0.010013896954512543 0.046215685456438241 0 0.011338567580994519 0.046919233889260913 0 0.011280395631465436 0.045211127562001248 0 0.01044935871157962 0.047178212779281282 0 0.010013896954512543 0.046215685456438241 0 0.011338567580994519 0.046919233889260913 0 0.013956577204443561 0.046231453724911921 0 0.01341065644007222 0.04466973277008001 0 0.015455609674068227 0.046152401830761344 0 0.014924689816115224 0.047043388731956688 0 0.013956577204443561 0.046231453724911921 0 0.015455609674068227 0.046152401830761344 0 0.0050947435963347677 0.046184578002305458 0 0.0045514612519611366 0.047897113336909693 0 0.0055034876290238188 0.046411261441133576 0 0.0054518022961419993 0.046384360036892766 0 0.0050470381624213292 0.046293799204296132 0 0.0055652711200582326 0.045819236272016353 0 0.0054518022961419993 0.046384360036892766 0 0.0058331889646519482 0.046341542105793755 0 0.0054518022961419993 0.046384360036892766 0 0.0050470381624213292 0.046293799204296132 0 0.0058331889646519482 0.046341542105793755 0 0.0054030656042518823 0.046012567251954024 0 0.0054518022961419993 0.046384360036892766 0 0.0054352129974223036 0.046421997648115103 0 0.0054518022961419993 0.046384360036892766 0 0.0054352129974223036 0.046421997648115103 0 0.0057008639012584451 0.046657848318849608 0 0.010013896954512543 0.046215685456438241 0 0.0098254212660443315 0.047736471491524844 0 0.010090038163423042 0.047640058991838714 0 0.007703403687759341 0.04559357268374812 0 0.0055103919883376642 0.047011296191035105 0 0.0057008639012584451 0.046657848318849608 0 0.0074043735702522713 0.047019366334088139 0 0.0068934668853978358 0.046725587874464354 0 0.0098488252000053633 0.048238749913679588 0 0.0098254212660443315 0.047736471491524844 0 0.010090038163423042 0.047640058991838714 0 0.0055034876290238188 0.046411261441133576 0 0.0054518022961419993 0.046384360036892766 0 0.0057008639012584451 0.046657848318849608 0 0.0089325064898459396 0.045782708198164809 0 0.0074043735702522713 0.047019366334088139 0 0.007703403687759341 0.04559357268374812 0 0.0059277815354843713 0.046047839301526269 0 0.0059863970952611723 0.044928718228341893 0 0.007703403687759341 0.04559357268374812 0 0.0057008639012584451 0.046657848318849608 0 0.0059277815354843713 0.046047839301526269 0 0.0055034876290238188 0.046411261441133576 0 0.0057008639012584451 0.046657848318849608 0 0.0059277815354843713 0.046047839301526269 0 0.0059277815354843713 0.046047839301526269 0 0.0050470381624213292 0.046293799204296132 0 0.0059863970952611723 0.044928718228341893 0 0.0055034876290238188 0.046411261441133576 0 0.0059277815354843713 0.046047839301526269 0 0.0050470381624213292 0.046293799204296132 0 0.0050470381624213292 0.046293799204296132 0 0.0042060052001109986 0.043681288437031139 0 0.0031888787790785144 0.045909164347522187 0 0.0050470381624213292 0.046293799204296132 0 0.0042060052001109986 0.043681288437031139 0 0.0059863970952611723 0.044928718228341893 0 0.0042060052001109986 0.043681288437031139 0 0.0037727107966146261 0.041135093539723874 0 0.006704162932727251 0.041312097727917566 0 0.0042060052001109986 0.043681288437031139 0 0.0073682752781098152 0.043224319924496012 0 0.006704162932727251 0.041312097727917566 0 0.0073682752781098152 0.043224319924496012 0 0.0088900717433841297 0.041095605757927402 0 0.006704162932727251 0.041312097727917566 0 0.0042060052001109986 0.043681288437031139 0 0.0073682752781098152 0.043224319924496012 0 0.0059863970952611723 0.044928718228341893 0 0.007703403687759341 0.04559357268374812 0 0.0073682752781098152 0.043224319924496012 0 0.0059863970952611723 0.044928718228341893 0 0.007703403687759341 0.04559357268374812 0 0.0073682752781098152 0.043224319924496012 0 0.010379048970908609 0.042563383952072625 0 0.010013896954512543 0.046215685456438241 0 0.011280395631465436 0.045211127562001248 0 0.010379048970908609 0.042563383952072625 0 0.0089325064898459396 0.045782708198164809 0 0.01033654427096649 0.042625025927592555 0 0.011338567580994519 0.046919233889260913 0 0.011280395631465436 0.045211127562001248 0 0.01341065644007222 0.04466973277008001 0 0.011280395631465436 0.045211127562001248 0 0.01341065644007222 0.04466973277008001 0 0.010379048970908609 0.042563383952072625 0 0.012904226629091983 0.045974519240623297 0 0.013344076035291894 0.044907502871158855 0 0.01341065644007222 0.04466973277008001 0 0.010379048970908609 0.042563383952072625 0 0.011559949452189244 0.040729416016504941 0 0.01341065644007222 0.04466973277008001 0 0.011559949452189244 0.040729416016504941 0 0.015344050967356278 0.043355153550900943 0 0.0073682752781098152 0.043224319924496012 0 0.010379048970908609 0.042563383952072625 0 0.0088900717433841297 0.041095605757927402 0 0.010379048970908609 0.042563383952072625 0 0.0088900717433841297 0.041095605757927402 0 0.011559949452189244 0.040729416016504941 0 0.010958183342695134 0.041230320956585777 0 0.0085474280373988958 0.0397209232340269 0 0.0088900717433841297 0.041095605757927402 0 0.0082792149979699237 0.039658276111274815 0 0.006704162932727251 0.041312097727917566 0 0.0088900717433841297 0.041095605757927402 0 0.011559949452189244 0.040729416016504941 0 0.0082792149979699237 0.039658276111274815 0 0.010328194470056871 0.041618172139784838 0 0.012261664409480398 0.039454611854269135 0 0.0095580136917762046 0.038865802636835547 0 0.010328194470056871 0.041618172139784838 0 0.0082792149979699237 0.039658276111274815 0 0.0095580136917762046 0.038865802636835547 0 0.0082792149979699237 0.039658276111274815 0 0.0065349131437231331 0.039749848605974671 0 0.006704162932727251 0.041312097727917566 0 0.0043929928402348037 0.038432907632035322 0 0.0037727107966146261 0.041135093539723874 0 0.006704162932727251 0.041312097727917566 0 0.0043929928402348037 0.038432907632035322 0 0.0037727107966146261 0.041135093539723874 0 0.0013919301852890627 0.039517820495840218 0 0.0054237217031600253 0.038946039566978258 0 0.0066727985874838538 0.041336307494065264 0 0.017572253979824301 0.040631453745910179 0 0.015297144484364592 0.041560924909655315 0 0.018710251748571032 0.04261425480455569 0 0.017572253979824301 0.040631453745910179 0 0.016877314978245947 0.038429074790088745 0 0.015297144484364592 0.041560924909655315 0 0.017572253979824301 0.040631453745910179 0 0.01994898489046764 0.040580422094407445 0 0.018710251748571032 0.04261425480455569 0 0.01994898489046764 0.040580422094407445 0 0.018710251748571032 0.04261425480455569 0 0.021571329689680705 0.042800879811644973 0 0.01994898489046764 0.040580422094407445 0 0.021571329689680705 0.042800879811644973 0 0.022658221158689318 0.040189712132333917 0 0.01994898489046764 0.040580422094407445 0 0.02081889975753454 0.038056263918834439 0 0.022658221158689318 0.040189712132333917 0 0.01994898489046764 0.040580422094407445 0 0.02081889975753454 0.038056263918834439 0 0.016877314978245947 0.038429074790088745 0 0.021098522418832318 0.039299138544725769 0 0.014854443193484718 0.038984859928384609 0 0.017572253979824301 0.040631453745910179 0 0.01994898489046764 0.040580422094407445 0 0.016877314978245947 0.038429074790088745 0 0.016877314978245947 0.038429074790088745 0 0.012261664409480398 0.039454611854269135 0 0.015297144484364592 0.041560924909655315 0 0.014854443193484718 0.038984859928384609 0 0.012750965419321501 0.039379305411135657 0 0.013990025911644525 0.039543114796185511 0 0.012261664409480398 0.039454611854269135 0 0.013240174050073166 0.038489251395489962 0 0.012261664409480398 0.039454611854269135 0 0.012852489683199629 0.041634108102122737 0 0.015297144484364592 0.041560924909655315 0 0.010328194470056871 0.041618172139784838 0 0.012261664409480398 0.039454611854269135 0 0.012852489683199629 0.041634108102122737 0 0.012852489683199629 0.041634108102122737 0 0.015297144484364592 0.041560924909655315 0 0.013623655597615933 0.044067594276030429 0 0.010328194470056871 0.041618172139784838 0 0.012852489683199629 0.041634108102122737 0 0.013623655597615933 0.044067594276030429 0 0.015297144484364592 0.041560924909655315 0 0.016497548470815852 0.043667357803591329 0 0.013623655597615933 0.044067594276030429 0 0.010958183342695134 0.041230320956585777 0 0.014478950006604969 0.043675799747848638 0 0.01341065644007222 0.04466973277008001 0 0.015286848121633079 0.044999467013216887 0 0.015455609674068227 0.046152401830761344 0 0.01341065644007222 0.04466973277008001 0 0.015344050967356278 0.043355153550900943 0 0.015286848121633079 0.044999467013216887 0 0.014478950006604969 0.043675799747848638 0 0.017067489321983122 0.045434932107741834 0 0.015286848121633079 0.044999467013216887 0 0.017354118572794012 0.04553948465614157 0 0.015455609674068227 0.046152401830761344 0 0.016497548470815852 0.043667357803591329 0 0.013623655597615933 0.044067594276030429 0 0.017354118572794012 0.04553948465614157 0 0.015344050967356278 0.043355153550900943 0 0.015286848121633079 0.044999467013216887 0 0.017354118572794012 0.04553948465614157 0 0.016497548470815852 0.043667357803591329 0 0.017354118572794012 0.04553948465614157 0 0.019808604476320827 0.045112048190582642 0 0.015297144484364592 0.041560924909655315 0 0.016497548470815852 0.043667357803591329 0 0.018710251748571032 0.04261425480455569 0 0.016497548470815852 0.043667357803591329 0 0.018710251748571032 0.04261425480455569 0 0.019808604476320827 0.045112048190582642 0 0.018710251748571032 0.04261425480455569 0 0.019808604476320827 0.045112048190582642 0 0.021571329689680705 0.042800879811644973 0 0.017354118572794012 0.04553948465614157 0 0.019546267745509303 0.047402654333609101 0 0.017166808722708506 0.047744997302798284 0 0.019808604476320827 0.045112048190582642 0 0.019546267745509303 0.047402654333609101 0 0.021747329363089568 0.046953764679044718 0 0.017354118572794012 0.04553948465614157 0 0.019808604476320827 0.045112048190582642 0 0.019546267745509303 0.047402654333609101 0 0.016057454768564346 0.0076861734018005097 0 0.013580492284135002 0.0086697190307341368 0 0.015757873436642394 0.0083407600431415711 0 0.017449768523512651 0.027750556800695662 0 0.015723793104902919 0.028032217892991214 0 0.016057454768564346 0.0076861734018005097 0 0.016704411228866949 0.0080563332274156928 0 0.015757873436642394 0.0083407600431415711 0 0.016704411228866949 0.0080563332274156928 0 0.016737179405716479 0.0082074591005281954 0 0.017149336006093762 0.0078249517920965413 0 0.017449768523512651 0.027750556800695662 0 0.020689282359645053 0.026439134848107254 0 0.016057454768564346 0.0076861734018005097 0 0.016704411228866949 0.0080563332274156928 0 0.017149336006093762 0.0078249517920965413 0 0.017354118572794012 0.04553948465614157 0 0.015455609674068227 0.046152401830761344 0 0.017166808722708506 0.047744997302798284 0 0.014924689816115224 0.047043388731956688 0 0.015455609674068227 0.046152401830761344 0 0.017166808722708506 0.047744997302798284 0 0.015007538010583844 0.047813419883373592 0 0.014924689816115224 0.047043388731956688 0 0.017166808722708506 0.047744997302798284 0 0.021732293025428152 0.0058198173573321228 0 0.020412356010400375 0.00665735566558452 0 0.021216898540700468 0.0058369147228287833 0 0.012800186191706468 0.029790565225477919 0 0.015723793104902919 0.028032217892991214 0 0.017191445827590413 0.0064146660996778296 0 0.017160635773356456 0.0083327056485463721 0 0.012180198448254071 0.0099491613136666775 0 0.013580492284135002 0.0086697190307341368 0 0.012334334674712694 0.010242840442724962 0 0.013580492284135002 0.0086697190307341368 0 0.01420588966258074 0.0097721097891412621 0 0.015757873436642394 0.0083407600431415711 0 0.013580492284135002 0.0086697190307341368 0 0.012334334674712694 0.010242840442724962 0 0.01420588966258074 0.0097721097891412621 0 0.020412356010400375 0.00665735566558452 0 0.020912707422189109 0.0058124867419618378 0 0.021216898540700468 0.0058369147228287833 0 0.020412356010400375 0.00665735566558452 0 0.020079586996496611 0.0057787817767101348 0 0.020577389526478217 0.0057398072349220597 0 0.019876053476502776 0.0051785668564337277 0 0.020079586996496611 0.0057787817767101348 0 0.020448270050692687 0.0054165499324631133 0 0.020079586996496611 0.0057787817767101348 0 0.020448270050692687 0.0054165499324631133 0 0.020577389526478217 0.0057398072349220597 0 0.020448270050692687 0.0054165499324631133 0 0.020577389526478217 0.0057398072349220597 0 0.020839491099586289 0.0054676843934736274 0 0.020577389526478217 0.0057398072349220597 0 0.020839491099586289 0.0054676843934736274 0 0.020912707422189109 0.0058124867419618378 0 0.020412356010400375 0.00665735566558452 0 0.020577389526478217 0.0057398072349220597 0 0.020912707422189109 0.0058124867419618378 0 0.020914508007151805 0.004765238389466085 0 0.021949052962901002 0.0053701341682497244 0 0.020782332870056784 0.0050226667736297309 0 0.021949580275066216 0.0054258124724297536 0 0.021284613231223506 0.0054784491592685843 0 0.020912707422189109 0.0058124867419618378 0 0.021216898540700468 0.0058369147228287833 0 0.021284613231223506 0.0054784491592685843 0 0.020839491099586289 0.0054676843934736274 0 0.020912707422189109 0.0058124867419618378 0 0.021284613231223506 0.0054784491592685843 0 0.020782332870056784 0.0050226667736297309 0 0.020839491099586289 0.0054676843934736274 0 0.021284613231223506 0.0054784491592685843 0 0.021949580275066216 0.0054258124724297536 0 0.021284613231223506 0.0054784491592685843 0 0.021609827210530095 0.0056583318534721696 0 0.021732293025428152 0.0058198173573321228 0 0.021216898540700468 0.0058369147228287833 0 0.021609827210530095 0.0056583318534721696 0 0.021216898540700468 0.0058369147228287833 0 0.021284613231223506 0.0054784491592685843 0 0.021609827210530095 0.0056583318534721696 0 0.021785510863046937 0.005637684037473647 0 0.021732293025428152 0.0058198173573321228 0 0.021609827210530095 0.0056583318534721696 0 0.018510602791272736 0.0035851065368681968 0 0.017530008319582596 0.0075283623546320774 0 0.017562425340756211 0.0076432786667765696 0 0.016737179405716479 0.0082074591005281954 0 0.017976645618915571 0.006149415838841682 0 0.016704411228866949 0.0080563332274156928 0 0.017562425340756211 0.0076432786667765696 0 0.016737179405716479 0.0082074591005281954 0 0.016704411228866949 0.0080563332274156928 0 0.017562425340756211 0.0076432786667765696 0 0.015757873436642394 0.0083407600431415711 0 0.017160635773356456 0.0083327056485463721 0 0.017439237197171224 0.007727868163227427 0 0.01420588966258074 0.0097721097891412621 0 0.017562425340756211 0.0076432786667765696 0 0.015757873436642394 0.0083407600431415711 0 0.020412356010400375 0.00665735566558452 0 0.017562425340756211 0.0076432786667765696 0 0.019436199320174399 0.0062837967098051126 0 0.01869570909980852 0.0061851194784182063 0 0.019436199320174399 0.0062837967098051126 0 0.019492794811960975 0.0055338336767150297 0 0.017562425340756211 0.0076432786667765696 0 0.01869570909980852 0.0061851194784182063 0 0.019436199320174399 0.0062837967098051126 0 0.020412356010400375 0.00665735566558452 0 0.020079586996496611 0.0057787817767101348 0 0.019436199320174399 0.0062837967098051126 0 0.020079586996496611 0.0057787817767101348 0 0.019436199320174399 0.0062837967098051126 0 0.019492794811960975 0.0055338336767150297 0 0.019876053476502776 0.0051785668564337277 0 0.020079586996496611 0.0057787817767101348 0 0.019492794811960975 0.0055338336767150297 0 0.01869570909980852 0.0061851194784182063 0 0.019492794811960975 0.0055338336767150297 0 0.018746531644945719 0.0055864660608113577 0 0.019118550028266013 0.0052953383441414776 0 0.019492794811960975 0.0055338336767150297 0 0.018746531644945719 0.0055864660608113577 0 0.018746531644945719 0.0055864660608113577 0 0.017976645618915571 0.006149415838841682 0 0.018453538633614628 0.0054031052865661728 0 0.01869570909980852 0.0061851194784182063 0 0.018746531644945719 0.0055864660608113577 0 0.017976645618915571 0.006149415838841682 0 0.017562425340756211 0.0076432786667765696 0 0.01869570909980852 0.0061851194784182063 0 0.017976645618915571 0.006149415838841682 0 0.017976645618915571 0.006149415838841682 0 0.018453538633614628 0.0054031052865661728 0 0.018403148813295109 0.0054914914380733999 0 0.018482905941147494 0.0049919588225336405 0 0.018403148813295109 0.0054914914380733999 0 0.018508118397095645 0.0053032688712859382 0 0.018508118397095645 0.0053032688712859382 0 0.018555967223028453 0.0056859664518288319 0 0.018525542439641648 0.0055226326983239876 0 0.018403148813295109 0.0054914914380733999 0 0.018508118397095645 0.0053032688712859382 0 0.018555967223028453 0.0056859664518288319 0 0.017976645618915571 0.006149415838841682 0 0.018403148813295109 0.0054914914380733999 0 0.018555967223028453 0.0056859664518288319 0 0.018656849777008228 0.0057567756204651172 0 0.017976645618915571 0.006149415838841682 0 0.018555967223028453 0.0056859664518288319 0 0.018555967223028453 0.0056859664518288319 0 0.018627537516759742 0.0058034922479615163 0 0.018525542439641648 0.0055226326983239876 0 0.018656849777008228 0.0057567756204651172 0 0.018555967223028453 0.0056859664518288319 0 0.018627537516759742 0.0058034922479615163 0 0.018627537516759742 0.0058034922479615163 0 0.018525542439641648 0.0055226326983239876 0 0.018485067162962335 0.0059675205791558782 0 0.018525542439641648 0.0055226326983239876 0 0.018280336986389967 0.0053356477537293808 0 0.018485067162962335 0.0059675205791558782 0 0.018525542439641648 0.0055226326983239876 0 0.018449377596969775 0.0050312455755676241 0 0.018280336986389967 0.0053356477537293808 0 0.018508118397095645 0.0053032688712859382 0 0.018525542439641648 0.0055226326983239876 0 0.018449377596969775 0.0050312455755676241 0 0.018477958517633186 0.004801757416714408 0 0.018508118397095645 0.0053032688712859382 0 0.018449377596969775 0.0050312455755676241 0 0.017998129661640085 0.0045351977407714749 0 0.018333367077106848 0.0046759433116032841 0 0.018280336986389967 0.0053356477537293808 0 0.018333367077106848 0.0046759433116032841 0 0.018449377596969775 0.0050312455755676241 0 0.018280336986389967 0.0053356477537293808 0 0.017998129661640085 0.0045351977407714749 0 0.018280336986389967 0.0053356477537293808 0 0.017670356704392924 0.0054992653569859527 0 0.018092237441305396 0.0059537561400407456 0 0.017670356704392924 0.0054992653569859527 0 0.017336200564270553 0.0064207456590630934 0 0.018280336986389967 0.0053356477537293808 0 0.018092237441305396 0.0059537561400407456 0 0.017670356704392924 0.0054992653569859527 0 0.018280336986389967 0.0053356477537293808 0 0.018092237441305396 0.0059537561400407456 0 0.018485067162962335 0.0059675205791558782 0 0.018137102652778802 0.0065364469875820851 0 0.018522092500909984 0.0067545907989540153 0 0.018485067162962335 0.0059675205791558782 0 0.018092237441305396 0.0059537561400407456 0 0.018137102652778802 0.0065364469875820851 0 0.018485067162962335 0.0059675205791558782 0 0.017837746801683173 0.0069255823876025911 0 0.017577863706347532 0.0043844886995660194 0 0.018092237441305396 0.0059537561400407456 0 0.017439168494181666 0.0067534328273952107 0 0.018137102652778802 0.0065364469875820851 0 0.018092237441305396 0.0059537561400407456 0 0.017848377135672042 0.0070450055492119043 0 0.017336200564270553 0.0064207456590630934 0 0.017439168494181666 0.0067534328273952107 0 0.018137102652778802 0.0065364469875820851 0 0.017897850981184231 0.0073774156519712175 0 0.02298322454495148 0.024419404896746582 0 0.022791664733033692 0.02514258552318176 0 0.018137102652778802 0.0065364469875820851 0 0.018522092500909984 0.0067545907989540153 0 0.017897850981184231 0.0073774156519712175 0 0.02298322454495148 0.024419404896746582 0 0.020689282359645053 0.026439134848107254 0 0.026632833002101123 0.042632734322206781 0 0.025581777327589001 0.042772190180374668 0 0.02589995083112907 0.042034882066219692 0 0.020689282359645053 0.026439134848107254 0 0.023920158232638485 0.046957503486256921 0 0.018510602791272736 0.0035851065368681968 0 0.020689282359645053 0.026439134848107254 0 0.018656849777008228 0.0057567756204651172 0 0.018627537516759742 0.0058034922479615163 0 0.018822973338163018 0.0063560490152057862 0 0.018627537516759742 0.0058034922479615163 0 0.018822973338163018 0.0063560490152057862 0 0.018485067162962335 0.0059675205791558782 0 0.018522092500909984 0.0067545907989540153 0 0.018822973338163018 0.0063560490152057862 0 0.018485067162962335 0.0059675205791558782 0 0.024722708209937744 0.0083983511741786369 0 0.024319593878920107 0.0085212757668652155 0 0.033282186013053799 0.011043194371929665 0 0.032999045518725421 0.0093857978163306103 0 0.03433969933660546 0.009844669717066901 0 0.033282186013053799 0.011043194371929665 0 0.034553605631561735 0.011065142970238221 0 0.03433969933660546 0.009844669717066901 0 0.019950264307481036 0.0072114530002093538 0 0.024722708209937744 0.0083983511741786369 0 0.033427067399604063 0.012813036911045907 0 0.033282186013053799 0.011043194371929665 0 0.034275783222871947 0.011919230685050797 0 0.033282186013053799 0.011043194371929665 0 0.034275783222871947 0.011919230685050797 0 0.034553605631561735 0.011065142970238221 0 0.015336473060588484 0.0042994954526157196 0 0.01542231826195615 0.0053432343318698828 0 0.015779767713646215 0.0047381719231304005 0 0.016287378878229633 0.0042805719273243852 0 0.015779767713646215 0.0047381719231304005 0 0.016308826045251343 0.0052275313348301529 0 0.01542231826195615 0.0053432343318698828 0 0.015779767713646215 0.0047381719231304005 0 0.016308826045251343 0.0052275313348301529 0 0.01542231826195615 0.0053432343318698828 0 0.016336950648740616 0.0063461432998217987 0 0.015539690986006709 0.0064751676843036706 0 0.01542231826195615 0.0053432343318698828 0 0.016308826045251343 0.0052275313348301529 0 0.016336950648740616 0.0063461432998217987 0 0.016942767475242954 0.0057233280816569379 0 0.016308826045251343 0.0052275313348301529 0 0.016336950648740616 0.0063461432998217987 0 0.016287378878229633 0.0042805719273243852 0 0.016308826045251343 0.0052275313348301529 0 0.017123097149172869 0.0048673226937419496 0 0.016942767475242954 0.0057233280816569379 0 0.016308826045251343 0.0052275313348301529 0 0.017123097149172869 0.0048673226937419496 0 0.017998129661640085 0.0045351977407714749 0 0.017123097149172869 0.0048673226937419496 0 0.017670356704392924 0.0054992653569859527 0 0.016942767475242954 0.0057233280816569379 0 0.017123097149172869 0.0048673226937419496 0 0.017670356704392924 0.0054992653569859527 0 0.016942767475242954 0.0057233280816569379 0 0.017670356704392924 0.0054992653569859527 0 0.017336200564270553 0.0064207456590630934 0 0.017848377135672042 0.0070450055492119043 0 0.01721686463276997 0.0073318871275849786 0 0.017377757173315963 0.0083052483149132286 0 0.017848377135672042 0.0070450055492119043 0 0.017336200564270553 0.0064207456590630934 0 0.01721686463276997 0.0073318871275849786 0 0.017336200564270553 0.0064207456590630934 0 0.01721686463276997 0.0073318871275849786 0 0.016741460733680037 0.007096168439218173 0 0.016741460733680037 0.007096168439218173 0 0.015659434372117993 0.0076696211417840244 0 0.016763382998677683 0.0078639509579930163 0 0.01721686463276997 0.0073318871275849786 0 0.016741460733680037 0.007096168439218173 0 0.016763382998677683 0.0078639509579930163 0 0.017336200564270553 0.0064207456590630934 0 0.016741460733680037 0.007096168439218173 0 0.016336950648740616 0.0063461432998217987 0 0.016942767475242954 0.0057233280816569379 0 0.017336200564270553 0.0064207456590630934 0 0.016336950648740616 0.0063461432998217987 0 0.016336950648740616 0.0063461432998217987 0 0.015659434372117993 0.0076696211417840244 0 0.015539690986006709 0.0064751676843036706 0 0.016741460733680037 0.007096168439218173 0 0.016336950648740616 0.0063461432998217987 0 0.015659434372117993 0.0076696211417840244 0 0.023572665531172928 0.0045479266233775257 0 0.024319593878920107 0.0085212757668652155 0 0.032663426546502554 0.007835355328450179 0 0.033808362514641137 0.0082251867942692309 0 0.032999045518725421 0.0093857978163306103 0 0.033808362514641137 0.0082251867942692309 0 0.032999045518725421 0.0093857978163306103 0 0.03433969933660546 0.009844669717066901 0 0.033322570050619206 0.0069286472704234081 0 0.03215027418830918 0.0065144072154192968 0 0.033634420430892709 0.0059716057061364024 0 0.028545875101990394 0.022975002353265127 0 0.035022201006777748 0.022944495516956039 0 0.033824563009766967 0.040498969756687452 0 0.03400316151198509 0.039811924133121027 0 0.035195612994082838 0.040099358402021938 0 0.032663426546502554 0.007835355328450179 0 0.033322570050619206 0.0069286472704234081 0 0.03215027418830918 0.0065144072154192968 0 0.032663426546502554 0.007835355328450179 0 0.033808362514641137 0.0082251867942692309 0 0.033322570050619206 0.0069286472704234081 0 0.023572665531172928 0.0045479266233775257 0 0.028545875101990394 0.022975002353265127 0 0.015659434372117993 0.0076696211417840244 0 0.01662315430525959 0.0086641268673157083 0 0.016763382998677683 0.0078639509579930163 0 0.015659434372117993 0.0076696211417840244 0 0.015840454138178538 0.0090412890448376294 0 0.01662315430525959 0.0086641268673157083 0 0.032478407599029285 0.040459392117202786 0 0.031847176017027981 0.040292573145986707 0 0.031723212790509464 0.040506638098758006 0 0.028545875101990394 0.022975002353265127 0 0.023510700246688575 0.024805962104467397 0 0.032478407599029285 0.040459392117202786 0 0.031847176017027981 0.040292573145986707 0 0.031746988793227363 0.039936133322018813 0 0.029683926612488455 0.041758127875767416 0 0.031872276020513714 0.039585783706991139 0 0.031847176017027981 0.040292573145986707 0 0.031532800271295812 0.040311646184773356 0 0.031746988793227363 0.039936133322018813 0 0.031532800271295812 0.040311646184773356 0 0.031723212790509464 0.040506638098758006 0 0.031291968881164478 0.040451012823598274 0 0.031847176017027981 0.040292573145986707 0 0.031532800271295812 0.040311646184773356 0 0.031723212790509464 0.040506638098758006 0 0.01721686463276997 0.0073318871275849786 0 0.016763382998677683 0.0078639509579930163 0 0.017377757173315963 0.0083052483149132286 0 0.023510700246688575 0.024805962104467397 0 0.023765776658815872 0.023477290748844169 0 0.01662315430525959 0.0086641268673157083 0 0.016763382998677683 0.0078639509579930163 0 0.017377757173315963 0.0083052483149132286 0 0.023765776658815872 0.023477290748844169 0 0.022791664733033692 0.02514258552318176 0 0.017577863706347532 0.0043844886995660194 0 0.023765776658815872 0.023477290748844169 0 0.03000820363649824 0.042093956106902787 0 0.029773176681161324 0.041164534205218893 0 0.028834639654472628 0.041579527432277573 0 0.030852052257872877 0.041157093483081351 0 0.03000820363649824 0.042093956106902787 0 0.029773176681161324 0.041164534205218893 0 0.029683926612488455 0.041758127875767416 0 0.023765776658815872 0.023477290748844169 0 0.030852052257872877 0.041157093483081351 0 0.029773176681161324 0.041164534205218893 0 0.030367758898296866 0.039964380335208181 0 0.029773176681161324 0.041164534205218893 0 0.030367758898296866 0.039964380335208181 0 0.028937693479260632 0.040658979765436053 0 0.029773176681161324 0.041164534205218893 0 0.028834639654472628 0.041579527432277573 0 0.028937693479260632 0.040658979765436053 0 0.030367758898296866 0.039964380335208181 0 0.029695868780810208 0.039040105902274629 0 0.028937693479260632 0.040658979765436053 0 0.030367758898296866 0.039964380335208181 0 0.029695868780810208 0.039040105902274629 0 0.030730056193258203 0.038618561089375739 0 0.029695868780810208 0.039040105902274629 0 0.030730056193258203 0.038618561089375739 0 0.030496006618448084 0.037951441217064778 0 0.030367758898296866 0.039964380335208181 0 0.030730056193258203 0.038618561089375739 0 0.031629345538476739 0.038914917007566892 0 0.030730056193258203 0.038618561089375739 0 0.031629345538476739 0.038914917007566892 0 0.031538669781947297 0.037938891933965366 0 0.031629345538476739 0.038914917007566892 0 0.032485417545490766 0.0382051134792014 0 0.031538669781947297 0.037938891933965366 0 0.030367758898296866 0.039964380335208181 0 0.031629345538476739 0.038914917007566892 0 0.031746988793227363 0.039936133322018813 0 0.030852052257872877 0.041157093483081351 0 0.030367758898296866 0.039964380335208181 0 0.031746988793227363 0.039936133322018813 0 0.028545875101990394 0.022975002353265127 0 0.034132887742272161 0.046401667860267094 0 0.032478407599029285 0.040459392117202786 0 0.031746988793227363 0.039936133322018813 0 0.032803532188577948 0.039206259795281688 0 0.032803532188577948 0.039206259795281688 0 0.033699967226842674 0.038671991355340302 0 0.03400316151198509 0.039811924133121027 0 0.033824563009766967 0.040498969756687452 0 0.032803532188577948 0.039206259795281688 0 0.03400316151198509 0.039811924133121027 0 0.031629345538476739 0.038914917007566892 0 0.031746988793227363 0.039936133322018813 0 0.032803532188577948 0.039206259795281688 0 0.031629345538476739 0.038914917007566892 0 0.032803532188577948 0.039206259795281688 0 0.032485417545490766 0.0382051134792014 0 0.032803532188577948 0.039206259795281688 0 0.032485417545490766 0.0382051134792014 0 0.033699967226842674 0.038671991355340302 0 0.032485417545490766 0.0382051134792014 0 0.033699967226842674 0.038671991355340302 0 0.03449650053353915 0.037210066021781486 0 0.034948415443429727 0.038823201661872822 0 0.033699967226842674 0.038671991355340302 0 0.03449650053353915 0.037210066021781486 0 0.034948415443429727 0.038823201661872822 0 0.033699967226842674 0.038671991355340302 0 0.03400316151198509 0.039811924133121027 0 0.034948415443429727 0.038823201661872822 0 0.03400316151198509 0.039811924133121027 0 0.035195612994082838 0.040099358402021938 0 0.02552386127426905 0.041087345783156204 0 0.023920158232638485 0.046957503486256921 0 0.024442305270830824 0.042798073948997331 0 0.021571329689680705 0.042800879811644973 0 0.022859608101941122 0.045150034302647461 0 0.019808604476320827 0.045112048190582642 0 0.021571329689680705 0.042800879811644973 0 0.022859608101941122 0.045150034302647461 0 0.019808604476320827 0.045112048190582642 0 0.021747329363089568 0.046953764679044718 0 0.022859608101941122 0.045150034302647461 0 0.026168567696031892 0.040953150135224062 0 0.02589995083112907 0.042034882066219692 0 0.026813356124953253 0.041837003969157752 0 0.026632833002101123 0.042632734322206781 0 0.02589995083112907 0.042034882066219692 0 0.026813356124953253 0.041837003969157752 0 0.026813356124953253 0.041837003969157752 0 0.028114576061744119 0.042468718462196707 0 0.027500457973623316 0.041043460170532758 0 0.026632833002101123 0.042632734322206781 0 0.026813356124953253 0.041837003969157752 0 0.028114576061744119 0.042468718462196707 0 0.017439168494181666 0.0067534328273952107 0 0.016803845026061894 0.0080460794993342123 0 0.017897850981184231 0.0073774156519712175 0 0.03000820363649824 0.042093956106902787 0 0.028114576061744119 0.042468718462196707 0 0.028834639654472628 0.041579527432277573 0 0.028114576061744119 0.042468718462196707 0 0.028834639654472628 0.041579527432277573 0 0.027500457973623316 0.041043460170532758 0 0.028834639654472628 0.041579527432277573 0 0.028937693479260632 0.040658979765436053 0 0.027500457973623316 0.041043460170532758 0 0.026168567696031892 0.040953150135224062 0 0.026813356124953253 0.041837003969157752 0 0.027500457973623316 0.041043460170532758 0 0.027500457973623316 0.041043460170532758 0 0.027902317152577356 0.03976723487273439 0 0.026266581102024903 0.039871366515245733 0 0.028937693479260632 0.040658979765436053 0 0.027500457973623316 0.041043460170532758 0 0.027902317152577356 0.03976723487273439 0 0.029695868780810208 0.039040105902274629 0 0.028937693479260632 0.040658979765436053 0 0.027902317152577356 0.03976723487273439 0 0.027934369023885554 0.039758844442471027 0 0.028694994973912268 0.038623603455745711 0 0.027902317152577356 0.03976723487273439 0 0.027252490284578487 0.039214584296340387 0 0.027728054640432456 0.03950816225741749 0 0.029695868780810208 0.039040105902274629 0 0.027902317152577356 0.03976723487273439 0 0.029623129022072824 0.037592042396896473 0 0.027902317152577356 0.03976723487273439 0 0.026266581102024903 0.039871366515245733 0 0.027252490284578487 0.039214584296340387 0 0.026266581102024903 0.039871366515245733 0 0.024439954900353646 0.038214196962322367 0 0.022658221158689318 0.040189712132333917 0 0.026266581102024903 0.039871366515245733 0 0.024439954900353646 0.038214196962322367 0 0.027252490284578487 0.039214584296340387 0 0.025896038576882569 0.038983687792028023 0 0.026826326324958957 0.039141619065835909 0 0.026168567696031892 0.040953150135224062 0 0.027500457973623316 0.041043460170532758 0 0.026266581102024903 0.039871366515245733 0 0.02552386127426905 0.041087345783156204 0 0.026089065825583756 0.04023058695226929 0 0.024442305270830824 0.042798073948997331 0 0.026266581102024903 0.039871366515245733 0 0.022658221158689318 0.040189712132333917 0 0.024442305270830824 0.042798073948997331 0 0.021571329689680705 0.042800879811644973 0 0.022658221158689318 0.040189712132333917 0 0.021077717424160883 0.038300543375418265 0 0.024439954900353646 0.038214196962322367 0 0.022658221158689318 0.040189712132333917 0 0.021098522418832318 0.039299138544725769 0 0.025896038576882569 0.038983687792028023 0 0.021098522418832318 0.039299138544725769 0 0.022262246600428182 0.039728103296516305 0 0.026567187545004981 0.039702773942299353 0 0.025971326713211184 0.039342368050825194 0 0.026850437514143764 0.039201892264559675 0 0.025411590178945405 0.03994430075451702 0 0.026567187545004981 0.039702773942299353 0 0.025971326713211184 0.039342368050825194 0 0.025971326713211184 0.039342368050825194 0 0.02586578688755416 0.038545153182359709 0 0.026850437514143764 0.039201892264559675 0 0.02586578688755416 0.038545153182359709 0 0.026850437514143764 0.039201892264559675 0 0.027175087466279481 0.038849584911939579 0 0.024826297604407747 0.04061548276390272 0 0.026002597513802825 0.040119048431805693 0 0.021985219038827913 0.042297941229207235 0 0.025423449659932228 0.041462482609528492 0 0.023660229011940551 0.040504485464121588 0 0.026567187545004981 0.039702773942299353 0 0.026850437514143764 0.039201892264559675 0 0.027252490284578487 0.039214584296340387 0 0.026850437514143764 0.039201892264559675 0 0.02752544787481432 0.039327982816622711 0 0.027252490284578487 0.039214584296340387 0 0.02752544787481432 0.039327982816622711 0 0.027252490284578487 0.039214584296340387 0 0.027728054640432456 0.03950816225741749 0 0.02752544787481432 0.039327982816622711 0 0.027728054640432456 0.03950816225741749 0 0.028052014714125384 0.039768514856790026 0 0.028052014714125384 0.039768514856790026 0 0.025423449659932228 0.041462482609528492 0 0.026763476899142196 0.03985517112701803 0 0.02752544787481432 0.039327982816622711 0 0.028052014714125384 0.039768514856790026 0 0.027175087466279481 0.038849584911939579 0 0.026850437514143764 0.039201892264559675 0 0.02752544787481432 0.039327982816622711 0 0.027175087466279481 0.038849584911939579 0 0.027949520881186778 0.039833477695834743 0 0.026002597513802825 0.040119048431805693 0 0.025423449659932228 0.041462482609528492 0 0.025333368182624525 0.039729488575636338 0 0.026763476899142196 0.03985517112701803 0 0.025333368182624525 0.039729488575636338 0 0.026763476899142196 0.03985517112701803 0 0.026940508064985814 0.038705254383332978 0 0.028052014714125384 0.039768514856790026 0 0.026763476899142196 0.03985517112701803 0 0.027827099448041005 0.039416201306812337 0 0.026763476899142196 0.03985517112701803 0 0.027827099448041005 0.039416201306812337 0 0.026940508064985814 0.038705254383332978 0 0.026940508064985814 0.038705254383332978 0 0.028346129070452662 0.038351759851366928 0 0.02791415628382516 0.03703626434674713 0 0.027827099448041005 0.039416201306812337 0 0.026940508064985814 0.038705254383332978 0 0.028346129070452662 0.038351759851366928 0 0.026940508064985814 0.038705254383332978 0 0.025713959137050563 0.037682924980461802 0 0.02791415628382516 0.03703626434674713 0 0.025333368182624525 0.039729488575636338 0 0.026940508064985814 0.038705254383332978 0 0.025713959137050563 0.037682924980461802 0 0.02354577820117143 0.038891716710745587 0 0.024015036515045725 0.03744192891728633 0 0.025713959137050563 0.037682924980461802 0 0.025333368182624525 0.039729488575636338 0 0.02354577820117143 0.038891716710745587 0 0.025713959137050563 0.037682924980461802 0 0.02354577820117143 0.038891716710745587 0 0.021718888980512538 0.03886013254687519 0 0.02244891486606632 0.037610666773234533 0 0.02354577820117143 0.038891716710745587 0 0.021718888980512538 0.03886013254687519 0 0.02191560773276393 0.040238314570936594 0 0.021985219038827913 0.042297941229207235 0 0.02191560773276393 0.040238314570936594 0 0.023660229011940551 0.040504485464121588 0 0.02354577820117143 0.038891716710745587 0 0.02191560773276393 0.040238314570936594 0 0.023660229011940551 0.040504485464121588 0 0.025423449659932228 0.041462482609528492 0 0.025333368182624525 0.039729488575636338 0 0.023660229011940551 0.040504485464121588 0 0.025333368182624525 0.039729488575636338 0 0.02354577820117143 0.038891716710745587 0 0.023660229011940551 0.040504485464121588 0 0.032974774309118791 0.037371243081507653 0 0.031959735485770469 0.037077030681304475 0 0.032477877204654372 0.036591159283497314 0 0.032974774309118791 0.037371243081507653 0 0.033347958186068678 0.036891548114910321 0 0.033606826367083467 0.037306407843791016 0 0.032974774309118791 0.037371243081507653 0 0.033606826367083467 0.037306407843791016 0 0.033722152629142937 0.037717887019512834 0 0.032974774309118791 0.037371243081507653 0 0.033157316097927693 0.038288960407201131 0 0.03236638575286236 0.037739396693367504 0 0.032697306001678826 0.038139559198661091 0 0.033710171549187727 0.037810763351958904 0 0.032974774309118791 0.037371243081507653 0 0.033157316097927693 0.038288960407201131 0 0.033722152629142937 0.037717887019512834 0 0.032485417545490766 0.0382051134792014 0 0.03236638575286236 0.037739396693367504 0 0.031538669781947297 0.037938891933965366 0 0.03236638575286236 0.037739396693367504 0 0.031615305160699679 0.037423498127494015 0 0.031538669781947297 0.037938891933965366 0 0.032485417545490766 0.0382051134792014 0 0.033157316097927693 0.038288960407201131 0 0.03236638575286236 0.037739396693367504 0 0.03236638575286236 0.037739396693367504 0 0.031959735485770469 0.037077030681304475 0 0.031615305160699679 0.037423498127494015 0 0.032974774309118791 0.037371243081507653 0 0.03236638575286236 0.037739396693367504 0 0.031959735485770469 0.037077030681304475 0 0.031959735485770469 0.037077030681304475 0 0.031615305160699679 0.037423498127494015 0 0.03123690948852275 0.036938943808770677 0 0.031615305160699679 0.037423498127494015 0 0.030874783782021013 0.037361103271559414 0 0.03123690948852275 0.036938943808770677 0 0.031615305160699679 0.037423498127494015 0 0.031538669781947297 0.037938891933965366 0 0.030874783782021013 0.037361103271559414 0 0.030730056193258203 0.038618561089375739 0 0.031538669781947297 0.037938891933965366 0 0.030496006618448084 0.037951441217064778 0 0.031538669781947297 0.037938891933965366 0 0.030496006618448084 0.037951441217064778 0 0.030874783782021013 0.037361103271559414 0 0.029695868780810208 0.039040105902274629 0 0.029623129022072824 0.037592042396896473 0 0.030496006618448084 0.037951441217064778 0 0.029623129022072824 0.037592042396896473 0 0.030496006618448084 0.037951441217064778 0 0.030874783782021013 0.037361103271559414 0 0.029623129022072824 0.037592042396896473 0 0.030874783782021013 0.037361103271559414 0 0.030752058917872697 0.036705482457822854 0 0.030874783782021013 0.037361103271559414 0 0.030752058917872697 0.036705482457822854 0 0.03123690948852275 0.036938943808770677 0 0.028694994973912268 0.038623603455745711 0 0.029725754556780157 0.038142486166541846 0 0.027728054640432456 0.03950816225741749 0 0.028052014714125384 0.039768514856790026 0 0.02871714047917313 0.039771357868473182 0 0.028052014714125384 0.039768514856790026 0 0.027827099448041005 0.039416201306812337 0 0.02871714047917313 0.039771357868473182 0 0.027827099448041005 0.039416201306812337 0 0.02871714047917313 0.039771357868473182 0 0.028346129070452662 0.038351759851366928 0 0.028346129070452662 0.038351759851366928 0 0.030720884238256058 0.036531046562217562 0 0.02791415628382516 0.03703626434674713 0 0.02871714047917313 0.039771357868473182 0 0.028346129070452662 0.038351759851366928 0 0.030720884238256058 0.036531046562217562 0 0.029725754556780157 0.038142486166541846 0 0.030667716365114131 0.036584302728515823 0 0.030752058917872697 0.036705482457822854 0 0.031359728848675175 0.036645949951660671 0 0.030720884238256058 0.036531046562217562 0 0.031959735485770469 0.037077030681304475 0 0.031359728848675175 0.036645949951660671 0 0.03123690948852275 0.036938943808770677 0 0.030752058917872697 0.036705482457822854 0 0.031359728848675175 0.036645949951660671 0 0.03123690948852275 0.036938943808770677 0 0.031359728848675175 0.036645949951660671 0 0.032444887355647413 0.035916762035180863 0 0.030720884238256058 0.036531046562217562 0 0.031959735485770469 0.037077030681304475 0 0.031359728848675175 0.036645949951660671 0 0.032477877204654372 0.036591159283497314 0 0.031359728848675175 0.036645949951660671 0 0.032477877204654372 0.036591159283497314 0 0.032444887355647413 0.035916762035180863 0 0.032477877204654372 0.036591159283497314 0 0.032444887355647413 0.035916762035180863 0 0.033267893096875514 0.036238133987114035 0 0.03318401068791027 0.034430950290103575 0 0.034141606737234639 0.035490345362621176 0 0.032974774309118791 0.037371243081507653 0 0.032477877204654372 0.036591159283497314 0 0.033347958186068678 0.036891548114910321 0 0.032477877204654372 0.036591159283497314 0 0.033347958186068678 0.036891548114910321 0 0.033267893096875514 0.036238133987114035 0 0.032444887355647413 0.035916762035180863 0 0.031846053347194557 0.034903097809542399 0 0.030720884238256058 0.036531046562217562 0 0.03390900679753199 0.032968026164016298 0 0.03287707211767707 0.032104433144432787 0 0.034728501985022635 0.031665829301411083 0 0.03318401068791027 0.034430950290103575 0 0.032280686926037354 0.033462114081970494 0 0.031846053347194557 0.034903097809542399 0 0.030555895852852091 0.034663562139635375 0 0.030720884238256058 0.036531046562217562 0 0.030720884238256058 0.036531046562217562 0 0.029043981195042833 0.035173388556835716 0 0.02791415628382516 0.03703626434674713 0 0.030555895852852091 0.034663562139635375 0 0.030720884238256058 0.036531046562217562 0 0.029043981195042833 0.035173388556835716 0 0.030555895852852091 0.034663562139635375 0 0.029043981195042833 0.035173388556835716 0 0.029551312691930957 0.033709337003910538 0 0.029043981195042833 0.035173388556835716 0 0.029551312691930957 0.033709337003910538 0 0.027578625082386603 0.034049606951298904 0 0.028646601816898896 0.033086497998607953 0 0.03036090592595013 0.032624164583776087 0 0.030265300801031871 0.031656803358386207 0 0.029551312691930957 0.033709337003910538 0 0.028646601816898896 0.033086497998607953 0 0.03036090592595013 0.032624164583776087 0 0.029551312691930957 0.033709337003910538 0 0.031261593199879929 0.032797820283454703 0 0.03036090592595013 0.032624164583776087 0 0.03036090592595013 0.032624164583776087 0 0.031956870430397896 0.031966484893557016 0 0.030265300801031871 0.031656803358386207 0 0.031261593199879929 0.032797820283454703 0 0.03036090592595013 0.032624164583776087 0 0.031956870430397896 0.031966484893557016 0 0.031261593199879929 0.032797820283454703 0 0.031956870430397896 0.031966484893557016 0 0.03188341586742794 0.032508706816066192 0 0.032280686926037354 0.033462114081970494 0 0.031320420548204532 0.032684108096893955 0 0.031846053347194557 0.034903097809542399 0 0.030555895852852091 0.034663562139635375 0 0.031261593199879929 0.032797820283454703 0 0.030555895852852091 0.034663562139635375 0 0.029551312691930957 0.033709337003910538 0 0.031261593199879929 0.032797820283454703 0 0.03287707211767707 0.032104433144432787 0 0.031261593199879929 0.032797820283454703 0 0.03188341586742794 0.032508706816066192 0 0.032153028553997702 0.032343312444823337 0 0.03393107953223453 0.031943725235907258 0 0.03287707211767707 0.032104433144432787 0 0.03188341586742794 0.032508706816066192 0 0.033708730813731672 0.031032117321311673 0 0.03188341586742794 0.032508706816066192 0 0.033087159414653247 0.0322064462524045 0 0.034098439670471763 0.032789820600775392 0 0.031956870430397896 0.031966484893557016 0 0.03188341586742794 0.032508706816066192 0 0.033087159414653247 0.0322064462524045 0 0.031956870430397896 0.031966484893557016 0 0.033087159414653247 0.0322064462524045 0 0.03364297054886202 0.031274548857983933 0 0.034098439670471763 0.032789820600775392 0 0.035062294016368969 0.030809007281694459 0 0.03364297054886202 0.031274548857983933 0 0.033087159414653247 0.0322064462524045 0 0.034098439670471763 0.032789820600775392 0 0.03364297054886202 0.031274548857983933 0 0.03287707211767707 0.032104433144432787 0 0.033708730813731672 0.031032117321311673 0 0.034728501985022635 0.031665829301411083 0 0.023710897113838725 0.035802397227090089 0 0.02348833785511208 0.036673701059373461 0 0.024779996197226969 0.036410210051310184 0 0.023710897113838725 0.035802397227090089 0 0.024972539084584723 0.035121406070823778 0 0.024779996197226969 0.036410210051310184 0 0.023710897113838725 0.035802397227090089 0 0.024972539084584723 0.035121406070823778 0 0.023698064277124675 0.034906985503191587 0 0.023698064277124675 0.034906985503191587 0 0.022777865871266647 0.035327990369174229 0 0.022937661794896591 0.034675968932629614 0 0.023710897113838725 0.035802397227090089 0 0.023698064277124675 0.034906985503191587 0 0.022777865871266647 0.035327990369174229 0 0.022777865871266647 0.035327990369174229 0 0.022221730290943743 0.034669872806282712 0 0.022937661794896591 0.034675968932629614 0 0.022777865871266647 0.035327990369174229 0 0.021692688410037284 0.035429994325112554 0 0.02244909111014717 0.036317235890516227 0 0.022777865871266647 0.035327990369174229 0 0.021692688410037284 0.035429994325112554 0 0.022221730290943743 0.034669872806282712 0 0.021692688410037284 0.035429994325112554 0 0.022221730290943743 0.034669872806282712 0 0.021404844029229559 0.034787036835868188 0 0.021692688410037284 0.035429994325112554 0 0.02244909111014717 0.036317235890516227 0 0.020844004982624845 0.036337830398072472 0 0.023710897113838725 0.035802397227090089 0 0.022777865871266647 0.035327990369174229 0 0.02244909111014717 0.036317235890516227 0 0.023710897113838725 0.035802397227090089 0 0.02244909111014717 0.036317235890516227 0 0.02348833785511208 0.036673701059373461 0 0.02244909111014717 0.036317235890516227 0 0.02348833785511208 0.036673701059373461 0 0.02244891486606632 0.037610666773234533 0 0.02244909111014717 0.036317235890516227 0 0.02244891486606632 0.037610666773234533 0 0.021602466506101665 0.03693890172196887 0 0.02348833785511208 0.036673701059373461 0 0.02244891486606632 0.037610666773234533 0 0.024015036515045725 0.03744192891728633 0 0.02354577820117143 0.038891716710745587 0 0.02244891486606632 0.037610666773234533 0 0.024015036515045725 0.03744192891728633 0 0.02348833785511208 0.036673701059373461 0 0.024015036515045725 0.03744192891728633 0 0.024779996197226969 0.036410210051310184 0 0.024015036515045725 0.03744192891728633 0 0.024779996197226969 0.036410210051310184 0 0.025713959137050563 0.037682924980461802 0 0.024779996197226969 0.036410210051310184 0 0.025713959137050563 0.037682924980461802 0 0.026666153115739891 0.035820398253669457 0 0.025713959137050563 0.037682924980461802 0 0.02791415628382516 0.03703626434674713 0 0.026666153115739891 0.035820398253669457 0 0.029043981195042833 0.035173388556835716 0 0.02791415628382516 0.03703626434674713 0 0.026666153115739891 0.035820398253669457 0 0.029043981195042833 0.035173388556835716 0 0.026666153115739891 0.035820398253669457 0 0.027578625082386603 0.034049606951298904 0 0.024972539084584723 0.035121406070823778 0 0.026666153115739891 0.035820398253669457 0 0.026111880281334127 0.034566191841245923 0 0.026666153115739891 0.035820398253669457 0 0.026111880281334127 0.034566191841245923 0 0.027578625082386603 0.034049606951298904 0 0.024972539084584723 0.035121406070823778 0 0.024779996197226969 0.036410210051310184 0 0.026666153115739891 0.035820398253669457 0 0.024972539084584723 0.035121406070823778 0 0.026111880281334127 0.034566191841245923 0 0.025300976291944138 0.033965320381622949 0 0.026111880281334127 0.034566191841245923 0 0.026299211919892724 0.033774035820241105 0 0.025300976291944138 0.033965320381622949 0 0.026111880281334127 0.034566191841245923 0 0.026299211919892724 0.033774035820241105 0 0.027578625082386603 0.034049606951298904 0 0.026299211919892724 0.033774035820241105 0 0.027578625082386603 0.034049606951298904 0 0.026335409927080326 0.032719510076896566 0 0.026299211919892724 0.033774035820241105 0 0.026335409927080326 0.032719510076896566 0 0.025300976291944138 0.033965320381622949 0 0.029551312691930957 0.033709337003910538 0 0.028646601816898896 0.033086497998607953 0 0.027578625082386603 0.034049606951298904 0 0.028361630714445869 0.033171187826397816 0 0.025823206979067811 0.033668180248252452 0 0.028646601816898896 0.033086497998607953 0 0.027578625082386603 0.034049606951298904 0 0.026335409927080326 0.032719510076896566 0 0.028646601816898896 0.033086497998607953 0 0.026563040108637526 0.033253517748691654 0 0.025309231845568114 0.034636165087614808 0 0.026563040108637526 0.033253517748691654 0 0.025309231845568114 0.034636165087614808 0 0.024973223721242156 0.033305563815374063 0 0.025309231845568114 0.034636165087614808 0 0.023915134426382063 0.034153999978353833 0 0.024973223721242156 0.033305563815374063 0 0.026335409927080326 0.032719510076896566 0 0.023652579951896662 0.032844682341754507 0 0.023467307097836121 0.032778370131622034 0 0.025823206979067811 0.033668180248252452 0 0.023041986106995573 0.033570166071713731 0 0.025309231845568114 0.034636165087614808 0 0.023915134426382063 0.034153999978353833 0 0.02279904513799097 0.034973164203565006 0 0.023915134426382063 0.034153999978353833 0 0.022571632867259796 0.033741231578188896 0 0.024973223721242156 0.033305563815374063 0 0.026335409927080326 0.032719510076896566 0 0.023652579951896662 0.032844682341754507 0 0.024498131010382649 0.033452044117410179 0 0.023915134426382063 0.034153999978353833 0 0.02279904513799097 0.034973164203565006 0 0.022571632867259796 0.033741231578188896 0 0.024498131010382649 0.033452044117410179 0 0.024281001204042377 0.034238907699872902 0 0.025300976291944138 0.033965320381622949 0 0.026335409927080326 0.032719510076896566 0 0.024498131010382649 0.033452044117410179 0 0.025300976291944138 0.033965320381622949 0 0.024498131010382649 0.033452044117410179 0 0.023923235624565439 0.033263657112278459 0 0.023819233401429274 0.03371225131091133 0 0.023652579951896662 0.032844682341754507 0 0.024498131010382649 0.033452044117410179 0 0.023923235624565439 0.033263657112278459 0 0.023923235624565439 0.033263657112278459 0 0.023819233401429274 0.03371225131091133 0 0.02345549115808827 0.033315054334330588 0 0.023923235624565439 0.033263657112278459 0 0.02345549115808827 0.033315054334330588 0 0.023487278990956741 0.03303800025039931 0 0.023652579951896662 0.032844682341754507 0 0.023923235624565439 0.033263657112278459 0 0.023487278990956741 0.03303800025039931 0 0.024498131010382649 0.033452044117410179 0 0.023819233401429274 0.03371225131091133 0 0.024281001204042377 0.034238907699872902 0 0.024972539084584723 0.035121406070823778 0 0.023698064277124675 0.034906985503191587 0 0.024281001204042377 0.034238907699872902 0 0.023819233401429274 0.03371225131091133 0 0.024281001204042377 0.034238907699872902 0 0.023462362823852615 0.034256233345342967 0 0.023698064277124675 0.034906985503191587 0 0.024281001204042377 0.034238907699872902 0 0.023462362823852615 0.034256233345342967 0 0.024972539084584723 0.035121406070823778 0 0.024281001204042377 0.034238907699872902 0 0.025300976291944138 0.033965320381622949 0 0.022518276221074114 0.033312485750097896 0 0.023448550526407309 0.032775657652904307 0 0.020633945408901337 0.033194282035064131 0 0.022221730290943743 0.034669872806282712 0 0.02266411585861269 0.034016191848624325 0 0.021792066184754592 0.033967033947194428 0 0.022221730290943743 0.034669872806282712 0 0.021792066184754592 0.033967033947194428 0 0.021404844029229559 0.034787036835868188 0 0.022221730290943743 0.034669872806282712 0 0.022937661794896591 0.034675968932629614 0 0.02266411585861269 0.034016191848624325 0 0.023698064277124675 0.034906985503191587 0 0.022937661794896591 0.034675968932629614 0 0.023462362823852615 0.034256233345342967 0 0.023462362823852615 0.034256233345342967 0 0.02266411585861269 0.034016191848624325 0 0.023266188459767554 0.033733845567441412 0 0.022937661794896591 0.034675968932629614 0 0.023462362823852615 0.034256233345342967 0 0.02266411585861269 0.034016191848624325 0 0.02266411585861269 0.034016191848624325 0 0.023266188459767554 0.033733845567441412 0 0.022977578150063301 0.033437291686120918 0 0.02266411585861269 0.034016191848624325 0 0.022977578150063301 0.033437291686120918 0 0.022518276221074114 0.033312485750097896 0 0.023819233401429274 0.03371225131091133 0 0.023266188459767554 0.033733845567441412 0 0.02345549115808827 0.033315054334330588 0 0.023819233401429274 0.03371225131091133 0 0.023462362823852615 0.034256233345342967 0 0.023266188459767554 0.033733845567441412 0 0.02345549115808827 0.033315054334330588 0 0.023176920028813851 0.033176057254217649 0 0.022977578150063301 0.033437291686120918 0 0.023266188459767554 0.033733845567441412 0 0.02345549115808827 0.033315054334330588 0 0.022977578150063301 0.033437291686120918 0 0.02345549115808827 0.033315054334330588 0 0.023176920028813851 0.033176057254217649 0 0.023487278990956741 0.03303800025039931 0 0.023176920028813851 0.033176057254217649 0 0.022977578150063301 0.033437291686120918 0 0.022518276221074114 0.033312485750097896 0 0.023176920028813851 0.033176057254217649 0 0.022518276221074114 0.033312485750097896 0 0.023448550526407309 0.032775657652904307 0 0.02266411585861269 0.034016191848624325 0 0.022518276221074114 0.033312485750097896 0 0.021792066184754592 0.033967033947194428 0 0.02279904513799097 0.034973164203565006 0 0.022571632867259796 0.033741231578188896 0 0.020035281900784643 0.034240169407747031 0 0.023041986106995573 0.033570166071713731 0 0.020399529270808559 0.033426187274604516 0 0.023041986106995573 0.033570166071713731 0 0.01915881542365714 0.034359708303427154 0 0.023176920028813851 0.033176057254217649 0 0.023487278990956741 0.03303800025039931 0 0.023448550526407309 0.032775657652904307 0 0.023080568937470576 0.033556758833669709 0 0.023041986106995573 0.033570166071713731 0 0.023652579951896662 0.032844682341754507 0 0.023487278990956741 0.03303800025039931 0 0.023448550526407309 0.032775657652904307 0 0.022283348947267453 0.034283319142711696 0 0.01915881542365714 0.034359708303427154 0 0.022623557019307652 0.033398425643676705 0 0.019753017991551259 0.032624369477732361 0 0.020197262291484341 0.033689235037886754 0 0.019022785127318788 0.035517740696443048 0 0.01645638518816292 0.034817590939030939 0 0.01845644295410654 0.034408324497807022 0 0.017683147565894383 0.034828619627800851 0 0.015596724144005123 0.034312501785530608 0 0.015821795694651867 0.035200476462297368 0 0.019753017991551259 0.032624369477732361 0 0.017785222565254003 0.033972581807681507 0 0.020197262291484341 0.033689235037886754 0 0.01915881542365714 0.034359708303427154 0 0.015860424553567093 0.034610164053155965 0 0.019753017991551259 0.032624369477732361 0 0.017785222565254003 0.033972581807681507 0 0.017505830311672861 0.033046966876377704 0 0.01915881542365714 0.034359708303427154 0 0.016603553855893221 0.034107691733675082 0 0.017995274653188686 0.033904080830091672 0 0.020399529270808559 0.033426187274604516 0 0.017785222565254003 0.033972581807681507 0 0.019326920813230373 0.034476268832025161 0 0.020633945408901337 0.033194282035064131 0 0.019326920813230373 0.034476268832025161 0 0.019838158390914632 0.035152501648732237 0 0.018798345284835531 0.035500667028171819 0 0.017785222565254003 0.033972581807681507 0 0.019326920813230373 0.034476268832025161 0 0.018041048587314808 0.034917003095253543 0 0.019326920813230373 0.034476268832025161 0 0.018041048587314808 0.034917003095253543 0 0.018798345284835531 0.035500667028171819 0 0.022518276221074114 0.033312485750097896 0 0.021792066184754592 0.033967033947194428 0 0.020633945408901337 0.033194282035064131 0 0.021792066184754592 0.033967033947194428 0 0.020633945408901337 0.033194282035064131 0 0.02062614907008142 0.034476352181052904 0 0.019326920813230373 0.034476268832025161 0 0.020633945408901337 0.033194282035064131 0 0.02062614907008142 0.034476352181052904 0 0.019326920813230373 0.034476268832025161 0 0.02062614907008142 0.034476352181052904 0 0.019838158390914632 0.035152501648732237 0 0.02062614907008142 0.034476352181052904 0 0.019838158390914632 0.035152501648732237 0 0.020688213744042238 0.035373330900827407 0 0.021792066184754592 0.033967033947194428 0 0.02062614907008142 0.034476352181052904 0 0.021404844029229559 0.034787036835868188 0 0.02062614907008142 0.034476352181052904 0 0.021404844029229559 0.034787036835868188 0 0.020688213744042238 0.035373330900827407 0 0.021692688410037284 0.035429994325112554 0 0.021404844029229559 0.034787036835868188 0 0.020688213744042238 0.035373330900827407 0 0.021692688410037284 0.035429994325112554 0 0.020844004982624845 0.036337830398072472 0 0.020688213744042238 0.035373330900827407 0 0.02244909111014717 0.036317235890516227 0 0.020844004982624845 0.036337830398072472 0 0.021602466506101665 0.03693890172196887 0 0.020844004982624845 0.036337830398072472 0 0.020688213744042238 0.035373330900827407 0 0.019677785649171546 0.036019123637843993 0 0.020844004982624845 0.036337830398072472 0 0.019677785649171546 0.036019123637843993 0 0.019489902152534096 0.037100586884954823 0 0.019838158390914632 0.035152501648732237 0 0.020688213744042238 0.035373330900827407 0 0.019677785649171546 0.036019123637843993 0 0.019838158390914632 0.035152501648732237 0 0.018798345284835531 0.035500667028171819 0 0.019677785649171546 0.036019123637843993 0 0.018041048587314808 0.034917003095253543 0 0.018798345284835531 0.035500667028171819 0 0.017592720407414098 0.035775065462147551 0 0.018798345284835531 0.035500667028171819 0 0.018338347563023397 0.03662160165458056 0 0.017592720407414098 0.035775065462147551 0 0.018798345284835531 0.035500667028171819 0 0.018338347563023397 0.03662160165458056 0 0.019677785649171546 0.036019123637843993 0 0.018338347563023397 0.03662160165458056 0 0.019677785649171546 0.036019123637843993 0 0.019489902152534096 0.037100586884954823 0 0.018338347563023397 0.03662160165458056 0 0.019489902152534096 0.037100586884954823 0 0.018042251867469231 0.037804703852043202 0 0.018042251867469231 0.037804703852043202 0 0.019321145326957643 0.038199748680445185 0 0.01818329415224253 0.039158268623996559 0 0.019489902152534096 0.037100586884954823 0 0.018042251867469231 0.037804703852043202 0 0.019321145326957643 0.038199748680445185 0 0.019489902152534096 0.037100586884954823 0 0.019321145326957643 0.038199748680445185 0 0.020736155294713714 0.037642961929142973 0 0.02244891486606632 0.037610666773234533 0 0.020736155294713714 0.037642961929142973 0 0.021602466506101665 0.03693890172196887 0 0.021718888980512538 0.03886013254687519 0 0.02244891486606632 0.037610666773234533 0 0.020736155294713714 0.037642961929142973 0 0.020844004982624845 0.036337830398072472 0 0.020736155294713714 0.037642961929142973 0 0.021602466506101665 0.03693890172196887 0 0.020844004982624845 0.036337830398072472 0 0.019489902152534096 0.037100586884954823 0 0.020736155294713714 0.037642961929142973 0 0.016616742221094084 0.038546158200091947 0 0.016317420393332508 0.036984025920024782 0 0.013959680675808517 0.038356987605831186 0 0.018042251867469231 0.037804703852043202 0 0.016616742221094084 0.038546158200091947 0 0.016317420393332508 0.036984025920024782 0 0.018338347563023397 0.03662160165458056 0 0.018042251867469231 0.037804703852043202 0 0.016317420393332508 0.036984025920024782 0 0.018042251867469231 0.037804703852043202 0 0.016616742221094084 0.038546158200091947 0 0.01818329415224253 0.039158268623996559 0 0.016317420393332508 0.036984025920024782 0 0.017592720407414098 0.035775065462147551 0 0.016653056253686536 0.034960134435388097 0 0.018338347563023397 0.03662160165458056 0 0.016317420393332508 0.036984025920024782 0 0.017592720407414098 0.035775065462147551 0 0.016317420393332508 0.036984025920024782 0 0.014105718674007221 0.036153565416967313 0 0.013959680675808517 0.038356987605831186 0 0.016317420393332508 0.036984025920024782 0 0.014105718674007221 0.036153565416967313 0 0.016653056253686536 0.034960134435388097 0 0.014105718674007221 0.036153565416967313 0 0.016653056253686536 0.034960134435388097 0 0.01491786765481856 0.03392656414123018 0 0.017785222565254003 0.033972581807681507 0 0.016653056253686536 0.034960134435388097 0 0.017505830311672861 0.033046966876377704 0 0.016653056253686536 0.034960134435388097 0 0.017505830311672861 0.033046966876377704 0 0.01491786765481856 0.03392656414123018 0 0.017785222565254003 0.033972581807681507 0 0.018041048587314808 0.034917003095253543 0 0.016653056253686536 0.034960134435388097 0 0.018041048587314808 0.034917003095253543 0 0.017592720407414098 0.035775065462147551 0 0.016653056253686536 0.034960134435388097 0 0.015821795694651867 0.035200476462297368 0 0.014032727298375042 0.035509111297505891 0 0.014501644921706816 0.034668315677481937 0 0.015596724144005123 0.034312501785530608 0 0.015821795694651867 0.035200476462297368 0 0.014501644921706816 0.034668315677481937 0 0.016603553855893221 0.034107691733675082 0 0.014506725231601649 0.034738288081226538 0 0.014032727298375042 0.035509111297505891 0 0.014501644921706816 0.034668315677481937 0 0.013180457299953693 0.034741786511209273 0 0.014501644921706816 0.034668315677481937 0 0.013180457299953693 0.034741786511209273 0 0.013777832559968808 0.033863391553169059 0 0.014032727298375042 0.035509111297505891 0 0.013180457299953693 0.034741786511209273 0 0.0122519130800326 0.035477987738597137 0 0.013180457299953693 0.034741786511209273 0 0.011887300483215089 0.034865259777112328 0 0.0122519130800326 0.035477987738597137 0 0.011887300483215089 0.034865259777112328 0 0.010034043353734652 0.035017102940139336 0 0.011048912828631834 0.035507252158131775 0 0.011887300483215089 0.034865259777112328 0 0.011048912828631834 0.035507252158131775 0 0.0122519130800326 0.035477987738597137 0 0.011048912828631834 0.035507252158131775 0 0.0122519130800326 0.035477987738597137 0 0.011598841943442212 0.036717825750735018 0 0.011048912828631834 0.035507252158131775 0 0.0091098576716104693 0.035805941603779007 0 0.011598841943442212 0.036717825750735018 0 0.014105718674007221 0.036153565416967313 0 0.0122519130800326 0.035477987738597137 0 0.011598841943442212 0.036717825750735018 0 0.014105718674007221 0.036153565416967313 0 0.01491786765481856 0.03392656414123018 0 0.0122519130800326 0.035477987738597137 0 0.014506725231601649 0.034738288081226538 0 0.012507696251479601 0.035345636675280061 0 0.0052855767693215936 0.0350867532138626 0 0.0060588762657579663 0.034979920110957817 0 0.0055453760645521114 0.034246841187083842 0 0.007533876357965914 0.035328838389046706 0 0.0056444282693421614 0.034184939085142731 0 0.0052855767693215936 0.0350867532138626 0 0.0060588762657579663 0.034979920110957817 0 0.0057497912714853669 0.03535415939605209 0 0.010034043353734652 0.035017102940139336 0 0.011048912828631834 0.035507252158131775 0 0.0091098576716104693 0.035805941603779007 0 0.010034043353734652 0.035017102940139336 0 0.0091098576716104693 0.035805941603779007 0 0.008490060276840062 0.034622745586567583 0 0.0060588762657579663 0.034979920110957817 0 0.0057497912714853669 0.03535415939605209 0 0.0063940327183052261 0.035607503370132139 0 0.007533876357965914 0.035328838389046706 0 0.0095334679475986197 0.036172774610566776 0 0.0057497912714853669 0.03535415939605209 0 0.0057019702165062303 0.035953903993217219 0 0.0063940327183052261 0.035607503370132139 0 0.0060588762657579663 0.034979920110957817 0 0.0063940327183052261 0.035607503370132139 0 0.0075228872847902546 0.035586112945550405 0 0.0057497912714853669 0.03535415939605209 0 0.0049243009658374364 0.035430324823543947 0 0.0057019702165062303 0.035953903993217219 0 0.0052855767693215936 0.0350867532138626 0 0.0057497912714853669 0.03535415939605209 0 0.0049243009658374364 0.035430324823543947 0 0.0049243009658374364 0.035430324823543947 0 0.0057019702165062303 0.035953903993217219 0 0.0047144312260973022 0.035856776930471075 0 0.0063940327183052261 0.035607503370132139 0 0.0068827916894649765 0.036319151941201423 0 0.0075228872847902546 0.035586112945550405 0 0.0057019702165062303 0.035953903993217219 0 0.0063940327183052261 0.035607503370132139 0 0.0068827916894649765 0.036319151941201423 0 0.0057019702165062303 0.035953903993217219 0 0.0068827916894649765 0.036319151941201423 0 0.0058792583290245316 0.036674424822509363 0 0.0068827916894649765 0.036319151941201423 0 0.0079117910374665208 0.03687849250467598 0 0.0066755857318978968 0.037290322797447109 0 0.0068827916894649765 0.036319151941201423 0 0.0058792583290245316 0.036674424822509363 0 0.0066755857318978968 0.037290322797447109 0 0.0057019702165062303 0.035953903993217219 0 0.0058792583290245316 0.036674424822509363 0 0.004282932145302047 0.036535920621025703 0 0.0058792583290245316 0.036674424822509363 0 0.0053329477013119696 0.037325362112852596 0 0.004282932145302047 0.036535920621025703 0 0.0095334679475986197 0.036172774610566776 0 0.01153618143764849 0.037425946233214193 0 0.014105718674007221 0.036153565416967313 0 0.011598841943442212 0.036717825750735018 0 0.013959680675808517 0.038356987605831186 0 0.0068827916894649765 0.036319151941201423 0 0.0075228872847902546 0.035586112945550405 0 0.0079117910374665208 0.03687849250467598 0 0.0075228872847902546 0.035586112945550405 0 0.0090216727736339153 0.036526137164487743 0 0.0079117910374665208 0.03687849250467598 0 0.0090216727736339153 0.036526137164487743 0 0.0079117910374665208 0.03687849250467598 0 0.0091963234889746309 0.037620518201348027 0 0.0079117910374665208 0.03687849250467598 0 0.0080821318774454039 0.037739208789918259 0 0.0066755857318978968 0.037290322797447109 0 0.0079117910374665208 0.03687849250467598 0 0.0080821318774454039 0.037739208789918259 0 0.0091963234889746309 0.037620518201348027 0 0.0080821318774454039 0.037739208789918259 0 0.0091963234889746309 0.037620518201348027 0 0.0087288084174188749 0.038124614394355986 0 0.0058792583290245316 0.036674424822509363 0 0.0053329477013119696 0.037325362112852596 0 0.0066755857318978968 0.037290322797447109 0 0.0053329477013119696 0.037325362112852596 0 0.0066755857318978968 0.037290322797447109 0 0.0054457001951626052 0.038054850486498072 0 0.0080821318774454039 0.037739208789918259 0 0.0066755857318978968 0.037290322797447109 0 0.006449194587105295 0.038192384210358581 0 0.0066755857318978968 0.037290322797447109 0 0.006449194587105295 0.038192384210358581 0 0.0054457001951626052 0.038054850486498072 0 0.006449194587105295 0.038192384210358581 0 0.0054457001951626052 0.038054850486498072 0 0.0049104942221549113 0.03866844273835051 0 0.006449194587105295 0.038192384210358581 0 0.0055899491297255717 0.039409939495191545 0 0.0049104942221549113 0.03866844273835051 0 0.006449194587105295 0.038192384210358581 0 0.0075293606083606142 0.038640719049813456 0 0.0055899491297255717 0.039409939495191545 0 0.0079180678484818343 0.038723542019765404 0 0.0045984299839762479 0.038860766514306679 0 0.0080821318774454039 0.037739208789918259 0 0.006449194587105295 0.038192384210358581 0 0.0075293606083606142 0.038640719049813456 0 0.0082792149979699237 0.039658276111274815 0 0.0065349131437231331 0.039749848605974671 0 0.0075293606083606142 0.038640719049813456 0 0.0043929928402348037 0.038432907632035322 0 0.0027967007328131466 0.036573088660260634 0 0.0018365759595911784 0.038041010615367493 0 0.0054237217031600253 0.038946039566978258 0 0.0045984299839762479 0.038860766514306679 0 0.0065349131437231331 0.039749848605974671 0 0.0075293606083606142 0.038640719049813456 0 0.0060562652755492379 0.038678833665043599 0 0.0097595108494436308 0.03795230605506214 0 0.0087288084174188749 0.038124614394355986 0 0.0095580136917762046 0.038865802636835547 0 0.0091963234889746309 0.037620518201348027 0 0.0097595108494436308 0.03795230605506214 0 0.0087288084174188749 0.038124614394355986 0 0.0080821318774454039 0.037739208789918259 0 0.0075293606083606142 0.038640719049813456 0 0.0087288084174188749 0.038124614394355986 0 0.0075293606083606142 0.038640719049813456 0 0.0087288084174188749 0.038124614394355986 0 0.0095580136917762046 0.038865802636835547 0 0.0082792149979699237 0.039658276111274815 0 0.0075293606083606142 0.038640719049813456 0 0.0095580136917762046 0.038865802636835547 0 0.0097595108494436308 0.03795230605506214 0 0.0095580136917762046 0.038865802636835547 0 0.011459272849928278 0.03847307089156897 0 0.012261664409480398 0.039454611854269135 0 0.011459272849928278 0.03847307089156897 0 0.013240174050073166 0.038489251395489962 0 0.012261664409480398 0.039454611854269135 0 0.0095580136917762046 0.038865802636835547 0 0.011459272849928278 0.03847307089156897 0 0.0091963234889746309 0.037620518201348027 0 0.0097595108494436308 0.03795230605506214 0 0.010101118754711941 0.038131153514634183 0 0.010288664849944689 0.037887275499374304 0 0.010312296076724981 0.0377113895471963 0 0.0097595108494436308 0.03795230605506214 0 0.011459272849928278 0.03847307089156897 0 0.012378100641439479 0.037300379795351182 0 0.010312296076724981 0.0377113895471963 0 0.017215049778933664 0.03902393249051251 0 0.010101118754711941 0.038131153514634183 0 0.010879231320174664 0.038118832122184296 0 0.01008345092310658 0.037373619827003664 0 0.012378100641439479 0.037300379795351182 0 0.013240174050073166 0.038489251395489962 0 0.01430492251342722 0.037217222909973625 0 0.011459272849928278 0.03847307089156897 0 0.012378100641439479 0.037300379795351182 0 0.013240174050073166 0.038489251395489962 0 0.013990025911644525 0.039543114796185511 0 0.013240174050073166 0.038489251395489962 0 0.01525883628219313 0.038319285111722758 0 0.013240174050073166 0.038489251395489962 0 0.01525883628219313 0.038319285111722758 0 0.01430492251342722 0.037217222909973625 0 0.016285493658441161 0.039460533412606698 0 0.013990025911644525 0.039543114796185511 0 0.01525883628219313 0.038319285111722758 0 0.025971326713211184 0.039342368050825194 0 0.02586578688755416 0.038545153182359709 0 0.024758249267814045 0.039286724268735147 0 0.025411590178945405 0.03994430075451702 0 0.025971326713211184 0.039342368050825194 0 0.024758249267814045 0.039286724268735147 0 0.021098522418832318 0.039299138544725769 0 0.020043677954031613 0.038881436007245515 0 0.02586578688755416 0.038545153182359709 0 0.024758249267814045 0.039286724268735147 0 0.024049477971918181 0.038529775986261366 0 0.021985219038827913 0.042297941229207235 0 0.018574113304981505 0.042668472949334936 0 0.020223705358387058 0.041012703026907578 0 0.024826297604407747 0.04061548276390272 0 0.017215049778933664 0.03902393249051251 0 0.020043677954031613 0.038881436007245515 0 0.017215049778933664 0.03902393249051251 0 0.018574113304981505 0.042668472949334936 0 0.018524595260922854 0.04063393535648574 0 0.020223705358387058 0.041012703026907578 0 0.018524595260922854 0.04063393535648574 0 0.020223705358387058 0.041012703026907578 0 0.020172003243234773 0.039274965402054912 0 0.021985219038827913 0.042297941229207235 0 0.02191560773276393 0.040238314570936594 0 0.020223705358387058 0.041012703026907578 0 0.02191560773276393 0.040238314570936594 0 0.020223705358387058 0.041012703026907578 0 0.020172003243234773 0.039274965402054912 0 0.021718888980512538 0.03886013254687519 0 0.02191560773276393 0.040238314570936594 0 0.020172003243234773 0.039274965402054912 0 0.019321145326957643 0.038199748680445185 0 0.020736155294713714 0.037642961929142973 0 0.020172003243234773 0.039274965402054912 0 0.021718888980512538 0.03886013254687519 0 0.020736155294713714 0.037642961929142973 0 0.020172003243234773 0.039274965402054912 0 0.019321145326957643 0.038199748680445185 0 0.020172003243234773 0.039274965402054912 0 0.01818329415224253 0.039158268623996559 0 0.018524595260922854 0.04063393535648574 0 0.020172003243234773 0.039274965402054912 0 0.01818329415224253 0.039158268623996559 0 0.018524595260922854 0.04063393535648574 0 0.01818329415224253 0.039158268623996559 0 0.016315140739796393 0.040364458645604007 0 0.016616742221094084 0.038546158200091947 0 0.01818329415224253 0.039158268623996559 0 0.016315140739796393 0.040364458645604007 0 0.0090216727736339153 0.036526137164487743 0 0.0091963234889746309 0.037620518201348027 0 0.01008345092310658 0.037373619827003664 0 0.016616742221094084 0.038546158200091947 0 0.013959680675808517 0.038356987605831186 0 0.016315140739796393 0.040364458645604007 0 0.01153618143764849 0.037425946233214193 0 0.012792782943573078 0.039030825286761092 0 0.0091963234889746309 0.037620518201348027 0 0.010101118754711941 0.038131153514634183 0 0.01008345092310658 0.037373619827003664 0 0.018574113304981505 0.042668472949334936 0 0.018524595260922854 0.04063393535648574 0 0.016315140739796393 0.040364458645604007 0 0.017215049778933664 0.03902393249051251 0 0.012792782943573078 0.039030825286761092 0 0.05382212673601585 0.0088962996456759709 0 0.053495596694804318 0.0091890576913187198 0 0.054147778617657683 0.0092405530402647016 0 0.057366416262794456 0.011782963815314667 0 0.054999855747338199 0.012412480228478431 0 0.05499999040827637 0.0099060358693644473 0 0.055626730162897986 0.010137270335231163 0 0.055000043711856336 0.0099059597829591426 0 0.054999855747338199 0.012412480228478431 0 0.056480375954047687 0.013477685114750917 0 0.054999942908935631 0.014918639158827253 0 0.057366416262794456 0.011782963815314667 0 0.054999855747338199 0.012412480228478431 0 0.056480375954047687 0.013477685114750917 0 0.057366416262794456 0.011782963815314667 0 0.056480375954047687 0.013477685114750917 0 0.057910272352802591 0.013809232150647109 0 0.057366416262794456 0.011782963815314667 0 0.059559202155608122 0.013390507435611234 0 0.057910272352802591 0.013809232150647109 0 0.055847288653093324 0.012556075515334136 0 0.058540583134625242 0.013782360875863374 0 0.055626730162897986 0.010137270335231163 0 0.055847288653093324 0.012556075515334136 0 0.05382212673601585 0.0088962996456759709 0 0.053133885595081261 0.008848008897761753 0 0.053257860604425084 0.009141776969295955 0 0.055847288653093324 0.012556075515334136 0 0.052927039050721165 0.011542098983729694 0 0.053133885595081261 0.008848008897761753 0 0.052890245902082113 0.0092960311289918621 0 0.053257860604425084 0.009141776969295955 0 0.053133885595081261 0.008848008897761753 0 0.052890245902082113 0.0092960311289918621 0 0.052550438293434129 0.0092426234461469095 0 0.056079552977642048 0.014156628831721908 0 0.05363375816195342 0.014077001195336532 0 0.055228946169726005 0.013578610097434446 0 0.055847288653093324 0.012556075515334136 0 0.055888460093741085 0.013563454034461684 0 0.052890245902082113 0.0092960311289918621 0 0.053257860604425084 0.009141776969295955 0 0.052950955010311669 0.0094529117682872407 0 0.05382212673601585 0.0088962996456759709 0 0.053257860604425084 0.009141776969295955 0 0.053495596694804318 0.0091890576913187198 0 0.053257860604425084 0.009141776969295955 0 0.053495596694804318 0.0091890576913187198 0 0.052950955010311669 0.0094529117682872407 0 0.053495596694804318 0.0091890576913187198 0 0.052950955010311669 0.0094529117682872407 0 0.053199469123029024 0.0094365879223036568 0 0.052950955010311669 0.0094529117682872407 0 0.053199469123029024 0.0094365879223036568 0 0.052677152886299337 0.0095772691325718227 0 0.053199469123029024 0.0094365879223036568 0 0.052796695008362114 0.0093338986828440818 0 0.052677152886299337 0.0095772691325718227 0 0.053199469123029024 0.0094365879223036568 0 0.054147778617657683 0.0092405530402647016 0 0.053601571011418894 0.0095680179423577628 0 0.053495596694804318 0.0091890576913187198 0 0.053199469123029024 0.0094365879223036568 0 0.054147778617657683 0.0092405530402647016 0 0.054147778617657683 0.0092405530402647016 0 0.054998610300801123 0.008616897100350079 0 0.054999492493304422 0.0098985402933326923 0 0.05382212673601585 0.0088962996456759709 0 0.054147778617657683 0.0092405530402647016 0 0.054999492493304422 0.0098985402933326923 0 0.055000000371033558 0.008609361771614657 0 0.055167301006011631 0.0076944071860847339 0 0.054147778617657683 0.0092405530402647016 0 0.054998610300801123 0.008616897100350079 0 0.053601571011418894 0.0095680179423577628 0 0.055000062863562516 0.0086095381144242773 0 0.054999776546239977 0.0053171351906390347 0 0.056727391688287936 0.0059206242892526299 0 0.055167301006011631 0.0076944071860847339 0 0.055397060419909744 0.0062101063807820343 0 0.056727391688287936 0.0059206242892526299 0 0.056374270929273169 0.0033416473585544666 0 0.058088927962378641 0.0031503352370197378 0 0.054999776546239977 0.0053171351906390347 0 0.056727391688287936 0.0059206242892526299 0 0.056374270929273169 0.0033416473585544666 0 0.054999776546239977 0.0053171351906390347 0 0.056374270929273169 0.0033416473585544666 0 0.054999783440937054 0.0020250830220200512 0 0.056374270929273169 0.0033416473585544666 0 0.054999783440937054 0.0020250830220200512 0 0.056971672369311589 0.00055841715120883621 0 0.056374270929273169 0.0033416473585544666 0 0.056971672369311589 0.00055841715120883621 0 0.058088927962378641 0.0031503352370197378 0 0.054999755172742769 -0.0012665260850140039 0 0.054999783440937054 0.0020250830220200512 0 0.056971672369311589 0.00055841715120883621 0 0.056971672369311589 0.00055841715120883621 0 0.058967495902043504 0.00082552028848014889 0 0.058088927962378641 0.0031503352370197378 0 0.055696514012104216 0.0043598949752047958 0 0.055397060419909744 0.0062101063807820343 0 0.052344558001496969 0.0082307438467169626 0 0.052716444354752007 0.0092230161475203003 0 0.052610833909367001 0.0090505467502549983 0 0.052716444354752007 0.0092230161475203003 0 0.052796695008362114 0.0093338986828440818 0 0.052610833909367001 0.0090505467502549983 0 0.053601571011418894 0.0095680179423577628 0 0.052716444354752007 0.0092230161475203003 0 0.052796695008362114 0.0093338986828440818 0 0.053199469123029024 0.0094365879223036568 0 0.053601571011418894 0.0095680179423577628 0 0.052796695008362114 0.0093338986828440818 0 0.052796695008362114 0.0093338986828440818 0 0.052720844640980785 0.0090108996820111049 0 0.052677152886299337 0.0095772691325718227 0 0.052720844640980785 0.0090108996820111049 0 0.051628418763565984 0.0085626327704200651 0 0.051434640751858031 0.0063786831478684341 0 0.052720844640980785 0.0090108996820111049 0 0.052441415110311168 0.0091975391035456176 0 0.051628418763565984 0.0085626327704200651 0 0.052441415110311168 0.0091975391035456176 0 0.051928310597326117 0.009575530957507291 0 0.051628418763565984 0.0085626327704200651 0 0.052720844640980785 0.0090108996820111049 0 0.052441415110311168 0.0091975391035456176 0 0.052610833909367001 0.0090505467502549983 0 0.052796695008362114 0.0093338986828440818 0 0.052720844640980785 0.0090108996820111049 0 0.052610833909367001 0.0090505467502549983 0 0.052441415110311168 0.0091975391035456176 0 0.052610833909367001 0.0090505467502549983 0 0.052664658588115365 0.0083753494344686319 0 0.05263495273603927 0.0067468261116785258 0 0.052344558001496969 0.0082307438467169626 0 0.052664658588115365 0.0083753494344686319 0 0.052344558001496969 0.0082307438467169626 0 0.052610833909367001 0.0090505467502549983 0 0.052664658588115365 0.0083753494344686319 0 0.052441415110311168 0.0091975391035456176 0 0.052664658588115365 0.0083753494344686319 0 0.051928310597326117 0.009575530957507291 0 0.047863701297046833 0.013900857557338889 0 0.049560577725657751 0.012212055092919739 0 0.046970039967240626 0.011625410583071498 0 0.053420269818469625 0.007523111152912338 0 0.053992298473549381 0.0077019486168593328 0 0.053392570708449424 0.008499998437607556 0 0.050948954796477437 0.011809802381267737 0 0.051551572788154719 0.010119441722170679 0 0.053420269818469625 0.007523111152912338 0 0.052664658588115365 0.0083753494344686319 0 0.053392570708449424 0.008499998437607556 0 0.052664658588115365 0.0083753494344686319 0 0.053392570708449424 0.008499998437607556 0 0.051928310597326117 0.009575530957507291 0 0.051551572788154719 0.010119441722170679 0 0.051906411184191946 0.0096604635317372612 0 0.049560577725657751 0.012212055092919739 0 0.048906190917898169 0.010172351812845554 0 0.051928310597326117 0.009575530957507291 0 0.049560577725657751 0.012212055092919739 0 0.048906190917898169 0.010172351812845554 0 0.046970039967240626 0.011625410583071498 0 0.048906190917898169 0.010172351812845554 0 0.049607538292562744 0.0085679601330876636 0 0.046962696717852324 0.0090758885279191657 0 0.048906190917898169 0.010172351812845554 0 0.051928310597326117 0.009575530957507291 0 0.049607538292562744 0.0085679601330876636 0 0.051928310597326117 0.009575530957507291 0 0.051628418763565984 0.0085626327704200651 0 0.049607538292562744 0.0085679601330876636 0 0.051628418763565984 0.0085626327704200651 0 0.049756919361223874 0.0072765817749575676 0 0.051434640751858031 0.0063786831478684341 0 0.051628418763565984 0.0085626327704200651 0 0.049756919361223874 0.0072765817749575676 0 0.049607538292562744 0.0085679601330876636 0 0.049607538292562744 0.0085679601330876636 0 0.04800054042137452 0.0071769321299160627 0 0.046962696717852324 0.0090758885279191657 0 0.049756919361223874 0.0072765817749575676 0 0.049607538292562744 0.0085679601330876636 0 0.04800054042137452 0.0071769321299160627 0 0.049756919361223874 0.0072765817749575676 0 0.04800054042137452 0.0071769321299160627 0 0.048088981463983667 0.0055373522402585671 0 0.048088981463983667 0.0055373522402585671 0 0.048907159879645438 0.0041240872236855686 0 0.046752800695998221 0.0038514196621852333 0 0.048088981463983667 0.0055373522402585671 0 0.048907159879645438 0.0041240872236855686 0 0.051434640751858031 0.0063786831478684341 0 0.050167439881373954 0.0078565472919788406 0 0.051752607897272734 0.0081588945718215553 0 0.051260174807296915 0.011035605360418532 0 0.052016409651572115 0.010317810368353421 0 0.052370924595188516 0.010074590066182722 0 0.049756919361223874 0.0072765817749575676 0 0.048088981463983667 0.0055373522402585671 0 0.051434640751858031 0.0063786831478684341 0 0.052637191008821832 0.0089130176167969855 0 0.051752607897272734 0.0081588945718215553 0 0.052720844640980785 0.0090108996820111049 0 0.052370924595188516 0.010074590066182722 0 0.052677152886299337 0.0095772691325718227 0 0.052950955010311669 0.0094529117682872407 0 0.052677152886299337 0.0095772691325718227 0 0.052443113594951456 0.0098696386502213698 0 0.052016409651572115 0.010317810368353421 0 0.052370924595188516 0.010074590066182722 0 0.052443113594951456 0.0098696386502213698 0 0.052370924595188516 0.010074590066182722 0 0.052677152886299337 0.0095772691325718227 0 0.052443113594951456 0.0098696386502213698 0 0.052016409651572115 0.010317810368353421 0 0.052443113594951456 0.0098696386502213698 0 0.05185638275271931 0.0099646774324505753 0 0.052443113594951456 0.0098696386502213698 0 0.052550438293434129 0.0092426234461469095 0 0.05185638275271931 0.0099646774324505753 0 0.052890245902082113 0.0092960311289918621 0 0.052950955010311669 0.0094529117682872407 0 0.052443113594951456 0.0098696386502213698 0 0.052890245902082113 0.0092960311289918621 0 0.052443113594951456 0.0098696386502213698 0 0.052550438293434129 0.0092426234461469095 0 0.05363375816195342 0.014077001195336532 0 0.051345977205540294 0.01329268623410597 0 0.052046865490024248 0.012718992548617799 0 0.052927039050721165 0.011542098983729694 0 0.051785948968411821 0.011630251159026217 0 0.051345977205540294 0.01329268623410597 0 0.050366532022914655 0.012314990695195153 0 0.051066729540291123 0.012435523215390033 0 0.051345977205540294 0.01329268623410597 0 0.051066729540291123 0.012435523215390033 0 0.052046865490024248 0.012718992548617799 0 0.051345977205540294 0.01329268623410597 0 0.050366532022914655 0.012314990695195153 0 0.050688460120937258 0.011771240804630686 0 0.050366532022914655 0.012314990695195153 0 0.050688460120937258 0.011771240804630686 0 0.050157407517562709 0.012322532796421311 0 0.051260174807296915 0.011035605360418532 0 0.050688460120937258 0.011771240804630686 0 0.050157407517562709 0.012322532796421311 0 0.051260174807296915 0.011035605360418532 0 0.05185638275271931 0.0099646774324505753 0 0.050688460120937258 0.011771240804630686 0 0.050167439881373954 0.0078565472919788406 0 0.047906965281606644 0.0056139768166334168 0 0.051260174807296915 0.011035605360418532 0 0.052016409651572115 0.010317810368353421 0 0.05185638275271931 0.0099646774324505753 0 0.051785948968411821 0.011630251159026217 0 0.050889448971900057 0.01172900611991355 0 0.044859425142196915 0.0032074813955281617 0 0.042710998856946472 0.0032672008430033178 0 0.044266106537586593 0.0048235911438112662 0 0.048907159879645438 0.0041240872236855686 0 0.046752800695998221 0.0038514196621852333 0 0.046264085456124891 0.0023261815150168574 0 0.044859425142196915 0.0032074813955281617 0 0.046752800695998221 0.0038514196621852333 0 0.046264085456124891 0.0023261815150168574 0 0.050366532022914655 0.012314990695195153 0 0.050157407517562709 0.012322532796421311 0 0.04853057202772524 0.012306768327934009 0 0.044859425142196915 0.0032074813955281617 0 0.046264085456124891 0.0023261815150168574 0 0.04360487165049285 0.00075867465888332657 0 0.044859425142196915 0.0032074813955281617 0 0.042710998856946472 0.0032672008430033178 0 0.04360487165049285 0.00075867465888332657 0 0.047906965281606644 0.0056139768166334168 0 0.044581415839359172 0.016829079591835699 0 0.040849803638288447 0.0018688710996620237 0 0.042710998856946472 0.0032672008430033178 0 0.04360487165049285 0.00075867465888332657 0 0.042064709009251168 0.020490769740621927 0 0.044581415839359172 0.016829079591835699 0 0.040849803638288447 0.0018688710996620237 0 0.040178601530098064 0.0038483642906425421 0 0.042710998856946472 0.0032672008430033178 0 0.042710998856946472 0.0032672008430033178 0 0.042080188398076437 0.0052819439197923914 0 0.044266106537586593 0.0048235911438112662 0 0.040178601530098064 0.0038483642906425421 0 0.042080188398076437 0.0052819439197923914 0 0.03975927726874795 0.005687686559160814 0 0.040178601530098064 0.0038483642906425421 0 0.042710998856946472 0.0032672008430033178 0 0.042080188398076437 0.0052819439197923914 0 0.042080188398076437 0.0052819439197923914 0 0.041409078409521627 0.007682252214740874 0 0.03975927726874795 0.005687686559160814 0 0.042080188398076437 0.0052819439197923914 0 0.044103057172629953 0.0066188716460096348 0 0.041409078409521627 0.007682252214740874 0 0.042080188398076437 0.0052819439197923914 0 0.044103057172629953 0.0066188716460096348 0 0.044266106537586593 0.0048235911438112662 0 0.044103057172629953 0.0066188716460096348 0 0.04614455601656426 0.006074339985075769 0 0.045824998356414473 0.0076262220934582032 0 0.044103057172629953 0.0066188716460096348 0 0.044266106537586593 0.0048235911438112662 0 0.04614455601656426 0.006074339985075769 0 0.044859425142196915 0.0032074813955281617 0 0.044266106537586593 0.0048235911438112662 0 0.045977078965404185 0.0046476056338137454 0 0.044266106537586593 0.0048235911438112662 0 0.045977078965404185 0.0046476056338137454 0 0.04614455601656426 0.006074339985075769 0 0.048088981463983667 0.0055373522402585671 0 0.046752800695998221 0.0038514196621852333 0 0.045977078965404185 0.0046476056338137454 0 0.048088981463983667 0.0055373522402585671 0 0.045977078965404185 0.0046476056338137454 0 0.04614455601656426 0.006074339985075769 0 0.044859425142196915 0.0032074813955281617 0 0.046752800695998221 0.0038514196621852333 0 0.045977078965404185 0.0046476056338137454 0 0.04800054042137452 0.0071769321299160627 0 0.048088981463983667 0.0055373522402585671 0 0.04614455601656426 0.006074339985075769 0 0.04800054042137452 0.0071769321299160627 0 0.04614455601656426 0.006074339985075769 0 0.045824998356414473 0.0076262220934582032 0 0.04800054042137452 0.0071769321299160627 0 0.045824998356414473 0.0076262220934582032 0 0.046962696717852324 0.0090758885279191657 0 0.044103057172629953 0.0066188716460096348 0 0.045824998356414473 0.0076262220934582032 0 0.043657131386989748 0.0091645997110921737 0 0.045824998356414473 0.0076262220934582032 0 0.046962696717852324 0.0090758885279191657 0 0.043657131386989748 0.0091645997110921737 0 0.046962696717852324 0.0090758885279191657 0 0.045468230143227262 0.010387459771707347 0 0.043657131386989748 0.0091645997110921737 0 0.046962696717852324 0.0090758885279191657 0 0.046970039967240626 0.011625410583071498 0 0.045468230143227262 0.010387459771707347 0 0.048906190917898169 0.010172351812845554 0 0.046962696717852324 0.0090758885279191657 0 0.046970039967240626 0.011625410583071498 0 0.045468230143227262 0.010387459771707347 0 0.044446373078877034 0.011940478683979888 0 0.043657131386989748 0.0091645997110921737 0 0.046970039967240626 0.011625410583071498 0 0.045468230143227262 0.010387459771707347 0 0.044446373078877034 0.011940478683979888 0 0.046970039967240626 0.011625410583071498 0 0.044446373078877034 0.011940478683979888 0 0.046010536360574665 0.01359922678013928 0 0.044359420682206357 0.014987145744074623 0 0.044446373078877034 0.011940478683979888 0 0.046010536360574665 0.01359922678013928 0 0.047863701297046833 0.013900857557338889 0 0.046970039967240626 0.011625410583071498 0 0.046010536360574665 0.01359922678013928 0 0.041938136676609353 0.014335672380281932 0 0.041561301879182021 0.01202619390676516 0 0.041066915377161513 0.013231514981239409 0 0.041561301879182021 0.01202619390676516 0 0.041066915377161513 0.013231514981239409 0 0.040134812726851418 0.0122403602108812 0 0.041066915377161513 0.013231514981239409 0 0.03969819764512366 0.013338047081735882 0 0.040134812726851418 0.0122403602108812 0 0.038749810734219389 0.010012151600894741 0 0.045250292930400574 0.013355178273727003 0 0.041938136676609353 0.014335672380281932 0 0.044446373078877034 0.011940478683979888 0 0.041561301879182021 0.01202619390676516 0 0.044446373078877034 0.011940478683979888 0 0.041698488218899092 0.010141388136377572 0 0.043657131386989748 0.0091645997110921737 0 0.044446373078877034 0.011940478683979888 0 0.041561301879182021 0.01202619390676516 0 0.041698488218899092 0.010141388136377572 0 0.041561301879182021 0.01202619390676516 0 0.041698488218899092 0.010141388136377572 0 0.039545683662357778 0.010895740927802131 0 0.041561301879182021 0.01202619390676516 0 0.039545683662357778 0.010895740927802131 0 0.040134812726851418 0.0122403602108812 0 0.041698488218899092 0.010141388136377572 0 0.041409078409521627 0.007682252214740874 0 0.039828357325014205 0.0092812581143538447 0 0.041698488218899092 0.010141388136377572 0 0.039828357325014205 0.0092812581143538447 0 0.039545683662357778 0.010895740927802131 0 0.041698488218899092 0.010141388136377572 0 0.043657131386989748 0.0091645997110921737 0 0.041409078409521627 0.007682252214740874 0 0.044103057172629953 0.0066188716460096348 0 0.043657131386989748 0.0091645997110921737 0 0.041409078409521627 0.007682252214740874 0 0.041409078409521627 0.007682252214740874 0 0.038506016184793879 0.0077886314797365819 0 0.039828357325014205 0.0092812581143538447 0 0.038506016184793879 0.0077886314797365819 0 0.036490800978715883 0.0087230071716863557 0 0.036311129643595917 0.0073820864488254147 0 0.038506016184793879 0.0077886314797365819 0 0.037800420474129785 0.0095972063757676848 0 0.036490800978715883 0.0087230071716863557 0 0.038506016184793879 0.0077886314797365819 0 0.037800420474129785 0.0095972063757676848 0 0.039828357325014205 0.0092812581143538447 0 0.037800420474129785 0.0095972063757676848 0 0.039828357325014205 0.0092812581143538447 0 0.039545683662357778 0.010895740927802131 0 0.039545683662357778 0.010895740927802131 0 0.040134812726851418 0.0122403602108812 0 0.038855002478743191 0.011812496885856344 0 0.037800420474129785 0.0095972063757676848 0 0.039545683662357778 0.010895740927802131 0 0.037350094312446777 0.010947379693771598 0 0.039545683662357778 0.010895740927802131 0 0.037350094312446777 0.010947379693771598 0 0.038855002478743191 0.011812496885856344 0 0.037800420474129785 0.0095972063757676848 0 0.037350094312446777 0.010947379693771598 0 0.036072908520624537 0.009738880800480524 0 0.03774288532897932 0.011948156822643712 0 0.037809759940103729 0.011676494064540247 0 0.036787653573302451 0.011958712703324038 0 0.037350094312446777 0.010947379693771598 0 0.03774288532897932 0.011948156822643712 0 0.038855002478743191 0.011812496885856344 0 0.037350094312446777 0.010947379693771598 0 0.03774288532897932 0.011948156822643712 0 0.036628074788518636 0.011569815648759096 0 0.03774288532897932 0.011948156822643712 0 0.037809759940103729 0.011676494064540247 0 0.037214738787451636 0.011919088152983436 0 0.037943811541520815 0.012131222115005776 0 0.037756056696399087 0.012654466044762462 0 0.03774288532897932 0.011948156822643712 0 0.03969819764512366 0.013338047081735882 0 0.038855002478743191 0.011812496885856344 0 0.03969819764512366 0.013338047081735882 0 0.040134812726851418 0.0122403602108812 0 0.038855002478743191 0.011812496885856344 0 0.035294347214559124 0.011760028054631321 0 0.035610116914815512 0.010769971615416646 0 0.034553605631561735 0.011065142970238221 0 0.034275783222871947 0.011919230685050797 0 0.035294347214559124 0.011760028054631321 0 0.034553605631561735 0.011065142970238221 0 0.034825308245087921 0.012936994143826886 0 0.034275783222871947 0.011919230685050797 0 0.035294347214559124 0.011760028054631321 0 0.036762435450062352 0.012269330680182954 0 0.035847999114827306 0.012342702953425322 0 0.036628074788518636 0.011569815648759096 0 0.035847999114827306 0.012342702953425322 0 0.035294347214559124 0.011760028054631321 0 0.036628074788518636 0.011569815648759096 0 0.03774288532897932 0.011948156822643712 0 0.037214738787451636 0.011919088152983436 0 0.036628074788518636 0.011569815648759096 0 0.036762435450062352 0.012269330680182954 0 0.037214738787451636 0.011919088152983436 0 0.036628074788518636 0.011569815648759096 0 0.035294347214559124 0.011760028054631321 0 0.036628074788518636 0.011569815648759096 0 0.035610116914815512 0.010769971615416646 0 0.037350094312446777 0.010947379693771598 0 0.036628074788518636 0.011569815648759096 0 0.035610116914815512 0.010769971615416646 0 0.037350094312446777 0.010947379693771598 0 0.035610116914815512 0.010769971615416646 0 0.036072908520624537 0.009738880800480524 0 0.035610116914815512 0.010769971615416646 0 0.03433969933660546 0.009844669717066901 0 0.036072908520624537 0.009738880800480524 0 0.035610116914815512 0.010769971615416646 0 0.034553605631561735 0.011065142970238221 0 0.03433969933660546 0.009844669717066901 0 0.03433969933660546 0.009844669717066901 0 0.036072908520624537 0.009738880800480524 0 0.035084144271004661 0.0085366691957192153 0 0.033808362514641137 0.0082251867942692309 0 0.03433969933660546 0.009844669717066901 0 0.035084144271004661 0.0085366691957192153 0 0.037800420474129785 0.0095972063757676848 0 0.036072908520624537 0.009738880800480524 0 0.036490800978715883 0.0087230071716863557 0 0.036072908520624537 0.009738880800480524 0 0.036490800978715883 0.0087230071716863557 0 0.035084144271004661 0.0085366691957192153 0 0.036490800978715883 0.0087230071716863557 0 0.035084144271004661 0.0085366691957192153 0 0.036311129643595917 0.0073820864488254147 0 0.035084144271004661 0.0085366691957192153 0 0.034600902944937589 0.0071742558856479986 0 0.036311129643595917 0.0073820864488254147 0 0.033808362514641137 0.0082251867942692309 0 0.035084144271004661 0.0085366691957192153 0 0.034600902944937589 0.0071742558856479986 0 0.033808362514641137 0.0082251867942692309 0 0.033322570050619206 0.0069286472704234081 0 0.034600902944937589 0.0071742558856479986 0 0.034600902944937589 0.0071742558856479986 0 0.033634420430892709 0.0059716057061364024 0 0.035561812786937153 0.0064818296238811895 0 0.033322570050619206 0.0069286472704234081 0 0.034600902944937589 0.0071742558856479986 0 0.033634420430892709 0.0059716057061364024 0 0.033634420430892709 0.0059716057061364024 0 0.035561812786937153 0.0064818296238811895 0 0.035090162922670157 0.0055079839232450361 0 0.036103041222378382 0.0054711966174613149 0 0.037972070259098448 0.0046182918515439257 0 0.035814626777761982 0.0038444455367182984 0 0.035267909857210622 0.0028902001420757356 0 0.036819733167893526 0.022307664604603757 0 0.035267909857210622 0.0028902001420757356 0 0.036438380011535043 0.0083697408328784906 0 0.034600902944937589 0.0071742558856479986 0 0.035561812786937153 0.0064818296238811895 0 0.036311129643595917 0.0073820864488254147 0 0.036103041222378382 0.0054711966174613149 0 0.036311129643595917 0.0073820864488254147 0 0.037642422695015165 0.0061088703718697413 0 0.038506016184793879 0.0077886314797365819 0 0.036311129643595917 0.0073820864488254147 0 0.037642422695015165 0.0061088703718697413 0 0.038506016184793879 0.0077886314797365819 0 0.037642422695015165 0.0061088703718697413 0 0.03975927726874795 0.005687686559160814 0 0.041409078409521627 0.007682252214740874 0 0.038506016184793879 0.0077886314797365819 0 0.03975927726874795 0.005687686559160814 0 0.040178601530098064 0.0038483642906425421 0 0.03975927726874795 0.005687686559160814 0 0.037972070259098448 0.0046182918515439257 0 0.037642422695015165 0.0061088703718697413 0 0.03975927726874795 0.005687686559160814 0 0.037972070259098448 0.0046182918515439257 0 0.036103041222378382 0.0054711966174613149 0 0.037642422695015165 0.0061088703718697413 0 0.037972070259098448 0.0046182918515439257 0 0.039823781865101528 0.020707147700498557 0 0.036819733167893526 0.022307664604603757 0 0.037972070259098448 0.0046182918515439257 0 0.038405989850152103 0.0028555401538863634 0 0.035814626777761982 0.0038444455367182984 0 0.040855937473160998 0.03891174224506886 0 0.039807090775160384 0.038292952291114707 0 0.039111950060932266 0.039242120997782175 0 0.040178601530098064 0.0038483642906425421 0 0.037972070259098448 0.0046182918515439257 0 0.038405989850152103 0.0028555401538863634 0 0.040849803638288447 0.0018688710996620237 0 0.040178601530098064 0.0038483642906425421 0 0.038405989850152103 0.0028555401538863634 0 0.043266947821421382 0.038463100772184178 0 0.040855937473160998 0.03891174224506886 0 0.040707250235761869 0.037510217466661819 0 0.042064709009251168 0.020490769740621927 0 0.039823781865101528 0.020707147700498557 0 0.039807090775160384 0.038292952291114707 0 0.039532012472019699 0.037535800752722184 0 0.040707250235761869 0.037510217466661819 0 0.040855937473160998 0.03891174224506886 0 0.039807090775160384 0.038292952291114707 0 0.040707250235761869 0.037510217466661819 0 0.039807090775160384 0.038292952291114707 0 0.038918861472289422 0.038208894742632123 0 0.039532012472019699 0.037535800752722184 0 0.039807090775160384 0.038292952291114707 0 0.038918861472289422 0.038208894742632123 0 0.039111950060932266 0.039242120997782175 0 0.034948415443429727 0.038823201661872822 0 0.03449650053353915 0.037210066021781486 0 0.035510966101796784 0.037663132658644974 0 0.034948415443429727 0.038823201661872822 0 0.036408224751784478 0.038186858041624853 0 0.035510966101796784 0.037663132658644974 0 0.034948415443429727 0.038823201661872822 0 0.035195612994082838 0.040099358402021938 0 0.03677628345667313 0.039525496229117607 0 0.034948415443429727 0.038823201661872822 0 0.036408224751784478 0.038186858041624853 0 0.03677628345667313 0.039525496229117607 0 0.035022201006777748 0.022944495516956039 0 0.036819733167893526 0.022307664604603757 0 0.038233030361320697 0.041202259898595446 0 0.036819733167893526 0.022307664604603757 0 0.036635538827675035 0.037193762813540872 0 0.034956352531512497 0.038963101116924172 0 0.037825171109344059 0.037801254502099306 0 0.035455357067602583 0.037200749561037763 0 0.036635538827675035 0.037193762813540872 0 0.034956352531512497 0.038963101116924172 0 0.036635538827675035 0.037193762813540872 0 0.037169004398017604 0.036075402390330157 0 0.037825171109344059 0.037801254502099306 0 0.036635538827675035 0.037193762813540872 0 0.037169004398017604 0.036075402390330157 0 0.035994446125228612 0.035951966680097529 0 0.035455357067602583 0.037200749561037763 0 0.036635538827675035 0.037193762813540872 0 0.035994446125228612 0.035951966680097529 0 0.035455357067602583 0.037200749561037763 0 0.034571771511364889 0.037220816914865333 0 0.033267893096875514 0.036238133987114035 0 0.033347958186068678 0.036891548114910321 0 0.034571771511364889 0.037220816914865333 0 0.033606826367083467 0.037306407843791016 0 0.034571771511364889 0.037220816914865333 0 0.033606826367083467 0.037306407843791016 0 0.033722152629142937 0.037717887019512834 0 0.035455357067602583 0.037200749561037763 0 0.034571771511364889 0.037220816914865333 0 0.034956352531512497 0.038963101116924172 0 0.03490276994246707 0.037637976185407526 0 0.035969865151235673 0.037113923526428234 0 0.034571771511364889 0.037220816914865333 0 0.033722152629142937 0.037717887019512834 0 0.034497931265932189 0.038116966488888779 0 0.038233030361320697 0.041202259898595446 0 0.035969865151235673 0.037113923526428234 0 0.033710171549187727 0.037810763351958904 0 0.035969865151235673 0.037113923526428234 0 0.03449650053353915 0.037210066021781486 0 0.035510966101796784 0.037663132658644974 0 0.036096098600390945 0.036614339090675928 0 0.036408224751784478 0.038186858041624853 0 0.035510966101796784 0.037663132658644974 0 0.036096098600390945 0.036614339090675928 0 0.033157316097927693 0.038288960407201131 0 0.033722152629142937 0.037717887019512834 0 0.034497931265932189 0.038116966488888779 0 0.035969865151235673 0.037113923526428234 0 0.038920710784465427 0.037209066405010698 0 0.038918861472289422 0.038208894742632123 0 0.03868855883111743 0.037095387396753318 0 0.039532012472019699 0.037535800752722184 0 0.03868855883111743 0.037095387396753318 0 0.039532012472019699 0.037535800752722184 0 0.039797749336610261 0.036665046644849326 0 0.039532012472019699 0.037535800752722184 0 0.040707250235761869 0.037510217466661819 0 0.039797749336610261 0.036665046644849326 0 0.043266947821421382 0.038463100772184178 0 0.040707250235761869 0.037510217466661819 0 0.042008898822117634 0.036892337855413813 0 0.040707250235761869 0.037510217466661819 0 0.042008898822117634 0.036892337855413813 0 0.040615427612561185 0.036250055434950565 0 0.042008898822117634 0.036892337855413813 0 0.040615427612561185 0.036250055434950565 0 0.042938278026035413 0.03552809365422941 0 0.040707250235761869 0.037510217466661819 0 0.040615427612561185 0.036250055434950565 0 0.039797749336610261 0.036665046644849326 0 0.040615427612561185 0.036250055434950565 0 0.037825171109344059 0.037801254502099306 0 0.038757975240625409 0.03566013744732504 0 0.04041197716142457 0.036405425782776592 0 0.038920710784465427 0.037209066405010698 0 0.037169004398017604 0.036075402390330157 0 0.037825171109344059 0.037801254502099306 0 0.038757975240625409 0.03566013744732504 0 0.038757975240625409 0.03566013744732504 0 0.03983479691641429 0.034570809921240717 0 0.037705009360544946 0.034668785970854016 0 0.040615427612561185 0.036250055434950565 0 0.038757975240625409 0.03566013744732504 0 0.03983479691641429 0.034570809921240717 0 0.037169004398017604 0.036075402390330157 0 0.038757975240625409 0.03566013744732504 0 0.037705009360544946 0.034668785970854016 0 0.03983479691641429 0.034570809921240717 0 0.038665482845259017 0.033791091779051666 0 0.037705009360544946 0.034668785970854016 0 0.040615427612561185 0.036250055434950565 0 0.041468010025718149 0.034709272491668143 0 0.042938278026035413 0.03552809365422941 0 0.040615427612561185 0.036250055434950565 0 0.03983479691641429 0.034570809921240717 0 0.041468010025718149 0.034709272491668143 0 0.03983479691641429 0.034570809921240717 0 0.041468010025718149 0.034709272491668143 0 0.041047870697337001 0.033379588143804914 0 0.039445706223666166 0.032826134930297027 0 0.041047870697337001 0.033379588143804914 0 0.040541363520925029 0.031875823636088742 0 0.03983479691641429 0.034570809921240717 0 0.039445706223666166 0.032826134930297027 0 0.041047870697337001 0.033379588143804914 0 0.038665482845259017 0.033791091779051666 0 0.037695548570566444 0.033188172223572454 0 0.037705009360544946 0.034668785970854016 0 0.03983479691641429 0.034570809921240717 0 0.039445706223666166 0.032826134930297027 0 0.038665482845259017 0.033791091779051666 0 0.039445706223666166 0.032826134930297027 0 0.038665482845259017 0.033791091779051666 0 0.037695548570566444 0.033188172223572454 0 0.037695548570566444 0.033188172223572454 0 0.036094032614205393 0.033670738747864852 0 0.037705009360544946 0.034668785970854016 0 0.037695548570566444 0.033188172223572454 0 0.036094032614205393 0.033670738747864852 0 0.036243162864457147 0.03238814953768742 0 0.036094032614205393 0.033670738747864852 0 0.037705009360544946 0.034668785970854016 0 0.036292157796209451 0.03495576929956392 0 0.037169004398017604 0.036075402390330157 0 0.036292157796209451 0.03495576929956392 0 0.035994446125228612 0.035951966680097529 0 0.037169004398017604 0.036075402390330157 0 0.037705009360544946 0.034668785970854016 0 0.036292157796209451 0.03495576929956392 0 0.036292157796209451 0.03495576929956392 0 0.035994446125228612 0.035951966680097529 0 0.034887892150548556 0.034529099392804512 0 0.035455357067602583 0.037200749561037763 0 0.035994446125228612 0.035951966680097529 0 0.034887892150548556 0.034529099392804512 0 0.033347958186068678 0.036891548114910321 0 0.034571771511364889 0.037220816914865333 0 0.033267893096875514 0.036238133987114035 0 0.035416725882388513 0.037207194811298937 0 0.034141606737234639 0.035490345362621176 0 0.03390900679753199 0.032968026164016298 0 0.036094032614205393 0.033670738747864852 0 0.034887892150548556 0.034529099392804512 0 0.036094032614205393 0.033670738747864852 0 0.036292157796209451 0.03495576929956392 0 0.034887892150548556 0.034529099392804512 0 0.03390900679753199 0.032968026164016298 0 0.036094032614205393 0.033670738747864852 0 0.036243162864457147 0.03238814953768742 0 0.03390900679753199 0.032968026164016298 0 0.036243162864457147 0.03238814953768742 0 0.034728501985022635 0.031665829301411083 0 0.037695548570566444 0.033188172223572454 0 0.036243162864457147 0.03238814953768742 0 0.038936104494375685 0.031197264987669247 0 0.036243162864457147 0.03238814953768742 0 0.036698514464565166 0.031122815534335015 0 0.038936104494375685 0.031197264987669247 0 0.036243162864457147 0.03238814953768742 0 0.036698514464565166 0.031122815534335015 0 0.034728501985022635 0.031665829301411083 0 0.036698514464565166 0.031122815534335015 0 0.034728501985022635 0.031665829301411083 0 0.035739728310293033 0.030300456939811132 0 0.033708730813731672 0.031032117321311673 0 0.034728501985022635 0.031665829301411083 0 0.035739728310293033 0.030300456939811132 0 0.03393107953223453 0.031943725235907258 0 0.035943723154904926 0.031412334381315507 0 0.036698514464565166 0.031122815534335015 0 0.035739728310293033 0.030300456939811132 0 0.038030390678523172 0.030054875441244078 0 0.036134148918512805 0.032520971201025838 0 0.037428570077767537 0.031274925946763489 0 0.038094735540370524 0.03181133522594308 0 0.035943723154904926 0.031412334381315507 0 0.038025262710291524 0.030902492344466674 0 0.036134148918512805 0.032520971201025838 0 0.037428570077767537 0.031274925946763489 0 0.036179581524201712 0.031298847559397387 0 0.037428570077767537 0.031274925946763489 0 0.036179581524201712 0.031298847559397387 0 0.037501117453595335 0.030474647408967766 0 0.034098439670471763 0.032789820600775392 0 0.036134148918512805 0.032520971201025838 0 0.036179581524201712 0.031298847559397387 0 0.034098439670471763 0.032789820600775392 0 0.036179581524201712 0.031298847559397387 0 0.035062294016368969 0.030809007281694459 0 0.037428570077767537 0.031274925946763489 0 0.039097981522380705 0.030593689779053426 0 0.037501117453595335 0.030474647408967766 0 0.037428570077767537 0.031274925946763489 0 0.039097981522380705 0.030593689779053426 0 0.038094735540370524 0.03181133522594308 0 0.038025262710291524 0.030902492344466674 0 0.039739824624890077 0.030515960366696283 0 0.039097981522380705 0.030593689779053426 0 0.038094735540370524 0.03181133522594308 0 0.040003394174418783 0.030358093188721125 0 0.039097981522380705 0.030593689779053426 0 0.040003394174418783 0.030358093188721125 0 0.040561270568403703 0.029948836594023899 0 0.040003394174418783 0.030358093188721125 0 0.040458774608920244 0.030684644611242391 0 0.038936104494375685 0.031197264987669247 0 0.040458774608920244 0.030684644611242391 0 0.038936104494375685 0.031197264987669247 0 0.040541363520925029 0.031875823636088742 0 0.036698514464565166 0.031122815534335015 0 0.038030390678523172 0.030054875441244078 0 0.038936104494375685 0.031197264987669247 0 0.038030390678523172 0.030054875441244078 0 0.040003394174418783 0.030358093188721125 0 0.038936104494375685 0.031197264987669247 0 0.039445706223666166 0.032826134930297027 0 0.037695548570566444 0.033188172223572454 0 0.038936104494375685 0.031197264987669247 0 0.039445706223666166 0.032826134930297027 0 0.038936104494375685 0.031197264987669247 0 0.040541363520925029 0.031875823636088742 0 0.040541363520925029 0.031875823636088742 0 0.041437071604178401 0.031288001245299277 0 0.042253852941627978 0.032439864876718683 0 0.041437071604178401 0.031288001245299277 0 0.042933233878105895 0.031566916120690611 0 0.041332565223354031 0.03004065063857423 0 0.041437071604178401 0.031288001245299277 0 0.042933233878105895 0.031566916120690611 0 0.042253852941627978 0.032439864876718683 0 0.040458774608920244 0.030684644611242391 0 0.040541363520925029 0.031875823636088742 0 0.041437071604178401 0.031288001245299277 0 0.042933233878105895 0.031566916120690611 0 0.045440873669820921 0.031067957358821941 0 0.044048226115057272 0.032953847668694053 0 0.042933233878105895 0.031566916120690611 0 0.041332565223354031 0.03004065063857423 0 0.045440873669820921 0.031067957358821941 0 0.042933233878105895 0.031566916120690611 0 0.044048226115057272 0.032953847668694053 0 0.042253852941627978 0.032439864876718683 0 0.041332565223354031 0.03004065063857423 0 0.044589302437837562 0.02770710772657467 0 0.046431656408071245 0.029896569754647245 0 0.041332565223354031 0.03004065063857423 0 0.041551547374029163 0.028852951852483977 0 0.044589302437837562 0.02770710772657467 0 0.041572321507362446 0.029860957270991598 0 0.045808355073960999 0.030495755820971842 0 0.040458774608920244 0.030684644611242391 0 0.041437071604178401 0.031288001245299277 0 0.041332565223354031 0.03004065063857423 0 0.041332565223354031 0.03004065063857423 0 0.040747966372106821 0.029841282847946429 0 0.041551547374029163 0.028852951852483977 0 0.040003394174418783 0.030358093188721125 0 0.040458774608920244 0.030684644611242391 0 0.040747966372106821 0.029841282847946429 0 0.040458774608920244 0.030684644611242391 0 0.041332565223354031 0.03004065063857423 0 0.040747966372106821 0.029841282847946429 0 0.040561270568403703 0.029948836594023899 0 0.041551547374029163 0.028852951852483977 0 0.040435431667889293 0.030134070230561562 0 0.040003394174418783 0.030358093188721125 0 0.040747966372106821 0.029841282847946429 0 0.040561270568403703 0.029948836594023899 0 0.040747966372106821 0.029841282847946429 0 0.040561270568403703 0.029948836594023899 0 0.041551547374029163 0.028852951852483977 0 0.041551547374029163 0.028852951852483977 0 0.040435431667889293 0.030134070230561562 0 0.039561267445875216 0.030271615253717313 0 0.041551547374029163 0.028852951852483977 0 0.044589302437837562 0.02770710772657467 0 0.045172541239773711 0.025890525659746162 0 0.041551547374029163 0.028852951852483977 0 0.045580325819196355 0.024565446409702686 0 0.045172541239773711 0.025890525659746162 0 0.041568398939011264 0.028886024171202434 0 0.042520720881102335 0.027007125514305685 0 0.040435431667889293 0.030134070230561562 0 0.039942343988177448 0.030421606831672818 0 0.039561267445875216 0.030271615253717313 0 0.040435431667889293 0.030134070230561562 0 0.039942343988177448 0.030421606831672818 0 0.039962893179695223 0.030664875154181537 0 0.039942343988177448 0.030421606831672818 0 0.03979314501402028 0.030538562264144722 0 0.039962893179695223 0.030664875154181537 0 0.040435431667889293 0.030134070230561562 0 0.040209296053338436 0.030402217311706281 0 0.039962893179695223 0.030664875154181537 0 0.040561270568403703 0.029948836594023899 0 0.040435431667889293 0.030134070230561562 0 0.040209296053338436 0.030402217311706281 0 0.039097981522380705 0.030593689779053426 0 0.040561270568403703 0.029948836594023899 0 0.040209296053338436 0.030402217311706281 0 0.05026965647340495 0.02286297032737163 0 0.048435753766884262 0.023509798036781313 0 0.051675465285790236 0.021325070745204691 0 0.047425589980133853 0.024830858382590644 0 0.047126384622839357 0.025713085999999011 0 0.049823493769589271 0.023672843773451534 0 0.047390323007123016 0.02392531205027585 0 0.045580325819196355 0.024565446409702686 0 0.048021986038043973 0.022753950109017127 0 0.047125494952808614 0.024539285168138487 0 0.047390323007123016 0.02392531205027585 0 0.048793325737935649 0.023730313820852333 0 0.047125494952808614 0.024539285168138487 0 0.047390323007123016 0.02392531205027585 0 0.045580325819196355 0.024565446409702686 0 0.047194661721261799 0.024664362022879045 0 0.050305001533837997 0.025830996951257259 0 0.048047392029543515 0.024189247550326011 0 0.050305001533837997 0.025830996951257259 0 0.042520720881102335 0.027007125514305685 0 0.044800278449542201 0.029531792989440146 0 0.05026965647340495 0.02286297032737163 0 0.048435753766884262 0.023509798036781313 0 0.049801029475359943 0.023947885228720163 0 0.05026965647340495 0.02286297032737163 0 0.050600544174567295 0.023531426510334394 0 0.049801029475359943 0.023947885228720163 0 0.05026965647340495 0.02286297032737163 0 0.050600544174567295 0.023531426510334394 0 0.050788874218260907 0.022942422487825288 0 0.05026965647340495 0.02286297032737163 0 0.051127634169101759 0.022348360306926711 0 0.050788874218260907 0.022942422487825288 0 0.047125494952808614 0.024539285168138487 0 0.045580325819196355 0.024565446409702686 0 0.045172541239773711 0.025890525659746162 0 0.03979314501402028 0.030538562264144722 0 0.039561267445875216 0.030271615253717313 0 0.039690668348140751 0.030752537534994677 0 0.047194661721261799 0.024664362022879045 0 0.045365150799919214 0.025737950237969289 0 0.047425589980133853 0.024830858382590644 0 0.045172541239773711 0.025890525659746162 0 0.047126384622839357 0.025713085999999011 0 0.039942343988177448 0.030421606831672818 0 0.03979314501402028 0.030538562264144722 0 0.039561267445875216 0.030271615253717313 0 0.044589302437837562 0.02770710772657467 0 0.047306742822110545 0.02628291486004471 0 0.048435753766884262 0.023509798036781313 0 0.044589302437837562 0.02770710772657467 0 0.045172541239773711 0.025890525659746162 0 0.047126384622839357 0.025713085999999011 0 0.044678907141160851 0.027541681198647593 0 0.048047392029543515 0.024189247550326011 0 0.047306742822110545 0.02628291486004471 0 0.048848952023338006 0.025143424438924561 0 0.048645554593663883 0.026413268737836795 0 0.048848952023338006 0.025143424438924561 0 0.049790566034759239 0.025483870067948056 0 0.048645554593663883 0.026413268737836795 0 0.047306742822110545 0.02628291486004471 0 0.048848952023338006 0.025143424438924561 0 0.048435753766884262 0.023509798036781313 0 0.048848952023338006 0.025143424438924561 0 0.049801029475359943 0.023947885228720163 0 0.049790566034759239 0.025483870067948056 0 0.048848952023338006 0.025143424438924561 0 0.048435753766884262 0.023509798036781313 0 0.049801029475359943 0.023947885228720163 0 0.049801029475359943 0.023947885228720163 0 0.050746527643722304 0.024519596066603779 0 0.049790566034759239 0.025483870067948056 0 0.050600544174567295 0.023531426510334394 0 0.049801029475359943 0.023947885228720163 0 0.050746527643722304 0.024519596066603779 0 0.050746527643722304 0.024519596066603779 0 0.049790566034759239 0.025483870067948056 0 0.051237566508300782 0.02565090826109279 0 0.049744025580520705 0.027005726765427843 0 0.050246676282472036 0.028034523690830045 0 0.052199892418244694 0.026661603294236214 0 0.049790566034759239 0.025483870067948056 0 0.049744025580520705 0.027005726765427843 0 0.051237566508300782 0.02565090826109279 0 0.049790566034759239 0.025483870067948056 0 0.049744025580520705 0.027005726765427843 0 0.048645554593663883 0.026413268737836795 0 0.049744025580520705 0.027005726765427843 0 0.048645554593663883 0.026413268737836795 0 0.047470393362766199 0.028000661416323451 0 0.049744025580520705 0.027005726765427843 0 0.047470393362766199 0.028000661416323451 0 0.050246676282472036 0.028034523690830045 0 0.044589302437837562 0.02770710772657467 0 0.047470393362766199 0.028000661416323451 0 0.046431656408071245 0.029896569754647245 0 0.044589302437837562 0.02770710772657467 0 0.047306742822110545 0.02628291486004471 0 0.047470393362766199 0.028000661416323451 0 0.047306742822110545 0.02628291486004471 0 0.048645554593663883 0.026413268737836795 0 0.047470393362766199 0.028000661416323451 0 0.047470393362766199 0.028000661416323451 0 0.046431656408071245 0.029896569754647245 0 0.050246676282472036 0.028034523690830045 0 0.045808355073960999 0.030495755820971842 0 0.04980896057541908 0.030550591287358667 0 0.046431656408071245 0.029896569754647245 0 0.050246676282472036 0.028034523690830045 0 0.051376200560809951 0.029249732431277944 0 0.045440873669820921 0.031067957358821941 0 0.046425670541621042 0.033690513855604835 0 0.048543633928928395 0.032348599271514622 0 0.046425670541621042 0.033690513855604835 0 0.046409711678709283 0.035952552806275302 0 0.048958334676101924 0.034713312215155674 0 0.046425670541621042 0.033690513855604835 0 0.048958334676101924 0.034713312215155674 0 0.048543633928928395 0.032348599271514622 0 0.046425670541621042 0.033690513855604835 0 0.044565964589072277 0.034641963615831592 0 0.046409711678709283 0.035952552806275302 0 0.046425670541621042 0.033690513855604835 0 0.044048226115057272 0.032953847668694053 0 0.044565964589072277 0.034641963615831592 0 0.045440873669820921 0.031067957358821941 0 0.046425670541621042 0.033690513855604835 0 0.044048226115057272 0.032953847668694053 0 0.044048226115057272 0.032953847668694053 0 0.042253852941627978 0.032439864876718683 0 0.04276342580728746 0.033922620435277329 0 0.041047870697337001 0.033379588143804914 0 0.040541363520925029 0.031875823636088742 0 0.042253852941627978 0.032439864876718683 0 0.041047870697337001 0.033379588143804914 0 0.042253852941627978 0.032439864876718683 0 0.04276342580728746 0.033922620435277329 0 0.041468010025718149 0.034709272491668143 0 0.04276342580728746 0.033922620435277329 0 0.042938278026035413 0.03552809365422941 0 0.041468010025718149 0.034709272491668143 0 0.041047870697337001 0.033379588143804914 0 0.04276342580728746 0.033922620435277329 0 0.044048226115057272 0.032953847668694053 0 0.04276342580728746 0.033922620435277329 0 0.044565964589072277 0.034641963615831592 0 0.04276342580728746 0.033922620435277329 0 0.044565964589072277 0.034641963615831592 0 0.042938278026035413 0.03552809365422941 0 0.04443110272297858 0.035786077501696996 0 0.045174893976603077 0.036547248504501029 0 0.046409711678709283 0.035952552806275302 0 0.044565964589072277 0.034641963615831592 0 0.04443110272297858 0.035786077501696996 0 0.046409711678709283 0.035952552806275302 0 0.044565964589072277 0.034641963615831592 0 0.04443110272297858 0.035786077501696996 0 0.042938278026035413 0.03552809365422941 0 0.04443110272297858 0.035786077501696996 0 0.042938278026035413 0.03552809365422941 0 0.043703249789682916 0.03661014947141996 0 0.04443110272297858 0.035786077501696996 0 0.045174893976603077 0.036547248504501029 0 0.043703249789682916 0.03661014947141996 0 0.042008898822117634 0.036892337855413813 0 0.042938278026035413 0.03552809365422941 0 0.043703249789682916 0.03661014947141996 0 0.043266947821421382 0.038463100772184178 0 0.042008898822117634 0.036892337855413813 0 0.043703249789682916 0.03661014947141996 0 0.043266947821421382 0.038463100772184178 0 0.044598514896845007 0.037292896486169395 0 0.046344401917114433 0.037620306026017791 0 0.043266947821421382 0.038463100772184178 0 0.043703249789682916 0.03661014947141996 0 0.044598514896845007 0.037292896486169395 0 0.045174893976603077 0.036547248504501029 0 0.043703249789682916 0.03661014947141996 0 0.044598514896845007 0.037292896486169395 0 0.045174893976603077 0.036547248504501029 0 0.044598514896845007 0.037292896486169395 0 0.046344401917114433 0.037620306026017791 0 0.046344401917114433 0.037620306026017791 0 0.046409711678709283 0.035952552806275302 0 0.048837717731584837 0.036645519190373448 0 0.045174893976603077 0.036547248504501029 0 0.046344401917114433 0.037620306026017791 0 0.046409711678709283 0.035952552806275302 0 0.050366532022914655 0.012314990695195153 0 0.04853057202772524 0.012306768327934009 0 0.049899172852581761 0.011878561335270663 0 0.044581415839359172 0.016829079591835699 0 0.049831945425695315 0.02535577498533555 0 0.046409711678709283 0.035952552806275302 0 0.048837717731584837 0.036645519190373448 0 0.048958334676101924 0.034713312215155674 0 0.051136971339452962 0.035710720680863443 0 0.048837717731584837 0.036645519190373448 0 0.048958334676101924 0.034713312215155674 0 0.050777552331886237 0.023402310097027628 0 0.049831945425695315 0.02535577498533555 0 0.050366532022914655 0.012314990695195153 0 0.049899172852581761 0.011878561335270663 0 0.051066729540291123 0.012435523215390033 0 0.051438864718199993 0.011441008808193411 0 0.049899172852581761 0.011878561335270663 0 0.051066729540291123 0.012435523215390033 0 0.051438864718199993 0.011441008808193411 0 0.051066729540291123 0.012435523215390033 0 0.052046865490024248 0.012718992548617799 0 0.051438864718199993 0.011441008808193411 0 0.052046865490024248 0.012718992548617799 0 0.053196948134796515 0.012338227793082896 0 0.05363375816195342 0.014077001195336532 0 0.052046865490024248 0.012718992548617799 0 0.053196948134796515 0.012338227793082896 0 0.053196948134796515 0.012338227793082896 0 0.054553902057258574 0.012274365051811915 0 0.055228946169726005 0.013578610097434446 0 0.05363375816195342 0.014077001195336532 0 0.053196948134796515 0.012338227793082896 0 0.055228946169726005 0.013578610097434446 0 0.053196948134796515 0.012338227793082896 0 0.054553902057258574 0.012274365051811915 0 0.053831678927623992 0.010618100528320941 0 0.054553902057258574 0.012274365051811915 0 0.053831678927623992 0.010618100528320941 0 0.055912344531414741 0.011604269009193745 0 0.050777552331886237 0.023402310097027628 0 0.055965817906125551 0.023260235739090199 0 0.051438864718199993 0.011441008808193411 0 0.053196948134796515 0.012338227793082896 0 0.053831678927623992 0.010618100528320941 0 0.051136971339452962 0.035710720680863443 0 0.053651641349677544 0.034682136231729492 0 0.051160478616449345 0.033572186712773691 0 0.055525098943551732 0.026947553332126256 0 0.055213815004186199 0.026671280247249615 0 0.054177832988827342 0.027838448937966505 0 0.055965817906125551 0.023260235739090199 0 0.052541690280189186 0.031886645582003305 0 0.055525098943551732 0.026947553332126256 0 0.055213815004186199 0.026671280247249615 0 0.055962276459317631 0.025609309417317299 0 0.055213815004186199 0.026671280247249615 0 0.055048517480201578 0.02647967144533965 0 0.055762996865140663 0.025752732083841549 0 0.055213815004186199 0.026671280247249615 0 0.055762996865140663 0.025752732083841549 0 0.055962276459317631 0.025609309417317299 0 0.055213815004186199 0.026671280247249615 0 0.054097531169248161 0.02735940036170198 0 0.055048517480201578 0.02647967144533965 0 0.055213815004186199 0.026671280247249615 0 0.054097531169248161 0.02735940036170198 0 0.054177832988827342 0.027838448937966505 0 0.054097531169248161 0.02735940036170198 0 0.054177832988827342 0.027838448937966505 0 0.051376200560809951 0.029249732431277944 0 0.051136971339452962 0.035710720680863443 0 0.051160478616449345 0.033572186712773691 0 0.048958334676101924 0.034713312215155674 0 0.051160478616449345 0.033572186712773691 0 0.048958334676101924 0.034713312215155674 0 0.048543633928928395 0.032348599271514622 0 0.052541690280189186 0.031886645582003305 0 0.04980896057541908 0.030550591287358667 0 0.050246676282472036 0.028034523690830045 0 0.051376200560809951 0.029249732431277944 0 0.052981226137820893 0.027349333887050225 0 0.054097531169248161 0.02735940036170198 0 0.051376200560809951 0.029249732431277944 0 0.052981226137820893 0.027349333887050225 0 0.054097531169248161 0.02735940036170198 0 0.052981226137820893 0.027349333887050225 0 0.054531940428796777 0.026469999777205395 0 0.052981226137820893 0.027349333887050225 0 0.053877873127386677 0.026101724297320588 0 0.054531940428796777 0.026469999777205395 0 0.053877873127386677 0.026101724297320588 0 0.055077464032711985 0.025605694989737134 0 0.054531940428796777 0.026469999777205395 0 0.052981226137820893 0.027349333887050225 0 0.053877873127386677 0.026101724297320588 0 0.052199892418244694 0.026661603294236214 0 0.053877873127386677 0.026101724297320588 0 0.052199892418244694 0.026661603294236214 0 0.052976519548407652 0.025272852814500823 0 0.053877873127386677 0.026101724297320588 0 0.054576549368554203 0.025232567323885544 0 0.055077464032711985 0.025605694989737134 0 0.049744025580520705 0.027005726765427843 0 0.052199892418244694 0.026661603294236214 0 0.051237566508300782 0.02565090826109279 0 0.050246676282472036 0.028034523690830045 0 0.052981226137820893 0.027349333887050225 0 0.052199892418244694 0.026661603294236214 0 0.052199892418244694 0.026661603294236214 0 0.051237566508300782 0.02565090826109279 0 0.052976519548407652 0.025272852814500823 0 0.050746527643722304 0.024519596066603779 0 0.051237566508300782 0.02565090826109279 0 0.051704282281646176 0.02454295081714741 0 0.050746527643722304 0.024519596066603779 0 0.051704282281646176 0.02454295081714741 0 0.051193268273592774 0.023883105993895818 0 0.051734310370468897 0.023686464002518479 0 0.051193268273592774 0.023883105993895818 0 0.051243277379282602 0.023141971288672611 0 0.051704282281646176 0.02454295081714741 0 0.051734310370468897 0.023686464002518479 0 0.051193268273592774 0.023883105993895818 0 0.050600544174567295 0.023531426510334394 0 0.050746527643722304 0.024519596066603779 0 0.051193268273592774 0.023883105993895818 0 0.050600544174567295 0.023531426510334394 0 0.051193268273592774 0.023883105993895818 0 0.051243277379282602 0.023141971288672611 0 0.051734310370468897 0.023686464002518479 0 0.052525138816935948 0.024047726936412047 0 0.051884791594772585 0.022754533803858671 0 0.052525138816935948 0.024047726936412047 0 0.054039931662872881 0.02432402711653766 0 0.051884791594772585 0.022754533803858671 0 0.051704282281646176 0.02454295081714741 0 0.052525138816935948 0.024047726936412047 0 0.052976519548407652 0.025272852814500823 0 0.051704282281646176 0.02454295081714741 0 0.051734310370468897 0.023686464002518479 0 0.052525138816935948 0.024047726936412047 0 0.051237566508300782 0.02565090826109279 0 0.051704282281646176 0.02454295081714741 0 0.052976519548407652 0.025272852814500823 0 0.053877873127386677 0.026101724297320588 0 0.052976519548407652 0.025272852814500823 0 0.054576549368554203 0.025232567323885544 0 0.052976519548407652 0.025272852814500823 0 0.054576549368554203 0.025232567323885544 0 0.053889617681844401 0.024803009909490893 0 0.053250160347916575 0.025030179986319831 0 0.053257745528723976 0.024939142409714069 0 0.053257745528723976 0.024939142409714069 0 0.053243780216114756 0.025776136752683636 0 0.054576549368554203 0.025232567323885544 0 0.053889617681844401 0.024803009909490893 0 0.054914017002529195 0.024579949310671385 0 0.052525138816935948 0.024047726936412047 0 0.052976519548407652 0.025272852814500823 0 0.054039931662872881 0.02432402711653766 0 0.052199947571166312 0.026447250242668207 0 0.052149594713293668 0.026864348618273345 0 0.052598895343983543 0.026964602997779002 0 0.052199947571166312 0.026447250242668207 0 0.051956249964335607 0.026679414734707328 0 0.052149594713293668 0.026864348618273345 0 0.051956249964335607 0.026679414734707328 0 0.052149594713293668 0.026864348618273345 0 0.051873505850746009 0.027054279434685635 0 0.054039931662872881 0.02432402711653766 0 0.051675465285790236 0.021325070745204691 0 0.051884791594772585 0.022754533803858671 0 0.053257745528723976 0.024939142409714069 0 0.050305001533837997 0.025830996951257259 0 0.05026965647340495 0.02286297032737163 0 0.051675465285790236 0.021325070745204691 0 0.051127634169101759 0.022348360306926711 0 0.051675465285790236 0.021325070745204691 0 0.051884791594772585 0.022754533803858671 0 0.051127634169101759 0.022348360306926711 0 0.051884791594772585 0.022754533803858671 0 0.051127634169101759 0.022348360306926711 0 0.051243277379282602 0.023141971288672611 0 0.051127634169101759 0.022348360306926711 0 0.050788874218260907 0.022942422487825288 0 0.051243277379282602 0.023141971288672611 0 0.050600544174567295 0.023531426510334394 0 0.050788874218260907 0.022942422487825288 0 0.051243277379282602 0.023141971288672611 0 0.051734310370468897 0.023686464002518479 0 0.051884791594772585 0.022754533803858671 0 0.051243277379282602 0.023141971288672611 0 0.056018217426719578 0.024905071785484678 0 0.056782882177886754 0.025162129145348142 0 0.056504428133301275 0.025116303465895221 0 0.056782882177886754 0.025162129145348142 0 0.056365105395102907 0.024859874214382283 0 0.056984985036255216 0.025100483725405937 0 0.056018217426719578 0.024905071785484678 0 0.056782882177886754 0.025162129145348142 0 0.056365105395102907 0.024859874214382283 0 0.056018217426719578 0.024905071785484678 0 0.056365105395102907 0.024859874214382283 0 0.055940197035480851 0.024604669372328355 0 0.054914017002529195 0.024579949310671385 0 0.056018217426719578 0.024905071785484678 0 0.055940197035480851 0.024604669372328355 0 0.051956249964335607 0.026679414734707328 0 0.051873505850746009 0.027054279434685635 0 0.051519729129562271 0.027111716730627525 0 0.053243780216114756 0.025776136752683636 0 0.053867960584214523 0.025342215965634979 0 0.054914017002529195 0.024579949310671385 0 0.056018217426719578 0.024905071785484678 0 0.055514257340981088 0.025057372997692957 0 0.054576549368554203 0.025232567323885544 0 0.054914017002529195 0.024579949310671385 0 0.055514257340981088 0.025057372997692957 0 0.054576549368554203 0.025232567323885544 0 0.055514257340981088 0.025057372997692957 0 0.055077464032711985 0.025605694989737134 0 0.055514257340981088 0.025057372997692957 0 0.055935212049468469 0.025297572062052135 0 0.055077464032711985 0.025605694989737134 0 0.055514257340981088 0.025057372997692957 0 0.056504428133301275 0.025116303465895221 0 0.055935212049468469 0.025297572062052135 0 0.056018217426719578 0.024905071785484678 0 0.055514257340981088 0.025057372997692957 0 0.056504428133301275 0.025116303465895221 0 0.056504428133301275 0.025116303465895221 0 0.055935212049468469 0.025297572062052135 0 0.056456009272755785 0.025033523151057498 0 0.055935212049468469 0.025297572062052135 0 0.056171058929467339 0.025229760284075343 0 0.056456009272755785 0.025033523151057498 0 0.055935212049468469 0.025297572062052135 0 0.055548901673362919 0.025744320984210436 0 0.056171058929467339 0.025229760284075343 0 0.055935212049468469 0.025297572062052135 0 0.055548901673362919 0.025744320984210436 0 0.055077464032711985 0.025605694989737134 0 0.055548901673362919 0.025744320984210436 0 0.055077464032711985 0.025605694989737134 0 0.054531940428796777 0.026469999777205395 0 0.055548901673362919 0.025744320984210436 0 0.054531940428796777 0.026469999777205395 0 0.055048517480201578 0.02647967144533965 0 0.054097531169248161 0.02735940036170198 0 0.054531940428796777 0.026469999777205395 0 0.055048517480201578 0.02647967144533965 0 0.055548901673362919 0.025744320984210436 0 0.056171058929467339 0.025229760284075343 0 0.055762996865140663 0.025752732083841549 0 0.055548901673362919 0.025744320984210436 0 0.055048517480201578 0.02647967144533965 0 0.055762996865140663 0.025752732083841549 0 0.055762996865140663 0.025752732083841549 0 0.05633998962543952 0.024861296670909149 0 0.055962276459317631 0.025609309417317299 0 0.056171058929467339 0.025229760284075343 0 0.055762996865140663 0.025752732083841549 0 0.05633998962543952 0.024861296670909149 0 0.05633998962543952 0.024861296670909149 0 0.056494314690513567 0.023941431012082553 0 0.056437978000853622 0.024240650871986947 0 0.05633998962543952 0.024861296670909149 0 0.056494314690513567 0.023941431012082553 0 0.056586492317886691 0.024690518923447705 0 0.056494314690513567 0.023941431012082553 0 0.056586492317886691 0.024690518923447705 0 0.056480795301650233 0.024470512872195434 0 0.056171058929467339 0.025229760284075343 0 0.05633998962543952 0.024861296670909149 0 0.056586492317886691 0.024690518923447705 0 0.056586492317886691 0.024690518923447705 0 0.056456009272755785 0.025033523151057498 0 0.056823557119297187 0.024889103275726479 0 0.056171058929467339 0.025229760284075343 0 0.056586492317886691 0.024690518923447705 0 0.056456009272755785 0.025033523151057498 0 0.056504428133301275 0.025116303465895221 0 0.056456009272755785 0.025033523151057498 0 0.056823557119297187 0.024889103275726479 0 0.056504428133301275 0.025116303465895221 0 0.056823557119297187 0.024889103275726479 0 0.057163035577177369 0.025230424484506391 0 0.056823557119297187 0.024889103275726479 0 0.056401874004530221 0.025175479882872866 0 0.057163035577177369 0.025230424484506391 0 0.056823557119297187 0.024889103275726479 0 0.056480795301650233 0.024470512872195434 0 0.056401874004530221 0.025175479882872866 0 0.056586492317886691 0.024690518923447705 0 0.056823557119297187 0.024889103275726479 0 0.056480795301650233 0.024470512872195434 0 0.0572709911144395 0.026415802972020508 0 0.057619812869378312 0.026479381351629597 0 0.057345532851090321 0.02701154754597275 0 0.056401874004530221 0.025175479882872866 0 0.057713508422592458 0.025743996168010874 0 0.057163035577177369 0.025230424484506391 0 0.056873702117371222 0.025777008150367989 0 0.057577733426010046 0.026440981106793798 0 0.056401874004530221 0.025175479882872866 0 0.057713508422592458 0.025743996168010874 0 0.057619812869378312 0.026479381351629597 0 0.0572709911144395 0.026415802972020508 0 0.056933929013137874 0.027758330697545391 0 0.057345532851090321 0.02701154754597275 0 0.057713508422592458 0.025743996168010874 0 0.05720362533410929 0.025380968038176029 0 0.057163035577177369 0.025230424484506391 0 0.057713508422592458 0.025743996168010874 0 0.05720362533410929 0.025380968038176029 0 0.056984985036255216 0.025100483725405937 0 0.056782882177886754 0.025162129145348142 0 0.05720362533410929 0.025380968038176029 0 0.056984985036255216 0.025100483725405937 0 0.056782882177886754 0.025162129145348142 0 0.056504428133301275 0.025116303465895221 0 0.057163035577177369 0.025230424484506391 0 0.056782882177886754 0.025162129145348142 0 0.05720362533410929 0.025380968038176029 0 0.057163035577177369 0.025230424484506391 0 0.054999613727567578 0.026142893299585433 0 0.056203404472800582 0.027044268591694589 0 0.056372323868110148 0.025037023383443508 0 0.054999613727567578 0.026142893299585433 0 0.056203404472800582 0.027044268591694589 0 0.054999783364115762 0.028947435322940428 0 0.0572709911144395 0.026415802972020508 0 0.056203404472800582 0.027044268591694589 0 0.056933929013137874 0.027758330697545391 0 0.0572709911144395 0.026415802972020508 0 0.056203404472800582 0.027044268591694589 0 0.056372323868110148 0.025037023383443508 0 0.056873702117371222 0.025777008150367989 0 0.056106487723899701 0.024760220685626944 0 0.056480795301650233 0.024470512872195434 0 0.056401874004530221 0.025175479882872866 0 0.055901036708766852 0.024552530601805816 0 0.054999613727567578 0.026142893299585433 0 0.056372323868110148 0.025037023383443508 0 0.054999970744377263 0.023337205518023933 0 0.055901036708766852 0.024552530601805816 0 0.054999769226448496 0.023337353779416144 0 0.056024037193782551 0.02343331311742811 0 0.054999769226448496 0.023337353779416144 0 0.056024037193782551 0.02343331311742811 0 0.054999718352832017 0.021634907224989525 0 0.056106487723899701 0.024760220685626944 0 0.055000237680918725 0.023337258410914913 0 0.056480795301650233 0.024470512872195434 0 0.055901036708766852 0.024552530601805816 0 0.056024037193782551 0.02343331311742811 0 0.056494314690513567 0.023941431012082553 0 0.056480795301650233 0.024470512872195434 0 0.056024037193782551 0.02343331311742811 0 0.056494314690513567 0.023941431012082553 0 0.056024037193782551 0.02343331311742811 0 0.056188993614373586 0.022545256220634656 0 0.056494314690513567 0.023941431012082553 0 0.056188993614373586 0.022545256220634656 0 0.056437978000853622 0.024240650871986947 0 0.056024037193782551 0.02343331311742811 0 0.056188993614373586 0.022545256220634656 0 0.054999718352832017 0.021634907224989525 0 0.056188993614373586 0.022545256220634656 0 0.054999718352832017 0.021634907224989525 0 0.05500067807989395 0.019936982005145657 0 0.055000041714627877 0.019932899849542773 0 0.056472551251990112 0.0210225622276707 0 0.056188993614373586 0.022545256220634656 0 0.05500067807989395 0.019936982005145657 0 0.056459188613957108 0.023226134440936529 0 0.05499996154221299 0.019931809732583305 0 0.054999711305360632 0.017425269248353619 0 0.057215439285972343 0.01866273371187388 0 0.054999711305360632 0.017425269248353619 0 0.057215439285972343 0.01866273371187388 0 0.056327484620068258 0.016453054005249004 0 0.057215439285972343 0.01866273371187388 0 0.056327484620068258 0.016453054005249004 0 0.057509117701174492 0.016526205334289425 0 0.056188993614373586 0.022545256220634656 0 0.056459188613957108 0.023226134440936529 0 0.056437978000853622 0.024240650871986947 0 0.056459188613957108 0.023226134440936529 0 0.056437978000853622 0.024240650871986947 0 0.056319445000564967 0.025506039863137896 0 0.056437978000853622 0.024240650871986947 0 0.055962276459317631 0.025609309417317299 0 0.056319445000564967 0.025506039863137896 0 0.05633998962543952 0.024861296670909149 0 0.056437978000853622 0.024240650871986947 0 0.055962276459317631 0.025609309417317299 0 0.055965817906125551 0.023260235739090199 0 0.058580475783916029 0.021264074512909854 0 0.055525098943551732 0.026947553332126256 0 0.055962276459317631 0.025609309417317299 0 0.056319445000564967 0.025506039863137896 0 0.057215439285972343 0.01866273371187388 0 0.05967807406118817 0.01759953047617591 0 0.057509117701174492 0.016526205334289425 0 0.05967807406118817 0.01759953047617591 0 0.058926449246936484 0.015981310946248953 0 0.057509117701174492 0.016526205334289425 0 0.056472551251990112 0.0210225622276707 0 0.058580475783916029 0.021264074512909854 0 0.058926449246936484 0.015981310946248953 0 0.060440485545662018 0.015503302180732254 0 0.058067866652609296 0.01402423707131243 0 0.057845072619193243 0.013012502487283487 0 0.058180201037673275 0.013968901340065423 0 0.058926449246936484 0.015981310946248953 0 0.058067866652609296 0.01402423707131243 0 0.057509117701174492 0.016526205334289425 0 0.062374889020607407 0.016630877251472342 0 0.05967807406118817 0.01759953047617591 0 0.060440485545662018 0.015503302180732254 0 0.055965817906125551 0.023260235739090199 0 0.057845072619193243 0.013012502487283487 0 0.05967807406118817 0.01759953047617591 0 0.058926449246936484 0.015981310946248953 0 0.060440485545662018 0.015503302180732254 0 0.054553902057258574 0.012274365051811915 0 0.056534651080121796 0.013361046818626585 0 0.055228946169726005 0.013578610097434446 0 0.054553902057258574 0.012274365051811915 0 0.055912344531414741 0.011604269009193745 0 0.056534651080121796 0.013361046818626585 0 0.056683163047167681 0.01458088234971376 0 0.056534651080121796 0.013361046818626585 0 0.055228946169726005 0.013578610097434446 0 0.055912344531414741 0.011604269009193745 0 0.056534651080121796 0.013361046818626585 0 0.058067866652609296 0.01402423707131243 0 0.056683163047167681 0.01458088234971376 0 0.05740690959593793 0.013929049979036479 0 0.057910272352802591 0.013809232150647109 0 0.056534651080121796 0.013361046818626585 0 0.058067866652609296 0.01402423707131243 0 0.05740690959593793 0.013929049979036479 0 0.056683163047167681 0.01458088234971376 0 0.056534651080121796 0.013361046818626585 0 0.05740690959593793 0.013929049979036479 0 0.058067866652609296 0.01402423707131243 0 0.05740690959593793 0.013929049979036479 0 0.057910272352802591 0.013809232150647109 0 0.056480375954047687 0.013477685114750917 0 0.057910272352802591 0.013809232150647109 0 0.056936936272169676 0.014739288542713513 0 0.058067866652609296 0.01402423707131243 0 0.057910272352802591 0.013809232150647109 0 0.056936936272169676 0.014739288542713513 0 0.056480375954047687 0.013477685114750917 0 0.056936936272169676 0.014739288542713513 0 0.054999942908935631 0.014918639158827253 0 0.054999711305360632 0.017425269248353619 0 0.054999942908935631 0.014918639158827253 0 0.056327484620068258 0.016453054005249004 0 0.056936936272169676 0.014739288542713513 0 0.054999942908935631 0.014918639158827253 0 0.056327484620068258 0.016453054005249004 0 0.056936936272169676 0.014739288542713513 0 0.056327484620068258 0.016453054005249004 0 0.057509117701174492 0.016526205334289425 0 0.058067866652609296 0.01402423707131243 0 0.056936936272169676 0.014739288542713513 0 0.057509117701174492 0.016526205334289425 0 0.057939797141727076 0.038536901242661251 0 0.056247973016353765 0.038458932683594918 0 0.056838243249499383 0.040731101568758699 0 0.057939797141727076 0.038536901242661251 0 0.056247973016353765 0.038458932683594918 0 0.056484679449422072 0.036565089537144761 0 0.056247973016353765 0.038458932683594918 0 0.054999979595621008 0.03961146875393793 0 0.054999976455466525 0.037085617921437934 0 0.054999979595621008 0.03961146875393793 0 0.056838243249499383 0.040731101568758699 0 0.054999977569276909 0.042137368330252202 0 0.056247973016353765 0.038458932683594918 0 0.054999979595621008 0.03961146875393793 0 0.056838243249499383 0.040731101568758699 0 0.057939797141727076 0.038536901242661251 0 0.056838243249499383 0.040731101568758699 0 0.059392303651610807 0.040469329564183726 0 0.056576418640429206 0.034873519146237299 0 0.053855864289200368 0.03264734088816449 0 0.051713535784210313 0.02946430630452164 0 0.053855864289200368 0.03264734088816449 0 0.051226206056854365 0.028059074890352878 0 0.051472181183628389 0.027979714052639965 0 0.051392208468053681 0.028037723121833478 0 0.053855864289200368 0.03264734088816449 0 0.052141872668462902 0.0289633945695753 0 0.051226206056854365 0.028059074890352878 0 0.051220513673377252 0.027713122232922487 0 0.051392208468053681 0.028037723121833478 0 0.051226206056854365 0.028059074890352878 0 0.051220513673377252 0.027713122232922487 0 0.051375543944972436 0.028363680797164167 0 0.051472181183628389 0.027979714052639965 0 0.051392208468053681 0.028037723121833478 0 0.051727692380769227 0.028825083328551136 0 0.051220513673377252 0.027713122232922487 0 0.051392208468053681 0.028037723121833478 0 0.051727692380769227 0.028825083328551136 0 0.051727692380769227 0.028825083328551136 0 0.051134426453784458 0.03090267692032855 0 0.050482184003138607 0.028827577628567042 0 0.051220513673377252 0.027713122232922487 0 0.051727692380769227 0.028825083328551136 0 0.050482184003138607 0.028827577628567042 0 0.052141872668462902 0.0289633945695753 0 0.051093367434023991 0.030876989094391214 0 0.054424563514239424 0.030318660813346769 0 0.052181151341673844 0.029743505186406068 0 0.053342314313134687 0.031799581782323484 0 0.054424563514239424 0.030318660813346769 0 0.053067681074685409 0.028401574214047366 0 0.052181151341673844 0.029743505186406068 0 0.052181151341673844 0.029743505186406068 0 0.053342314313134687 0.031799581782323484 0 0.051134426453784458 0.03090267692032855 0 0.053342314313134687 0.031799581782323484 0 0.051134426453784458 0.03090267692032855 0 0.052034354721200868 0.032309366377218839 0 0.051134426453784458 0.03090267692032855 0 0.052034354721200868 0.032309366377218839 0 0.050556265673726619 0.032664084805931359 0 0.052034354721200868 0.032309366377218839 0 0.051511147189561055 0.033160918561935544 0 0.050556265673726619 0.032664084805931359 0 0.052034354721200868 0.032309366377218839 0 0.051511147189561055 0.033160918561935544 0 0.052593530424339077 0.033552953514744861 0 0.051511147189561055 0.033160918561935544 0 0.052593530424339077 0.033552953514744861 0 0.050827313514858696 0.03412970080790164 0 0.051511147189561055 0.033160918561935544 0 0.050827313514858696 0.03412970080790164 0 0.050556265673726619 0.032664084805931359 0 0.053342314313134687 0.031799581782323484 0 0.052034354721200868 0.032309366377218839 0 0.052593530424339077 0.033552953514744861 0 0.053342314313134687 0.031799581782323484 0 0.052593530424339077 0.033552953514744861 0 0.054381457547127456 0.033105514338616721 0 0.052593530424339077 0.033552953514744861 0 0.054381457547127456 0.033105514338616721 0 0.053588560734999048 0.034344957057615838 0 0.054381457547127456 0.033105514338616721 0 0.055519693707082221 0.032683087455833544 0 0.055698018659582814 0.033887480920014139 0 0.054424563514239424 0.030318660813346769 0 0.053342314313134687 0.031799581782323484 0 0.055519693707082221 0.032683087455833544 0 0.053342314313134687 0.031799581782323484 0 0.054381457547127456 0.033105514338616721 0 0.055519693707082221 0.032683087455833544 0 0.056576418640429206 0.034873519146237299 0 0.055820102585219571 0.034480964307792093 0 0.056247973016353765 0.038458932683594918 0 0.056484679449422072 0.036565089537144761 0 0.054999976455466525 0.037085617921437934 0 0.055820102585219571 0.034480964307792093 0 0.05500030771832138 0.034559539604110567 0 0.056484679449422072 0.036565089537144761 0 0.054999976455466525 0.037085617921437934 0 0.055000000513383072 0.034559733187154384 0 0.055519693707082221 0.032683087455833544 0 0.055001735625359552 0.034555520468932628 0 0.055698018659582814 0.033887480920014139 0 0.055001735625359552 0.034555520468932628 0 0.055698018659582814 0.033887480920014139 0 0.054998288157433989 0.031755249294270801 0 0.054381457547127456 0.033105514338616721 0 0.055698018659582814 0.033887480920014139 0 0.053588560734999048 0.034344957057615838 0 0.055745579295845275 0.033652948196298313 0 0.055530722263612303 0.03458843689456309 0 0.055698018659582814 0.033887480920014139 0 0.056290005668019109 0.030071109779194277 0 0.057960280072264274 0.031201779539172973 0 0.055698018659582814 0.033887480920014139 0 0.054998288157433989 0.031755249294270801 0 0.056290005668019109 0.030071109779194277 0 0.054998288157433989 0.031755249294270801 0 0.056290005668019109 0.030071109779194277 0 0.054999783364115762 0.028947435322940428 0 0.056290005668019109 0.030071109779194277 0 0.056104226140396951 0.028422849405805691 0 0.054999783364115762 0.028947435322940428 0 0.056290005668019109 0.030071109779194277 0 0.056933929013137874 0.027758330697545391 0 0.057773416865698819 0.028864908033111931 0 0.056290005668019109 0.030071109779194277 0 0.056104226140396951 0.028422849405805691 0 0.056933929013137874 0.027758330697545391 0 0.056203404472800582 0.027044268591694589 0 0.056104226140396951 0.028422849405805691 0 0.056933929013137874 0.027758330697545391 0 0.056203404472800582 0.027044268591694589 0 0.056104226140396951 0.028422849405805691 0 0.054999783364115762 0.028947435322940428 0 0.058390045496223224 0.025043519907527557 0 0.054496365048150162 0.029242377645083157 0 0.057713508422592458 0.025743996168010874 0 0.058535539896565195 0.027969409923832414 0 0.059875863627439241 0.028846293740167839 0 0.057713508422592458 0.025743996168010874 0 0.056984985036255216 0.025100483725405937 0 0.056898950817306275 0.0236294514000711 0 0.056984985036255216 0.025100483725405937 0 0.056898950817306275 0.0236294514000711 0 0.056618521808166032 0.02462518986456683 0 0.058535539896565195 0.027969409923832414 0 0.057927069912535455 0.027216364840232692 0 0.057638823955030165 0.027715026746134463 0 0.057713508422592458 0.025743996168010874 0 0.058535539896565195 0.027969409923832414 0 0.057927069912535455 0.027216364840232692 0 0.057713508422592458 0.025743996168010874 0 0.057619812869378312 0.026479381351629597 0 0.057927069912535455 0.027216364840232692 0 0.057619812869378312 0.026479381351629597 0 0.057927069912535455 0.027216364840232692 0 0.057638823955030165 0.027715026746134463 0 0.057619812869378312 0.026479381351629597 0 0.057345532851090321 0.02701154754597275 0 0.057638823955030165 0.027715026746134463 0 0.056933929013137874 0.027758330697545391 0 0.057345532851090321 0.02701154754597275 0 0.057638823955030165 0.027715026746134463 0 0.056933929013137874 0.027758330697545391 0 0.057638823955030165 0.027715026746134463 0 0.057773416865698819 0.028864908033111931 0 0.058535539896565195 0.027969409923832414 0 0.057638823955030165 0.027715026746134463 0 0.057773416865698819 0.028864908033111931 0 0.056290005668019109 0.030071109779194277 0 0.057773416865698819 0.028864908033111931 0 0.057960280072264274 0.031201779539172973 0 0.058535539896565195 0.027969409923832414 0 0.057773416865698819 0.028864908033111931 0 0.059875863627439241 0.028846293740167839 0 0.054496365048150162 0.029242377645083157 0 0.055530722263612303 0.03458843689456309 0 0.05104678888828254 0.038341735039372681 0 0.051414540888990584 0.037404473622129036 0 0.053245497461635288 0.03650270004911027 0 0.057773416865698819 0.028864908033111931 0 0.059875863627439241 0.028846293740167839 0 0.057960280072264274 0.031201779539172973 0 0.054496365048150162 0.029242377645083157 0 0.050823976238805024 0.033007213969909355 0 0.051414540888990584 0.037404473622129036 0 0.051278792276013133 0.036407112054157427 0 0.05072587637347499 0.037728590037478978 0 0.050252181068076253 0.035060567313636382 0 0.050823976238805024 0.033007213969909355 0 0.05104678888828254 0.038341735039372681 0 0.051414540888990584 0.037404473622129036 0 0.050758682338550881 0.037693778285910563 0 0.051414540888990584 0.037404473622129036 0 0.051278792276013133 0.036407112054157427 0 0.053245497461635288 0.03650270004911027 0 0.051278792276013133 0.036407112054157427 0 0.053245497461635288 0.03650270004911027 0 0.051984559530293246 0.03507244934130762 0 0.051278792276013133 0.036407112054157427 0 0.051984559530293246 0.03507244934130762 0 0.050365648640357578 0.035372687445098902 0 0.053245497461635288 0.03650270004911027 0 0.053588560734999048 0.034344957057615838 0 0.051984559530293246 0.03507244934130762 0 0.055698018659582814 0.033887480920014139 0 0.053245497461635288 0.03650270004911027 0 0.053588560734999048 0.034344957057615838 0 0.052593530424339077 0.033552953514744861 0 0.053588560734999048 0.034344957057615838 0 0.051984559530293246 0.03507244934130762 0 0.051984559530293246 0.03507244934130762 0 0.050827313514858696 0.03412970080790164 0 0.050365648640357578 0.035372687445098902 0 0.052593530424339077 0.033552953514744861 0 0.051984559530293246 0.03507244934130762 0 0.050827313514858696 0.03412970080790164 0 0.050827313514858696 0.03412970080790164 0 0.049570731032940858 0.034637852657503979 0 0.050365648640357578 0.035372687445098902 0 0.050827313514858696 0.03412970080790164 0 0.049570731032940858 0.034637852657503979 0 0.049699069383871773 0.033498218730162115 0 0.049570731032940858 0.034637852657503979 0 0.049223389699691977 0.034936912666077027 0 0.050365648640357578 0.035372687445098902 0 0.048247797000060461 0.033229312992268382 0 0.04801495078065831 0.032756656917561765 0 0.044924941176804428 0.030372758939330106 0 0.044114604302007344 0.030380908542081204 0 0.045135209233236336 0.029630325749733222 0 0.045660516732446393 0.030714924922300928 0 0.044924941176804428 0.030372758939330106 0 0.045135209233236336 0.029630325749733222 0 0.049570731032940858 0.034637852657503979 0 0.049132424936201999 0.035010545091008857 0 0.047872206141616462 0.033055709357996788 0 0.045660516732446393 0.030714924922300928 0 0.044924941176804428 0.030372758939330106 0 0.044625831192664916 0.031596697875843772 0 0.04801495078065831 0.032756656917561765 0 0.046449606650790377 0.031309126167750195 0 0.048615738363518103 0.031188625062460451 0 0.047893250401825647 0.031244647687320579 0 0.048292815784168761 0.030911115443437769 0 0.04801495078065831 0.032756656917561765 0 0.04655504938515919 0.031225654081984782 0 0.048088635353073617 0.031684487885609194 0 0.048615738363518103 0.031188625062460451 0 0.047893250401825647 0.031244647687320579 0 0.051278792276013133 0.036407112054157427 0 0.050365648640357578 0.035372687445098902 0 0.049989634203219828 0.036323816441788517 0 0.049223389699691977 0.034936912666077027 0 0.050365648640357578 0.035372687445098902 0 0.049989634203219828 0.036323816441788517 0 0.04801495078065831 0.032756656917561765 0 0.049076469028908769 0.033912112286147829 0 0.051278792276013133 0.036407112054157427 0 0.049989634203219828 0.036323816441788517 0 0.05072587637347499 0.037728590037478978 0 0.049076469028908769 0.033912112286147829 0 0.050823976238805024 0.033007213969909355 0 0.05106318506886498 0.027589459636468923 0 0.051144133157008553 0.027782227022468724 0 0.051649814375325474 0.027488436062490334 0 0.050823976238805024 0.033007213969909355 0 0.04991539707599281 0.028763266298842526 0 0.047893250401825647 0.031244647687320579 0 0.0477031348803552 0.03081596168767263 0 0.048292815784168761 0.030911115443437769 0 0.0477031348803552 0.03081596168767263 0 0.048292815784168761 0.030911115443437769 0 0.048234925725223893 0.030502834984162147 0 0.048615738363518103 0.031188625062460451 0 0.048292815784168761 0.030911115443437769 0 0.048629082630930076 0.030614758520418874 0 0.048292815784168761 0.030911115443437769 0 0.048629082630930076 0.030614758520418874 0 0.048234925725223893 0.030502834984162147 0 0.04991539707599281 0.028763266298842526 0 0.050631518680383826 0.028736538288438716 0 0.051649814375325474 0.027488436062490334 0 0.051873505850746009 0.027054279434685635 0 0.052127993150878807 0.027210505561029392 0 0.048629082630930076 0.030614758520418874 0 0.048234925725223893 0.030502834984162147 0 0.049015412526387726 0.029989907020156609 0 0.051649814375325474 0.027488436062490334 0 0.051873505850746009 0.027054279434685635 0 0.051519729129562271 0.027111716730627525 0 0.054496365048150162 0.029242377645083157 0 0.053867960584214523 0.025342215965634979 0 0.05106318506886498 0.027589459636468923 0 0.051649814375325474 0.027488436062490334 0 0.051519729129562271 0.027111716730627525 0 0.056365105395102907 0.024859874214382283 0 0.055940197035480851 0.024604669372328355 0 0.056618521808166032 0.02462518986456683 0 0.056898950817306275 0.0236294514000711 0 0.055940197035480851 0.024604669372328355 0 0.056618521808166032 0.02462518986456683 0 0.056365105395102907 0.024859874214382283 0 0.056984985036255216 0.025100483725405937 0 0.056618521808166032 0.02462518986456683 0 0.049066921770556014 0.030491415202850026 0 0.049041850016122136 0.030725379559390056 0 0.049380979673367284 0.030354839033848148 0 0.050305001533837997 0.025830996951257259 0 0.050631518680383826 0.028736538288438716 0 0.049066921770556014 0.030491415202850026 0 0.049146166264975595 0.030346367461129963 0 0.04892930636686784 0.030377555234665992 0 0.049066921770556014 0.030491415202850026 0 0.049146166264975595 0.030346367461129963 0 0.049380979673367284 0.030354839033848148 0 0.050305001533837997 0.025830996951257259 0 0.044800278449542201 0.029531792989440146 0 0.049216123129198673 0.030127801052000438 0 0.049146166264975595 0.030346367461129963 0 0.049380979673367284 0.030354839033848148 0 0.050305001533837997 0.025830996951257259 0 0.048714843685016516 0.030507479536152467 0 0.049216123129198673 0.030127801052000438 0 0.049146166264975595 0.030346367461129963 0 0.04892930636686784 0.030377555234665992 0 0.052149594713293668 0.026864348618273345 0 0.052598895343983543 0.026964602997779002 0 0.052127993150878807 0.027210505561029392 0 0.050164067141935338 0.029318118994689595 0 0.049015412526387726 0.029989907020156609 0 0.049336909839007258 0.030076632885804647 0 0.052149594713293668 0.026864348618273345 0 0.051873505850746009 0.027054279434685635 0 0.052127993150878807 0.027210505561029392 0 0.048817787133721147 0.030468525169664962 0 0.048714843685016516 0.030507479536152467 0 0.048629082630930076 0.030614758520418874 0 0.04892930636686784 0.030377555234665992 0 0.0488507635684476 0.030585197811406426 0 0.048629082630930076 0.030614758520418874 0 0.049015412526387726 0.029989907020156609 0 0.049336909839007258 0.030076632885804647 0 0.049066921770556014 0.030491415202850026 0 0.04892930636686784 0.030377555234665992 0 0.0488507635684476 0.030585197811406426 0 0.048615738363518103 0.031188625062460451 0 0.0488507635684476 0.030585197811406426 0 0.049041850016122136 0.030725379559390056 0 0.04655504938515919 0.031225654081984782 0 0.046278136339047989 0.031922348443812865 0 0.049066921770556014 0.030491415202850026 0 0.0488507635684476 0.030585197811406426 0 0.049041850016122136 0.030725379559390056 0 0.048615738363518103 0.031188625062460451 0 0.048629082630930076 0.030614758520418874 0 0.0488507635684476 0.030585197811406426 0 0.046278136339047989 0.031922348443812865 0 0.044800278449542201 0.029531792989440146 0 0.043509358221061528 0.032562324095361805 0 0.042507608961202988 0.03146274983215603 0 0.042440652082198917 0.032545278254973796 0 0.043509358221061528 0.032562324095361805 0 0.042440652082198917 0.032545278254973796 0 0.042313024774543427 0.033590935509076152 0 0.043509358221061528 0.032562324095361805 0 0.042507608961202988 0.03146274983215603 0 0.043614114536519075 0.031262520550253553 0 0.044625831192664916 0.031596697875843772 0 0.043509358221061528 0.032562324095361805 0 0.043614114536519075 0.031262520550253553 0 0.044625831192664916 0.031596697875843772 0 0.043614114536519075 0.031262520550253553 0 0.044114604302007344 0.030380908542081204 0 0.044924941176804428 0.030372758939330106 0 0.044625831192664916 0.031596697875843772 0 0.044114604302007344 0.030380908542081204 0 0.043614114536519075 0.031262520550253553 0 0.044114604302007344 0.030380908542081204 0 0.042682649472167315 0.030097311170891164 0 0.042507608961202988 0.03146274983215603 0 0.043614114536519075 0.031262520550253553 0 0.042682649472167315 0.030097311170891164 0 0.044114604302007344 0.030380908542081204 0 0.042682649472167315 0.030097311170891164 0 0.043997443745842718 0.029279425571678848 0 0.042682649472167315 0.030097311170891164 0 0.04303056967415754 0.028606962311341591 0 0.043997443745842718 0.029279425571678848 0 0.04303056967415754 0.028606962311341591 0 0.043997443745842718 0.029279425571678848 0 0.044116084597265785 0.028443813600824937 0 0.043997443745842718 0.029279425571678848 0 0.045135209233236336 0.029630325749733222 0 0.044705021992084336 0.02866085173909317 0 0.043997443745842718 0.029279425571678848 0 0.044705021992084336 0.02866085173909317 0 0.044116084597265785 0.028443813600824937 0 0.044114604302007344 0.030380908542081204 0 0.043997443745842718 0.029279425571678848 0 0.045135209233236336 0.029630325749733222 0 0.050827313514858696 0.03412970080790164 0 0.049699069383871773 0.033498218730162115 0 0.050556265673726619 0.032664084805931359 0 0.049570731032940858 0.034637852657503979 0 0.047872206141616462 0.033055709357996788 0 0.049699069383871773 0.033498218730162115 0 0.049310798682016675 0.032623005457950049 0 0.050556265673726619 0.032664084805931359 0 0.049068012746307593 0.03143634406717296 0 0.047872206141616462 0.033055709357996788 0 0.049699069383871773 0.033498218730162115 0 0.049310798682016675 0.032623005457950049 0 0.047872206141616462 0.033055709357996788 0 0.049310798682016675 0.032623005457950049 0 0.049068012746307593 0.03143634406717296 0 0.049699069383871773 0.033498218730162115 0 0.049310798682016675 0.032623005457950049 0 0.050556265673726619 0.032664084805931359 0 0.051134426453784458 0.03090267692032855 0 0.049068012746307593 0.03143634406717296 0 0.048442946339275622 0.029231161088283258 0 0.051134426453784458 0.03090267692032855 0 0.050556265673726619 0.032664084805931359 0 0.049068012746307593 0.03143634406717296 0 0.049068012746307593 0.03143634406717296 0 0.046392929624978776 0.030816844438969784 0 0.048442946339275622 0.029231161088283258 0 0.047872206141616462 0.033055709357996788 0 0.049068012746307593 0.03143634406717296 0 0.046392929624978776 0.030816844438969784 0 0.046449606650790377 0.031309126167750195 0 0.04556509007224914 0.029660963701221302 0 0.046392929624978776 0.030816844438969784 0 0.048442946339275622 0.029231161088283258 0 0.044846246762277969 0.027903071566170203 0 0.048442946339275622 0.029231161088283258 0 0.047057159847587349 0.027034087160415197 0 0.044846246762277969 0.027903071566170203 0 0.051134426453784458 0.03090267692032855 0 0.048442946339275622 0.029231161088283258 0 0.050482184003138607 0.028827577628567042 0 0.048442946339275622 0.029231161088283258 0 0.050482184003138607 0.028827577628567042 0 0.049184620945788356 0.027667147071426364 0 0.051146280702368013 0.027596467328321474 0 0.050381320426121014 0.026981231905618745 0 0.051220513673377252 0.027713122232922487 0 0.049184620945788356 0.027667147071426364 0 0.048538069571265385 0.025314500716884097 0 0.051220513673377252 0.027713122232922487 0 0.050482184003138607 0.028827577628567042 0 0.049184620945788356 0.027667147071426364 0 0.048442946339275622 0.029231161088283258 0 0.049184620945788356 0.027667147071426364 0 0.047057159847587349 0.027034087160415197 0 0.049184620945788356 0.027667147071426364 0 0.047057159847587349 0.027034087160415197 0 0.048538069571265385 0.025314500716884097 0 0.043593364184998845 0.026948648990352913 0 0.044846246762277969 0.027903071566170203 0 0.045124263665738795 0.025800170331938908 0 0.047057159847587349 0.027034087160415197 0 0.044846246762277969 0.027903071566170203 0 0.045124263665738795 0.025800170331938908 0 0.043593364184998845 0.026948648990352913 0 0.043124471034967547 0.02578463205089743 0 0.045124263665738795 0.025800170331938908 0 0.043593364184998845 0.026948648990352913 0 0.042362320195344222 0.02708799102427855 0 0.043124471034967547 0.02578463205089743 0 0.043593364184998845 0.026948648990352913 0 0.043183834432093365 0.02785569680793365 0 0.042362320195344222 0.02708799102427855 0 0.043593364184998845 0.026948648990352913 0 0.043183834432093365 0.02785569680793365 0 0.044846246762277969 0.027903071566170203 0 0.043183834432093365 0.02785569680793365 0 0.044116084597265785 0.028443813600824937 0 0.044846246762277969 0.027903071566170203 0 0.04303056967415754 0.028606962311341591 0 0.043183834432093365 0.02785569680793365 0 0.044116084597265785 0.028443813600824937 0 0.044705021992084336 0.02866085173909317 0 0.044116084597265785 0.028443813600824937 0 0.044846246762277969 0.027903071566170203 0 0.04556509007224914 0.029660963701221302 0 0.044866199804476273 0.028042958112911302 0 0.040917385111971939 0.027431487247679461 0 0.041887102902551113 0.028128853293834331 0 0.040335448748958065 0.028788721777794742 0 0.040978576818674374 0.027053501128467383 0 0.040318082082952574 0.028817005404196856 0 0.043183834432093365 0.02785569680793365 0 0.041887102902551113 0.028128853293834331 0 0.042362320195344222 0.02708799102427855 0 0.040917385111971939 0.027431487247679461 0 0.041887102902551113 0.028128853293834331 0 0.042362320195344222 0.02708799102427855 0 0.04303056967415754 0.028606962311341591 0 0.043183834432093365 0.02785569680793365 0 0.041887102902551113 0.028128853293834331 0 0.040917385111971939 0.027431487247679461 0 0.042362320195344222 0.02708799102427855 0 0.041979519098893747 0.026160441314293219 0 0.042362320195344222 0.02708799102427855 0 0.041979519098893747 0.026160441314293219 0 0.043124471034967547 0.02578463205089743 0 0.040772981328665511 0.027135842138352351 0 0.039814828969256789 0.026117950382562309 0 0.04125159261805126 0.025573582530010498 0 0.040978576818674374 0.027053501128467383 0 0.040313043465224074 0.026541979309313492 0 0.040917385111971939 0.027431487247679461 0 0.041979519098893747 0.026160441314293219 0 0.041350467516552539 0.025589252283074387 0 0.039814828969256789 0.026117950382562309 0 0.039776924957052581 0.027340561490508116 0 0.039258886116671367 0.027076989719013102 0 0.040772981328665511 0.027135842138352351 0 0.039814828969256789 0.026117950382562309 0 0.039776924957052581 0.027340561490508116 0 0.032029763314836882 0.033719886442237709 0 0.030457667173901349 0.034344697048042397 0 0.031125439381663924 0.033236414514928314 0 0.036989497394852341 0.02889250938456801 0 0.03396990044649522 0.030770494082016108 0 0.039814828969256789 0.026117950382562309 0 0.038353441681602228 0.027089382814425873 0 0.039258886116671367 0.027076989719013102 0 0.036989497394852341 0.02889250938456801 0 0.039516621359597201 0.02609060199659026 0 0.039130347202090243 0.026507544103361064 0 0.038198982775826611 0.026775721651590579 0 0.038353441681602228 0.027089382814425873 0 0.038353441681602228 0.027089382814425873 0 0.03819924117363218 0.027668197824737586 0 0.038069449093140958 0.027213429811235895 0 0.038198982775826611 0.026775721651590579 0 0.038353441681602228 0.027089382814425873 0 0.038069449093140958 0.027213429811235895 0 0.038353441681602228 0.027089382814425873 0 0.039086113211301919 0.02776454268889918 0 0.039258886116671367 0.027076989719013102 0 0.038353441681602228 0.027089382814425873 0 0.039086113211301919 0.02776454268889918 0 0.03819924117363218 0.027668197824737586 0 0.039086113211301919 0.02776454268889918 0 0.03819924117363218 0.027668197824737586 0 0.038762045502295138 0.028497449151089472 0 0.039086113211301919 0.02776454268889918 0 0.039776924957052581 0.027340561490508116 0 0.040335448748958065 0.028788721777794742 0 0.040772981328665511 0.027135842138352351 0 0.039776924957052581 0.027340561490508116 0 0.040335448748958065 0.028788721777794742 0 0.039086113211301919 0.02776454268889918 0 0.039776924957052581 0.027340561490508116 0 0.039258886116671367 0.027076989719013102 0 0.039086113211301919 0.02776454268889918 0 0.040335448748958065 0.028788721777794742 0 0.038762045502295138 0.028497449151089472 0 0.040335448748958065 0.028788721777794742 0 0.038762045502295138 0.028497449151089472 0 0.039292042204892519 0.02965257135759072 0 0.03819924117363218 0.027668197824737586 0 0.038762045502295138 0.028497449151089472 0 0.037557919026510685 0.028159361462678154 0 0.039292042204892519 0.02965257135759072 0 0.037958623457115565 0.029922657788209978 0 0.038034429597237608 0.02900391947320188 0 0.038762045502295138 0.028497449151089472 0 0.039292042204892519 0.02965257135759072 0 0.038034429597237608 0.02900391947320188 0 0.040335448748958065 0.028788721777794742 0 0.039292042204892519 0.02965257135759072 0 0.04094541514168322 0.029891005931570611 0 0.040335448748958065 0.028788721777794742 0 0.04094541514168322 0.029891005931570611 0 0.041782489931983906 0.029098497116400935 0 0.041887102902551113 0.028128853293834331 0 0.040335448748958065 0.028788721777794742 0 0.041782489931983906 0.029098497116400935 0 0.04303056967415754 0.028606962311341591 0 0.041887102902551113 0.028128853293834331 0 0.041782489931983906 0.029098497116400935 0 0.042682649472167315 0.030097311170891164 0 0.04303056967415754 0.028606962311341591 0 0.041782489931983906 0.029098497116400935 0 0.042682649472167315 0.030097311170891164 0 0.04094541514168322 0.029891005931570611 0 0.041782489931983906 0.029098497116400935 0 0.042682649472167315 0.030097311170891164 0 0.04094541514168322 0.029891005931570611 0 0.041412792795824993 0.030815885361310139 0 0.042507608961202988 0.03146274983215603 0 0.042682649472167315 0.030097311170891164 0 0.041412792795824993 0.030815885361310139 0 0.04094541514168322 0.029891005931570611 0 0.041412792795824993 0.030815885361310139 0 0.039991546120751724 0.030521680517713475 0 0.041412792795824993 0.030815885361310139 0 0.040276689330161118 0.031213406487624967 0 0.039991546120751724 0.030521680517713475 0 0.041412792795824993 0.030815885361310139 0 0.040276689330161118 0.031213406487624967 0 0.041372847790004628 0.032524569767600833 0 0.040291429904239708 0.031284914768346411 0 0.040354253660205244 0.031814538876081738 0 0.042507608961202988 0.03146274983215603 0 0.041412792795824993 0.030815885361310139 0 0.041372847790004628 0.032524569767600833 0 0.042507608961202988 0.03146274983215603 0 0.042440652082198917 0.032545278254973796 0 0.041372847790004628 0.032524569767600833 0 0.042440652082198917 0.032545278254973796 0 0.041372847790004628 0.032524569767600833 0 0.042313024774543427 0.033590935509076152 0 0.040354253660205244 0.031814538876081738 0 0.044800278449542201 0.029531792989440146 0 0.039718115007569395 0.031076725204828851 0 0.039919123658921585 0.031051154171227929 0 0.039690668348140751 0.030752537534994677 0 0.040276689330161118 0.031213406487624967 0 0.039718115007569395 0.031076725204828851 0 0.039919123658921585 0.031051154171227929 0 0.039919123658921585 0.031051154171227929 0 0.039690668348140751 0.030752537534994677 0 0.039962893179695223 0.030664875154181537 0 0.039561267445875216 0.030271615253717313 0 0.039690668348140751 0.030752537534994677 0 0.039486802403390565 0.030792891428164427 0 0.03979314501402028 0.030538562264144722 0 0.039690668348140751 0.030752537534994677 0 0.039962893179695223 0.030664875154181537 0 0.039718115007569395 0.031076725204828851 0 0.039690668348140751 0.030752537534994677 0 0.039486802403390565 0.030792891428164427 0 0.047390323007123016 0.02392531205027585 0 0.048793325737935649 0.023730313820852333 0 0.048021986038043973 0.022753950109017127 0 0.040209296053338436 0.030402217311706281 0 0.039825678993463447 0.031033110529408957 0 0.039262663890608757 0.031322170507839475 0 0.040032258652547913 0.030477500266224752 0 0.038990027764371389 0.03059425214187371 0 0.039919123658921585 0.031051154171227929 0 0.039825678993463447 0.031033110529408957 0 0.039962893179695223 0.030664875154181537 0 0.040209296053338436 0.030402217311706281 0 0.039825678993463447 0.031033110529408957 0 0.039962893179695223 0.030664875154181537 0 0.040276689330161118 0.031213406487624967 0 0.039919123658921585 0.031051154171227929 0 0.039665983724828012 0.031105218134693316 0 0.039919123658921585 0.031051154171227929 0 0.039825678993463447 0.031033110529408957 0 0.039665983724828012 0.031105218134693316 0 0.039665983724828012 0.031105218134693316 0 0.038778571477978321 0.030883942124678619 0 0.039262663890608757 0.031322170507839475 0 0.039825678993463447 0.031033110529408957 0 0.039665983724828012 0.031105218134693316 0 0.039262663890608757 0.031322170507839475 0 0.039665983724828012 0.031105218134693316 0 0.039170638028401539 0.03049008666231743 0 0.038778571477978321 0.030883942124678619 0 0.040276689330161118 0.031213406487624967 0 0.039665983724828012 0.031105218134693316 0 0.039991546120751724 0.030521680517713475 0 0.039665983724828012 0.031105218134693316 0 0.039991546120751724 0.030521680517713475 0 0.039170638028401539 0.03049008666231743 0 0.039292042204892519 0.02965257135759072 0 0.039991546120751724 0.030521680517713475 0 0.039170638028401539 0.03049008666231743 0 0.039292042204892519 0.02965257135759072 0 0.04094541514168322 0.029891005931570611 0 0.039991546120751724 0.030521680517713475 0 0.039292042204892519 0.02965257135759072 0 0.039170638028401539 0.03049008666231743 0 0.037958623457115565 0.029922657788209978 0 0.037958623457115565 0.029922657788209978 0 0.037573989890596057 0.030875784508563427 0 0.038778571477978321 0.030883942124678619 0 0.039170638028401539 0.03049008666231743 0 0.037958623457115565 0.029922657788209978 0 0.038778571477978321 0.030883942124678619 0 0.037958623457115565 0.029922657788209978 0 0.037573989890596057 0.030875784508563427 0 0.035987703103368719 0.029444419303939297 0 0.037381954836164515 0.030247086867370571 0 0.036127904641154701 0.029463430474443872 0 0.037172192302244597 0.029661398488582826 0 0.037094863372962292 0.030034652421273227 0 0.03612117779317095 0.030083156947390909 0 0.037573989890596057 0.030875784508563427 0 0.038778571477978321 0.030883942124678619 0 0.039262663890608757 0.031322170507839475 0 0.037381954836164515 0.030247086867370571 0 0.038990027764371389 0.03059425214187371 0 0.037172192302244597 0.029661398488582826 0 0.038698283254617827 0.029917618638525916 0 0.037094863372962292 0.030034652421273227 0 0.038698283254617827 0.029917618638525916 0 0.037094863372962292 0.030034652421273227 0 0.037501117453595335 0.030474647408967766 0 0.039097981522380705 0.030593689779053426 0 0.038698283254617827 0.029917618638525916 0 0.037501117453595335 0.030474647408967766 0 0.039097981522380705 0.030593689779053426 0 0.040209296053338436 0.030402217311706281 0 0.038698283254617827 0.029917618638525916 0 0.036179581524201712 0.031298847559397387 0 0.036118634869424633 0.030193014142755825 0 0.035062294016368969 0.030809007281694459 0 0.036179581524201712 0.031298847559397387 0 0.037501117453595335 0.030474647408967766 0 0.036118634869424633 0.030193014142755825 0 0.037094863372962292 0.030034652421273227 0 0.036118634869424633 0.030193014142755825 0 0.03612117779317095 0.030083156947390909 0 0.037094863372962292 0.030034652421273227 0 0.037501117453595335 0.030474647408967766 0 0.036118634869424633 0.030193014142755825 0 0.036118634869424633 0.030193014142755825 0 0.035062294016368969 0.030809007281694459 0 0.034451869759909978 0.029067562186423503 0 0.036118634869424633 0.030193014142755825 0 0.03612117779317095 0.030083156947390909 0 0.034451869759909978 0.029067562186423503 0 0.03612117779317095 0.030083156947390909 0 0.035277844657975205 0.029870570463277003 0 0.033558923416162505 0.031972984314431331 0 0.035899248189601968 0.030143897648413666 0 0.033913612333255669 0.03051532689254054 0 0.037172192302244597 0.029661398488582826 0 0.03612117779317095 0.030083156947390909 0 0.035987703103368719 0.029444419303939297 0 0.03612117779317095 0.030083156947390909 0 0.035277844657975205 0.029870570463277003 0 0.035987703103368719 0.029444419303939297 0 0.035277844657975205 0.029870570463277003 0 0.034904226158080073 0.028942310051291064 0 0.033793934171190886 0.029875071376105827 0 0.03103322269738366 0.031303336365140787 0 0.031557532637775797 0.030166583641679484 0 0.028044512497408976 0.034632141958841643 0 0.026908758144971713 0.034761190327822988 0 0.029115906082387757 0.032133778719045818 0 0.034904226158080073 0.028942310051291064 0 0.034975643694510741 0.028014323754946766 0 0.033848539276099085 0.028259405704803751 0 0.034904226158080073 0.028942310051291064 0 0.036480534898408509 0.028707037939077373 0 0.034975643694510741 0.028014323754946766 0 0.034904226158080073 0.028942310051291064 0 0.035987703103368719 0.029444419303939297 0 0.036480534898408509 0.028707037939077373 0 0.035277844657975205 0.029870570463277003 0 0.034904226158080073 0.028942310051291064 0 0.035987703103368719 0.029444419303939297 0 0.037958623457115565 0.029922657788209978 0 0.035987703103368719 0.029444419303939297 0 0.036480534898408509 0.028707037939077373 0 0.037958623457115565 0.029922657788209978 0 0.038034429597237608 0.02900391947320188 0 0.036480534898408509 0.028707037939077373 0 0.038762045502295138 0.028497449151089472 0 0.038034429597237608 0.02900391947320188 0 0.037557919026510685 0.028159361462678154 0 0.038034429597237608 0.02900391947320188 0 0.037557919026510685 0.028159361462678154 0 0.036480534898408509 0.028707037939077373 0 0.037557919026510685 0.028159361462678154 0 0.036480534898408509 0.028707037939077373 0 0.036266216051634548 0.027473174628552123 0 0.036480534898408509 0.028707037939077373 0 0.036266216051634548 0.027473174628552123 0 0.034975643694510741 0.028014323754946766 0 0.028506114242368766 0.035079788234911258 0 0.029233620812399764 0.03407828937200915 0 0.027006455462300922 0.035046090707290908 0 0.027004370649981572 0.03557382269002661 0 0.027005747170051029 0.035140795545331817 0 0.03396990044649522 0.030770494082016108 0 0.032476562054754202 0.031197225440315043 0 0.038198982775826611 0.026775721651590579 0 0.036266216051634548 0.027473174628552123 0 0.037528636038352256 0.027364078952658841 0 0.03819924117363218 0.027668197824737586 0 0.037557919026510685 0.028159361462678154 0 0.037528636038352256 0.027364078952658841 0 0.037557919026510685 0.028159361462678154 0 0.036266216051634548 0.027473174628552123 0 0.037528636038352256 0.027364078952658841 0 0.038198982775826611 0.026775721651590579 0 0.037528636038352256 0.027364078952658841 0 0.038069449093140958 0.027213429811235895 0 0.03819924117363218 0.027668197824737586 0 0.037528636038352256 0.027364078952658841 0 0.038069449093140958 0.027213429811235895 0 0.030457667173901349 0.034344697048042397 0 0.029233620812399764 0.03407828937200915 0 0.031125439381663924 0.033236414514928314 0 0.027004370649981572 0.03557382269002661 0 0.02713454681668958 0.035823912121465032 0 0.030457667173901349 0.034344697048042397 0 0.028506114242368766 0.035079788234911258 0 0.029233620812399764 0.03407828937200915 0 0.024536836219363343 0.037219906314122773 0 0.026067398602598924 0.037308337005394203 0 0.025097935746619476 0.038020849899403741 0 0.024536836219363343 0.037219906314122773 0 0.026067398602598924 0.037308337005394203 0 0.027006455462300922 0.035046090707290908 0 0.026067398602598924 0.037308337005394203 0 0.027081072881317392 0.036244806037212363 0 0.027006455462300922 0.035046090707290908 0 0.026067398602598924 0.037308337005394203 0 0.027081072881317392 0.036244806037212363 0 0.02776006233641861 0.038172348766944031 0 0.026067398602598924 0.037308337005394203 0 0.02776006233641861 0.038172348766944031 0 0.026650525399485786 0.040326950525253737 0 0.02776006233641861 0.038172348766944031 0 0.029295124562530916 0.037163970744377037 0 0.029743324802302764 0.039946279718885973 0 0.02776006233641861 0.038172348766944031 0 0.027941275375952781 0.035990056198391032 0 0.029295124562530916 0.037163970744377037 0 0.027081072881317392 0.036244806037212363 0 0.02776006233641861 0.038172348766944031 0 0.027941275375952781 0.035990056198391032 0 0.027081072881317392 0.036244806037212363 0 0.027941275375952781 0.035990056198391032 0 0.027253781050014234 0.035271834008372159 0 0.027941275375952781 0.035990056198391032 0 0.028044512497408976 0.034632141958841643 0 0.027253781050014234 0.035271834008372159 0 0.027941275375952781 0.035990056198391032 0 0.028044512497408976 0.034632141958841643 0 0.029400623540580286 0.034748953351698517 0 0.027941275375952781 0.035990056198391032 0 0.029295124562530916 0.037163970744377037 0 0.029400623540580286 0.034748953351698517 0 0.028044512497408976 0.034632141958841643 0 0.026908758144971713 0.034761190327822988 0 0.027253781050014234 0.035271834008372159 0 0.028506114242368766 0.035079788234911258 0 0.026908758144971713 0.034761190327822988 0 0.027006455462300922 0.035046090707290908 0 0.032476562054754202 0.031197225440315043 0 0.03103322269738366 0.031303336365140787 0 0.026908758144971713 0.034761190327822988 0 0.027006455462300922 0.035046090707290908 0 0.027253781050014234 0.035271834008372159 0 0.027081072881317392 0.036244806037212363 0 0.027006455462300922 0.035046090707290908 0 0.027253781050014234 0.035271834008372159 0 0.027081749036299951 0.043830004530937224 0 0.023984220601179607 0.041532311297873638 0 0.022775066110445139 0.045888529384571927 0 0.027081749036299951 0.043830004530937224 0 0.026650525399485786 0.040326950525253737 0 0.023984220601179607 0.041532311297873638 0 0.027081749036299951 0.043830004530937224 0 0.029563501483742344 0.045967653644852113 0 0.030212679778511404 0.042841338554285263 0 0.027081749036299951 0.043830004530937224 0 0.028314484982138993 0.0412815185954616 0 0.026650525399485786 0.040326950525253737 0 0.027081749036299951 0.043830004530937224 0 0.028314484982138993 0.0412815185954616 0 0.030212679778511404 0.042841338554285263 0 0.02776006233641861 0.038172348766944031 0 0.028314484982138993 0.0412815185954616 0 0.029743324802302764 0.039946279718885973 0 0.02776006233641861 0.038172348766944031 0 0.028314484982138993 0.0412815185954616 0 0.026650525399485786 0.040326950525253737 0 0.028314484982138993 0.0412815185954616 0 0.030212679778511404 0.042841338554285263 0 0.029743324802302764 0.039946279718885973 0 0.025873920912484111 0.037529655513358927 0 0.024889111980176376 0.040186611519638683 0 0.026067398602598924 0.037308337005394203 0 0.026650525399485786 0.040326950525253737 0 0.023984220601179607 0.041532311297873638 0 0.026067398602598924 0.037308337005394203 0 0.025097935746619476 0.038020849899403741 0 0.025657508076738913 0.03867289368547247 0 0.025097935746619476 0.038020849899403741 0 0.025657508076738913 0.03867289368547247 0 0.024665854209600831 0.038891713758205555 0 0.024536836219363343 0.037219906314122773 0 0.024417962267835235 0.038211394394610965 0 0.023880484359267026 0.03820776233900014 0 0.025097935746619476 0.038020849899403741 0 0.024417962267835235 0.038211394394610965 0 0.024665854209600831 0.038891713758205555 0 0.024536836219363343 0.037219906314122773 0 0.025097935746619476 0.038020849899403741 0 0.024417962267835235 0.038211394394610965 0 0.024417962267835235 0.038211394394610965 0 0.024665854209600831 0.038891713758205555 0 0.024122700178469052 0.038672633361390749 0 0.024665854209600831 0.038891713758205555 0 0.024501156956987642 0.039722297634466261 0 0.024048469681676933 0.039204216041665303 0 0.024665854209600831 0.038891713758205555 0 0.025415578576511343 0.039697930788905593 0 0.024501156956987642 0.039722297634466261 0 0.024889111980176376 0.040186611519638683 0 0.023922408958165532 0.042302306239049361 0 0.025657508076738913 0.03867289368547247 0 0.024665854209600831 0.038891713758205555 0 0.025415578576511343 0.039697930788905593 0 0.023922408958165532 0.042302306239049361 0 0.026585903972227792 0.048835073876877348 0 0.022775066110445139 0.045888529384571927 0 0.021459259749191672 0.050676741864227194 0 0.0266793321623526 0.047799670686635591 0 0.025415578576511343 0.039697930788905593 0 0.024501156956987642 0.039722297634466261 0 0.02519778220162296 0.040713264109985048 0 0.024501156956987642 0.039722297634466261 0 0.02519778220162296 0.040713264109985048 0 0.02401635179900366 0.04033912265008556 0 0.026585903972227792 0.048835073876877348 0 0.028079139334873427 0.047286540510844584 0 0.03144950074099654 0.051054268738776915 0 0.029570470274623381 0.052171141431849075 0 0.027034360856948346 0.049979729223795358 0 0.021459259749191672 0.050676741864227194 0 0.0266793321623526 0.047799670686635591 0 0.028463232502495897 0.052389948586990177 0 0.026585903972227792 0.048835073876877348 0 0.027770397863111973 0.053353098320839391 0 0.027081749036299951 0.043830004530937224 0 0.022775066110445139 0.045888529384571927 0 0.0266793321623526 0.047799670686635591 0 0.027081749036299951 0.043830004530937224 0 0.0266793321623526 0.047799670686635591 0 0.029563501483742344 0.045967653644852113 0 0.0266793321623526 0.047799670686635591 0 0.029563501483742344 0.045967653644852113 0 0.029911060051307562 0.04905351666105965 0 0.0266793321623526 0.047799670686635591 0 0.029911060051307562 0.04905351666105965 0 0.028463232502495897 0.052389948586990177 0 0.029911060051307562 0.04905351666105965 0 0.029815418970965304 0.051489004818905497 0 0.028463232502495897 0.052389948586990177 0 0.028463232502495897 0.052389948586990177 0 0.029924801795797904 0.053305035442677708 0 0.029165248168399844 0.055694720617908589 0 0.029815418970965304 0.051489004818905497 0 0.028463232502495897 0.052389948586990177 0 0.029924801795797904 0.053305035442677708 0 0.028463232502495897 0.052389948586990177 0 0.029165248168399844 0.055694720617908589 0 0.028483292332401378 0.053863369365237633 0 0.028305328923740866 0.053694720795881529 0 0.028463232502495897 0.052389948586990177 0 0.028483292332401378 0.053863369365237633 0 0.02857071462943498 0.055762133718063323 0 0.028948847800961245 0.055778632680498354 0 0.027213759078313748 0.058274462479728305 0 0.029165248168399844 0.055694720617908589 0 0.027849835758773898 0.056541234310927863 0 0.029165248168399844 0.055694720617908589 0 0.027849835758773898 0.056541234310927863 0 0.02975742671580521 0.055867736589236501 0 0.02975742671580521 0.055867736589236501 0 0.028759411700631742 0.054999341234627061 0 0.031901063797797828 0.055000074583782241 0 0.027849835758773898 0.056541234310927863 0 0.028759411700631742 0.054999341234627061 0 0.026723345884979571 0.055998805695139833 0 0.027849835758773898 0.056541234310927863 0 0.02975742671580521 0.055867736589236501 0 0.028759411700631742 0.054999341234627061 0 0.034264511383046141 0.055000336789314423 0 0.033976945221796714 0.056597000982202689 0 0.034264362229691071 0.05499999902256919 0 0.032635432759477813 0.056694195296770104 0 0.033782298848898509 0.056690004608309655 0 0.034264362229691071 0.05499999902256919 0 0.031906665061871127 0.054999963683069655 0 0.032635432759477813 0.056694195296770104 0 0.031906029427858119 0.055000137667179406 0 0.031392369952197519 0.056035180310646755 0 0.02975742671580521 0.055867736589236501 0 0.031901063797797828 0.055000074583782241 0 0.030162015472314601 0.055715059555299956 0 0.029165248168399844 0.055694720617908589 0 0.02975742671580521 0.055867736589236501 0 0.029313597077207237 0.055663532234487459 0 0.02975742671580521 0.055867736589236501 0 0.030162015472314601 0.055715059555299956 0 0.029313597077207237 0.055663532234487459 0 0.030162015472314601 0.055715059555299956 0 0.029313597077207237 0.055663532234487459 0 0.028803772930634065 0.05553400179330667 0 0.03430194687908119 0.056417463341518627 0 0.034356582181410397 0.057558620603410215 0 0.035127958189553769 0.057168633560638241 0 0.031392369952197519 0.056035180310646755 0 0.031567843558887178 0.056644863652671254 0 0.032635432759477813 0.056694195296770104 0 0.033782298848898509 0.056690004608309655 0 0.033325015685790757 0.058335047464137403 0 0.033976945221796714 0.056597000982202689 0 0.031567843558887178 0.056644863652671254 0 0.029313597077207237 0.055663532234487459 0 0.028803772930634065 0.05553400179330667 0 0.028261638892408739 0.054318006483951152 0 0.031567843558887178 0.056644863652671254 0 0.02946125467227137 0.054645798892751667 0 0.031567843558887178 0.056644863652671254 0 0.032441272020221325 0.057021930061365349 0 0.029956281001828941 0.057010067494701729 0 0.028487286648112696 0.05350229110295493 0 0.030707973694395006 0.054031794750605606 0 0.029165248168399844 0.055694720617908589 0 0.028483292332401378 0.053863369365237633 0 0.028261638892408739 0.054318006483951152 0 0.029165248168399844 0.055694720617908589 0 0.029313597077207237 0.055663532234487459 0 0.028261638892408739 0.054318006483951152 0 0.028305328923740866 0.053694720795881529 0 0.028483292332401378 0.053863369365237633 0 0.028261638892408739 0.054318006483951152 0 0.026585903972227792 0.048835073876877348 0 0.02946125467227137 0.054645798892751667 0 0.03144950074099654 0.051054268738776915 0 0.030707973694395006 0.054031794750605606 0 0.029570470274623381 0.052171141431849075 0 0.028487286648112696 0.05350229110295493 0 0.030707973694395006 0.054031794750605606 0 0.029570470274623381 0.052171141431849075 0 0.035218604335498102 0.058048751746224349 0 0.03486038416818979 0.057327899413392579 0 0.034996880989010652 0.057823826448436255 0 0.03486038416818979 0.057327899413392579 0 0.034996880989010652 0.057823826448436255 0 0.034711022032268557 0.057672829177725246 0 0.034996880989010652 0.057823826448436255 0 0.034711022032268557 0.057672829177725246 0 0.035242735166781891 0.058135202066430802 0 0.035218604335498102 0.058048751746224349 0 0.034996880989010652 0.057823826448436255 0 0.035242735166781891 0.058135202066430802 0 0.035948544416978957 0.058972740990148494 0 0.035133294821474877 0.058101932615939419 0 0.034280872539216814 0.057700632946661702 0 0.034711022032268557 0.057672829177725246 0 0.035242735166781891 0.058135202066430802 0 0.03486038416818979 0.057327899413392579 0 0.034711022032268557 0.057672829177725246 0 0.034297200772840632 0.057335479742111103 0 0.034280872539216814 0.057700632946661702 0 0.034711022032268557 0.057672829177725246 0 0.034297200772840632 0.057335479742111103 0 0.037060958812041633 0.059713755495082149 0 0.036611327026605613 0.058427849996007551 0 0.037725713429655791 0.05886194217985459 0 0.037060958812041633 0.059713755495082149 0 0.036611327026605613 0.058427849996007551 0 0.035242735166781891 0.058135202066430802 0 0.036611327026605613 0.058427849996007551 0 0.037045260457677504 0.057977215507780913 0 0.037725713429655791 0.05886194217985459 0 0.036611327026605613 0.058427849996007551 0 0.036155585263669618 0.05751941235889136 0 0.035242735166781891 0.058135202066430802 0 0.036611327026605613 0.058427849996007551 0 0.036155585263669618 0.05751941235889136 0 0.037045260457677504 0.057977215507780913 0 0.034356582181410397 0.057558620603410215 0 0.035218604335498102 0.058048751746224349 0 0.035242735166781891 0.058135202066430802 0 0.034356582181410397 0.057558620603410215 0 0.035242735166781891 0.058135202066430802 0 0.035127958189553769 0.057168633560638241 0 0.036155585263669618 0.05751941235889136 0 0.035242735166781891 0.058135202066430802 0 0.035127958189553769 0.057168633560638241 0 0.03430194687908119 0.056417463341518627 0 0.035127958189553769 0.057168633560638241 0 0.035159969113114142 0.056081627965953867 0 0.035127958189553769 0.057168633560638241 0 0.036156595608751813 0.056548572233244693 0 0.035159969113114142 0.056081627965953867 0 0.036155585263669618 0.05751941235889136 0 0.035127958189553769 0.057168633560638241 0 0.036156595608751813 0.056548572233244693 0 0.036155585263669618 0.05751941235889136 0 0.037017377810399293 0.056993803138979907 0 0.036156595608751813 0.056548572233244693 0 0.037017377810399293 0.056993803138979907 0 0.036156595608751813 0.056548572233244693 0 0.037855421415121458 0.056262396425245026 0 0.036155585263669618 0.05751941235889136 0 0.037045260457677504 0.057977215507780913 0 0.037017377810399293 0.056993803138979907 0 0.035930784934153311 0.055000044416810764 0 0.038504958353887862 0.0549999009819791 0 0.038566735240150703 0.056803533384489971 0 0.036156595608751813 0.056548572233244693 0 0.035929704732607197 0.054999836581281332 0 0.037855421415121458 0.056262396425245026 0 0.035931083827085639 0.055000197063579878 0 0.038242654200264736 0.056560957962765397 0 0.036156595608751813 0.056548572233244693 0 0.035929704732607197 0.054999836581281332 0 0.035159969113114142 0.056081627965953867 0 0.034265671548483777 0.055000015226386985 0 0.03430194687908119 0.056417463341518627 0 0.035159969113114142 0.056081627965953867 0 0.034265671548483777 0.055000015226386985 0 0.035929704732607197 0.054999836581281332 0 0.035159969113114142 0.056081627965953867 0 0.041078894090926431 0.054999927579952292 0 0.03959977564382313 0.055886839357603045 0 0.038504958353887862 0.0549999009819791 0 0.041078894090926431 0.054999927579952292 0 0.040266749017822769 0.056694688982755218 0 0.041339478015111709 0.057228447008983455 0 0.041078894090926431 0.054999927579952292 0 0.03959977564382313 0.055886839357603045 0 0.040266749017822769 0.056694688982755218 0 0.03959977564382313 0.055886839357603045 0 0.038566735240150703 0.056803533384489971 0 0.040266749017822769 0.056694688982755218 0 0.03959977564382313 0.055886839357603045 0 0.038504958353887862 0.0549999009819791 0 0.038566735240150703 0.056803533384489971 0 0.037045260457677504 0.057977215507780913 0 0.037017377810399293 0.056993803138979907 0 0.038892703552494884 0.057756525110015715 0 0.037017377810399293 0.056993803138979907 0 0.037855421415121458 0.056262396425245026 0 0.038892703552494884 0.057756525110015715 0 0.038242654200264736 0.056560957962765397 0 0.040663551212836178 0.058287434589076016 0 0.040266749017822769 0.056694688982755218 0 0.040791659838036141 0.058370771878737716 0 0.041339478015111709 0.057228447008983455 0 0.038566735240150703 0.056803533384489971 0 0.040266749017822769 0.056694688982755218 0 0.040791659838036141 0.058370771878737716 0 0.037855421415121458 0.056262396425245026 0 0.038892703552494884 0.057756525110015715 0 0.040791659838036141 0.058370771878737716 0 0.038892703552494884 0.057756525110015715 0 0.040791659838036141 0.058370771878737716 0 0.042028106344287885 0.059220085810330336 0 0.038678734950890512 0.058149077459645281 0 0.042461916791377383 0.057431226111337198 0 0.038892703552494884 0.057756525110015715 0 0.039613602139387541 0.058998729729212503 0 0.040702013502094438 0.058592838691663485 0 0.038892703552494884 0.057756525110015715 0 0.038759674955244475 0.059021178925593422 0 0.039613602139387541 0.058998729729212503 0 0.038892703552494884 0.057756525110015715 0 0.037725713429655791 0.05886194217985459 0 0.038759674955244475 0.059021178925593422 0 0.037045260457677504 0.057977215507780913 0 0.038892703552494884 0.057756525110015715 0 0.037725713429655791 0.05886194217985459 0 0.037060958812041633 0.059713755495082149 0 0.038316211492543967 0.059657042697809574 0 0.038655225592469124 0.060735200464808084 0 0.035948544416978957 0.058972740990148494 0 0.035355309685760124 0.056956521280443803 0 0.037060958812041633 0.059713755495082149 0 0.037725713429655791 0.05886194217985459 0 0.038316211492543967 0.059657042697809574 0 0.038759674955244475 0.059021178925593422 0 0.038316211492543967 0.059657042697809574 0 0.039299633104053787 0.059908076758673337 0 0.037725713429655791 0.05886194217985459 0 0.038759674955244475 0.059021178925593422 0 0.038316211492543967 0.059657042697809574 0 0.038316211492543967 0.059657042697809574 0 0.039299633104053787 0.059908076758673337 0 0.038655225592469124 0.060735200464808084 0 0.039613602139387541 0.058998729729212503 0 0.039299633104053787 0.059908076758673337 0 0.040350957825926285 0.059735698663691522 0 0.038759674955244475 0.059021178925593422 0 0.039613602139387541 0.058998729729212503 0 0.039299633104053787 0.059908076758673337 0 0.039299633104053787 0.059908076758673337 0 0.039963419154699371 0.060908770221824539 0 0.040350957825926285 0.059735698663691522 0 0.039299633104053787 0.059908076758673337 0 0.039963419154699371 0.060908770221824539 0 0.038655225592469124 0.060735200464808084 0 0.029661471981382557 0.055318065953677713 0 0.030224959427118947 0.054622871786677227 0 0.031131477069816647 0.056528051709731665 0 0.039571868949033279 0.053907150860240768 0 0.035355309685760124 0.056956521280443803 0 0.036917652634023412 0.05369162920442469 0 0.036938087415191813 0.053610532688246552 0 0.037056085885562584 0.053747760873311998 0 0.036427638713949675 0.048414002950085432 0 0.035355309685760124 0.056956521280443803 0 0.038319085232580603 0.050804326386887796 0 0.038526624533315172 0.050108548028105916 0 0.038027217739280368 0.050750914233535463 0 0.039571868949033279 0.053907150860240768 0 0.036427638713949675 0.048414002950085432 0 0.036427638713949675 0.048414002950085432 0 0.042114717046547664 0.050829615643138745 0 0.036427638713949675 0.048414002950085432 0 0.040982938327103702 0.041362305805324157 0 0.036226262560738458 0.04331518761423539 0 0.036164351431985257 0.041782387794280305 0 0.034675621112214346 0.04211182811807615 0 0.040959757959330961 0.047135218447341087 0 0.041830293636793865 0.047791088033807702 0 0.042067996451741231 0.046717485328774573 0 0.036164351431985257 0.041782387794280305 0 0.036996515720946289 0.040884270587544826 0 0.034675621112214346 0.04211182811807615 0 0.033432475930569687 0.04637891784031499 0 0.034059625831426174 0.044377159578067787 0 0.03489204635563254 0.044576324804426366 0 0.036427638713949675 0.048414002950085432 0 0.033302330807943328 0.042208642216542067 0 0.036226262560738458 0.04331518761423539 0 0.036164351431985257 0.041782387794280305 0 0.036996515720946289 0.040884270587544826 0 0.033302330807943328 0.042208642216542067 0 0.02957781940585498 0.043595072638149809 0 0.036427638713949675 0.048414002950085432 0 0.02957781940585498 0.043595072638149809 0 0.030244459002618188 0.038622811625796484 0 0.030156201705322145 0.038090991655329608 0 0.030974460204295288 0.037646069098303564 0 0.02957781940585498 0.043595072638149809 0 0.026933507928778661 0.038817861205000345 0 0.041280217278663586 0.033114897527141494 0 0.04108944309721467 0.033114559033474079 0 0.041096849150675796 0.033343792182133791 0 0.036996515720946289 0.040884270587544826 0 0.037632753991290513 0.038876319916429043 0 0.034675621112214346 0.04211182811807615 0 0.035772824744679826 0.035864487847033277 0 0.040982938327103702 0.041362305805324157 0 0.033302330807943328 0.042208642216542067 0 0.035772824744679826 0.035864487847033277 0 0.030012918010033269 0.03856873957652298 0 0.030244459002618188 0.038622811625796484 0 0.030156201705322145 0.038090991655329608 0 0.02957781940585498 0.043595072638149809 0 0.027752673630001626 0.048010770080338015 0 0.022652740594499125 0.039726056547175252 0 0.023066528333406288 0.039575989859018966 0 0.023289547646810949 0.039926906711207182 0 0.023066528333406288 0.039575989859018966 0 0.023354587577433517 0.039435254030360342 0 0.023097386202444961 0.039373759174972697 0 0.023066528333406288 0.039575989859018966 0 0.023289547646810949 0.039926906711207182 0 0.023354587577433517 0.039435254030360342 0 0.022652740594499125 0.039726056547175252 0 0.023066528333406288 0.039575989859018966 0 0.022900768257823015 0.039325610818882764 0 0.023066528333406288 0.039575989859018966 0 0.022900768257823015 0.039325610818882764 0 0.023097386202444961 0.039373759174972697 0 0.031131477069816647 0.056528051709731665 0 0.033041301632223463 0.056969974263099445 0 0.032654737564209266 0.055331314293354757 0 0.035355309685760124 0.056956521280443803 0 0.033179939243857717 0.057054115916670943 0 0.030224959427118947 0.054622871786677227 0 0.031131477069816647 0.056528051709731665 0 0.032654737564209266 0.055331314293354757 0 0.034280872539216814 0.057700632946661702 0 0.033732961344609978 0.057222772564383545 0 0.034297200772840632 0.057335479742111103 0 0.034915384894206432 0.057350959158985741 0 0.033179939243857717 0.057054115916670943 0 0.03486038416818979 0.057327899413392579 0 0.033041301632223463 0.056969974263099445 0 0.033912764250264106 0.05647753506452062 0 0.033912764250264106 0.05647753506452062 0 0.035031167441492352 0.056195755437610587 0 0.032654737564209266 0.055331314293354757 0 0.028079139334873427 0.047286540510844584 0 0.027752673630001626 0.048010770080338015 0 0.033041301632223463 0.056969974263099445 0 0.033912764250264106 0.05647753506452062 0 0.032654737564209266 0.055331314293354757 0 0.028487286648112696 0.05350229110295493 0 0.029570470274623381 0.052171141431849075 0 0.027034360856948346 0.049979729223795358 0 0.035218604335498102 0.058048751746224349 0 0.03486038416818979 0.057327899413392579 0 0.035031167441492352 0.056195755437610587 0 0.032441272020221325 0.057021930061365349 0 0.028079139334873427 0.047286540510844584 0 0.03486038416818979 0.057327899413392579 0 0.033912764250264106 0.05647753506452062 0 0.035031167441492352 0.056195755437610587 0 0.024501156956987642 0.039722297634466261 0 0.02401635179900366 0.04033912265008556 0 0.023802888114786487 0.039634732468476049 0 0.024501156956987642 0.039722297634466261 0 0.023802888114786487 0.039634732468476049 0 0.024048469681676933 0.039204216041665303 0 0.028079139334873427 0.047286540510844584 0 0.022977287647548632 0.037483224323966696 0 0.023802888114786487 0.039634732468476049 0 0.023289547646810949 0.039926906711207182 0 0.023354587577433517 0.039435254030360342 0 0.024064268544714371 0.040206062438924745 0 0.023802888114786487 0.039634732468476049 0 0.023289547646810949 0.039926906711207182 0 0.023802888114786487 0.039634732468476049 0 0.023354587577433517 0.039435254030360342 0 0.023649930694624347 0.039253521349560637 0 0.023354587577433517 0.039435254030360342 0 0.02341182887813624 0.039111299597016883 0 0.023193084592022739 0.039183293177595988 0 0.02341182887813624 0.039111299597016883 0 0.023696589352163292 0.038872996562121689 0 0.023176910400458078 0.038849390617875276 0 0.023354587577433517 0.039435254030360342 0 0.02341182887813624 0.039111299597016883 0 0.023649930694624347 0.039253521349560637 0 0.02341182887813624 0.039111299597016883 0 0.023649930694624347 0.039253521349560637 0 0.023696589352163292 0.038872996562121689 0 0.02341182887813624 0.039111299597016883 0 0.023193084592022739 0.039183293177595988 0 0.023176910400458078 0.038849390617875276 0 0.024665854209600831 0.038891713758205555 0 0.024048469681676933 0.039204216041665303 0 0.024122700178469052 0.038672633361390749 0 0.023802888114786487 0.039634732468476049 0 0.023649930694624347 0.039253521349560637 0 0.024048469681676933 0.039204216041665303 0 0.023649930694624347 0.039253521349560637 0 0.023696589352163292 0.038872996562121689 0 0.024048469681676933 0.039204216041665303 0 0.023696589352163292 0.038872996562121689 0 0.024048469681676933 0.039204216041665303 0 0.024122700178469052 0.038672633361390749 0 0.024417962267835235 0.038211394394610965 0 0.024122700178469052 0.038672633361390749 0 0.023880484359267026 0.03820776233900014 0 0.023696589352163292 0.038872996562121689 0 0.024122700178469052 0.038672633361390749 0 0.023880484359267026 0.03820776233900014 0 0.023696589352163292 0.038872996562121689 0 0.023880484359267026 0.03820776233900014 0 0.023176910400458078 0.038849390617875276 0 0.031125439381663924 0.033236414514928314 0 0.031879199139220396 0.033376170352022526 0 0.03258350646153553 0.032585449053476163 0 0.02713454681668958 0.035823912121465032 0 0.029623021538641107 0.035446146369615135 0 0.032934787583548383 0.03217444187470149 0 0.029623021538641107 0.035446146369615135 0 0.032029763314836882 0.033719886442237709 0 0.031125439381663924 0.033236414514928314 0 0.031879199139220396 0.033376170352022526 0 0.036989497394852341 0.02889250938456801 0 0.034467144941163826 0.031715450578838698 0 0.032029763314836882 0.033719886442237709 0 0.031879199139220396 0.033376170352022526 0 0.032868865473704025 0.033159301502151621 0 0.031879199139220396 0.033376170352022526 0 0.032868865473704025 0.033159301502151621 0 0.03273323563201911 0.032488465229829726 0 0.036989497394852341 0.02889250938456801 0 0.040313043465224074 0.026541979309313492 0 0.036809772404200164 0.029665770373709672 0 0.037639172474239972 0.029085890342007936 0 0.038258796534593208 0.029126067495528051 0 0.032868865473704025 0.033159301502151621 0 0.032984843776455067 0.032544369423177705 0 0.03273323563201911 0.032488465229829726 0 0.037639172474239972 0.029085890342007936 0 0.038258796534593208 0.029126067495528051 0 0.038471919624349177 0.028504855129915768 0 0.040313043465224074 0.026541979309313492 0 0.039086801076704286 0.029677705172180789 0 0.034467144941163826 0.031715450578838698 0 0.039086801076704286 0.029677705172180789 0 0.032868865473704025 0.033159301502151621 0 0.032984843776455067 0.032544369423177705 0 0.033643651054462598 0.03260253218674284 0 0.041979519098893747 0.026160441314293219 0 0.041350467516552539 0.025589252283074387 0 0.041802230309562344 0.025660100577565067 0 0.041979519098893747 0.026160441314293219 0 0.041802230309562344 0.025660100577565067 0 0.042249599038427517 0.025332977874089696 0 0.041802230309562344 0.025660100577565067 0 0.041752325109814928 0.02532271717046387 0 0.042249599038427517 0.025332977874089696 0 0.041350467516552539 0.025589252283074387 0 0.041802230309562344 0.025660100577565067 0 0.041752325109814928 0.02532271717046387 0 0.041979519098893747 0.026160441314293219 0 0.042249599038427517 0.025332977874089696 0 0.043124471034967547 0.02578463205089743 0 0.042249599038427517 0.025332977874089696 0 0.042822839779592732 0.024698764888417171 0 0.041538347129989099 0.024679145045189577 0 0.042249599038427517 0.025332977874089696 0 0.042822839779592732 0.024698764888417171 0 0.043124471034967547 0.02578463205089743 0 0.041350467516552539 0.025589252283074387 0 0.041752325109814928 0.02532271717046387 0 0.041538347129989099 0.024679145045189577 0 0.041752325109814928 0.02532271717046387 0 0.042249599038427517 0.025332977874089696 0 0.041538347129989099 0.024679145045189577 0 0.035772824744679826 0.035864487847033277 0 0.039086801076704286 0.029677705172180789 0 0.041280217278663586 0.033114897527141494 0 0.041404522158518489 0.032618022913643976 0 0.041122232897979526 0.032881568167867081 0 0.034000238848891376 0.031620472253971868 0 0.033643651054462598 0.03260253218674284 0 0.033302289062463894 0.03226991705202429 0 0.039086801076704286 0.029677705172180789 0 0.042157324995535331 0.02819440507459119 0 0.042822839779592732 0.024698764888417171 0 0.041538347129989099 0.024679145045189577 0 0.042767047201137109 0.023635513737333504 0 0.041280217278663586 0.033114897527141494 0 0.041122232897979526 0.032881568167867081 0 0.04108944309721467 0.033114559033474079 0 0.030156201705322145 0.038090991655329608 0 0.030974460204295288 0.037646069098303564 0 0.031050224951788247 0.037038864433759588 0 0.035772824744679826 0.035864487847033277 0 0.032107770068036209 0.03416753130971277 0 0.022900768257823015 0.039325610818882764 0 0.023193084592022739 0.039183293177595988 0 0.023097386202444961 0.039373759174972697 0 0.023354587577433517 0.039435254030360342 0 0.023193084592022739 0.039183293177595988 0 0.023097386202444961 0.039373759174972697 0 0.032984843776455067 0.032544369423177705 0 0.03273323563201911 0.032488465229829726 0 0.033268480947690568 0.032270255748537653 0 0.026933507928778661 0.038817861205000345 0 0.029623021538641107 0.035446146369615135 0 0.029623021538641107 0.035446146369615135 0 0.032107770068036209 0.03416753130971277 0 0.022900768257823015 0.039325610818882764 0 0.023193084592022739 0.039183293177595988 0 0.023176910400458078 0.038849390617875276 0 0.033090727644259972 0.03286841253367602 0 0.032107770068036209 0.03416753130971277 0 0.032984843776455067 0.032544369423177705 0 0.033643651054462598 0.03260253218674284 0 0.033302289062463894 0.03226991705202429 0 0.030974460204295288 0.037646069098303564 0 0.031698971842917291 0.036680585822526771 0 0.031050224951788247 0.037038864433759588 0 0.046105960786850302 0.023820245950655669 0 0.044001397743296707 0.024377046829097433 0 0.044130928271139021 0.022575964138868573 0 0.049561648210179207 0.025940454069492625 0 0.046485235835825929 0.031034946295642685 0 0.042767047201137109 0.023635513737333504 0 0.044001397743296707 0.024377046829097433 0 0.044130928271139021 0.022575964138868573 0 0.041122232897979526 0.032881568167867081 0 0.04108944309721467 0.033114559033474079 0 0.040866167009243309 0.033118567165954967 0 0.042157324995535331 0.02819440507459119 0 0.046485235835825929 0.031034946295642685 0 0.042822839779592732 0.024698764888417171 0 0.042767047201137109 0.023635513737333504 0 0.044001397743296707 0.024377046829097433 0 0.044001397743296707 0.024377046829097433 0 0.043124471034967547 0.02578463205089743 0 0.045124263665738795 0.025800170331938908 0 0.042822839779592732 0.024698764888417171 0 0.044001397743296707 0.024377046829097433 0 0.043124471034967547 0.02578463205089743 0 0.046105960786850302 0.023820245950655669 0 0.044001397743296707 0.024377046829097433 0 0.045124263665738795 0.025800170331938908 0 0.047057159847587349 0.027034087160415197 0 0.045124263665738795 0.025800170331938908 0 0.048538069571265385 0.025314500716884097 0 0.046105960786850302 0.023820245950655669 0 0.045124263665738795 0.025800170331938908 0 0.048538069571265385 0.025314500716884097 0 0.049561648210179207 0.025940454069492625 0 0.050381320426121014 0.026981231905618745 0 0.052202560646618094 0.028429134087168149 0 0.051550195546076691 0.02905181926684345 0 0.051375543944972436 0.028363680797164167 0 0.051220513673377252 0.027713122232922487 0 0.052202560646618094 0.028429134087168149 0 0.051375543944972436 0.028363680797164167 0 0.052199780550299932 0.029286225943448489 0 0.051904823216823215 0.0299565860702194 0 0.051550195546076691 0.02905181926684345 0 0.052202560646618094 0.028429134087168149 0 0.052199780550299932 0.029286225943448489 0 0.051550195546076691 0.02905181926684345 0 0.052836918534564993 0.029054127137810269 0 0.052202560646618094 0.028429134087168149 0 0.052199780550299932 0.029286225943448489 0 0.052836918534564993 0.029054127137810269 0 0.052199780550299932 0.029286225943448489 0 0.052807575799609666 0.030138115553167928 0 0.053624388860804624 0.038130890050390415 0 0.052995933527278834 0.040725177773695442 0 0.052199780550299932 0.029286225943448489 0 0.051904823216823215 0.0299565860702194 0 0.052807575799609666 0.030138115553167928 0 0.055228934998422685 0.046847655556466354 0 0.054886746630410543 0.04642528864400227 0 0.055709018947209712 0.046434255507887191 0 0.055237933587017639 0.045998713282652086 0 0.05447707210153676 0.046158177612153808 0 0.054292643335312731 0.04534448139653395 0 0.054886746630410543 0.04642528864400227 0 0.055237933587017639 0.045998713282652086 0 0.05447707210153676 0.046158177612153808 0 0.054886746630410543 0.04642528864400227 0 0.055237933587017639 0.045998713282652086 0 0.055709018947209712 0.046434255507887191 0 0.055228934998422685 0.046847655556466354 0 0.054886746630410543 0.04642528864400227 0 0.053750478024522264 0.04665061699331445 0 0.054886746630410543 0.04642528864400227 0 0.053750478024522264 0.04665061699331445 0 0.05447707210153676 0.046158177612153808 0 0.052995933527278834 0.040725177773695442 0 0.053411518531039218 0.046887515993547568 0 0.05447707210153676 0.046158177612153808 0 0.053683508448587325 0.045973854131496024 0 0.054292643335312731 0.04534448139653395 0 0.052982266638932227 0.047328692132659417 0 0.05447707210153676 0.046158177612153808 0 0.053683508448587325 0.045973854131496024 0 0.052982266638932227 0.047328692132659417 0 0.053683508448587325 0.045973854131496024 0 0.052816349111186482 0.045966203804433475 0 0.052995933527278834 0.040725177773695442 0 0.047074118390528878 0.045841889346328511 0 0.052816349111186482 0.045966203804433475 0 0.050553298164107904 0.046901655755352767 0 0.052779685450798745 0.044616132113110045 0 0.052982266638932227 0.047328692132659417 0 0.052816349111186482 0.045966203804433475 0 0.050553298164107904 0.046901655755352767 0 0.052836918534564993 0.029054127137810269 0 0.052807575799609666 0.030138115553167928 0 0.053429115742173842 0.029610556000878738 0 0.052995933527278834 0.040725177773695442 0 0.046485235835825929 0.031034946295642685 0 0.050180989113810227 0.039035822049947308 0 0.047359157418533901 0.041052506743773837 0 0.046874721723964015 0.03845357875754947 0 0.047359157418533901 0.041052506743773837 0 0.045619838395720265 0.039768415211542674 0 0.046874721723964015 0.03845357875754947 0 0.046485235835825929 0.031034946295642685 0 0.040982938327103702 0.041362305805324157 0 0.04108944309721467 0.033114559033474079 0 0.040866167009243309 0.033118567165954967 0 0.041096849150675796 0.033343792182133791 0 0.040959757959330961 0.047135218447341087 0 0.042067996451741231 0.046717485328774573 0 0.042042339828498781 0.045845902928574087 0 0.040982938327103702 0.041362305805324157 0 0.047074118390528878 0.045841889346328511 0 0.041830293636793865 0.047791088033807702 0 0.042067996451741231 0.046717485328774573 0 0.043443426498883927 0.046093639141078988 0 0.042114717046547664 0.050829615643138745 0 0.047074118390528878 0.045841889346328511 0 0.042067996451741231 0.046717485328774573 0 0.042042339828498781 0.045845902928574087 0 0.043443426498883927 0.046093639141078988 0 0.039571868949033279 0.053907150860240768 0 0.042114717046547664 0.050829615643138745 0 0.046639567963707607 0.050757339092197276 0 0.046383545461296381 0.050707975186343561 0 0.046297299300261524 0.051224930009175849 0 0.042114717046547664 0.050829615643138745 0 0.044722949562974491 0.052962703369714953 0 0.043534539557004835 0.054550960203607952 0 0.043413950544222639 0.054527896267511859 0 0.043370303609170789 0.055139760214682171 0 0.039571868949033279 0.053907150860240768 0 0.041626482003513862 0.057809454225552163 0 0.043413950544222639 0.054527896267511859 0 0.043370303609170789 0.055139760214682171 0 0.043060929985986311 0.05500782338440504 0 0.043370303609170789 0.055139760214682171 0 0.043060929985986311 0.05500782338440504 0 0.043100749939660579 0.055346725405133447 0 0.043060929985986311 0.05500782338440504 0 0.043100749939660579 0.055346725405133447 0 0.042710977293502914 0.055462757699920637 0 0.041626482003513862 0.057809454225552163 0 0.042461916791377383 0.057431226111337198 0 0.039613602139387541 0.058998729729212503 0 0.040350957825926285 0.059735698663691522 0 0.040702013502094438 0.058592838691663485 0 0.043370303609170789 0.055139760214682171 0 0.043100749939660579 0.055346725405133447 0 0.043197111909531682 0.055696369730297443 0 0.046383545461296381 0.050707975186343561 0 0.046297299300261524 0.051224930009175849 0 0.045668145937613994 0.051561380200639613 0 0.046297299300261524 0.051224930009175849 0 0.045946992954445161 0.051692779174247673 0 0.045668145937613994 0.051561380200639613 0 0.047074118390528878 0.045841889346328511 0 0.048849211056582693 0.05242464525237215 0 0.044722949562974491 0.052962703369714953 0 0.045310862515461278 0.055063570503298062 0 0.045310862515461278 0.055063570503298062 0 0.048849211056582693 0.05242464525237215 0 0.044956314126752876 0.057375985510125002 0 0.045936252005526187 0.057824512066129957 0 0.045819697524620423 0.056324505881843644 0 0.045310862515461278 0.055063570503298062 0 0.045192003533291066 0.056449628140794378 0 0.045283182246844418 0.056913270210618781 0 0.045819697524620423 0.056324505881843644 0 0.045104685686087422 0.056182701078314613 0 0.045283182246844418 0.056913270210618781 0 0.045104685686087422 0.056182701078314613 0 0.044451899586082047 0.056504803386909039 0 0.045819697524620423 0.056324505881843644 0 0.045104685686087422 0.056182701078314613 0 0.045411235340735961 0.055772288953087085 0 0.040791659838036141 0.058370771878737716 0 0.042028106344287885 0.059220085810330336 0 0.041339478015111709 0.057228447008983455 0 0.045104685686087422 0.056182701078314613 0 0.044451899586082047 0.056504803386909039 0 0.044749858209648365 0.055358524897449156 0 0.043100749939660579 0.055346725405133447 0 0.042710977293502914 0.055462757699920637 0 0.043197111909531682 0.055696369730297443 0 0.045310862515461278 0.055063570503298062 0 0.042461916791377383 0.057431226111337198 0 0.042461916791377383 0.057431226111337198 0 0.043754788788515554 0.056203371043135317 0 0.042028106344287885 0.059220085810330336 0 0.041339478015111709 0.057228447008983455 0 0.042733664499212724 0.057045690903278372 0 0.045104685686087422 0.056182701078314613 0 0.044749858209648365 0.055358524897449156 0 0.045411235340735961 0.055772288953087085 0 0.044749858209648365 0.055358524897449156 0 0.045411235340735961 0.055772288953087085 0 0.045787392256020361 0.055436812276455263 0 0.045819697524620423 0.056324505881843644 0 0.045411235340735961 0.055772288953087085 0 0.045787392256020361 0.055436812276455263 0 0.044749858209648365 0.055358524897449156 0 0.045787392256020361 0.055436812276455263 0 0.043658867952882374 0.054997884185059853 0 0.043754788788515554 0.056203371043135317 0 0.043653367919471997 0.054999972159001098 0 0.041078894090926431 0.054999927579952292 0 0.042733664499212724 0.057045690903278372 0 0.043652807290269012 0.05499988505851134 0 0.041078894090926431 0.054999927579952292 0 0.041339478015111709 0.057228447008983455 0 0.042733664499212724 0.057045690903278372 0 0.043658867952882374 0.054997884185059853 0 0.050210083845333153 0.054996094327089753 0 0.049234174964696349 0.054904184071703478 0 0.043658867952882374 0.054997884185059853 0 0.047050316102298942 0.055281332766030852 0 0.049234174964696349 0.054904184071703478 0 0.045787392256020361 0.055436812276455263 0 0.043658867952882374 0.054997884185059853 0 0.047050316102298942 0.055281332766030852 0 0.045787392256020361 0.055436812276455263 0 0.047050316102298942 0.055281332766030852 0 0.047607609257869221 0.055782515464855208 0 0.047050316102298942 0.055281332766030852 0 0.048799758663417618 0.055248262567057074 0 0.049234174964696349 0.054904184071703478 0 0.048799758663417618 0.055248262567057074 0 0.049262909436508066 0.055343631644631963 0 0.050823824152227123 0.054603144643440155 0 0.047050316102298942 0.055281332766030852 0 0.048799758663417618 0.055248262567057074 0 0.047607609257869221 0.055782515464855208 0 0.048799758663417618 0.055248262567057074 0 0.048366368604365426 0.055653665970144164 0 0.047607609257869221 0.055782515464855208 0 0.048799758663417618 0.055248262567057074 0 0.048366368604365426 0.055653665970144164 0 0.049262909436508066 0.055343631644631963 0 0.045819697524620423 0.056324505881843644 0 0.045787392256020361 0.055436812276455263 0 0.047607609257869221 0.055782515464855208 0 0.048366368604365426 0.055653665970144164 0 0.047607609257869221 0.055782515464855208 0 0.047977106852952707 0.055806732056999306 0 0.047786941842694927 0.055820585805535311 0 0.047607609257869221 0.055782515464855208 0 0.047977106852952707 0.055806732056999306 0 0.048849211056582693 0.05242464525237215 0 0.046509779721613208 0.057202322421109057 0 0.045936252005526187 0.057824512066129957 0 0.045819697524620423 0.056324505881843644 0 0.047607609257869221 0.055782515464855208 0 0.047786941842694927 0.055820585805535311 0 0.047977106852952707 0.055806732056999306 0 0.048048999170742082 0.056198630718073586 0 0.048849211056582693 0.05242464525237215 0 0.052473872190754063 0.048459322063845352 0 0.047977106852952707 0.055806732056999306 0 0.048048999170742082 0.056198630718073586 0 0.048348641821381468 0.055820107722887383 0 0.048366368604365426 0.055653665970144164 0 0.047977106852952707 0.055806732056999306 0 0.048348641821381468 0.055820107722887383 0 0.053683508448587325 0.045973854131496024 0 0.054292643335312731 0.04534448139653395 0 0.053784299502299911 0.045221970361335108 0 0.052473872190754063 0.048459322063845352 0 0.053122969095588432 0.047884122446097924 0 0.053683508448587325 0.045973854131496024 0 0.052816349111186482 0.045966203804433475 0 0.053784299502299911 0.045221970361335108 0 0.052779685450798745 0.044616132113110045 0 0.054291625139867322 0.045301917836044828 0 0.053784299502299911 0.045221970361335108 0 0.052816349111186482 0.045966203804433475 0 0.052779685450798745 0.044616132113110045 0 0.053784299502299911 0.045221970361335108 0 0.048048999170742082 0.056198630718073586 0 0.048996159648615541 0.055719213358571711 0 0.050555573485151994 0.055504407575742272 0 0.055237933587017639 0.045998713282652086 0 0.054551393627573365 0.045624069403190588 0 0.055872285881688473 0.04600212621049183 0 0.052473872190754063 0.048459322063845352 0 0.052893307677065612 0.050961025783542467 0 0.049262909436508066 0.055343631644631963 0 0.048996159648615541 0.055719213358571711 0 0.049882554203169241 0.055305602878921972 0 0.048366368604365426 0.055653665970144164 0 0.048996159648615541 0.055719213358571711 0 0.048348641821381468 0.055820107722887383 0 0.048366368604365426 0.055653665970144164 0 0.049262909436508066 0.055343631644631963 0 0.048996159648615541 0.055719213358571711 0 0.048048999170742082 0.056198630718073586 0 0.048996159648615541 0.055719213358571711 0 0.048348641821381468 0.055820107722887383 0 0.055107043423458499 0.046295523174975532 0 0.052473872190754063 0.048459322063845352 0 0.048996159648615541 0.055719213358571711 0 0.050555573485151994 0.055504407575742272 0 0.049882554203169241 0.055305602878921972 0 0.050555573485151994 0.055504407575742272 0 0.049882554203169241 0.055305602878921972 0 0.050823824152227123 0.054603144643440155 0 0.049262909436508066 0.055343631644631963 0 0.049882554203169241 0.055305602878921972 0 0.050823824152227123 0.054603144643440155 0 0.050555573485151994 0.055504407575742272 0 0.050823824152227123 0.054603144643440155 0 0.053554050502357342 0.052805548863596889 0 0.052278570485208967 0.053673368370068725 0 0.050823824152227123 0.054603144643440155 0 0.053554050502357342 0.052805548863596889 0 0.048799758663417618 0.055248262567057074 0 0.050823824152227123 0.054603144643440155 0 0.049234174964696349 0.054904184071703478 0 0.052278570485208967 0.053673368370068725 0 0.050823824152227123 0.054603144643440155 0 0.049234174964696349 0.054904184071703478 0 0.052278570485208967 0.053673368370068725 0 0.050210083845333153 0.054996094327089753 0 0.053717691612549551 0.053528733492965934 0 0.052278570485208967 0.053673368370068725 0 0.050210083845333153 0.054996094327089753 0 0.049234174964696349 0.054904184071703478 0 0.054998301455749653 0.054997016376784558 0 0.053717691612549551 0.053528733492965934 0 0.054996117536575025 0.050700201837268505 0 0.050210083845333153 0.054996094327089753 0 0.054998301455749653 0.054997016376784558 0 0.053717691612549551 0.053528733492965934 0 0.053717691612549551 0.053528733492965934 0 0.054996117536575025 0.050700201837268505 0 0.054466854590366855 0.051282894514727229 0 0.052278570485208967 0.053673368370068725 0 0.053717691612549551 0.053528733492965934 0 0.054466854590366855 0.051282894514727229 0 0.052278570485208967 0.053673368370068725 0 0.054466854590366855 0.051282894514727229 0 0.053554050502357342 0.052805548863596889 0 0.054996117536575025 0.050700201837268505 0 0.054466854590366855 0.051282894514727229 0 0.055101759442569426 0.047683184292058214 0 0.054466854590366855 0.051282894514727229 0 0.055101759442569426 0.047683184292058214 0 0.053554050502357342 0.052805548863596889 0 0.054996117536575025 0.050700201837268505 0 0.055101759442569426 0.047683184292058214 0 0.054999821962205084 0.044665647932240864 0 0.055101759442569426 0.047683184292058214 0 0.055928024088413485 0.046687557952318673 0 0.056456074705057271 0.046663490636313525 0 0.053914534250485674 0.038408778979695454 0 0.055003261021601281 0.044663959302030563 0 0.055928024088413485 0.046687557952318673 0 0.056080220785048554 0.045631639863071526 0 0.054999821962205084 0.044665647932240864 0 0.055101759442569426 0.047683184292058214 0 0.055928024088413485 0.046687557952318673 0 0.054999821962205084 0.044665647932240864 0 0.053914534250485674 0.038408778979695454 0 0.053396043205586975 0.038102725506529662 0 0.056080220785048554 0.045631639863071526 0 0.056328747788113281 0.046415456727749542 0 0.056358780053689217 0.046613749482881363 0 0.055928024088413485 0.046687557952318673 0 0.056101120127383823 0.046101388815655536 0 0.056328747788113281 0.046415456727749542 0 0.056080220785048554 0.045631639863071526 0 0.056101120127383823 0.046101388815655536 0 0.056328747788113281 0.046415456727749542 0 0.055928024088413485 0.046687557952318673 0 0.056080220785048554 0.045631639863071526 0 0.056101120127383823 0.046101388815655536 0 0.054733353898013391 0.048026763615449011 0 0.054769645663683954 0.049554328942988439 0 0.055928024088413485 0.046687557952318673 0 0.056328747788113281 0.046415456727749542 0 0.056456074705057271 0.046663490636313525 0 0.055872285881688473 0.04600212621049183 0 0.056456074705057271 0.046663490636313525 0 0.056240788049977578 0.046463926637343889 0 0.052893307677065612 0.050961025783542467 0 0.054769645663683954 0.049554328942988439 0 0.056328747788113281 0.046415456727749542 0 0.056456074705057271 0.046663490636313525 0 0.056240788049977578 0.046463926637343889 0 0.056240788049977578 0.046463926637343889 0 0.055709018947209712 0.046434255507887191 0 0.056358780053689217 0.046613749482881363 0 0.055237933587017639 0.045998713282652086 0 0.055872285881688473 0.04600212621049183 0 0.055709018947209712 0.046434255507887191 0 0.055872285881688473 0.04600212621049183 0 0.056240788049977578 0.046463926637343889 0 0.055709018947209712 0.046434255507887191 0 0.051904823216823215 0.0299565860702194 0 0.050971698795368996 0.029797960751083083 0 0.051550195546076691 0.02905181926684345 0 0.055228934998422685 0.046847655556466354 0 0.055709018947209712 0.046434255507887191 0 0.056358780053689217 0.046613749482881363 0 0.053624388860804624 0.038130890050390415 0 0.053396043205586975 0.038102725506529662 0 0.056328747788113281 0.046415456727749542 0 0.056240788049977578 0.046463926637343889 0 0.056358780053689217 0.046613749482881363 0 0.050971698795368996 0.029797960751083083 0 0.051094974832381387 0.028778757269200754 0 0.050435706013469639 0.028798622996054114 0 0.050971698795368996 0.029797960751083083 0 0.051550195546076691 0.02905181926684345 0 0.051094974832381387 0.028778757269200754 0 0.051226206056854365 0.028059074890352878 0 0.051375543944972436 0.028363680797164167 0 0.051094974832381387 0.028778757269200754 0 0.051550195546076691 0.02905181926684345 0 0.051375543944972436 0.028363680797164167 0 0.051094974832381387 0.028778757269200754 0 0.051226206056854365 0.028059074890352878 0 0.051094974832381387 0.028778757269200754 0 0.050435706013469639 0.028798622996054114 0 0.053855864289200368 0.03264734088816449 0 0.054354757738417192 0.035772876037654437 0 0.051226206056854365 0.028059074890352878 0 0.051062977893382051 0.02784540935913031 0 0.050435706013469639 0.028798622996054114 0 0.056838243249499383 0.040731101568758699 0 0.058104508978829121 0.042688833315141207 0 0.056292473204178642 0.04312143761165653 0 0.056838243249499383 0.040731101568758699 0 0.059392303651610807 0.040469329564183726 0 0.058104508978829121 0.042688833315141207 0 0.056838243249499383 0.040731101568758699 0 0.054999977569276909 0.042137368330252202 0 0.056292473204178642 0.04312143761165653 0 0.056787421605061568 0.044905789424159265 0 0.056292473204178642 0.04312143761165653 0 0.054999965414166713 0.044663127458337712 0 0.054999977569276909 0.042137368330252202 0 0.056292473204178642 0.04312143761165653 0 0.054999965414166713 0.044663127458337712 0 0.053914534250485674 0.038408778979695454 0 0.054354757738417192 0.035772876037654437 0 0.04997345652127802 0.029690371235220125 0 0.050971698795368996 0.029797960751083083 0 0.050435706013469639 0.028798622996054114 0 0.056787421605061568 0.044905789424159265 0 0.058104508978829121 0.042688833315141207 0 0.056292473204178642 0.04312143761165653 0 0.016386221640339219 0.027616936920811599 0 0.015909048140422048 0.026362384467357867 0 0.01428635912268747 0.027331906563084631 0 0.016386221640339219 0.027616936920811599 0 0.015909048140422048 0.026362384467357867 0 0.017474381147740341 0.026571807422275308 0 0.01428635912268747 0.027331906563084631 0 0.013868454492298458 0.025971102805763036 0 0.012327353295693467 0.02708822027089007 0 0.015909048140422048 0.026362384467357867 0 0.01428635912268747 0.027331906563084631 0 0.013868454492298458 0.025971102805763036 0 0.01428635912268747 0.027331906563084631 0 0.015227706817374495 0.028891795910124661 0 0.012742116580010713 0.02841228495285061 0 0.016386221640339219 0.027616936920811599 0 0.01428635912268747 0.027331906563084631 0 0.015227706817374495 0.028891795910124661 0 0.016386221640339219 0.027616936920811599 0 0.015227706817374495 0.028891795910124661 0 0.017386466018832741 0.028964998201967816 0 0.016386221640339219 0.027616936920811599 0 0.017386466018832741 0.028964998201967816 0 0.018474198007358247 0.02775675401364891 0 0.017386466018832741 0.028964998201967816 0 0.018474198007358247 0.02775675401364891 0 0.019609841299602884 0.028863179671357146 0 0.018474198007358247 0.02775675401364891 0 0.019609841299602884 0.028863179671357146 0 0.020201832780998685 0.027741384615596797 0 0.018474198007358247 0.02775675401364891 0 0.018864173606698679 0.026249980422812871 0 0.020201832780998685 0.027741384615596797 0 0.016386221640339219 0.027616936920811599 0 0.018474198007358247 0.02775675401364891 0 0.017474381147740341 0.026571807422275308 0 0.018474198007358247 0.02775675401364891 0 0.017474381147740341 0.026571807422275308 0 0.018864173606698679 0.026249980422812871 0 0.017269271646543231 0.025177161449597116 0 0.018864173606698679 0.026249980422812871 0 0.018557810222015917 0.024957846644449114 0 0.015909048140422048 0.026362384467357867 0 0.017474381147740341 0.026571807422275308 0 0.017269271646543231 0.025177161449597116 0 0.017474381147740341 0.026571807422275308 0 0.017269271646543231 0.025177161449597116 0 0.018864173606698679 0.026249980422812871 0 0.018864173606698679 0.026249980422812871 0 0.019377358088185845 0.025548587898728079 0 0.018557810222015917 0.024957846644449114 0 0.018864173606698679 0.026249980422812871 0 0.019377358088185845 0.025548587898728079 0 0.020478565254905181 0.026381953198559766 0 0.019377358088185845 0.025548587898728079 0 0.018557810222015917 0.024957846644449114 0 0.019051186461218117 0.024661245251881039 0 0.018557810222015917 0.024957846644449114 0 0.018729388513589119 0.024499170942269822 0 0.018109164910824756 0.02446919746760667 0 0.018557810222015917 0.024957846644449114 0 0.018729388513589119 0.024499170942269822 0 0.019051186461218117 0.024661245251881039 0 0.019051186461218117 0.024661245251881039 0 0.019128938206482451 0.024398447945294093 0 0.018952347495391313 0.024410148858560007 0 0.018729388513589119 0.024499170942269822 0 0.019051186461218117 0.024661245251881039 0 0.018952347495391313 0.024410148858560007 0 0.017269271646543231 0.025177161449597116 0 0.018109164910824756 0.02446919746760667 0 0.017310906409665771 0.024222857567204246 0 0.017269271646543231 0.025177161449597116 0 0.018557810222015917 0.024957846644449114 0 0.018109164910824756 0.02446919746760667 0 0.017444743784027494 0.023661830993404676 0 0.012942788775156 0.027800079191645899 0 0.015871520637757718 0.02402941559439413 0 0.014418433103342263 0.023228536106636999 0 0.016821488338931805 0.022652969762788591 0 0.017269271646543231 0.025177161449597116 0 0.015871520637757718 0.02402941559439413 0 0.016821488338931805 0.022652969762788591 0 0.015871520637757718 0.02402941559439413 0 0.014936591570692801 0.025048518715236071 0 0.014418433103342263 0.023228536106636999 0 0.013595628210475001 0.030624564774282621 0 0.012942788775156 0.027800079191645899 0 0.017269271646543231 0.025177161449597116 0 0.015871520637757718 0.02402941559439413 0 0.014936591570692801 0.025048518715236071 0 0.015909048140422048 0.026362384467357867 0 0.017269271646543231 0.025177161449597116 0 0.014936591570692801 0.025048518715236071 0 0.015909048140422048 0.026362384467357867 0 0.013868454492298458 0.025971102805763036 0 0.014936591570692801 0.025048518715236071 0 0.013868454492298458 0.025971102805763036 0 0.014936591570692801 0.025048518715236071 0 0.013466333149356087 0.024621194321038056 0 0.013595628210475001 0.030624564774282621 0 0.011678754078373165 0.03078168243254354 0 0.014936591570692801 0.025048518715236071 0 0.013466333149356087 0.024621194321038056 0 0.014418433103342263 0.023228536106636999 0 0.012191945350288079 0.037861334634697909 0 0.010931893679764371 0.038138422668525039 0 0.011516762932977391 0.037155869235880906 0 0.013466333149356087 0.024621194321038056 0 0.014418433103342263 0.023228536106636999 0 0.012132333935437077 0.023680830466506667 0 0.0095607363013434799 0.03789119433199474 0 0.0096345875471636633 0.038697992125810064 0 0.010616496000151099 0.037468994047464801 0 0.010931893679764371 0.038138422668525039 0 0.009887086655978863 0.0383139914397446 0 0.010616496000151099 0.037468994047464801 0 0.011678754078373165 0.03078168243254354 0 0.0090853190005420904 0.032956908630646396 0 0.0090853190005420904 0.032956908630646396 0 0.010108436065957557 0.039166220457059538 0 0.012132333935437077 0.023680830466506667 0 0.009846529151901132 0.024171224455528852 0 0.011821721678361277 0.025409336293287885 0 0.009846529151901132 0.024171224455528852 0 0.0098963686722690954 0.02590948484155969 0 0.011821721678361277 0.025409336293287885 0 0.013466333149356087 0.024621194321038056 0 0.012132333935437077 0.023680830466506667 0 0.011821721678361277 0.025409336293287885 0 0.013868454492298458 0.025971102805763036 0 0.013466333149356087 0.024621194321038056 0 0.011821721678361277 0.025409336293287885 0 0.0031491805076675206 0.041615594598186263 0 0.0034799934082900296 0.042466190402029071 0 0.003412576774610578 0.043017674998940582 0 0.0086305185322800102 0.037936206968291884 0 0.0082741331485871022 0.039020149570549972 0 0.0076176074064415872 0.0374023086640645 0 0.0031491805076675206 0.041615594598186263 0 0.0027158885166069496 0.041126855908222175 0 0.003412576774610578 0.043017674998940582 0 0.0056806611246215206 0.037775067097569101 0 0.0061720088386263373 0.043324528539604681 0 0.0034936767748235818 0.04146555244360816 0 0.0034181801983137086 0.041702818906620462 0 0.0037105498000880328 0.041784451865789399 0 0.0034936767748235818 0.04146555244360816 0 0.0033327266990253878 0.041534036134548709 0 0.0034181801983137086 0.041702818906620462 0 0.0034936767748235818 0.04146555244360816 0 0.0033327266990253878 0.041534036134548709 0 0.003269849178617181 0.041352187112086512 0 0.0031491805076675206 0.041615594598186263 0 0.0033327266990253878 0.041534036134548709 0 0.003269849178617181 0.041352187112086512 0 0.0031491805076675206 0.041615594598186263 0 0.0030842069084959824 0.041356515476162439 0 0.003269849178617181 0.041352187112086512 0 0.0031491805076675206 0.041615594598186263 0 0.0033327266990253878 0.041534036134548709 0 0.0034181801983137086 0.041702818906620462 0 0.0031491805076675206 0.041615594598186263 0 0.0034181801983137086 0.041702818906620462 0 0.0035057497704119056 0.04194877505015502 0 0.0034181801983137086 0.041702818906620462 0 0.0035057497704119056 0.04194877505015502 0 0.0037105498000880328 0.041784451865789399 0 0.0035057497704119056 0.04194877505015502 0 0.0034799934082900296 0.042466190402029071 0 0.0037613974608269483 0.042126747367628087 0 0.0031491805076675206 0.041615594598186263 0 0.0035057497704119056 0.04194877505015502 0 0.0034799934082900296 0.042466190402029071 0 0.0031491805076675206 0.041615594598186263 0 0.0027158885166069496 0.041126855908222175 0 0.0030842069084959824 0.041356515476162439 0 0.0096345875471636633 0.038697992125810064 0 0.0086305185322800102 0.037936206968291884 0 0.0082741331485871022 0.039020149570549972 0 0.0095607363013434799 0.03789119433199474 0 0.0096345875471636633 0.038697992125810064 0 0.0086305185322800102 0.037936206968291884 0 0.005037516258013631 0.032022694940047933 0 0.0060443097805781085 0.031319807352660253 0 0.0059427766998089368 0.030740402698615374 0 0.009846529151901132 0.024171224455528852 0 0.0098963686722690954 0.02590948484155969 0 0.0077805502119075555 0.026598768156540012 0 0.0090853190005420904 0.032956908630646396 0 0.0069054162904142449 0.027812533234304684 0 0.005037516258013631 0.032022694940047933 0 0.0061245313612416962 0.031750601425916895 0 0.0060443097805781085 0.031319807352660253 0 0.0090853190005420904 0.032956908630646396 0 0.0056806611246215206 0.037775067097569101 0 0.0027158885166069496 0.041126855908222175 0 0.0034637590063712731 0.041074423215227106 0 0.0041481929592688555 0.04076613845150856 0 0.0061245313612416962 0.031750601425916895 0 0.0065270300935074367 0.031370650371330216 0 0.0073140104438423632 0.031381162240595596 0 0.0056806611246215206 0.037775067097569101 0 0.0053593486652255473 0.035597502270990483 0 0.0027158885166069496 0.041126855908222175 0 0.0030212194776176845 0.041211812674129801 0 0.0034637590063712731 0.041074423215227106 0 0.0027158885166069496 0.041126855908222175 0 0.0030212194776176845 0.041211812674129801 0 0.0030842069084959824 0.041356515476162439 0 0.0061245313612416962 0.031750601425916895 0 0.0060443097805781085 0.031319807352660253 0 0.0065270300935074367 0.031370650371330216 0 0.0060443097805781085 0.031319807352660253 0 0.0066131866715245652 0.031038390867583813 0 0.0065270300935074367 0.031370650371330216 0 0.0060443097805781085 0.031319807352660253 0 0.0066131866715245652 0.031038390867583813 0 0.0059427766998089368 0.030740402698615374 0 0.0066131866715245652 0.031038390867583813 0 0.0065270300935074367 0.031370650371330216 0 0.0073140104438423632 0.031381162240595596 0 0.0030212194776176845 0.041211812674129801 0 0.003269849178617181 0.041352187112086512 0 0.0034637590063712731 0.041074423215227106 0 0.0030212194776176845 0.041211812674129801 0 0.0030842069084959824 0.041356515476162439 0 0.003269849178617181 0.041352187112086512 0 0.0034936767748235818 0.04146555244360816 0 0.0034637590063712731 0.041074423215227106 0 0.0037036388328054531 0.041253229872295974 0 0.0034936767748235818 0.04146555244360816 0 0.003269849178617181 0.041352187112086512 0 0.0034637590063712731 0.041074423215227106 0 0.0069054162904142449 0.027812533234304684 0 0.0072374021674682923 0.02927359010563791 0 0.006695906127112035 0.03042960027478657 0 0.0059427766998089368 0.030740402698615374 0 0.0073522500553028199 0.029087316332657012 0 0.0066131866715245652 0.031038390867583813 0 0.006695906127112035 0.03042960027478657 0 0.0071054355656550473 0.030799391451854088 0 0.0066131866715245652 0.031038390867583813 0 0.006695906127112035 0.03042960027478657 0 0.0059427766998089368 0.030740402698615374 0 0.0098963686722690954 0.02590948484155969 0 0.0077805502119075555 0.026598768156540012 0 0.0090061775008351986 0.027100088491489736 0 0.0077805502119075555 0.026598768156540012 0 0.0090061775008351986 0.027100088491489736 0 0.0077338320068439364 0.02789909889741227 0 0.0092204028313735004 0.028036151808880187 0 0.0080747298540305833 0.028843878117099129 0 0.0094565954993140935 0.029269377004574566 0 0.0092204028313735004 0.028036151808880187 0 0.0080747298540305833 0.028843878117099129 0 0.0077338320068439364 0.02789909889741227 0 0.0090061775008351986 0.027100088491489736 0 0.0092204028313735004 0.028036151808880187 0 0.0077338320068439364 0.02789909889741227 0 0.0077338320068439364 0.02789909889741227 0 0.0060494717560837762 0.028883878223865227 0 0.004055426567481913 0.028799085852971414 0 0.0080412131986835455 0.025332256342208939 0 0.0059298302029275173 0.037891257224062801 0 0.0077805502119075555 0.026598768156540012 0 0.0077338320068439364 0.02789909889741227 0 0.0073522500553028199 0.029087316332657012 0 0.0080747298540305833 0.028843878117099129 0 0.0077338320068439364 0.02789909889741227 0 0.0071949153005276571 0.028744783832207365 0 0.0077338320068439364 0.02789909889741227 0 0.0071949153005276571 0.028744783832207365 0 0.0060494717560837762 0.028883878223865227 0 0.011821721678361277 0.025409336293287885 0 0.012327353295693467 0.02708822027089007 0 0.010554134521716437 0.026921627420787169 0 0.013868454492298458 0.025971102805763036 0 0.011821721678361277 0.025409336293287885 0 0.012327353295693467 0.02708822027089007 0 0.0098963686722690954 0.02590948484155969 0 0.011821721678361277 0.025409336293287885 0 0.010554134521716437 0.026921627420787169 0 0.012327353295693467 0.02708822027089007 0 0.010554134521716437 0.026921627420787169 0 0.010703107486454349 0.028440850012370875 0 0.0098963686722690954 0.02590948484155969 0 0.0090061775008351986 0.027100088491489736 0 0.010554134521716437 0.026921627420787169 0 0.0090061775008351986 0.027100088491489736 0 0.0092204028313735004 0.028036151808880187 0 0.010554134521716437 0.026921627420787169 0 0.0092204028313735004 0.028036151808880187 0 0.010554134521716437 0.026921627420787169 0 0.010703107486454349 0.028440850012370875 0 0.0092204028313735004 0.028036151808880187 0 0.010703107486454349 0.028440850012370875 0 0.0094565954993140935 0.029269377004574566 0 0.012327353295693467 0.02708822027089007 0 0.010703107486454349 0.028440850012370875 0 0.012742116580010713 0.02841228495285061 0 0.010703107486454349 0.028440850012370875 0 0.012742116580010713 0.02841228495285061 0 0.011393149283667244 0.029687443788475897 0 0.01428635912268747 0.027331906563084631 0 0.012327353295693467 0.02708822027089007 0 0.012742116580010713 0.02841228495285061 0 0.012742116580010713 0.02841228495285061 0 0.011393149283667244 0.029687443788475897 0 0.013352741549775726 0.030560095076096184 0 0.011393149283667244 0.029687443788475897 0 0.011349054205535536 0.031319431189294783 0 0.013352741549775726 0.030560095076096184 0 0.010703107486454349 0.028440850012370875 0 0.011393149283667244 0.029687443788475897 0 0.0094565954993140935 0.029269377004574566 0 0.011393149283667244 0.029687443788475897 0 0.0097931700118517543 0.03057547582601311 0 0.0094565954993140935 0.029269377004574566 0 0.011393149283667244 0.029687443788475897 0 0.0097931700118517543 0.03057547582601311 0 0.011349054205535536 0.031319431189294783 0 0.0096512505475012493 0.031941268732027739 0 0.011349054205535536 0.031319431189294783 0 0.010796232111663254 0.032901539443718729 0 0.0097931700118517543 0.03057547582601311 0 0.0096512505475012493 0.031941268732027739 0 0.011349054205535536 0.031319431189294783 0 0.011349054205535536 0.031319431189294783 0 0.012281298576422128 0.032314727311114913 0 0.010796232111663254 0.032901539443718729 0 0.011349054205535536 0.031319431189294783 0 0.012281298576422128 0.032314727311114913 0 0.013352741549775726 0.030560095076096184 0 0.0064749273766454016 0.030386473645260193 0 0.0058784723057491335 0.029830881966963749 0 0.005224257762225919 0.030331159340425518 0 0.0064749273766454016 0.030386473645260193 0 0.0058784723057491335 0.029830881966963749 0 0.0067437542768825371 0.029415737533482471 0 0.0058784723057491335 0.029830881966963749 0 0.0057094321470972289 0.029353717079068309 0 0.0067437542768825371 0.029415737533482471 0 0.0071949153005276571 0.028744783832207365 0 0.0060494717560837762 0.028883878223865227 0 0.0067437542768825371 0.029415737533482471 0 0.0057094321470972289 0.029353717079068309 0 0.0060494717560837762 0.028883878223865227 0 0.0067437542768825371 0.029415737533482471 0 0.0080747298540305833 0.028843878117099129 0 0.0067437542768825371 0.029415737533482471 0 0.0080166883121237705 0.029983233668348666 0 0.0080747298540305833 0.028843878117099129 0 0.0071949153005276571 0.028744783832207365 0 0.0067437542768825371 0.029415737533482471 0 0.0064749273766454016 0.030386473645260193 0 0.0067437542768825371 0.029415737533482471 0 0.0080166883121237705 0.029983233668348666 0 0.0080747298540305833 0.028843878117099129 0 0.0080166883121237705 0.029983233668348666 0 0.0094565954993140935 0.029269377004574566 0 0.0097931700118517543 0.03057547582601311 0 0.0080166883121237705 0.029983233668348666 0 0.0094565954993140935 0.029269377004574566 0 0.0097931700118517543 0.03057547582601311 0 0.0096512505475012493 0.031941268732027739 0 0.0079847541793490722 0.031298179882779623 0 0.0097931700118517543 0.03057547582601311 0 0.0080166883121237705 0.029983233668348666 0 0.0079847541793490722 0.031298179882779623 0 0.0096512505475012493 0.031941268732027739 0 0.0079847541793490722 0.031298179882779623 0 0.008367029935578878 0.032492714907875885 0 0.0064749273766454016 0.030386473645260193 0 0.0080166883121237705 0.029983233668348666 0 0.0079847541793490722 0.031298179882779623 0 0.0064749273766454016 0.030386473645260193 0 0.0079847541793490722 0.031298179882779623 0 0.0063421907909900028 0.031364870282574522 0 0.0079847541793490722 0.031298179882779623 0 0.0063421907909900028 0.031364870282574522 0 0.0067127788697578924 0.032601302151219209 0 0.0063421907909900028 0.031364870282574522 0 0.0067127788697578924 0.032601302151219209 0 0.0046921956872115972 0.031917409004904085 0 0.0064749273766454016 0.030386473645260193 0 0.0063421907909900028 0.031364870282574522 0 0.005224257762225919 0.030331159340425518 0 0.0067127788697578924 0.032601302151219209 0 0.0055453760645521114 0.034246841187083842 0 0.0039313545576846916 0.033643101545814132 0 0.0067127788697578924 0.032601302151219209 0 0.0080418822690476836 0.033543329550370926 0 0.0055453760645521114 0.034246841187083842 0 0.0080418822690476836 0.033543329550370926 0 0.008367029935578878 0.032492714907875885 0 0.0094036266448703897 0.033262949629182227 0 0.0067127788697578924 0.032601302151219209 0 0.0080418822690476836 0.033543329550370926 0 0.008367029935578878 0.032492714907875885 0 0.0079847541793490722 0.031298179882779623 0 0.0067127788697578924 0.032601302151219209 0 0.008367029935578878 0.032492714907875885 0 0.0096512505475012493 0.031941268732027739 0 0.008367029935578878 0.032492714907875885 0 0.0094036266448703897 0.033262949629182227 0 0.0080418822690476836 0.033543329550370926 0 0.0094036266448703897 0.033262949629182227 0 0.0093048392610223084 0.034199636152416113 0 0.010034043353734652 0.035017102940139336 0 0.0093048392610223084 0.034199636152416113 0 0.008490060276840062 0.034622745586567583 0 0.0080418822690476836 0.033543329550370926 0 0.0093048392610223084 0.034199636152416113 0 0.008490060276840062 0.034622745586567583 0 0.0080418822690476836 0.033543329550370926 0 0.008490060276840062 0.034622745586567583 0 0.0055453760645521114 0.034246841187083842 0 0.0091098576716104693 0.035805941603779007 0 0.008490060276840062 0.034622745586567583 0 0.0055453760645521114 0.034246841187083842 0 0.012281298576422128 0.032314727311114913 0 0.011675581572290091 0.034080279475036786 0 0.014340780196139331 0.032579947104377685 0 0.012281298576422128 0.032314727311114913 0 0.010796232111663254 0.032901539443718729 0 0.011675581572290091 0.034080279475036786 0 0.010796232111663254 0.032901539443718729 0 0.010288469115175402 0.033994481550463473 0 0.011675581572290091 0.034080279475036786 0 0.0096512505475012493 0.031941268732027739 0 0.0094036266448703897 0.033262949629182227 0 0.010796232111663254 0.032901539443718729 0 0.0094036266448703897 0.033262949629182227 0 0.010796232111663254 0.032901539443718729 0 0.010288469115175402 0.033994481550463473 0 0.010160372819712087 0.034959472762376952 0 0.012108726638495713 0.033660527787224927 0 0.010034043353734652 0.035017102940139336 0 0.0093048392610223084 0.034199636152416113 0 0.010288469115175402 0.033994481550463473 0 0.010034043353734652 0.035017102940139336 0 0.010288469115175402 0.033994481550463473 0 0.011675581572290091 0.034080279475036786 0 0.011887300483215089 0.034865259777112328 0 0.010034043353734652 0.035017102940139336 0 0.012553132032642977 0.033195710782369221 0 0.0094036266448703897 0.033262949629182227 0 0.0093048392610223084 0.034199636152416113 0 0.010288469115175402 0.033994481550463473 0 0.013180457299953693 0.034741786511209273 0 0.011887300483215089 0.034865259777112328 0 0.012553132032642977 0.033195710782369221 0 0.013180457299953693 0.034741786511209273 0 0.012553132032642977 0.033195710782369221 0 0.013777832559968808 0.033863391553169059 0 0.015596724144005123 0.034312501785530608 0 0.014501644921706816 0.034668315677481937 0 0.013777832559968808 0.033863391553169059 0 0.015860424553567093 0.034610164053155965 0 0.013990115457933923 0.033922523718432934 0 0.01645638518816292 0.034817590939030939 0 0.013777832559968808 0.033863391553169059 0 0.015338647996222582 0.033447523117022232 0 0.01645638518816292 0.034817590939030939 0 0.015338647996222582 0.033447523117022232 0 0.016338270725978685 0.032920619847836154 0 0.015338647996222582 0.033447523117022232 0 0.016338270725978685 0.032920619847836154 0 0.014941520818876093 0.031753822079124035 0 0.016338270725978685 0.032920619847836154 0 0.014941520818876093 0.031753822079124035 0 0.017787271319996942 0.031946131809839629 0 0.012553132032642977 0.033195710782369221 0 0.013777832559968808 0.033863391553169059 0 0.014941520818876093 0.031753822079124035 0 0.013777832559968808 0.033863391553169059 0 0.015338647996222582 0.033447523117022232 0 0.014941520818876093 0.031753822079124035 0 0.012108726638495713 0.033660527787224927 0 0.014664371521350007 0.032136805666846985 0 0.012281298576422128 0.032314727311114913 0 0.014340780196139331 0.032579947104377685 0 0.013352741549775726 0.030560095076096184 0 0.014340780196139331 0.032579947104377685 0 0.013352741549775726 0.030560095076096184 0 0.017096025428140576 0.030556383524349265 0 0.014664371521350007 0.032136805666846985 0 0.016934514262420198 0.030629106234875553 0 0.014941520818876093 0.031753822079124035 0 0.017096025428140576 0.030556383524349265 0 0.017787271319996942 0.031946131809839629 0 0.015227706817374495 0.028891795910124661 0 0.013352741549775726 0.030560095076096184 0 0.017096025428140576 0.030556383524349265 0 0.015227706817374495 0.028891795910124661 0 0.017386466018832741 0.028964998201967816 0 0.017096025428140576 0.030556383524349265 0 0.015227706817374495 0.028891795910124661 0 0.012742116580010713 0.02841228495285061 0 0.013352741549775726 0.030560095076096184 0 0.017386466018832741 0.028964998201967816 0 0.019609841299602884 0.028863179671357146 0 0.019380845454292927 0.030344323401472955 0 0.019609841299602884 0.028863179671357146 0 0.019380845454292927 0.030344323401472955 0 0.021184556434033969 0.02953085653447949 0 0.017386466018832741 0.028964998201967816 0 0.019380845454292927 0.030344323401472955 0 0.017096025428140576 0.030556383524349265 0 0.019380845454292927 0.030344323401472955 0 0.017096025428140576 0.030556383524349265 0 0.017787271319996942 0.031946131809839629 0 0.019380845454292927 0.030344323401472955 0 0.019846374865547533 0.032242645518116807 0 0.017787271319996942 0.031946131809839629 0 0.019380845454292927 0.030344323401472955 0 0.019846374865547533 0.032242645518116807 0 0.021599125421062976 0.031153846500151582 0 0.019846374865547533 0.032242645518116807 0 0.018256525530787986 0.033356768645665544 0 0.020145357694724871 0.033909136901249734 0 0.016338270725978685 0.032920619847836154 0 0.017787271319996942 0.031946131809839629 0 0.018256525530787986 0.033356768645665544 0 0.019846374865547533 0.032242645518116807 0 0.017787271319996942 0.031946131809839629 0 0.018256525530787986 0.033356768645665544 0 0.01645638518816292 0.034817590939030939 0 0.016338270725978685 0.032920619847836154 0 0.018256525530787986 0.033356768645665544 0 0.01645638518816292 0.034817590939030939 0 0.018256525530787986 0.033356768645665544 0 0.01845644295410654 0.034408324497807022 0 0.018256525530787986 0.033356768645665544 0 0.01845644295410654 0.034408324497807022 0 0.020145357694724871 0.033909136901249734 0 0.021839110604438099 0.034815674702420578 0 0.019022785127318788 0.035517740696443048 0 0.020145357694724871 0.033909136901249734 0 0.019022785127318788 0.035517740696443048 0 0.01845644295410654 0.034408324497807022 0 0.020145357694724871 0.033909136901249734 0 0.021839110604438099 0.034815674702420578 0 0.021742910516190338 0.032777663601420731 0 0.023104471897253922 0.033092819442242211 0 0.021839110604438099 0.034815674702420578 0 0.020145357694724871 0.033909136901249734 0 0.021742910516190338 0.032777663601420731 0 0.019846374865547533 0.032242645518116807 0 0.020145357694724871 0.033909136901249734 0 0.021742910516190338 0.032777663601420731 0 0.019846374865547533 0.032242645518116807 0 0.021742910516190338 0.032777663601420731 0 0.021599125421062976 0.031153846500151582 0 0.021742910516190338 0.032777663601420731 0 0.023670664162686744 0.03179355619746229 0 0.021599125421062976 0.031153846500151582 0 0.021742910516190338 0.032777663601420731 0 0.023670664162686744 0.03179355619746229 0 0.023104471897253922 0.033092819442242211 0 0.022283348947267453 0.034283319142711696 0 0.024733888276363514 0.033429950861696707 0 0.023670664162686744 0.03179355619746229 0 0.023104471897253922 0.033092819442242211 0 0.024973223721242156 0.033305563815374063 0 0.021839110604438099 0.034815674702420578 0 0.023104471897253922 0.033092819442242211 0 0.024973223721242156 0.033305563815374063 0 0.026563040108637526 0.033253517748691654 0 0.024973223721242156 0.033305563815374063 0 0.027280630988703074 0.032027896075864287 0 0.023670664162686744 0.03179355619746229 0 0.024973223721242156 0.033305563815374063 0 0.027280630988703074 0.032027896075864287 0 0.028646601816898896 0.033086497998607953 0 0.026563040108637526 0.033253517748691654 0 0.027280630988703074 0.032027896075864287 0 0.023670664162686744 0.03179355619746229 0 0.027280630988703074 0.032027896075864287 0 0.027805695715306986 0.0297022787911508 0 0.023983006971661999 0.031735427029548742 0 0.027224529167845055 0.031313250003980463 0 0.023670664162686744 0.03179355619746229 0 0.026526253651697813 0.032904238627432955 0 0.023724626586366621 0.030502705184042665 0 0.026526253651697813 0.032904238627432955 0 0.026052069183083046 0.03016923388516039 0 0.023724626586366621 0.030502705184042665 0 0.026526253651697813 0.032904238627432955 0 0.026052069183083046 0.03016923388516039 0 0.028791569032439006 0.030739623380416949 0 0.026052069183083046 0.03016923388516039 0 0.023724626586366621 0.030502705184042665 0 0.024409802089305075 0.028553009489980512 0 0.023724626586366621 0.030502705184042665 0 0.021184556434033969 0.02953085653447949 0 0.021599125421062976 0.031153846500151582 0 0.023724626586366621 0.030502705184042665 0 0.021184556434033969 0.02953085653447949 0 0.022771594668974309 0.029182059946309787 0 0.019380845454292927 0.030344323401472955 0 0.021184556434033969 0.02953085653447949 0 0.021599125421062976 0.031153846500151582 0 0.023670664162686744 0.03179355619746229 0 0.023724626586366621 0.030502705184042665 0 0.021599125421062976 0.031153846500151582 0 0.035062294016368969 0.030809007281694459 0 0.033594259042106063 0.030142413952551517 0 0.034451869759909978 0.029067562186423503 0 0.035062294016368969 0.030809007281694459 0 0.03364297054886202 0.031274548857983933 0 0.033594259042106063 0.030142413952551517 0 0.03364297054886202 0.031274548857983933 0 0.032277032987977572 0.030850195498345643 0 0.033594259042106063 0.030142413952551517 0 0.031956870430397896 0.031966484893557016 0 0.03364297054886202 0.031274548857983933 0 0.032277032987977572 0.030850195498345643 0 0.033594259042106063 0.030142413952551517 0 0.031384535087764585 0.028935261044397514 0 0.034451869759909978 0.029067562186423503 0 0.032277032987977572 0.030850195498345643 0 0.033594259042106063 0.030142413952551517 0 0.031384535087764585 0.028935261044397514 0 0.032277032987977572 0.030850195498345643 0 0.030265300801031871 0.031656803358386207 0 0.031384535087764585 0.028935261044397514 0 0.031956870430397896 0.031966484893557016 0 0.032277032987977572 0.030850195498345643 0 0.030265300801031871 0.031656803358386207 0 0.028646601816898896 0.033086497998607953 0 0.027280630988703074 0.032027896075864287 0 0.030265300801031871 0.031656803358386207 0 0.027280630988703074 0.032027896075864287 0 0.027805695715306986 0.0297022787911508 0 0.030265300801031871 0.031656803358386207 0 0.027224529167845055 0.031313250003980463 0 0.030824514215408032 0.030929318682687858 0 0.027805695715306986 0.0297022787911508 0 0.030265300801031871 0.031656803358386207 0 0.031384535087764585 0.028935261044397514 0 0.026526253651697813 0.032904238627432955 0 0.028791569032439006 0.030739623380416949 0 0.03028844700758191 0.032936077727690839 0 0.028791569032439006 0.030739623380416949 0 0.03028844700758191 0.032936077727690839 0 0.031781508405890113 0.030474423090122899 0 0.028791569032439006 0.030739623380416949 0 0.031781508405890113 0.030474423090122899 0 0.030291660647166589 0.029665943737418276 0 0.030824514215408032 0.030929318682687858 0 0.033913612333255669 0.03051532689254054 0 0.03028844700758191 0.032936077727690839 0 0.031781508405890113 0.030474423090122899 0 0.033558923416162505 0.031972984314431331 0 0.031781508405890113 0.030474423090122899 0 0.033793934171190886 0.029875071376105827 0 0.033558923416162505 0.031972984314431331 0 0.031781508405890113 0.030474423090122899 0 0.033793934171190886 0.029875071376105827 0 0.03309799885175041 0.029293883707487919 0 0.035277844657975205 0.029870570463277003 0 0.033793934171190886 0.029875071376105827 0 0.033558923416162505 0.031972984314431331 0 0.031557532637775797 0.030166583641679484 0 0.032040493607384944 0.029292016859054377 0 0.029115906082387757 0.032133778719045818 0 0.030959932807530528 0.031889046992379669 0 0.029400623540580286 0.034748953351698517 0 0.034904226158080073 0.028942310051291064 0 0.033793934171190886 0.029875071376105827 0 0.03309799885175041 0.029293883707487919 0 0.034904226158080073 0.028942310051291064 0 0.033848539276099085 0.028259405704803751 0 0.03309799885175041 0.029293883707487919 0 0.033848539276099085 0.028259405704803751 0 0.03309799885175041 0.029293883707487919 0 0.031930300978502114 0.029160816517291726 0 0.03309799885175041 0.029293883707487919 0 0.031687186895934395 0.029675073902553251 0 0.031930300978502114 0.029160816517291726 0 0.031781508405890113 0.030474423090122899 0 0.03309799885175041 0.029293883707487919 0 0.031687186895934395 0.029675073902553251 0 0.031930300978502114 0.029160816517291726 0 0.032380119739786384 0.029459866207056179 0 0.031392392642650577 0.029407008806263436 0 0.031687186895934395 0.029675073902553251 0 0.031930300978502114 0.029160816517291726 0 0.031392392642650577 0.029407008806263436 0 0.031930300978502114 0.029160816517291726 0 0.030959932807530528 0.031889046992379669 0 0.032380119739786384 0.029459866207056179 0 0.029115906082387757 0.032133778719045818 0 0.031930300978502114 0.029160816517291726 0 0.030959932807530528 0.031889046992379669 0 0.030959932807530528 0.031889046992379669 0 0.032380119739786384 0.029459866207056179 0 0.033179184269362408 0.033529340191995001 0 0.03247888991979174 0.029587101862677118 0 0.032682532843941355 0.03008823734026949 0 0.02970867590826359 0.028641368431009492 0 0.032380119739786384 0.029459866207056179 0 0.02909985851061159 0.026093244209482707 0 0.032380119739786384 0.029459866207056179 0 0.036593172953454663 0.034207841398502109 0 0.033179184269362408 0.033529340191995001 0 0.02970867590826359 0.028641368431009492 0 0.032380119739786384 0.029459866207056179 0 0.031392392642650577 0.029407008806263436 0 0.031687186895934395 0.029675073902553251 0 0.031392392642650577 0.029407008806263436 0 0.030291660647166589 0.029665943737418276 0 0.031781508405890113 0.030474423090122899 0 0.031687186895934395 0.029675073902553251 0 0.030291660647166589 0.029665943737418276 0 0.02970867590826359 0.028641368431009492 0 0.031392392642650577 0.029407008806263436 0 0.030291660647166589 0.029665943737418276 0 0.028791569032439006 0.030739623380416949 0 0.030291660647166589 0.029665943737418276 0 0.027442338620403108 0.028584371036419989 0 0.026052069183083046 0.03016923388516039 0 0.028791569032439006 0.030739623380416949 0 0.027442338620403108 0.028584371036419989 0 0.02970867590826359 0.028641368431009492 0 0.030291660647166589 0.029665943737418276 0 0.027442338620403108 0.028584371036419989 0 0.027442338620403108 0.028584371036419989 0 0.02909985851061159 0.026093244209482707 0 0.025954140309785878 0.026412553894679402 0 0.02970867590826359 0.028641368431009492 0 0.027442338620403108 0.028584371036419989 0 0.02909985851061159 0.026093244209482707 0 0.033460760319102105 0.031612215622744952 0 0.032682532843941355 0.03008823734026949 0 0.026675251152112781 0.024419151798223408 0 0.02909985851061159 0.026093244209482707 0 0.025954140309785878 0.026412553894679402 0 0.038945101490981862 0.037942478705495428 0 0.034741754568402811 0.036783251895861943 0 0.036593172953454663 0.034207841398502109 0 0.038945101490981862 0.037942478705495428 0 0.034741754568402811 0.036783251895861943 0 0.036261318620121753 0.039541208549338902 0 0.038945101490981862 0.037942478705495428 0 0.036261318620121753 0.039541208549338902 0 0.038242551721520135 0.040569025635990241 0 0.033978277100243745 0.039094142350564486 0 0.034741754568402811 0.036783251895861943 0 0.036261318620121753 0.039541208549338902 0 0.034741754568402811 0.036783251895861943 0 0.036593172953454663 0.034207841398502109 0 0.033179184269362408 0.033529340191995001 0 0.034741754568402811 0.036783251895861943 0 0.033179184269362408 0.033529340191995001 0 0.031716835538308702 0.03499595610697645 0 0.030959932807530528 0.031889046992379669 0 0.033179184269362408 0.033529340191995001 0 0.031716835538308702 0.03499595610697645 0 0.034741754568402811 0.036783251895861943 0 0.031716835538308702 0.03499595610697645 0 0.032489947907869035 0.03765962937913879 0 0.033978277100243745 0.039094142350564486 0 0.032489947907869035 0.03765962937913879 0 0.032930220841968581 0.040419042088238391 0 0.033978277100243745 0.039094142350564486 0 0.034741754568402811 0.036783251895861943 0 0.032489947907869035 0.03765962937913879 0 0.032489947907869035 0.03765962937913879 0 0.031306112155187846 0.038862616484420826 0 0.032930220841968581 0.040419042088238391 0 0.032489947907869035 0.03765962937913879 0 0.030782474816047008 0.036625297304211248 0 0.031306112155187846 0.038862616484420826 0 0.031716835538308702 0.03499595610697645 0 0.032489947907869035 0.03765962937913879 0 0.030782474816047008 0.036625297304211248 0 0.030782474816047008 0.036625297304211248 0 0.031306112155187846 0.038862616484420826 0 0.029295124562530916 0.037163970744377037 0 0.031306112155187846 0.038862616484420826 0 0.029295124562530916 0.037163970744377037 0 0.029743324802302764 0.039946279718885973 0 0.030782474816047008 0.036625297304211248 0 0.029295124562530916 0.037163970744377037 0 0.029400623540580286 0.034748953351698517 0 0.030959932807530528 0.031889046992379669 0 0.031716835538308702 0.03499595610697645 0 0.029400623540580286 0.034748953351698517 0 0.031716835538308702 0.03499595610697645 0 0.030782474816047008 0.036625297304211248 0 0.029400623540580286 0.034748953351698517 0 0.028044512497408976 0.034632141958841643 0 0.029115906082387757 0.032133778719045818 0 0.029400623540580286 0.034748953351698517 0 0.021992659237074764 0.027798757096632241 0 0.023412205348891633 0.026486310872876659 0 0.02176343724046563 0.026330415263207774 0 0.021992659237074764 0.027798757096632241 0 0.02176343724046563 0.026330415263207774 0 0.020478565254905181 0.026381953198559766 0 0.018864173606698679 0.026249980422812871 0 0.020201832780998685 0.027741384615596797 0 0.020478565254905181 0.026381953198559766 0 0.021992659237074764 0.027798757096632241 0 0.020201832780998685 0.027741384615596797 0 0.020478565254905181 0.026381953198559766 0 0.019609841299602884 0.028863179671357146 0 0.021184556434033969 0.02953085653447949 0 0.020201832780998685 0.027741384615596797 0 0.021184556434033969 0.02953085653447949 0 0.021992659237074764 0.027798757096632241 0 0.020201832780998685 0.027741384615596797 0 0.021184556434033969 0.02953085653447949 0 0.021992659237074764 0.027798757096632241 0 0.022771594668974309 0.029182059946309787 0 0.021992659237074764 0.027798757096632241 0 0.022771594668974309 0.029182059946309787 0 0.024409802089305075 0.028553009489980512 0 0.023724626586366621 0.030502705184042665 0 0.022771594668974309 0.029182059946309787 0 0.024409802089305075 0.028553009489980512 0 0.026052069183083046 0.03016923388516039 0 0.027442338620403108 0.028584371036419989 0 0.024409802089305075 0.028553009489980512 0 0.027442338620403108 0.028584371036419989 0 0.024409802089305075 0.028553009489980512 0 0.025954140309785878 0.026412553894679402 0 0.024409802089305075 0.028553009489980512 0 0.023412205348891633 0.026486310872876659 0 0.025954140309785878 0.026412553894679402 0 0.021992659237074764 0.027798757096632241 0 0.024409802089305075 0.028553009489980512 0 0.023412205348891633 0.026486310872876659 0 0.023412205348891633 0.026486310872876659 0 0.024654240605590873 0.025646595690606407 0 0.023251616351578637 0.025251634476123649 0 0.023412205348891633 0.026486310872876659 0 0.023251616351578637 0.025251634476123649 0 0.022121060948496918 0.025583312237997473 0 0.023412205348891633 0.026486310872876659 0 0.025954140309785878 0.026412553894679402 0 0.024654240605590873 0.025646595690606407 0 0.026675251152112781 0.024419151798223408 0 0.025954140309785878 0.026412553894679402 0 0.024654240605590873 0.025646595690606407 0 0.026675251152112781 0.024419151798223408 0 0.024691224727215088 0.024574542993948869 0 0.024581386810921705 0.022315438212396541 0 0.026675251152112781 0.024419151798223408 0 0.024654240605590873 0.025646595690606407 0 0.024691224727215088 0.024574542993948869 0 0.023251616351578637 0.025251634476123649 0 0.021774959966744986 0.024880733381135049 0 0.022121060948496918 0.025583312237997473 0 0.024654240605590873 0.025646595690606407 0 0.024691224727215088 0.024574542993948869 0 0.023251616351578637 0.025251634476123649 0 0.024691224727215088 0.024574542993948869 0 0.023251616351578637 0.025251634476123649 0 0.022828434451082524 0.024193669468553614 0 0.021774959966744986 0.024880733381135049 0 0.021498203613549517 0.024302640836336604 0 0.022828434451082524 0.024193669468553614 0 0.023251616351578637 0.025251634476123649 0 0.021774959966744986 0.024880733381135049 0 0.022828434451082524 0.024193669468553614 0 0.021774959966744986 0.024880733381135049 0 0.020492228769783034 0.024696434889645937 0 0.021498203613549517 0.024302640836336604 0 0.021774959966744986 0.024880733381135049 0 0.020492228769783034 0.024696434889645937 0 0.020938759135857268 0.02548954789348603 0 0.021774959966744986 0.024880733381135049 0 0.020938759135857268 0.02548954789348603 0 0.022121060948496918 0.025583312237997473 0 0.023412205348891633 0.026486310872876659 0 0.022121060948496918 0.025583312237997473 0 0.02176343724046563 0.026330415263207774 0 0.020938759135857268 0.02548954789348603 0 0.022121060948496918 0.025583312237997473 0 0.02176343724046563 0.026330415263207774 0 0.020938759135857268 0.02548954789348603 0 0.02176343724046563 0.026330415263207774 0 0.020478565254905181 0.026381953198559766 0 0.020938759135857268 0.02548954789348603 0 0.020478565254905181 0.026381953198559766 0 0.020112413776907184 0.025565022319040964 0 0.019377358088185845 0.025548587898728079 0 0.020478565254905181 0.026381953198559766 0 0.020112413776907184 0.025565022319040964 0 0.019377358088185845 0.025548587898728079 0 0.020112413776907184 0.025565022319040964 0 0.019710101983396386 0.02488548358599733 0 0.019377358088185845 0.025548587898728079 0 0.019051186461218117 0.024661245251881039 0 0.019710101983396386 0.02488548358599733 0 0.020492228769783034 0.024696434889645937 0 0.020938759135857268 0.02548954789348603 0 0.019710101983396386 0.02488548358599733 0 0.020938759135857268 0.02548954789348603 0 0.020112413776907184 0.025565022319040964 0 0.019710101983396386 0.02488548358599733 0 0.020492228769783034 0.024696434889645937 0 0.019710101983396386 0.02488548358599733 0 0.01954577082521387 0.024514599484917833 0 0.019051186461218117 0.024661245251881039 0 0.019710101983396386 0.02488548358599733 0 0.019128938206482451 0.024398447945294093 0 0.019710101983396386 0.02488548358599733 0 0.019128938206482451 0.024398447945294093 0 0.01954577082521387 0.024514599484917833 0 0.019128938206482451 0.024398447945294093 0 0.019039204764339367 0.024579369602164957 0 0.018834334475009696 0.024136387551998897 0 0.022447506070555713 0.042102955387731282 0 0.014033103356480241 0.037806621754862754 0 0.01868548582959223 0.024762170705016733 0 0.01480754896960379 0.0258071928852668 0 0.019039204764339367 0.024579369602164957 0 0.019106471109390667 0.022545343066862986 0 0.012617530637446056 0.026003143902097157 0 0.01954577082521387 0.024514599484917833 0 0.019039204764339367 0.024579369602164957 0 0.020483746798987693 0.024177097870475159 0 0.019128938206482451 0.024398447945294093 0 0.01954577082521387 0.024514599484917833 0 0.019039204764339367 0.024579369602164957 0 0.019039204764339367 0.024579369602164957 0 0.019106471109390667 0.022545343066862986 0 0.02043188761148634 0.023406264000942811 0 0.025503392099539873 0.061086611223999908 0 0.021670843575669223 0.061587346695646771 0 0.021657336916949328 0.060794320579913345 0 0.025503392099539873 0.061086611223999908 0 0.02012649264213718 0.063066595747498552 0 0.021670843575669223 0.061587346695646771 0 0.025503392099539873 0.061086611223999908 0 0.024257856791820222 0.05931877953337223 0 0.026775575872529225 0.058047409380947483 0 0.025503392099539873 0.061086611223999908 0 0.024257856791820222 0.05931877953337223 0 0.021657336916949328 0.060794320579913345 0 0.022447506070555713 0.042102955387731282 0 0.025086008878744414 0.043266367657071168 0 0.019106471109390667 0.022545343066862986 0 0.02132957400027851 0.022791286220378581 0 0.02043188761148634 0.023406264000942811 0 0.025503392099539873 0.061086611223999908 0 0.029635680957079347 0.058307088846415542 0 0.026775575872529225 0.058047409380947483 0 0.019106471109390667 0.022545343066862986 0 0.02132957400027851 0.022791286220378581 0 0.021681590161647769 0.021960110154756064 0 0.02180513523098495 0.023624143454307359 0 0.02043188761148634 0.023406264000942811 0 0.020483746798987693 0.024177097870475159 0 0.02132957400027851 0.022791286220378581 0 0.02180513523098495 0.023624143454307359 0 0.02043188761148634 0.023406264000942811 0 0.019039204764339367 0.024579369602164957 0 0.02043188761148634 0.023406264000942811 0 0.020483746798987693 0.024177097870475159 0 0.020492228769783034 0.024696434889645937 0 0.01954577082521387 0.024514599484917833 0 0.020483746798987693 0.024177097870475159 0 0.020492228769783034 0.024696434889645937 0 0.020483746798987693 0.024177097870475159 0 0.021498203613549517 0.024302640836336604 0 0.02180513523098495 0.023624143454307359 0 0.020483746798987693 0.024177097870475159 0 0.021498203613549517 0.024302640836336604 0 0.02180513523098495 0.023624143454307359 0 0.021498203613549517 0.024302640836336604 0 0.022828434451082524 0.024193669468553614 0 0.024691224727215088 0.024574542993948869 0 0.022828434451082524 0.024193669468553614 0 0.023956105755511947 0.023526773031827007 0 0.02180513523098495 0.023624143454307359 0 0.022828434451082524 0.024193669468553614 0 0.023956105755511947 0.023526773031827007 0 0.02132957400027851 0.022791286220378581 0 0.02180513523098495 0.023624143454307359 0 0.023956105755511947 0.023526773031827007 0 0.038945101490981862 0.037942478705495428 0 0.04105093391003406 0.041264651839380974 0 0.038242551721520135 0.040569025635990241 0 0.033460760319102105 0.031612215622744952 0 0.028687204845708986 0.030444470639929361 0 0.024443449517370187 0.021894732048697487 0 0.028687204845708986 0.030444470639929361 0 0.04105093391003406 0.041264651839380974 0 0.038242551721520135 0.040569025635990241 0 0.038391395758272842 0.04272726373012703 0 0.04105093391003406 0.041264651839380974 0 0.039437216727595613 0.044279129536009751 0 0.040599517494883712 0.046359687933251181 0 0.04105093391003406 0.041264651839380974 0 0.039437216727595613 0.044279129536009751 0 0.038391395758272842 0.04272726373012703 0 0.028687204845708986 0.030444470639929361 0 0.03269924508435091 0.050518520877145791 0 0.026526911127072703 0.034880335119359701 0 0.032976692089041512 0.042710003612390642 0 0.027225321364720161 0.045554379820519346 0 0.028687204845708986 0.030444470639929361 0 0.025086008878744414 0.043266367657071168 0 0.02132957400027851 0.022791286220378581 0 0.023956105755511947 0.023526773031827007 0 0.021681590161647769 0.021960110154756064 0 0.027911484374885411 0.056999054473571176 0 0.027478952404794817 0.057422985309845173 0 0.02807407546068769 0.056695105625090017 0 0.02802053049229461 0.056936290206779011 0 0.027911484374885411 0.056999054473571176 0 0.028152482396175078 0.057326091191908887 0 0.025086008878744414 0.043266367657071168 0 0.03269924508435091 0.050518520877145791 0 0.02802053049229461 0.056936290206779011 0 0.027911484374885411 0.056999054473571176 0 0.027606118650279742 0.056893793091482091 0 0.027911484374885411 0.056999054473571176 0 0.027606118650279742 0.056893793091482091 0 0.027478952404794817 0.057422985309845173 0 0.027911484374885411 0.056999054473571176 0 0.028152482396175078 0.057326091191908887 0 0.02807407546068769 0.056695105625090017 0 0.040599517494883712 0.046359687933251181 0 0.038293037487834997 0.046068784601046672 0 0.036525727977561671 0.048327249259312449 0 0.039437216727595613 0.044279129536009751 0 0.040599517494883712 0.046359687933251181 0 0.038293037487834997 0.046068784601046672 0 0.03269924508435091 0.050518520877145791 0 0.033762651363143222 0.052012651400201143 0 0.03269924508435091 0.050518520877145791 0 0.02519387381154535 0.058972417319126037 0 0.02519387381154535 0.058972417319126037 0 0.026601599492102272 0.05847943696675352 0 0.021707356553284839 0.060294439973861677 0 0.022398734527308489 0.060072522093041335 0 0.02153576225077097 0.059770385398043906 0 0.03318209017425084 0.05373718485434003 0 0.032847195903077185 0.05601383602791727 0 0.02993767479001469 0.05712145952666748 0 0.019804859451803325 0.061528124161356876 0 0.018425284926049341 0.060907097995999894 0 0.017728535161091224 0.061845730181953253 0 0.02519387381154535 0.058972417319126037 0 0.022517867532784074 0.059300355947958489 0 0.018425284926049341 0.060907097995999894 0 0.01724436497424519 0.061082271579652264 0 0.017563590390638189 0.060118311145862094 0 0.018425284926049341 0.060907097995999894 0 0.01724436497424519 0.061082271579652264 0 0.017728535161091224 0.061845730181953253 0 0.017018223719516688 0.061417367016893945 0 0.01724436497424519 0.061082271579652264 0 0.017728535161091224 0.061845730181953253 0 0.017018223719516688 0.061417367016893945 0 0.01724436497424519 0.061082271579652264 0 0.016605876714845185 0.061486806225169111 0 0.01724436497424519 0.061082271579652264 0 0.016444182979423762 0.060460859992925171 0 0.017563590390638189 0.060118311145862094 0 0.01724436497424519 0.061082271579652264 0 0.016605876714845185 0.061486806225169111 0 0.016444182979423762 0.060460859992925171 0 0.016605876714845185 0.061486806225169111 0 0.01489010950069344 0.059892005523389802 0 0.016444182979423762 0.060460859992925171 0 0.017018223719516688 0.061417367016893945 0 0.016605876714845185 0.061486806225169111 0 0.016764519903747239 0.060902424012351936 0 0.024257856791820222 0.05931877953337223 0 0.02449348857144602 0.056965838038047514 0 0.018717044485850501 0.059983953278115204 0 0.016605876714845185 0.061486806225169111 0 0.016764519903747239 0.060902424012351936 0 0.017806144005888539 0.060771073960210475 0 0.024257856791820222 0.05931877953337223 0 0.02449348857144602 0.056965838038047514 0 0.026775575872529225 0.058047409380947483 0 0.02449348857144602 0.056965838038047514 0 0.026775575872529225 0.058047409380947483 0 0.02807407546068769 0.056695105625090017 0 0.017018223719516688 0.061417367016893945 0 0.016764519903747239 0.060902424012351936 0 0.017728535161091224 0.061845730181953253 0 0.02077664817361807 0.059098732827544936 0 0.022517867532784074 0.059300355947958489 0 0.029635680957079347 0.058307088846415542 0 0.026775575872529225 0.058047409380947483 0 0.028152482396175078 0.057326091191908887 0 0.026775575872529225 0.058047409380947483 0 0.028152482396175078 0.057326091191908887 0 0.02807407546068769 0.056695105625090017 0 0.025086008878744414 0.043266367657071168 0 0.030731778412401958 0.054619606546911281 0 0.029563501483742344 0.045967653644852113 0 0.031389182027874267 0.044832422439468847 0 0.030212679778511404 0.042841338554285263 0 0.031389182027874267 0.044832422439468847 0 0.030212679778511404 0.042841338554285263 0 0.031849147166093821 0.042153655683842134 0 0.031306112155187846 0.038862616484420826 0 0.029743324802302764 0.039946279718885973 0 0.031849147166093821 0.042153655683842134 0 0.030212679778511404 0.042841338554285263 0 0.029743324802302764 0.039946279718885973 0 0.031849147166093821 0.042153655683842134 0 0.031306112155187846 0.038862616484420826 0 0.032930220841968581 0.040419042088238391 0 0.031849147166093821 0.042153655683842134 0 0.032930220841968581 0.040419042088238391 0 0.03371129372087691 0.042900812987967808 0 0.031849147166093821 0.042153655683842134 0 0.033978277100243745 0.039094142350564486 0 0.032930220841968581 0.040419042088238391 0 0.034647182292188196 0.041303967377233151 0 0.032930220841968581 0.040419042088238391 0 0.03371129372087691 0.042900812987967808 0 0.034647182292188196 0.041303967377233151 0 0.03371129372087691 0.042900812987967808 0 0.031849147166093821 0.042153655683842134 0 0.033006130417011947 0.044656249992138845 0 0.031389182027874267 0.044832422439468847 0 0.031849147166093821 0.042153655683842134 0 0.033006130417011947 0.044656249992138845 0 0.03371129372087691 0.042900812987967808 0 0.033006130417011947 0.044656249992138845 0 0.034724229041721601 0.04509374799582621 0 0.03371129372087691 0.042900812987967808 0 0.034724229041721601 0.04509374799582621 0 0.035223164228774848 0.043269112029814566 0 0.034724229041721601 0.04509374799582621 0 0.035223164228774848 0.043269112029814566 0 0.036476629048816905 0.044392220056443568 0 0.035223164228774848 0.043269112029814566 0 0.036357201377789292 0.042060205784976809 0 0.036476629048816905 0.044392220056443568 0 0.03371129372087691 0.042900812987967808 0 0.035223164228774848 0.043269112029814566 0 0.034647182292188196 0.041303967377233151 0 0.033978277100243745 0.039094142350564486 0 0.034647182292188196 0.041303967377233151 0 0.036261318620121753 0.039541208549338902 0 0.034647182292188196 0.041303967377233151 0 0.036261318620121753 0.039541208549338902 0 0.036357201377789292 0.042060205784976809 0 0.035223164228774848 0.043269112029814566 0 0.034647182292188196 0.041303967377233151 0 0.036357201377789292 0.042060205784976809 0 0.036357201377789292 0.042060205784976809 0 0.038242551721520135 0.040569025635990241 0 0.038391395758272842 0.04272726373012703 0 0.036261318620121753 0.039541208549338902 0 0.036357201377789292 0.042060205784976809 0 0.038242551721520135 0.040569025635990241 0 0.036357201377789292 0.042060205784976809 0 0.038391395758272842 0.04272726373012703 0 0.036476629048816905 0.044392220056443568 0 0.038391395758272842 0.04272726373012703 0 0.036476629048816905 0.044392220056443568 0 0.038003763309365307 0.045009030809926139 0 0.039437216727595613 0.044279129536009751 0 0.038391395758272842 0.04272726373012703 0 0.038003763309365307 0.045009030809926139 0 0.039437216727595613 0.044279129536009751 0 0.038003763309365307 0.045009030809926139 0 0.038293037487834997 0.046068784601046672 0 0.038003763309365307 0.045009030809926139 0 0.038293037487834997 0.046068784601046672 0 0.036946896174460953 0.04624919227587089 0 0.036476629048816905 0.044392220056443568 0 0.036946896174460953 0.04624919227587089 0 0.035774610753257573 0.046113560212936819 0 0.036476629048816905 0.044392220056443568 0 0.038003763309365307 0.045009030809926139 0 0.036946896174460953 0.04624919227587089 0 0.038293037487834997 0.046068784601046672 0 0.036946896174460953 0.04624919227587089 0 0.036525727977561671 0.048327249259312449 0 0.036946896174460953 0.04624919227587089 0 0.036525727977561671 0.048327249259312449 0 0.035736786337152715 0.047172370166424442 0 0.03318209017425084 0.05373718485434003 0 0.02993767479001469 0.05712145952666748 0 0.029081612979969501 0.056087205367401874 0 0.026601599492102272 0.05847943696675352 0 0.025648373280874104 0.058980649514965358 0 0.02993767479001469 0.05712145952666748 0 0.029081612979969501 0.056087205367401874 0 0.027586802051508878 0.058214504600330404 0 0.036525727977561671 0.048327249259312449 0 0.034661984496566996 0.048268463403489309 0 0.035736786337152715 0.047172370166424442 0 0.036525727977561671 0.048327249259312449 0 0.034661984496566996 0.048268463403489309 0 0.033370925740732832 0.050515666283725148 0 0.029081612979969501 0.056087205367401874 0 0.026245383661057605 0.058490175261163374 0 0.027586802051508878 0.058214504600330404 0 0.033762651363143222 0.052012651400201143 0 0.02962811323505081 0.054545603580762235 0 0.034661984496566996 0.048268463403489309 0 0.034803369512832909 0.046795643741797885 0 0.033937385364563387 0.047472169269091195 0 0.034661984496566996 0.048268463403489309 0 0.034803369512832909 0.046795643741797885 0 0.035736786337152715 0.047172370166424442 0 0.034803369512832909 0.046795643741797885 0 0.035736786337152715 0.047172370166424442 0 0.035774610753257573 0.046113560212936819 0 0.036946896174460953 0.04624919227587089 0 0.035736786337152715 0.047172370166424442 0 0.035774610753257573 0.046113560212936819 0 0.034724229041721601 0.04509374799582621 0 0.036476629048816905 0.044392220056443568 0 0.035774610753257573 0.046113560212936819 0 0.034724229041721601 0.04509374799582621 0 0.034803369512832909 0.046795643741797885 0 0.035774610753257573 0.046113560212936819 0 0.034724229041721601 0.04509374799582621 0 0.034803369512832909 0.046795643741797885 0 0.0338120297523039 0.046182846868469948 0 0.033006130417011947 0.044656249992138845 0 0.0338120297523039 0.046182846868469948 0 0.032670095242852089 0.046733409997751316 0 0.033006130417011947 0.044656249992138845 0 0.034724229041721601 0.04509374799582621 0 0.0338120297523039 0.046182846868469948 0 0.031389182027874267 0.044832422439468847 0 0.033006130417011947 0.044656249992138845 0 0.032670095242852089 0.046733409997751316 0 0.032670095242852089 0.046733409997751316 0 0.033323445121122446 0.048622551971952754 0 0.031882070313558358 0.048293032774700609 0 0.032670095242852089 0.046733409997751316 0 0.033937385364563387 0.047472169269091195 0 0.033323445121122446 0.048622551971952754 0 0.0338120297523039 0.046182846868469948 0 0.032670095242852089 0.046733409997751316 0 0.033937385364563387 0.047472169269091195 0 0.034803369512832909 0.046795643741797885 0 0.0338120297523039 0.046182846868469948 0 0.033937385364563387 0.047472169269091195 0 0.034661984496566996 0.048268463403489309 0 0.033937385364563387 0.047472169269091195 0 0.033323445121122446 0.048622551971952754 0 0.034661984496566996 0.048268463403489309 0 0.033323445121122446 0.048622551971952754 0 0.033370925740732832 0.050515666283725148 0 0.032479021353772168 0.049490111525446322 0 0.031263923344473463 0.050485733405535069 0 0.033370925740732832 0.050515666283725148 0 0.033323445121122446 0.048622551971952754 0 0.032479021353772168 0.049490111525446322 0 0.033370925740732832 0.050515666283725148 0 0.033323445121122446 0.048622551971952754 0 0.032479021353772168 0.049490111525446322 0 0.031882070313558358 0.048293032774700609 0 0.032479021353772168 0.049490111525446322 0 0.031882070313558358 0.048293032774700609 0 0.031263923344473463 0.050485733405535069 0 0.029911060051307562 0.04905351666105965 0 0.029815418970965304 0.051489004818905497 0 0.031263923344473463 0.050485733405535069 0 0.029911060051307562 0.04905351666105965 0 0.031882070313558358 0.048293032774700609 0 0.031263923344473463 0.050485733405535069 0 0.029911060051307562 0.04905351666105965 0 0.031882070313558358 0.048293032774700609 0 0.03108664990035985 0.046715499497126577 0 0.029563501483742344 0.045967653644852113 0 0.029911060051307562 0.04905351666105965 0 0.03108664990035985 0.046715499497126577 0 0.032670095242852089 0.046733409997751316 0 0.031882070313558358 0.048293032774700609 0 0.03108664990035985 0.046715499497126577 0 0.031389182027874267 0.044832422439468847 0 0.032670095242852089 0.046733409997751316 0 0.03108664990035985 0.046715499497126577 0 0.029563501483742344 0.045967653644852113 0 0.031389182027874267 0.044832422439468847 0 0.03108664990035985 0.046715499497126577 0 0.027213759078313748 0.058274462479728305 0 0.027849835758773898 0.056541234310927863 0 0.026495822490534494 0.057915101400893315 0 0.027849835758773898 0.056541234310927863 0 0.026495822490534494 0.057915101400893315 0 0.026009861280502391 0.057100104740986452 0 0.029815418970965304 0.051489004818905497 0 0.029924801795797904 0.053305035442677708 0 0.031263923344473463 0.050485733405535069 0 0.02857071462943498 0.055762133718063323 0 0.02962811323505081 0.054545603580762235 0 0.027213759078313748 0.058274462479728305 0 0.026220567598360302 0.058611932149386564 0 0.026245383661057605 0.058490175261163374 0 0.027213759078313748 0.058274462479728305 0 0.026495822490534494 0.057915101400893315 0 0.026220567598360302 0.058611932149386564 0 0.029924801795797904 0.053305035442677708 0 0.031263923344473463 0.050485733405535069 0 0.033370925740732832 0.050515666283725148 0 0.026220567598360302 0.058611932149386564 0 0.024651413104115161 0.05853897004852536 0 0.02384037993147612 0.059857832688118499 0 0.026220567598360302 0.058611932149386564 0 0.026245383661057605 0.058490175261163374 0 0.027586802051508878 0.058214504600330404 0 0.026180340875889101 0.058700682386378961 0 0.025648373280874104 0.058980649514965358 0 0.026220567598360302 0.058611932149386564 0 0.024651413104115161 0.05853897004852536 0 0.025492699970251706 0.05794661098484321 0 0.025492699970251706 0.05794661098484321 0 0.023902254075659001 0.057441197762455501 0 0.026009861280502391 0.057100104740986452 0 0.024651413104115161 0.05853897004852536 0 0.025492699970251706 0.05794661098484321 0 0.023902254075659001 0.057441197762455501 0 0.026495822490534494 0.057915101400893315 0 0.026220567598360302 0.058611932149386564 0 0.025492699970251706 0.05794661098484321 0 0.026495822490534494 0.057915101400893315 0 0.025492699970251706 0.05794661098484321 0 0.026009861280502391 0.057100104740986452 0 0.024651413104115161 0.05853897004852536 0 0.023902254075659001 0.057441197762455501 0 0.023440985662880779 0.058711955964936419 0 0.023902254075659001 0.057441197762455501 0 0.023440985662880779 0.058711955964936419 0 0.02217537023652362 0.058511728637463352 0 0.024651413104115161 0.05853897004852536 0 0.02384037993147612 0.059857832688118499 0 0.023440985662880779 0.058711955964936419 0 0.02384037993147612 0.059857832688118499 0 0.023440985662880779 0.058711955964936419 0 0.022705553932492083 0.059391619422184787 0 0.022398734527308489 0.060072522093041335 0 0.02384037993147612 0.059857832688118499 0 0.022705553932492083 0.059391619422184787 0 0.023440985662880779 0.058711955964936419 0 0.022705553932492083 0.059391619422184787 0 0.02217537023652362 0.058511728637463352 0 0.022398734527308489 0.060072522093041335 0 0.022705553932492083 0.059391619422184787 0 0.021787642437474452 0.059421636092768813 0 0.022705553932492083 0.059391619422184787 0 0.02217537023652362 0.058511728637463352 0 0.021787642437474452 0.059421636092768813 0 0.023902254075659001 0.057441197762455501 0 0.02217537023652362 0.058511728637463352 0 0.020993433222744565 0.056915035629351747 0 0.023902254075659001 0.057441197762455501 0 0.022463880097101655 0.054999628565465405 0 0.024997303170713418 0.05619060776957685 0 0.023902254075659001 0.057441197762455501 0 0.022463880097101655 0.054999628565465405 0 0.020993433222744565 0.056915035629351747 0 0.022463880097101655 0.054999628565465405 0 0.020993433222744565 0.056915035629351747 0 0.019316151912876004 0.054999595041025563 0 0.023902254075659001 0.057441197762455501 0 0.024997303170713418 0.05619060776957685 0 0.026009861280502391 0.057100104740986452 0 0.022463880097101655 0.054999628565465405 0 0.024997303170713418 0.05619060776957685 0 0.025611087254365967 0.05499944624808107 0 0.024997303170713418 0.05619060776957685 0 0.025611087254365967 0.05499944624808107 0 0.026723345884979571 0.055998805695139833 0 0.028759411700631742 0.054999341234627061 0 0.025611087254365967 0.05499944624808107 0 0.026723345884979571 0.055998805695139833 0 0.027849835758773898 0.056541234310927863 0 0.026723345884979571 0.055998805695139833 0 0.026009861280502391 0.057100104740986452 0 0.024997303170713418 0.05619060776957685 0 0.026723345884979571 0.055998805695139833 0 0.026009861280502391 0.057100104740986452 0 0.016992468112966248 0.058844630594028245 0 0.015214728756445452 0.058197099940199039 0 0.01756718605437774 0.057077738241348187 0 0.016992468112966248 0.058844630594028245 0 0.015214728756445452 0.058197099940199039 0 0.01489010950069344 0.059892005523389802 0 0.016992468112966248 0.058844630594028245 0 0.01489010950069344 0.059892005523389802 0 0.016444182979423762 0.060460859992925171 0 0.016992468112966248 0.058844630594028245 0 0.016444182979423762 0.060460859992925171 0 0.017563590390638189 0.060118311145862094 0 0.018425284926049341 0.060907097995999894 0 0.017563590390638189 0.060118311145862094 0 0.019732562444420568 0.058830792835516656 0 0.016992468112966248 0.058844630594028245 0 0.017563590390638189 0.060118311145862094 0 0.019732562444420568 0.058830792835516656 0 0.019804859451803325 0.061528124161356876 0 0.018425284926049341 0.060907097995999894 0 0.019732562444420568 0.058830792835516656 0 0.02519387381154535 0.058972417319126037 0 0.018614661154424242 0.059594974877873852 0 0.02217537023652362 0.058511728637463352 0 0.021787642437474452 0.059421636092768813 0 0.019732562444420568 0.058830792835516656 0 0.021707356553284839 0.060294439973861677 0 0.02153576225077097 0.059770385398043906 0 0.019732562444420568 0.058830792835516656 0 0.021787642437474452 0.059421636092768813 0 0.02153576225077097 0.059770385398043906 0 0.019732562444420568 0.058830792835516656 0 0.022398734527308489 0.060072522093041335 0 0.021787642437474452 0.059421636092768813 0 0.02153576225077097 0.059770385398043906 0 0.02217537023652362 0.058511728637463352 0 0.019732562444420568 0.058830792835516656 0 0.020993433222744565 0.056915035629351747 0 0.016992468112966248 0.058844630594028245 0 0.019732562444420568 0.058830792835516656 0 0.01756718605437774 0.057077738241348187 0 0.019732562444420568 0.058830792835516656 0 0.020993433222744565 0.056915035629351747 0 0.01756718605437774 0.057077738241348187 0 0.020993433222744565 0.056915035629351747 0 0.019316151912876004 0.054999595041025563 0 0.01756718605437774 0.057077738241348187 0 0.019316151912876004 0.054999595041025563 0 0.016168348089985386 0.054999677374911571 0 0.01756718605437774 0.057077738241348187 0 0.016168348089985386 0.054999677374911571 0 0.01756718605437774 0.057077738241348187 0 0.015059704309783734 0.056436062372335283 0 0.015214728756445452 0.058197099940199039 0 0.01756718605437774 0.057077738241348187 0 0.015059704309783734 0.056436062372335283 0 0.015214728756445452 0.058197099940199039 0 0.015059704309783734 0.056436062372335283 0 0.013309767148972543 0.05695533065858014 0 0.016168348089985386 0.054999677374911571 0 0.015059704309783734 0.056436062372335283 0 0.013020520869773794 0.054999675270997216 0 0.013020520869773794 0.054999675270997216 0 0.011296078976274939 0.056309198117040674 0 0.013309767148972543 0.05695533065858014 0 0.015059704309783734 0.056436062372335283 0 0.013020520869773794 0.054999675270997216 0 0.013309767148972543 0.05695533065858014 0 0.013020520869773794 0.054999675270997216 0 0.011296078976274939 0.056309198117040674 0 0.0098726443487441081 0.054999736318497236 0 0.011296078976274939 0.056309198117040674 0 0.013309767148972543 0.05695533065858014 0 0.011204527532226746 0.05794918624970264 0 0.013309767148972543 0.05695533065858014 0 0.013273267297836344 0.058504263426592547 0 0.011204527532226746 0.05794918624970264 0 0.0090853162541235898 0.056686387570584446 0 0.0062635428388983505 0.057290508940860435 0 0.0067250975949787496 0.054999797165258893 0 0.0098726443487441081 0.054999736318497236 0 0.0090853162541235898 0.056686387570584446 0 0.0067250975949787496 0.054999797165258893 0 0.011296078976274939 0.056309198117040674 0 0.0098726443487441081 0.054999736318497236 0 0.0090853162541235898 0.056686387570584446 0 0.0090853162541235898 0.056686387570584446 0 0.0090780678994295573 0.058646977553496925 0 0.011204527532226746 0.05794918624970264 0 0.011296078976274939 0.056309198117040674 0 0.0090853162541235898 0.056686387570584446 0 0.011204527532226746 0.05794918624970264 0 0.0090853162541235898 0.056686387570584446 0 0.0090780678994295573 0.058646977553496925 0 0.0062635428388983505 0.057290508940860435 0 0.0090780678994295573 0.058646977553496925 0 0.0077360855777840508 0.059674564393593164 0 0.0062635428388983505 0.057290508940860435 0 0.0090780678994295573 0.058646977553496925 0 0.010375578860373273 0.05921498198096025 0 0.011204527532226746 0.05794918624970264 0 0.010375578860373273 0.05921498198096025 0 0.009841508594673698 0.060588567342844325 0 0.011701231134077648 0.059632565140994402 0 0.0090780678994295573 0.058646977553496925 0 0.010375578860373273 0.05921498198096025 0 0.009841508594673698 0.060588567342844325 0 0.015265908163731566 0.059745766829249439 0 0.01044094509506472 0.061787671905525948 0 0.0077360855777840508 0.059674564393593164 0 0.012478573215156332 0.060256140010731533 0 0.0081886779033089798 0.059619766511010773 0 0.0090780678994295573 0.058646977553496925 0 0.009841508594673698 0.060588567342844325 0 0.0077360855777840508 0.059674564393593164 0 0.015214728756445452 0.058197099940199039 0 0.013309767148972543 0.05695533065858014 0 0.013273267297836344 0.058504263426592547 0 0.015214728756445452 0.058197099940199039 0 0.01489010950069344 0.059892005523389802 0 0.013273267297836344 0.058504263426592547 0 0.010375578860373273 0.05921498198096025 0 0.011204527532226746 0.05794918624970264 0 0.011701231134077648 0.059632565140994402 0 0.013273267297836344 0.058504263426592547 0 0.011204527532226746 0.05794918624970264 0 0.011701231134077648 0.059632565140994402 0 0.009841508594673698 0.060588567342844325 0 0.011701231134077648 0.059632565140994402 0 0.0129013831282907 0.061417058699970987 0 0.01489010950069344 0.059892005523389802 0 0.013273267297836344 0.058504263426592547 0 0.011701231134077648 0.059632565140994402 0 0.01489010950069344 0.059892005523389802 0 0.011701231134077648 0.059632565140994402 0 0.0129013831282907 0.061417058699970987 0 0.016605876714845185 0.061486806225169111 0 0.017982085021102986 0.060756939544907705 0 0.017806144005888539 0.060771073960210475 0 0.016605876714845185 0.061486806225169111 0 0.01489010950069344 0.059892005523389802 0 0.0129013831282907 0.061417058699970987 0 0.01644709626315043 0.061433001269196284 0 0.015369963301828049 0.061052327617032311 0 0.017982085021102986 0.060756939544907705 0 0.017806144005888539 0.060771073960210475 0 0.01780090891929751 0.060542905480050001 0 0.016764519903747239 0.060902424012351936 0 0.017806144005888539 0.060771073960210475 0 0.018717044485850501 0.059983953278115204 0 0.02077664817361807 0.059098732827544936 0 0.018925069248073058 0.059780891715578335 0 0.017806144005888539 0.060771073960210475 0 0.018717044485850501 0.059983953278115204 0 0.01780090891929751 0.060542905480050001 0 0.01780090891929751 0.060542905480050001 0 0.016819650528731932 0.060784050685578274 0 0.016827719827877816 0.060999974316162525 0 0.01780090891929751 0.060542905480050001 0 0.017149712683814166 0.060760679103262556 0 0.016819650528731932 0.060784050685578274 0 0.012478573215156332 0.060256140010731533 0 0.015369963301828049 0.061052327617032311 0 0.017149712683814166 0.060760679103262556 0 0.016507853439953844 0.060858370817863307 0 0.016819650528731932 0.060784050685578274 0 0.017982085021102986 0.060756939544907705 0 0.01780090891929751 0.060542905480050001 0 0.017149712683814166 0.060760679103262556 0 0.015265908163731566 0.059745766829249439 0 0.017982085021102986 0.060756939544907705 0 0.016443372020258577 0.060699251377402785 0 0.017982085021102986 0.060756939544907705 0 0.017149712683814166 0.060760679103262556 0 0.016443372020258577 0.060699251377402785 0 0.017149712683814166 0.060760679103262556 0 0.016443372020258577 0.060699251377402785 0 0.016507853439953844 0.060858370817863307 0 0.015265908163731566 0.059745766829249439 0 0.015105001235783993 0.061217864438738438 0 0.01044094509506472 0.061787671905525948 0 0.016443372020258577 0.060699251377402785 0 0.015105001235783993 0.061217864438738438 0 0.016083209112998396 0.060972074890624235 0 0.015105001235783993 0.061217864438738438 0 0.015248963088466409 0.063756487029203418 0 0.01044094509506472 0.061787671905525948 0 0.015265908163731566 0.059745766829249439 0 0.016443372020258577 0.060699251377402785 0 0.015105001235783993 0.061217864438738438 0 0.015105001235783993 0.061217864438738438 0 0.016210685066811573 0.06095003942211677 0 0.016083209112998396 0.060972074890624235 0 0.014223160365429279 0.061479896050934062 0 0.012597940961918226 0.057715705180838045 0 0.016337222100040166 0.060825138065314234 0 0.016301028769360213 0.06090661320668693 0 0.016819650528731932 0.060784050685578274 0 0.012597940961918226 0.057715705180838045 0 0.013059711001086834 0.057775730880032246 0 0.016301028769360213 0.06090661320668693 0 0.016507853439953844 0.060858370817863307 0 0.016819650528731932 0.060784050685578274 0 0.016443372020258577 0.060699251377402785 0 0.016507853439953844 0.060858370817863307 0 0.016083209112998396 0.060972074890624235 0 0.016301028769360213 0.06090661320668693 0 0.016507853439953844 0.060858370817863307 0 0.016083209112998396 0.060972074890624235 0 0.016210685066811573 0.06095003942211677 0 0.016301028769360213 0.06090661320668693 0 0.016083209112998396 0.060972074890624235 0 0.015248963088466409 0.063756487029203418 0 0.01044094509506472 0.061787671905525948 0 0.0097332504220169376 0.06495138128490939 0 0.012597940961918226 0.057715705180838045 0 0.0098141969199492789 0.055145393029929747 0 0.0099043924670781831 0.05035252201682925 0 0.010009371501570627 0.050631372497637432 0 0.0095932556485492804 0.05080616385067218 0 0.010453414425529902 0.05033559979351878 0 0.0099462413927891638 0.050404629467578711 0 0.010086720509205727 0.0504549713398093 0 0.0099043924670781831 0.05035252201682925 0 0.010086720509205727 0.0504549713398093 0 0.010009371501570627 0.050631372497637432 0 0.0098141969199492789 0.055145393029929747 0 0.0092335036698678961 0.053424216764598777 0 0.010453414425529902 0.05033559979351878 0 0.010086720509205727 0.0504549713398093 0 0.010275573029714257 0.050639923373163163 0 0.010275573029714257 0.050639923373163163 0 0.010009371501570627 0.050631372497637432 0 0.010121540661078211 0.050878283692632885 0 0.010086720509205727 0.0504549713398093 0 0.010275573029714257 0.050639923373163163 0 0.010009371501570627 0.050631372497637432 0 0.010453414425529902 0.05033559979351878 0 0.010275573029714257 0.050639923373163163 0 0.010565543681319968 0.050811115472437066 0 0.012597940961918226 0.057715705180838045 0 0.013874475456029241 0.057415766278848389 0 0.016337222100040166 0.060825138065314234 0 0.016819650528731932 0.060784050685578274 0 0.016827719827877816 0.060999974316162525 0 0.013874475456029241 0.057415766278848389 0 0.013646973633510185 0.046967566117827188 0 0.010275573029714257 0.050639923373163163 0 0.010565543681319968 0.050811115472437066 0 0.010121540661078211 0.050878283692632885 0 0.010565543681319968 0.050811115472437066 0 0.010121540661078211 0.050878283692632885 0 0.01068857546788104 0.051308374789043869 0 0.010121540661078211 0.050878283692632885 0 0.0098620757571940259 0.051346602701822508 0 0.0095932556485492804 0.05080616385067218 0 0.010009371501570627 0.050631372497637432 0 0.010121540661078211 0.050878283692632885 0 0.0095932556485492804 0.05080616385067218 0 0.013646973633510185 0.046967566117827188 0 0.010270258360501603 0.043839106529053755 0 0.010121540661078211 0.050878283692632885 0 0.01068857546788104 0.051308374789043869 0 0.0098620757571940259 0.051346602701822508 0 0.012191945350288079 0.037861334634697909 0 0.013336451884756826 0.037068507934331467 0 0.011516762932977391 0.037155869235880906 0 0.012191945350288079 0.037861334634697909 0 0.013336451884756826 0.037068507934331467 0 0.013422924393288505 0.037545279311778014 0 0.013646973633510185 0.046967566117827188 0 0.012942788775156 0.027800079191645899 0 0.006318696833631076 0.027455122862091848 0 0.0097516615628950865 0.027910464818452722 0 0.011510452898191328 0.02701283096173368 0 0.012942788775156 0.027800079191645899 0 0.01480754896960379 0.0258071928852668 0 0.016730197214868233 0.062520744738186584 0 0.02012649264213718 0.063066595747498552 0 0.018109180981814858 0.061466205412020802 0 0.006318696833631076 0.027455122862091848 0 0.006580818092366051 0.029228799523795389 0 0.0097516615628950865 0.027910464818452722 0 0.018109164910824756 0.02446919746760667 0 0.017310906409665771 0.024222857567204246 0 0.018834334475009696 0.024136387551998897 0 0.013646973633510185 0.046967566117827188 0 0.014033103356480241 0.037806621754862754 0 0.006580818092366051 0.029228799523795389 0 0.0097516615628950865 0.027910464818452722 0 0.011062490582584664 0.027673940049807756 0 0.0097516615628950865 0.027910464818452722 0 0.011062490582584664 0.027673940049807756 0 0.011782611055584764 0.026208288088934408 0 0.018729388513589119 0.024499170942269822 0 0.018834334475009696 0.024136387551998897 0 0.018952347495391313 0.024410148858560007 0 0.019039204764339367 0.024579369602164957 0 0.011062490582584664 0.027673940049807756 0 0.012617530637446056 0.026003143902097157 0 0.018729388513589119 0.024499170942269822 0 0.018109164910824756 0.02446919746760667 0 0.018834334475009696 0.024136387551998897 0 0.012616137566708357 0.031683796213281011 0 0.014033103356480241 0.037806621754862754 0 0.019106471109390667 0.022545343066862986 0 0.012617530637446056 0.026003143902097157 0 0.011843472884987993 0.026046844488302183 0 0.019128938206482451 0.024398447945294093 0 0.018834334475009696 0.024136387551998897 0 0.018952347495391313 0.024410148858560007 0 0.013824628429431718 0.037318444507943173 0 0.014033103356480241 0.037806621754862754 0 0.011062490582584664 0.027673940049807756 0 0.012617530637446056 0.026003143902097157 0 0.011782611055584764 0.026208288088934408 0 0.02012649264213718 0.063066595747498552 0 0.019642432356604018 0.061468073865199924 0 0.018109180981814858 0.061466205412020802 0 0.024257856791820222 0.05931877953337223 0 0.018717044485850501 0.059983953278115204 0 0.021657336916949328 0.060794320579913345 0 0.02012649264213718 0.063066595747498552 0 0.019642432356604018 0.061468073865199924 0 0.021670843575669223 0.061587346695646771 0 0.019642432356604018 0.061468073865199924 0 0.021670843575669223 0.061587346695646771 0 0.021657336916949328 0.060794320579913345 0 0.018717044485850501 0.059983953278115204 0 0.019642432356604018 0.061468073865199924 0 0.021657336916949328 0.060794320579913345 0 0.018717044485850501 0.059983953278115204 0 0.019642432356604018 0.061468073865199924 0 0.018109180981814858 0.061466205412020802 0 0.016827719827877816 0.060999974316162525 0 0.016730197214868233 0.062520744738186584 0 0.018109180981814858 0.061466205412020802 0 0.018717044485850501 0.059983953278115204 0 0.01780090891929751 0.060542905480050001 0 0.018109180981814858 0.061466205412020802 0 0.01780090891929751 0.060542905480050001 0 0.016827719827877816 0.060999974316162525 0 0.018109180981814858 0.061466205412020802 0 0.0079193391566183321 0.050696440050886853 0 0.0077028821595434326 0.050276280568944752 0 0.0074401348845421532 0.051074710178565678 0 0.0079193391566183321 0.050696440050886853 0 0.0083046684544469621 0.050936107416074398 0 0.0074401348845421532 0.051074710178565678 0 0.0079193391566183321 0.050696440050886853 0 0.0082491135389829162 0.050380981947400066 0 0.0077028821595434326 0.050276280568944752 0 0.0083046684544469621 0.050936107416074398 0 0.0082491135389829162 0.050380981947400066 0 0.0090148353686802206 0.051075492501587452 0 0.0079193391566183321 0.050696440050886853 0 0.0083046684544469621 0.050936107416074398 0 0.0082491135389829162 0.050380981947400066 0 0.008408587955425045 0.05072580371679021 0 0.0063449254745701041 0.051897071977164887 0 0.0082491135389829162 0.050380981947400066 0 0.0077028821595434326 0.050276280568944752 0 0.0070524489026031782 0.049626577928587969 0 0.0065555547469101066 0.05038122522381059 0 0.0070524489026031782 0.049626577928587969 0 0.0053990927605400106 0.050001199874928369 0 0.0077028821595434326 0.050276280568944752 0 0.0065555547469101066 0.05038122522381059 0 0.0060459023944078082 0.051616945749762264 0 0.0065555547469101066 0.05038122522381059 0 0.0060459023944078082 0.051616945749762264 0 0.0053990927605400106 0.050001199874928369 0 0.0077028821595434326 0.050276280568944752 0 0.0065555547469101066 0.05038122522381059 0 0.0070524489026031782 0.049626577928587969 0 0.0077028821595434326 0.050276280568944752 0 0.0074401348845421532 0.051074710178565678 0 0.0065985638699020341 0.051204927141118059 0 0.0063449254745701041 0.051897071977164887 0 0.0017108121022433767 0.050377297644898941 0 0.0078668883818540526 0.050698196628583714 0 0.0044310107640974329 0.049039438834649222 0 0.0074401348845421532 0.051074710178565678 0 0.0065985638699020341 0.051204927141118059 0 0.006716041791142221 0.051515289014583479 0 0.0044310107640974329 0.049039438834649222 0 0.0061720088386263373 0.043324528539604681 0 0.0035522284623265921 0.043372322111992455 0 0.0035763623726466531 0.043016354619396832 0 0.0034201961951494078 0.043022501651176388 0 0.0034799934082900296 0.042466190402029071 0 0.0035763623726466531 0.043016354619396832 0 0.003412576774610578 0.043017674998940582 0 0.0057176547834042312 0.043319160435147441 0 0.0061720088386263373 0.043324528539604681 0 0.0034799934082900296 0.042466190402029071 0 0.0035763623726466531 0.043016354619396832 0 0.0038839303261082084 0.042549393102643447 0 0.0086305185322800102 0.037936206968291884 0 0.0076176074064415872 0.0374023086640645 0 0.0096213704799451138 0.037288690127896047 0 0.0083046684544469621 0.050936107416074398 0 0.0074401348845421532 0.051074710178565678 0 0.0087708004143379169 0.051443640931646752 0 0.0074401348845421532 0.051074710178565678 0 0.006716041791142221 0.051515289014583479 0 0.0087708004143379169 0.051443640931646752 0 0.0061720088386263373 0.043324528539604681 0 0.0094932632154979685 0.044577736202039357 0 0.0095607363013434799 0.03789119433199474 0 0.0086305185322800102 0.037936206968291884 0 0.0096213704799451138 0.037288690127896047 0 0.0095607363013434799 0.03789119433199474 0 0.0096213704799451138 0.037288690127896047 0 0.010616496000151099 0.037468994047464801 0 0.0087708004143379169 0.051443640931646752 0 0.0098620757571940259 0.051346602701822508 0 0.0090148353686802206 0.051075492501587452 0 0.0083046684544469621 0.050936107416074398 0 0.0087708004143379169 0.051443640931646752 0 0.0090148353686802206 0.051075492501587452 0 0.0096213704799451138 0.037288690127896047 0 0.010616496000151099 0.037468994047464801 0 0.011516762932977391 0.037155869235880906 0 0.010931893679764371 0.038138422668525039 0 0.010616496000151099 0.037468994047464801 0 0.011516762932977391 0.037155869235880906 0 0.0094932632154979685 0.044577736202039357 0 0.010270258360501603 0.043839106529053755 0 0.0098620757571940259 0.051346602701822508 0 0.0090148353686802206 0.051075492501587452 0 0.0092920844164252284 0.050901063786967446 0 0.0098620757571940259 0.051346602701822508 0 0.0095932556485492804 0.05080616385067218 0 0.0092920844164252284 0.050901063786967446 0 0.0095932556485492804 0.05080616385067218 0 0.0092920844164252284 0.050901063786967446 0 0.0090464861362386257 0.050458159337417437 0 0.0086325478745763393 0.050889940214852818 0 0.0090148353686802206 0.051075492501587452 0 0.0089822053084717707 0.050820134511931403 0 0.008408587955425045 0.05072580371679021 0 0.0089184978127648008 0.050988426684950662 0 0.0090148353686802206 0.051075492501587452 0 0.0092920844164252284 0.050901063786967446 0 0.0089822053084717707 0.050820134511931403 0 0.0092920844164252284 0.050901063786967446 0 0.0089822053084717707 0.050820134511931403 0 0.0090464861362386257 0.050458159337417437 0 0.0086325478745763393 0.050889940214852818 0 0.0089822053084717707 0.050820134511931403 0 0.0090464861362386257 0.050458159337417437 0 0.0090053429234481421 0.054218612711493461 0 0.006846529716189589 0.054719346914291249 0 0.0067670990196181139 0.053338841245515828 0 0.0099043924670781831 0.05035252201682925 0 0.0095932556485492804 0.05080616385067218 0 0.0090464861362386257 0.050458159337417437 0 0.0098141969199492789 0.055145393029929747 0 0.007931115242005125 0.052359327831239574 0 0.0098141969199492789 0.055145393029929747 0 0.0056531530713366382 0.058819827631029546 0 0.01044094509506472 0.061787671905525948 0 0.0097332504220169376 0.06495138128490939 0 0.0043590926054438732 0.06251611632785592 0 0.006846529716189589 0.054719346914291249 0 0.0067670990196181139 0.053338841245515828 0 0.0054062966619395983 0.053939590591809819 0 0.0067670990196181139 0.053338841245515828 0 0.0054062966619395983 0.053939590591809819 0 0.0045421318906352735 0.052468547228801878 0 0.0056531530713366382 0.058819827631029546 0 0.0028040059484387065 0.055341684045274245 0 0.0086325478745763393 0.050889940214852818 0 0.0090464861362386257 0.050458159337417437 0 0.0082011795771673324 0.0506521092501276 0 0.006846529716189589 0.054719346914291249 0 0.0054062966619395983 0.053939590591809819 0 0.0047045936924698566 0.055213857029951456 0 0.007931115242005125 0.052359327831239574 0 0.0063449254745701041 0.051897071977164887 0 0.0047045936924698566 0.055213857029951456 0 0.0040392975813536335 0.053922209716338744 0 0.0028100350139327467 0.054091049278779842 0 0.0054062966619395983 0.053939590591809819 0 0.0047045936924698566 0.055213857029951456 0 0.0040392975813536335 0.053922209716338744 0 0.0054062966619395983 0.053939590591809819 0 0.0040392975813536335 0.053922209716338744 0 0.0045421318906352735 0.052468547228801878 0 0.0012000225867799738 0.061064325716594328 0 0.0033941235184381264 0.059165910771391494 0 0.00039638646856349051 0.059398973587219635 0 0.0043590926054438732 0.06251611632785592 0 0.0010129987811295087 0.061071507975397524 0 0.0033941235184381264 0.059165910771391494 0 0.0028040059484387065 0.055341684045274245 0 0.0021074487340355845 0.061095220248153885 0 0.0033941235184381264 0.059165910771391494 0 0.00039638646856349051 0.059398973587219635 0 0.00093545064458219122 0.05772408964305499 0 0.01044094509506472 0.061787671905525948 0 0.0043590926054438732 0.06251611632785592 0 0.0077360855777840508 0.059674564393593164 0 0.0043590926054438732 0.06251611632785592 0 0.0033941235184381264 0.059165910771391494 0 0.0077360855777840508 0.059674564393593164 0 0.0033941235184381264 0.059165910771391494 0 0.0077360855777840508 0.059674564393593164 0 0.0062635428388983505 0.057290508940860435 0 0.0033941235184381264 0.059165910771391494 0 0.0062635428388983505 0.057290508940860435 0 0.0029119462905054898 0.056882974621381789 0 0.0062635428388983505 0.057290508940860435 0 0.0035770450671709915 0.054999684921093014 0 0.0029119462905054898 0.056882974621381789 0 0.0062635428388983505 0.057290508940860435 0 0.0035770450671709915 0.054999684921093014 0 0.0067250975949787496 0.054999797165258893 0 0.0033941235184381264 0.059165910771391494 0 0.00093545064458219122 0.05772408964305499 0 0.0029119462905054898 0.056882974621381789 0 0.0035770450671709915 0.054999684921093014 0 0.0029119462905054898 0.056882974621381789 0 0.00042913694212528744 0.054999840044416583 0 0.00093545064458219122 0.05772408964305499 0 0.0029119462905054898 0.056882974621381789 0 0.00042913694212528744 0.054999840044416583 0 0.00042913694212528744 0.054999840044416583 0 -0.0014331163362363364 0.057661321464919681 0 -0.0027186910932063203 0.054999902891711278 0 0.00093545064458219122 0.05772408964305499 0 0.00042913694212528744 0.054999840044416583 0 -0.0014331163362363364 0.057661321464919681 0 -0.0014331163362363364 0.057661321464919681 0 -0.0044274097004646127 0.056971519692725681 0 -0.0038559994530112294 0.059223081363905694 0 -0.0014331163362363364 0.057661321464919681 0 -0.0027186910932063203 0.054999902891711278 0 -0.0044274097004646127 0.056971519692725681 0 -0.0027186910932063203 0.054999902891711278 0 -0.0058664283856817469 0.054999923387811726 0 -0.0044274097004646127 0.056971519692725681 0 -0.0058664283856817469 0.054999923387811726 0 -0.0063317696073253438 0.056669279186797962 0 -0.0074257898498629321 0.05589818844756525 0 -0.0058664283856817469 0.054999923387811726 0 -0.0063317696073253438 0.056669279186797962 0 -0.0044274097004646127 0.056971519692725681 0 -0.0063317696073253438 0.056669279186797962 0 -0.0044274097004646127 0.056971519692725681 0 -0.0063605913748046279 0.058301107193214956 0 -0.0063317696073253438 0.056669279186797962 0 -0.0063605913748046279 0.058301107193214956 0 -0.007556643539370733 0.057024252454619326 0 -0.0044274097004646127 0.056971519692725681 0 -0.0038559994530112294 0.059223081363905694 0 -0.0063605913748046279 0.058301107193214956 0 -0.0035545645790469663 0.045988467997080312 0 -0.0030759347447814264 0.047914369129131419 0 -0.0042752397624904494 0.047118027920825006 0 -0.0025408873621158914 0.053119182846171599 0 -0.0050161200309578368 0.052211649256289197 0 -0.0012800953990495195 0.047014422872029643 0 -0.0035545645790469663 0.045988467997080312 0 -0.0030759347447814264 0.047914369129131419 0 -0.0030759347447814264 0.047914369129131419 0 -0.0042752397624904494 0.047118027920825006 0 -0.004570919034588946 0.048186521295872163 0 -0.0030759347447814264 0.047914369129131419 0 -0.0017522575871557263 0.048444763157290044 0 -0.0024056776646326789 0.049437372873784961 0 -0.0030759347447814264 0.047914369129131419 0 -0.0038822580887813876 0.049163267687220215 0 -0.0024056776646326789 0.049437372873784961 0 -0.0030759347447814264 0.047914369129131419 0 -0.004570919034588946 0.048186521295872163 0 -0.0038822580887813876 0.049163267687220215 0 -0.0012800953990495195 0.047014422872029643 0 -0.0030759347447814264 0.047914369129131419 0 -0.0017522575871557263 0.048444763157290044 0 -0.0012800953990495195 0.047014422872029643 0 -0.0017522575871557263 0.048444763157290044 0 -0.00065511754615329304 0.048483759081932531 0 -0.0017522575871557263 0.048444763157290044 0 -0.0011825880666192852 0.049566582583411282 0 -0.0024056776646326789 0.049437372873784961 0 -0.0017522575871557263 0.048444763157290044 0 -0.00065511754615329304 0.048483759081932531 0 -0.0011825880666192852 0.049566582583411282 0 -0.00065511754615329304 0.048483759081932531 0 0.00034207163697084542 0.049148290601231666 0 -0.0011825880666192852 0.049566582583411282 0 -0.00065511754615329304 0.048483759081932531 0 0.00034207163697084542 0.049148290601231666 0 0.00091777143915964133 0.047996119206715655 0 -0.0012800953990495195 0.047014422872029643 0 -0.00065511754615329304 0.048483759081932531 0 0.00091777143915964133 0.047996119206715655 0 0.0028040059484387065 0.055341684045274245 0 -0.00036833022787536245 0.053986730296423056 0 0.0030978489833112122 0.048915745629602748 0 0.00034207163697084542 0.049148290601231666 0 0.00091777143915964133 0.047996119206715655 0 0.0012000225867799738 0.061064325716594328 0 0.00039638646856349051 0.059398973587219635 0 -0.0013487864773480175 0.060115204631801131 0 0.00039638646856349051 0.059398973587219635 0 -0.0014331163362363364 0.057661321464919681 0 -0.0013487864773480175 0.060115204631801131 0 0.00039638646856349051 0.059398973587219635 0 0.00093545064458219122 0.05772408964305499 0 -0.0014331163362363364 0.057661321464919681 0 -0.0014331163362363364 0.057661321464919681 0 -0.0038559994530112294 0.059223081363905694 0 -0.0013487864773480175 0.060115204631801131 0 -0.0025408873621158914 0.053119182846171599 0 -0.00036833022787536245 0.053986730296423056 0 -0.012869457847131578 0.057112449660548521 0 -0.012162002246851938 0.054999966245595118 0 -0.015309744230340294 0.05499995994865161 0 -0.012869457847131578 0.057112449660548521 0 -0.012162002246851938 0.054999966245595118 0 -0.010896207038000172 0.055996748449031533 0 -0.012162002246851938 0.054999966245595118 0 -0.010896207038000172 0.055996748449031533 0 -0.0090142047187979704 0.054999942315582875 0 -0.011707725321634306 0.050826261437757758 0 -0.0087758901931112628 0.051878331914964465 0 -0.012869457847131578 0.057112449660548521 0 -0.010896207038000172 0.055996748449031533 0 -0.0097734275105794289 0.057105954428769548 0 -0.010510170140706121 0.044779583747149222 0 -0.0078392970497139121 0.044896296841260917 0 -0.0088111403337092012 0.046267825873469802 0 -0.0070937733023121131 0.045205464901937671 0 -0.0078392970497139121 0.044896296841260917 0 -0.0088111403337092012 0.046267825873469802 0 -0.0059309110199478139 0.044990589597175654 0 -0.006463487775794129 0.046305166032233488 0 -0.0079022619269730598 0.046148643296518937 0 -0.0069682098139333968 0.050394198406655606 0 -0.007965813332834774 0.045586114048758758 0 -0.0090540513691303413 0.056741681453702494 0 -0.0097734275105794289 0.057105954428769548 0 -0.0083288479077717244 0.057107057507183437 0 -0.0069682098139333968 0.050394198406655606 0 -0.0087758901931112628 0.051878331914964465 0 -0.0087758901931112628 0.051878331914964465 0 -0.0084770509534107183 0.054622780273895534 0 -0.0079846570127236234 0.052899300883590343 0 -0.0084409676416015815 0.052711161630783931 0 -0.0077062963967884672 0.052727347253365663 0 -0.0069682098139333968 0.050394198406655606 0 -0.0084770509534107183 0.054622780273895534 0 -0.0090540513691303413 0.056741681453702494 0 -0.0097734275105794289 0.057105954428769548 0 -0.0095281319838648165 0.056334753622219381 0 -0.010896207038000172 0.055996748449031533 0 -0.0095281319838648165 0.056334753622219381 0 -0.0090142047187979704 0.054999942315582875 0 -0.010896207038000172 0.055996748449031533 0 -0.0097734275105794289 0.057105954428769548 0 -0.0095281319838648165 0.056334753622219381 0 -0.0090540513691303413 0.056741681453702494 0 -0.0095281319838648165 0.056334753622219381 0 -0.0083406238473336357 0.05618734502714913 0 -0.0095281319838648165 0.056334753622219381 0 -0.0090142047187979704 0.054999942315582875 0 -0.0083406238473336357 0.05618734502714913 0 -0.0090540513691303413 0.056741681453702494 0 -0.0082822239612527562 0.056643570324408386 0 -0.0083406238473336357 0.05618734502714913 0 -0.0058664283856817469 0.054999923387811726 0 -0.0090142047187979704 0.054999942315582875 0 -0.0074257898498629321 0.05589818844756525 0 -0.0083406238473336357 0.05618734502714913 0 -0.0074257898498629321 0.05589818844756525 0 -0.0075980805789026993 0.056622493507387517 0 -0.0082822239612527562 0.056643570324408386 0 -0.0083406238473336357 0.05618734502714913 0 -0.0075980805789026993 0.056622493507387517 0 -0.0090142047187979704 0.054999942315582875 0 -0.0083406238473336357 0.05618734502714913 0 -0.0074257898498629321 0.05589818844756525 0 -0.0063317696073253438 0.056669279186797962 0 -0.0074257898498629321 0.05589818844756525 0 -0.0075980805789026993 0.056622493507387517 0 -0.0063317696073253438 0.056669279186797962 0 -0.0075980805789026993 0.056622493507387517 0 -0.007556643539370733 0.057024252454619326 0 -0.0050161200309578368 0.052211649256289197 0 -0.0069682098139333968 0.050394198406655606 0 -0.0063605913748046279 0.058301107193214956 0 -0.0087786147600665224 0.057324712543336862 0 -0.007556643539370733 0.057024252454619326 0 -0.0035545645790469663 0.045988467997080312 0 -0.0059309110199478139 0.044990589597175654 0 -0.0050939931397122927 0.046315686081263296 0 -0.0075980805789026993 0.056622493507387517 0 -0.007556643539370733 0.057024252454619326 0 -0.0082124545006370224 0.057014671274384976 0 -0.0087786147600665224 0.057324712543336862 0 -0.007556643539370733 0.057024252454619326 0 -0.0082573246121575988 0.057004054818433063 0 -0.0082822239612527562 0.056643570324408386 0 -0.0075980805789026993 0.056622493507387517 0 -0.0083288479077717244 0.057107057507183437 0 -0.0084596941650562103 0.055685271779157018 0 -0.0084770509534107183 0.054622780273895534 0 -0.0090540513691303413 0.056741681453702494 0 -0.0082822239612527562 0.056643570324408386 0 -0.0083288479077717244 0.057107057507183437 0 -0.0079182137752615411 0.055441240697612103 0 -0.0084770509534107183 0.054622780273895534 0 -0.0035545645790469663 0.045988467997080312 0 -0.0050939931397122927 0.046315686081263296 0 -0.0042752397624904494 0.047118027920825006 0 -0.0050939931397122927 0.046315686081263296 0 -0.0054280351880054275 0.047181244921565738 0 -0.0042752397624904494 0.047118027920825006 0 -0.0054280351880054275 0.047181244921565738 0 -0.0042752397624904494 0.047118027920825006 0 -0.004570919034588946 0.048186521295872163 0 -0.004570919034588946 0.048186521295872163 0 -0.0053473729040903889 0.049367630009436052 0 -0.0038822580887813876 0.049163267687220215 0 -0.004570919034588946 0.048186521295872163 0 -0.0056447577822012181 0.048177852615390024 0 -0.0053473729040903889 0.049367630009436052 0 -0.0054280351880054275 0.047181244921565738 0 -0.004570919034588946 0.048186521295872163 0 -0.0056447577822012181 0.048177852615390024 0 -0.0054280351880054275 0.047181244921565738 0 -0.0056447577822012181 0.048177852615390024 0 -0.0063449898391926586 0.047486443378649518 0 -0.0056447577822012181 0.048177852615390024 0 -0.0063449898391926586 0.047486443378649518 0 -0.0067647819290708828 0.048225587863083258 0 -0.0056447577822012181 0.048177852615390024 0 -0.0067647819290708828 0.048225587863083258 0 -0.0066500037249222505 0.049406652147164914 0 -0.0056447577822012181 0.048177852615390024 0 -0.0066500037249222505 0.049406652147164914 0 -0.0053473729040903889 0.049367630009436052 0 -0.0067647819290708828 0.048225587863083258 0 -0.0076401587912791344 0.048626605635525899 0 -0.0066500037249222505 0.049406652147164914 0 -0.0063449898391926586 0.047486443378649518 0 -0.0067647819290708828 0.048225587863083258 0 -0.0073960845939641372 0.047516606572613584 0 -0.0067647819290708828 0.048225587863083258 0 -0.0073960845939641372 0.047516606572613584 0 -0.0076401587912791344 0.048626605635525899 0 -0.006463487775794129 0.046305166032233488 0 -0.0079022619269730598 0.046148643296518937 0 -0.0073960845939641372 0.047516606572613584 0 -0.0063449898391926586 0.047486443378649518 0 -0.006463487775794129 0.046305166032233488 0 -0.0073960845939641372 0.047516606572613584 0 -0.0054280351880054275 0.047181244921565738 0 -0.0063449898391926586 0.047486443378649518 0 -0.006463487775794129 0.046305166032233488 0 -0.0059309110199478139 0.044990589597175654 0 -0.0050939931397122927 0.046315686081263296 0 -0.006463487775794129 0.046305166032233488 0 -0.0050939931397122927 0.046315686081263296 0 -0.0054280351880054275 0.047181244921565738 0 -0.006463487775794129 0.046305166032233488 0 -0.0079022619269730598 0.046148643296518937 0 -0.0086274353907342706 0.047852737599771988 0 -0.010003337463671533 0.047317133979415206 0 -0.0079022619269730598 0.046148643296518937 0 -0.0073960845939641372 0.047516606572613584 0 -0.0086274353907342706 0.047852737599771988 0 -0.007965813332834774 0.045586114048758758 0 -0.010446111202872312 0.047504789907898338 0 -0.0073960845939641372 0.047516606572613584 0 -0.0076401587912791344 0.048626605635525899 0 -0.0086274353907342706 0.047852737599771988 0 -0.0076401587912791344 0.048626605635525899 0 -0.0086333016658681882 0.048887253192672168 0 -0.0080187080065408957 0.049675517030821445 0 -0.0076401587912791344 0.048626605635525899 0 -0.0086333016658681882 0.048887253192672168 0 -0.0086274353907342706 0.047852737599771988 0 -0.010254695886225343 0.048687359529068837 0 -0.010003337463671533 0.047317133979415206 0 -0.012358393580912464 0.048700179020553451 0 -0.0086274353907342706 0.047852737599771988 0 -0.010254695886225343 0.048687359529068837 0 -0.010003337463671533 0.047317133979415206 0 -0.0086333016658681882 0.048887253192672168 0 -0.0086274353907342706 0.047852737599771988 0 -0.010254695886225343 0.048687359529068837 0 -0.0086333016658681882 0.048887253192672168 0 -0.010254695886225343 0.048687359529068837 0 -0.0091936138151687743 0.049575786217707599 0 -0.010510170140706121 0.044779583747149222 0 -0.0088111403337092012 0.046267825873469802 0 -0.010588172727128522 0.047422342158814544 0 -0.010510170140706121 0.044779583747149222 0 -0.010588172727128522 0.047422342158814544 0 -0.011956852420640315 0.045990573987383467 0 -0.01013952238914563 0.043166809457923318 0 -0.00904123857850451 0.042916988065819277 0 -0.010631745449088063 0.042085355037578792 0 -0.0094413284624404268 0.05089768482461883 0 -0.0085306130513018927 0.051988859550818028 0 -0.010890128750917947 0.050574603786009788 0 -0.0087858070295353374 0.047180430119796064 0 -0.010974053147764701 0.048306284281789687 0 -0.0094413284624404268 0.05089768482461883 0 -0.010211772198364551 0.050370132344769052 0 -0.010890128750917947 0.050574603786009788 0 -0.010211772198364551 0.050370132344769052 0 -0.010615146593359092 0.050024194115975307 0 -0.0098203273912228044 0.049982761494782937 0 -0.0112302273546462 0.049491537622761227 0 -0.010974053147764701 0.048306284281789687 0 -0.010211772198364551 0.050370132344769052 0 -0.010615146593359092 0.050024194115975307 0 -0.010890128750917947 0.050574603786009788 0 -0.010254695886225343 0.048687359529068837 0 -0.010615146593359092 0.050024194115975307 0 -0.011169907317014399 0.049340216450259856 0 -0.010254695886225343 0.048687359529068837 0 -0.010615146593359092 0.050024194115975307 0 -0.0098203273912228044 0.049982761494782937 0 -0.010254695886225343 0.048687359529068837 0 -0.0091936138151687743 0.049575786217707599 0 -0.0098203273912228044 0.049982761494782937 0 -0.0091936138151687743 0.049575786217707599 0 -0.0098203273912228044 0.049982761494782937 0 -0.0088588020686678915 0.05025546181772178 0 -0.0094413284624404268 0.05089768482461883 0 -0.0098203273912228044 0.049982761494782937 0 -0.0088588020686678915 0.05025546181772178 0 -0.0094413284624404268 0.05089768482461883 0 -0.010211772198364551 0.050370132344769052 0 -0.0098203273912228044 0.049982761494782937 0 -0.0088588020686678915 0.05025546181772178 0 -0.0080187080065408957 0.049675517030821445 0 -0.0081104065243420859 0.050808826963829004 0 -0.0094413284624404268 0.05089768482461883 0 -0.0088588020686678915 0.05025546181772178 0 -0.0081104065243420859 0.050808826963829004 0 -0.0086333016658681882 0.048887253192672168 0 -0.0091936138151687743 0.049575786217707599 0 -0.0080187080065408957 0.049675517030821445 0 -0.0091936138151687743 0.049575786217707599 0 -0.0088588020686678915 0.05025546181772178 0 -0.0080187080065408957 0.049675517030821445 0 -0.0076401587912791344 0.048626605635525899 0 -0.0080187080065408957 0.049675517030821445 0 -0.0066500037249222505 0.049406652147164914 0 -0.0080187080065408957 0.049675517030821445 0 -0.0081104065243420859 0.050808826963829004 0 -0.0070710858141240672 0.050494618845658527 0 -0.0085306130513018927 0.051988859550818028 0 -0.0065896029010052001 0.052066577968407801 0 -0.0072870396774708723 0.051342667042483373 0 -0.0081104065243420859 0.050808826963829004 0 -0.0072870396774708723 0.051342667042483373 0 -0.0070710858141240672 0.050494618845658527 0 -0.0081104065243420859 0.050808826963829004 0 -0.0085306130513018927 0.051988859550818028 0 -0.0072870396774708723 0.051342667042483373 0 -0.0094413284624404268 0.05089768482461883 0 -0.0081104065243420859 0.050808826963829004 0 -0.0085306130513018927 0.051988859550818028 0 -0.0065896029010052001 0.052066577968407801 0 -0.0062406834487179182 0.051146117408247663 0 -0.004867576577955026 0.052067833429399447 0 -0.0065896029010052001 0.052066577968407801 0 -0.0062406834487179182 0.051146117408247663 0 -0.0072870396774708723 0.051342667042483373 0 -0.0062406834487179182 0.051146117408247663 0 -0.0072870396774708723 0.051342667042483373 0 -0.0070710858141240672 0.050494618845658527 0 -0.0070710858141240672 0.050494618845658527 0 -0.0066500037249222505 0.049406652147164914 0 -0.0060288022212710568 0.050198489327167646 0 -0.0080187080065408957 0.049675517030821445 0 -0.0070710858141240672 0.050494618845658527 0 -0.0066500037249222505 0.049406652147164914 0 -0.0066500037249222505 0.049406652147164914 0 -0.0060288022212710568 0.050198489327167646 0 -0.0053473729040903889 0.049367630009436052 0 -0.0062406834487179182 0.051146117408247663 0 -0.0060288022212710568 0.050198489327167646 0 -0.0048518341344022413 0.050579620030340423 0 -0.0062406834487179182 0.051146117408247663 0 -0.0070710858141240672 0.050494618845658527 0 -0.0060288022212710568 0.050198489327167646 0 -0.0060288022212710568 0.050198489327167646 0 -0.0048518341344022413 0.050579620030340423 0 -0.0053473729040903889 0.049367630009436052 0 -0.0048518341344022413 0.050579620030340423 0 -0.0053473729040903889 0.049367630009436052 0 -0.0038822580887813876 0.049163267687220215 0 -0.0048518341344022413 0.050579620030340423 0 -0.0038822580887813876 0.049163267687220215 0 -0.0034500445302662378 0.05017844452609712 0 -0.0048518341344022413 0.050579620030340423 0 -0.004867576577955026 0.052067833429399447 0 -0.0033045079129714826 0.051337684722294365 0 -0.0062406834487179182 0.051146117408247663 0 -0.0048518341344022413 0.050579620030340423 0 -0.004867576577955026 0.052067833429399447 0 -0.004867576577955026 0.052067833429399447 0 -0.0045415532426554255 0.0532946857383024 0 -0.0027851360930874489 0.052699090291871878 0 -0.0045415532426554255 0.0532946857383024 0 -0.0040380393337871622 0.054800815318097523 0 -0.006254551675329136 0.053384584185850445 0 -0.004867576577955026 0.052067833429399447 0 -0.0045415532426554255 0.0532946857383024 0 -0.006254551675329136 0.053384584185850445 0 -0.0044989840031862778 0.045839786023478192 0 -0.0059925821556452222 0.045956002788404608 0 -0.0055053098102113372 0.04756749434873677 0 -0.0044989840031862778 0.045839786023478192 0 -0.0059925821556452222 0.045956002788404608 0 -0.0067964165147565538 0.044319716448648988 0 -0.0015574308403575939 0.047823668741974294 0 -0.0068768571451791874 0.049113318085363844 0 -0.0059925821556452222 0.045956002788404608 0 -0.0071693220853301827 0.046094264806104471 0 -0.0067964165147565538 0.044319716448648988 0 -0.0071693220853301827 0.046094264806104471 0 -0.0067964165147565538 0.044319716448648988 0 -0.0088053812382392523 0.044598324336028838 0 -0.0059925821556452222 0.045956002788404608 0 -0.0071693220853301827 0.046094264806104471 0 -0.0055053098102113372 0.04756749434873677 0 -0.0065896029010052001 0.052066577968407801 0 -0.004867576577955026 0.052067833429399447 0 -0.006254551675329136 0.053384584185850445 0 -0.0085306130513018927 0.051988859550818028 0 -0.0065896029010052001 0.052066577968407801 0 -0.006254551675329136 0.053384584185850445 0 -0.00904123857850451 0.042916988065819277 0 -0.0067964165147565538 0.044319716448648988 0 -0.0088053812382392523 0.044598324336028838 0 -0.01013952238914563 0.043166809457923318 0 -0.00904123857850451 0.042916988065819277 0 -0.0088053812382392523 0.044598324336028838 0 -0.0087858070295353374 0.047180430119796064 0 -0.0068768571451791874 0.049113318085363844 0 -0.0077554140141717553 0.045354911847907575 0 -0.0090899020206560224 0.044088520635378201 0 -0.0094361381087095225 0.04362544419070525 0 -0.010481479653098679 0.044437499035239247 0 -0.009399590992704477 0.044831644206580742 0 -0.0081776755536401291 0.044236308426066746 0 -0.0094361381087095225 0.04362544419070525 0 -0.009399590992704477 0.044831644206580742 0 -0.0094361381087095225 0.04362544419070525 0 -0.010481479653098679 0.044437499035239247 0 -0.010539115053350031 0.043714412515515721 0 -0.01013952238914563 0.043166809457923318 0 -0.0094361381087095225 0.04362544419070525 0 -0.010539115053350031 0.043714412515515721 0 -0.010044605407793901 0.043264390035931591 0 -0.0090899020206560224 0.044088520635378201 0 -0.0011842402081607807 0.050333284645732619 0 -0.00065729174799959841 0.050211020740226563 0 -0.0010612289820952745 0.050144519522025491 0 -0.0011842402081607807 0.050333284645732619 0 -0.0012239311745922425 0.050321320472495684 0 -0.0012347435315584593 0.050363295277532326 0 -0.0015604029094884611 0.050488157663835062 0 0.00079182114929183232 0.050628985929421617 0 -0.0011842402081607807 0.050333284645732619 0 -0.0010612289820952745 0.050144519522025491 0 -0.0012506268939617637 0.050291875805400323 0 -0.0011842402081607807 0.050333284645732619 0 -0.0012239311745922425 0.050321320472495684 0 -0.0012080344628618137 0.050240510216793099 0 0.0047539187336684552 0.0516124273448028 0 0.0020548021701088295 0.050028524333715622 0 0.0028610916892336672 0.052076955036614928 0 -0.0012239311745922425 0.050321320472495684 0 -0.0012438064415824005 0.050361232560911413 0 -0.00129214644394629 0.050257252708761267 0 0.00142018786180886 0.051121569614620666 0 0.0017108121022433767 0.050377297644898941 0 0.0063449254745701041 0.051897071977164887 0 0.00142018786180886 0.051121569614620666 0 -0.0012239311745922425 0.050321320472495684 0 -0.0012438064415824005 0.050361232560911413 0 -0.0012347435315584593 0.050363295277532326 0 0.00142018786180886 0.051121569614620666 0 0.00079182114929183232 0.050628985929421617 0 0.0030978489833112122 0.048915745629602748 0 0.00034207163697084542 0.049148290601231666 0 0.00078736652992826854 0.05075194489995212 0 0.0040392975813536335 0.053922209716338744 0 0.0028100350139327467 0.054091049278779842 0 0.0026295995648624184 0.053982605956540357 0 0.0028040059484387065 0.055341684045274245 0 0.00079182114929183232 0.050628985929421617 0 0.0040392975813536335 0.053922209716338744 0 0.0045421318906352735 0.052468547228801878 0 0.0026295995648624184 0.053982605956540357 0 0.00079182114929183232 0.050628985929421617 0 -0.0013929899895371765 0.049529107959344072 0 0.00040426583951758154 0.04937185181365706 0 0.00079182114929183232 0.050628985929421617 0 -0.00065729174799959841 0.050211020740226563 0 -0.0010612289820952745 0.050144519522025491 0 -0.0011825880666192852 0.049566582583411282 0 0.00034207163697084542 0.049148290601231666 0 0.00079808576631971789 0.050758197793710137 0 -0.0011825880666192852 0.049566582583411282 0 -0.0011825880666192852 0.049566582583411282 0 -0.0014435181207773182 0.050304002671225277 0 -0.0024056776646326789 0.049437372873784961 0 -0.0014435181207773182 0.050304002671225277 0 -0.0024056776646326789 0.049437372873784961 0 -0.0026413608298343052 0.050316818275968921 0 -0.0010612289820952745 0.050144519522025491 0 -0.0011825880666192852 0.049566582583411282 0 -0.0014435181207773182 0.050304002671225277 0 -0.0038822580887813876 0.049163267687220215 0 -0.0024056776646326789 0.049437372873784961 0 -0.0034500445302662378 0.05017844452609712 0 -0.0024056776646326789 0.049437372873784961 0 -0.0026413608298343052 0.050316818275968921 0 -0.0034500445302662378 0.05017844452609712 0 -0.0026413608298343052 0.050316818275968921 0 -0.0034500445302662378 0.05017844452609712 0 -0.0033045079129714826 0.051337684722294365 0 -0.0014435181207773182 0.050304002671225277 0 -0.0026413608298343052 0.050316818275968921 0 -0.0033045079129714826 0.051337684722294365 0 -0.004867576577955026 0.052067833429399447 0 -0.0033045079129714826 0.051337684722294365 0 -0.0027851360930874489 0.052699090291871878 0 -0.0014435181207773182 0.050304002671225277 0 -0.0033045079129714826 0.051337684722294365 0 -0.0027851360930874489 0.052699090291871878 0 -0.0048518341344022413 0.050579620030340423 0 -0.0034500445302662378 0.05017844452609712 0 -0.0033045079129714826 0.051337684722294365 0 -0.0014435181207773182 0.050304002671225277 0 -0.0012506268939617637 0.050291875805400323 0 -0.0010483137870705591 0.050275024719546341 0 -0.0011842402081607807 0.050333284645732619 0 -0.0012506268939617637 0.050291875805400323 0 -0.0010483137870705591 0.050275024719546341 0 -0.0012681214867423364 0.050023238348036063 0 -0.0022790256351451306 0.052370220320104383 0 -0.0010612289820952745 0.050144519522025491 0 -0.0014435181207773182 0.050304002671225277 0 -0.0012506268939617637 0.050291875805400323 0 -0.0011842402081607807 0.050333284645732619 0 -0.0010483137870705591 0.050275024719546341 0 -0.0011371812327042288 0.050114151410549403 0 -0.0010483137870705591 0.050275024719546341 0 -0.0010193106994938197 0.050089229645309478 0 -0.0011371812327042288 0.050114151410549403 0 -0.0015574308403575939 0.047823668741974294 0 -0.0022790256351451306 0.052370220320104383 0 -0.0045415532426554255 0.0532946857383024 0 -0.0040380393337871622 0.054800815318097523 0 -0.0027851360930874489 0.052699090291871878 0 -0.0015574308403575939 0.047823668741974294 0 0.0015244777748948969 0.0455743162314797 0 -0.00083669861652048449 0.050018045989588353 0 -0.0010193106994938197 0.050089229645309478 0 -0.00097783158570491076 0.049895878213420633 0 -0.00083669861652048449 0.050018045989588353 0 -0.0010483137870705591 0.050275024719546341 0 -0.0010193106994938197 0.050089229645309478 0 -0.0010193106994938197 0.050089229645309478 0 -0.0011198808313688023 0.049942097847194514 0 -0.00097783158570491076 0.049895878213420633 0 -0.0010193106994938197 0.050089229645309478 0 -0.0011371812327042288 0.050114151410549403 0 -0.0011198808313688023 0.049942097847194514 0 -0.001239135313336653 0.050068954374495635 0 -0.0012394739922628334 0.049923505246012023 0 -0.0011198808313688023 0.049942097847194514 0 -0.001239135313336653 0.050068954374495635 0 -0.0011371812327042288 0.050114151410549403 0 -0.0012194025990987306 0.050165110010258675 0 -0.001239135313336653 0.050068954374495635 0 -0.0011371812327042288 0.050114151410549403 0 -0.0011198808313688023 0.049942097847194514 0 -0.0011371812327042288 0.050114151410549403 0 -0.0012194025990987306 0.050165110010258675 0 -0.0012080344628618137 0.050240510216793099 0 -0.0011842402081607807 0.050333284645732619 0 -0.0011371812327042288 0.050114151410549403 0 -0.0012080344628618137 0.050240510216793099 0 -0.0012194025990987306 0.050165110010258675 0 -0.0012080344628618137 0.050240510216793099 0 -0.001252044383802605 0.050232725065556233 0 -0.0012239311745922425 0.050321320472495684 0 -0.0012080344628618137 0.050240510216793099 0 -0.001252044383802605 0.050232725065556233 0 -0.0013638994357450945 0.050077771240007465 0 -0.0013146498814071723 0.050241353775375308 0 -0.0012820326926225114 0.050157152970011554 0 0.0044310107640974329 0.049039438834649222 0 0.0017108121022433767 0.050377297644898941 0 -0.0012239311745922425 0.050321320472495684 0 -0.00129214644394629 0.050257252708761267 0 -0.001252044383802605 0.050232725065556233 0 -0.0013146498814071723 0.050241353775375308 0 -0.001252044383802605 0.050232725065556233 0 -0.0012820326926225114 0.050157152970011554 0 0.0017108121022433767 0.050377297644898941 0 -0.0012377670454439122 0.050647006326258737 0 -0.0012194025990987306 0.050165110010258675 0 -0.001252044383802605 0.050232725065556233 0 -0.0012820326926225114 0.050157152970011554 0 -0.001239135313336653 0.050068954374495635 0 -0.0012194025990987306 0.050165110010258675 0 -0.0012820326926225114 0.050157152970011554 0 0.0044310107640974329 0.049039438834649222 0 0.0007606403541505955 0.046815871361899582 0 -0.0013638994357450945 0.050077771240007465 0 -0.001239135313336653 0.050068954374495635 0 -0.0012820326926225114 0.050157152970011554 0 0.0035522284623265921 0.043372322111992455 0 0.0038839303261082084 0.042549393102643447 0 0.0046988571278576124 0.042385073993968743 0 -0.0013638994357450945 0.050077771240007465 0 -0.001239135313336653 0.050068954374495635 0 -0.0012394739922628334 0.049923505246012023 0 0.0035522284623265921 0.043372322111992455 0 0.0035763623726466531 0.043016354619396832 0 0.0038839303261082084 0.042549393102643447 0 0.0034799934082900296 0.042466190402029071 0 0.0038839303261082084 0.042549393102643447 0 0.0037613974608269483 0.042126747367628087 0 0.0038839303261082084 0.042549393102643447 0 0.0037613974608269483 0.042126747367628087 0 0.0042252938548046617 0.041886082234552306 0 0.0035057497704119056 0.04194877505015502 0 0.0037613974608269483 0.042126747367628087 0 0.0037105498000880328 0.041784451865789399 0 0.0038839303261082084 0.042549393102643447 0 0.0046988571278576124 0.042385073993968743 0 0.0042252938548046617 0.041886082234552306 0 0.0046988571278576124 0.042385073993968743 0 0.0042252938548046617 0.041886082234552306 0 0.0049090325561197776 0.041501436759653572 0 0.0042252938548046617 0.041886082234552306 0 0.0049090325561197776 0.041501436759653572 0 0.0044102592232718799 0.041225923586898292 0 0.0042252938548046617 0.041886082234552306 0 0.0039863170400118815 0.04133796608735664 0 0.0044102592232718799 0.041225923586898292 0 0.0034936767748235818 0.04146555244360816 0 0.0037105498000880328 0.041784451865789399 0 0.0039863170400118815 0.04133796608735664 0 0.0037613974608269483 0.042126747367628087 0 0.0042252938548046617 0.041886082234552306 0 0.0037105498000880328 0.041784451865789399 0 0.0042252938548046617 0.041886082234552306 0 0.0037105498000880328 0.041784451865789399 0 0.0039863170400118815 0.04133796608735664 0 -0.0012394739922628334 0.049923505246012023 0 -0.0011198808313688023 0.049942097847194514 0 -0.0010732849798230925 0.049747983689352647 0 0.0046988571278576124 0.042385073993968743 0 0.0049090325561197776 0.041501436759653572 0 0.005856406144060286 0.04140834372263532 0 0.0007606403541505955 0.046815871361899582 0 0.0048824993773916156 0.040710984528318901 0 0.0083257731033169989 0.0320466597664971 0 0.0081531298795351446 0.031204283517138814 0 0.0074700918749326401 0.031390265219146937 0 0.0048824993773916156 0.040710984528318901 0 0.0068796673993238334 0.033737196775676395 0 0.0049090325561197776 0.041501436759653572 0 0.005856406144060286 0.04140834372263532 0 0.0047750330603725816 0.040609939701050826 0 0.0084034806670997692 0.031786244808762076 0 0.0068796673993238334 0.033737196775676395 0 0.0081531298795351446 0.031204283517138814 0 0.0077157411999371709 0.031232925082989783 0 0.0077436132777294791 0.030946989390070411 0 0.0034637590063712731 0.041074423215227106 0 0.0037036388328054531 0.041253229872295974 0 0.0041481929592688555 0.04076613845150856 0 0.0034936767748235818 0.04146555244360816 0 0.0037036388328054531 0.041253229872295974 0 0.0039863170400118815 0.04133796608735664 0 0.0039863170400118815 0.04133796608735664 0 0.0044102592232718799 0.041225923586898292 0 0.0041481929592688555 0.04076613845150856 0 0.0037036388328054531 0.041253229872295974 0 0.0039863170400118815 0.04133796608735664 0 0.0041481929592688555 0.04076613845150856 0 0.0044102592232718799 0.041225923586898292 0 0.0047750330603725816 0.040609939701050826 0 0.0041481929592688555 0.04076613845150856 0 0.0049090325561197776 0.041501436759653572 0 0.0044102592232718799 0.041225923586898292 0 0.0047750330603725816 0.040609939701050826 0 0.0077157411999371709 0.031232925082989783 0 0.0073140104438423632 0.031381162240595596 0 0.0077436132777294791 0.030946989390070411 0 0.0068796673993238334 0.033737196775676395 0 0.0053593486652255473 0.035597502270990483 0 0.0073140104438423632 0.031381162240595596 0 0.0075430229984653745 0.030737102364124604 0 0.0077436132777294791 0.030946989390070411 0 0.0073140104438423632 0.031381162240595596 0 0.0071054355656550473 0.030799391451854088 0 0.0075430229984653745 0.030737102364124604 0 0.0066131866715245652 0.031038390867583813 0 0.0073140104438423632 0.031381162240595596 0 0.0071054355656550473 0.030799391451854088 0 0.006695906127112035 0.03042960027478657 0 0.0071054355656550473 0.030799391451854088 0 0.0072898752949313228 0.030387970628488782 0 0.0071054355656550473 0.030799391451854088 0 0.0072898752949313228 0.030387970628488782 0 0.0075430229984653745 0.030737102364124604 0 0.0072148108645303409 0.029953520921274842 0 0.0072898752949313228 0.030387970628488782 0 0.0074546418959229267 0.029868627369415094 0 0.006695906127112035 0.03042960027478657 0 0.0072148108645303409 0.029953520921274842 0 0.0072898752949313228 0.030387970628488782 0 0.0072898752949313228 0.030387970628488782 0 0.0075892378294021559 0.030280117735308847 0 0.0074546418959229267 0.029868627369415094 0 0.0075892378294021559 0.030280117735308847 0 0.0075430229984653745 0.030737102364124604 0 0.007887396987677377 0.030564098261063093 0 0.0072898752949313228 0.030387970628488782 0 0.0075892378294021559 0.030280117735308847 0 0.0075430229984653745 0.030737102364124604 0 0.0075430229984653745 0.030737102364124604 0 0.0077436132777294791 0.030946989390070411 0 0.007887396987677377 0.030564098261063093 0 0.0081531298795351446 0.031204283517138814 0 0.0077436132777294791 0.030946989390070411 0 0.007887396987677377 0.030564098261063093 0 0.0081531298795351446 0.031204283517138814 0 0.007887396987677377 0.030564098261063093 0 0.0083812104133243123 0.030176198224483926 0 0.0075892378294021559 0.030280117735308847 0 0.007887396987677377 0.030564098261063093 0 0.0076968174578578149 0.029914017233849156 0 0.007887396987677377 0.030564098261063093 0 0.0076968174578578149 0.029914017233849156 0 0.0083812104133243123 0.030176198224483926 0 0.0023606015982291749 0.048283980601790753 0 0.0053610106821658813 0.050286509147506549 0 0.0025384939269131033 0.050393494016072932 0 0.0076968174578578149 0.029914017233849156 0 0.0083812104133243123 0.030176198224483926 0 0.0072830589105409979 0.029784574060581926 0 0.0056290869060737717 0.039538001075996476 0 0.0059298302029275173 0.037891257224062801 0 0.0076968174578578149 0.029914017233849156 0 0.0074705457265874702 0.029588045000458061 0 0.0072830589105409979 0.029784574060581926 0 0.006695906127112035 0.03042960027478657 0 0.0072148108645303409 0.029953520921274842 0 0.0073522500553028199 0.029087316332657012 0 0.0077338320068439364 0.02789909889741227 0 0.0073522500553028199 0.029087316332657012 0 0.0072830589105409979 0.029784574060581926 0 0.0074705457265874702 0.029588045000458061 0 0.0073522500553028199 0.029087316332657012 0 0.0072830589105409979 0.029784574060581926 0 0.0074705457265874702 0.029588045000458061 0 0.0073522500553028199 0.029087316332657012 0 0.0074546418959229267 0.029868627369415094 0 0.0072148108645303409 0.029953520921274842 0 0.0073522500553028199 0.029087316332657012 0 0.0074546418959229267 0.029868627369415094 0 0.0075892378294021559 0.030280117735308847 0 0.0076968174578578149 0.029914017233849156 0 0.0074546418959229267 0.029868627369415094 0 0.0076968174578578149 0.029914017233849156 0 0.0074705457265874702 0.029588045000458061 0 0.0074546418959229267 0.029868627369415094 0 -0.0025497649716659295 0.050651663314388536 0 -0.00016745741501818513 0.049432043189061851 0 -0.00024129787519169368 0.051825015828388582 0 -0.0023579677560811147 0.048937392981834534 0 -0.00016745741501818513 0.049432043189061851 0 -0.00057312616182651137 0.048008780099742028 0 -0.0023579677560811147 0.048937392981834534 0 -0.0025497649716659295 0.050651663314388536 0 -0.00016745741501818513 0.049432043189061851 0 0.0023606015982291749 0.048283980601790753 0 -0.00016745741501818513 0.049432043189061851 0 0.0025384939269131033 0.050393494016072932 0 0.0023606015982291749 0.048283980601790753 0 -0.00016745741501818513 0.049432043189061851 0 -0.00057312616182651137 0.048008780099742028 0 0.0081531298795351446 0.031204283517138814 0 0.0083812104133243123 0.030176198224483926 0 0.0092647692779676636 0.031251268605760399 0 0.0023606015982291749 0.048283980601790753 0 -0.00057312616182651137 0.048008780099742028 0 -0.00072829402467942006 0.046081899244499992 0 0.0056290869060737717 0.039538001075996476 0 0.0035828439059898188 0.039483786786606294 0 -0.0028907503986375588 0.046673156023509771 0 0.0035828439059898188 0.039483786786606294 0 -0.00057312616182651137 0.048008780099742028 0 -0.0020461708639054562 0.047226902435878279 0 -0.00072829402467942006 0.046081899244499992 0 -0.0023579677560811147 0.048937392981834534 0 -0.0020461708639054562 0.047226902435878279 0 -0.0033371207373042535 0.048000663655437932 0 -0.0023579677560811147 0.048937392981834534 0 -0.00057312616182651137 0.048008780099742028 0 -0.0020461708639054562 0.047226902435878279 0 -0.0020461708639054562 0.047226902435878279 0 -0.00080616622791234609 0.046208949298832444 0 -0.0026411131314259088 0.044625338194538323 0 0.0035828439059898188 0.039483786786606294 0 0.00049383059501319009 0.043400529930256532 0 0.0037317251148726639 0.042399611718171415 0 0.0037206360773452312 0.041586358085393162 0 0.0030116446207798446 0.041836885330269455 0 0.0048824993773916156 0.040710984528318901 0 0.0035828439059898188 0.039483786786606294 0 0.0083257731033169989 0.0320466597664971 0 0.0081531298795351446 0.031204283517138814 0 0.0092647692779676636 0.031251268605760399 0 0.0048367659512640127 0.041509051118185349 0 0.0037317251148726639 0.042399611718171415 0 0.0037206360773452312 0.041586358085393162 0 0.0048824993773916156 0.040710984528318901 0 0.0015244777748948969 0.0455743162314797 0 -0.0011198808313688023 0.049942097847194514 0 -0.0010732849798230925 0.049747983689352647 0 -0.00097783158570491076 0.049895878213420633 0 0.0048367659512640127 0.041509051118185349 0 0.0037206360773452312 0.041586358085393162 0 0.0038263158239830362 0.040932065467791399 0 0.0028447427070177962 0.040362136214951543 0 0.0038263158239830362 0.040932065467791399 0 0.0030704141222740416 0.041109544200428713 0 0.0037206360773452312 0.041586358085393162 0 0.0030116446207798446 0.041836885330269455 0 0.0030704141222740416 0.041109544200428713 0 0.0037206360773452312 0.041586358085393162 0 0.0038263158239830362 0.040932065467791399 0 0.0030704141222740416 0.041109544200428713 0 -0.0015574308403575939 0.047823668741974294 0 -0.0039243573701130373 0.043808893168326556 0 0.0028447427070177962 0.040362136214951543 0 0.0030704141222740416 0.041109544200428713 0 0.0023131385950366768 0.041269521393938212 0 0.00049383059501319009 0.043400529930256532 0 -0.0039243573701130373 0.043808893168326556 0 0.0030116446207798446 0.041836885330269455 0 0.0030704141222740416 0.041109544200428713 0 0.0023131385950366768 0.041269521393938212 0 -0.0077554140141717553 0.045354911847907575 0 -0.0039243573701130373 0.043808893168326556 0 -0.0081776755536401291 0.044236308426066746 0 -0.0066685901293141924 0.045363450436918723 0 -0.0079506069002130957 0.04548930792117091 0 -0.0081776755536401291 0.044236308426066746 0 -0.0079506069002130957 0.04548930792117091 0 -0.009399590992704477 0.044831644206580742 0 -0.0066685901293141924 0.045363450436918723 0 -0.0079506069002130957 0.04548930792117091 0 -0.007112680498702977 0.047054887409793231 0 -0.0079506069002130957 0.04548930792117091 0 -0.007112680498702977 0.047054887409793231 0 -0.0091501948156010454 0.046070537465314185 0 -0.0039243573701130373 0.043808893168326556 0 -0.0075417746041890697 0.047116240999859664 0 -0.0026411131314259088 0.044625338194538323 0 -0.0047463665055171456 0.042679241936394829 0 -0.0043271781165220603 0.046617129526763779 0 -0.0047463665055171456 0.042679241936394829 0 -0.007112680498702977 0.047054887409793231 0 -0.0043271781165220603 0.046617129526763779 0 -0.0020461708639054562 0.047226902435878279 0 -0.0026411131314259088 0.044625338194538323 0 -0.0043271781165220603 0.046617129526763779 0 -0.012769240498785332 0.043902280182165479 0 -0.011097512844918308 0.0462424283628897 0 -0.009399590992704477 0.044831644206580742 0 -0.012769240498785332 0.043902280182165479 0 -0.011097512844918308 0.0462424283628897 0 -0.01341680465130287 0.047091375330635558 0 -0.011548584899736999 0.043780810105811467 0 -0.0095273842419519288 0.044895837180929384 0 -0.011097512844918308 0.0462424283628897 0 -0.009399590992704477 0.044831644206580742 0 -0.0091501948156010454 0.046070537465314185 0 -0.0079506069002130957 0.04548930792117091 0 -0.009399590992704477 0.044831644206580742 0 -0.0091501948156010454 0.046070537465314185 0 -0.007112680498702977 0.047054887409793231 0 -0.0091501948156010454 0.046070537465314185 0 -0.0099271757296374181 0.047254679730506129 0 -0.011097512844918308 0.0462424283628897 0 -0.0091501948156010454 0.046070537465314185 0 -0.0099271757296374181 0.047254679730506129 0 -0.011097512844918308 0.0462424283628897 0 -0.0099271757296374181 0.047254679730506129 0 -0.012482763234300781 0.048176427755345468 0 -0.011097512844918308 0.0462424283628897 0 -0.012482763234300781 0.048176427755345468 0 -0.01341680465130287 0.047091375330635558 0 -0.012482763234300781 0.048176427755345468 0 -0.012919780582837673 0.049952614907305425 0 -0.010045564328597184 0.049165655445847431 0 -0.0099271757296374181 0.047254679730506129 0 -0.012482763234300781 0.048176427755345468 0 -0.010045564328597184 0.049165655445847431 0 -0.007112680498702977 0.047054887409793231 0 -0.0099271757296374181 0.047254679730506129 0 -0.010045564328597184 0.049165655445847431 0 -0.011948006606407303 0.051397038690451105 0 -0.0073148179013363167 0.050728053266264311 0 -0.0099757596128260198 0.053519918537681239 0 -0.010045564328597184 0.049165655445847431 0 -0.011948006606407303 0.051397038690451105 0 -0.0073148179013363167 0.050728053266264311 0 -0.012919780582837673 0.049952614907305425 0 -0.011948006606407303 0.051397038690451105 0 -0.014828073030836367 0.051565090935479396 0 -0.011948006606407303 0.051397038690451105 0 -0.012948122408618461 0.053308796518520739 0 -0.014828073030836367 0.051565090935479396 0 -0.012919780582837673 0.049952614907305425 0 -0.010045564328597184 0.049165655445847431 0 -0.011948006606407303 0.051397038690451105 0 -0.007112680498702977 0.047054887409793231 0 -0.0043271781165220603 0.046617129526763779 0 -0.0046397433321258511 0.049202798572702669 0 -0.0043271781165220603 0.046617129526763779 0 -0.0033371207373042535 0.048000663655437932 0 -0.0046397433321258511 0.049202798572702669 0 -0.0023579677560811147 0.048937392981834534 0 -0.0033371207373042535 0.048000663655437932 0 -0.0046397433321258511 0.049202798572702669 0 -0.0020461708639054562 0.047226902435878279 0 -0.0043271781165220603 0.046617129526763779 0 -0.0033371207373042535 0.048000663655437932 0 -0.007112680498702977 0.047054887409793231 0 -0.010045564328597184 0.049165655445847431 0 -0.0073148179013363167 0.050728053266264311 0 -0.007112680498702977 0.047054887409793231 0 -0.0073148179013363167 0.050728053266264311 0 -0.0046397433321258511 0.049202798572702669 0 -0.0073148179013363167 0.050728053266264311 0 -0.0046397433321258511 0.049202798572702669 0 -0.0049797167418056468 0.051972213135130216 0 -0.0025497649716659295 0.050651663314388536 0 -0.0046397433321258511 0.049202798572702669 0 -0.0049797167418056468 0.051972213135130216 0 -0.0023579677560811147 0.048937392981834534 0 -0.0025497649716659295 0.050651663314388536 0 -0.0046397433321258511 0.049202798572702669 0 -0.0025497649716659295 0.050651663314388536 0 -0.00273457064594473 0.052949523301465073 0 -0.0049797167418056468 0.051972213135130216 0 -0.00273457064594473 0.052949523301465073 0 -0.0049797167418056468 0.051972213135130216 0 -0.0049553714995654672 0.05428708922320926 0 -0.0073148179013363167 0.050728053266264311 0 -0.0049797167418056468 0.051972213135130216 0 -0.0072841621598933454 0.05357947022240743 0 -0.0072841621598933454 0.05357947022240743 0 -0.0049553714995654672 0.05428708922320926 0 -0.0079260081518520206 0.055515525354579813 0 -0.0049797167418056468 0.051972213135130216 0 -0.0072841621598933454 0.05357947022240743 0 -0.0049553714995654672 0.05428708922320926 0 -0.00273457064594473 0.052949523301465073 0 -0.0049553714995654672 0.05428708922320926 0 -0.0011437662094544588 0.054924440078815931 0 -0.012948122408618461 0.053308796518520739 0 -0.0099757596128260198 0.053519918537681239 0 -0.012326154689612137 0.055671970924662209 0 -0.012948122408618461 0.053308796518520739 0 -0.012326154689612137 0.055671970924662209 0 -0.015186684312246885 0.053915008276117483 0 -0.011948006606407303 0.051397038690451105 0 -0.012948122408618461 0.053308796518520739 0 -0.0099757596128260198 0.053519918537681239 0 -0.009298049527953052 0.053309575759763077 0 -0.01516762590435586 0.049008592450602614 0 -0.0073148179013363167 0.050728053266264311 0 -0.0072841621598933454 0.05357947022240743 0 -0.0086559385052940984 0.052308566903271535 0 -0.0074190363444861622 0.05082155481157255 0 -0.009298049527953052 0.053309575759763077 0 -0.01516762590435586 0.049008592450602614 0 -0.010727282142593086 0.047756287619540788 0 -0.0072841621598933454 0.05357947022240743 0 -0.010530541121479524 0.054099063259427538 0 -0.0079260081518520206 0.055515525354579813 0 -0.0072841621598933454 0.05357947022240743 0 -0.0086559385052940984 0.052308566903271535 0 -0.010530541121479524 0.054099063259427538 0 -0.015161127562839197 0.03857818811873652 0 -0.015048207788170589 0.039309756619013467 0 -0.016019842398046186 0.039218371285778875 0 -0.015161127562839197 0.03857818811873652 0 -0.015048207788170589 0.039309756619013467 0 -0.014342212223787797 0.038928590561574473 0 -0.015048207788170589 0.039309756619013467 0 -0.014342212223787797 0.038928590561574473 0 -0.014322069365858217 0.039672913076804366 0 -0.01282944130544089 0.037884700499784311 0 -0.014496426074345776 0.039610178626508695 0 -0.015048207788170589 0.039309756619013467 0 -0.014322069365858217 0.039672913076804366 0 -0.015080061966021137 0.039640109286193909 0 -0.014322069365858217 0.039672913076804366 0 -0.015080061966021137 0.039640109286193909 0 -0.014716069643622213 0.03977939229624812 0 -0.015080061966021137 0.039640109286193909 0 -0.01558696644011185 0.039695072472233174 0 -0.015533133554858183 0.03998419673964141 0 -0.015048207788170589 0.039309756619013467 0 -0.015080061966021137 0.039640109286193909 0 -0.01558696644011185 0.039695072472233174 0 -0.0078515557234433205 0.040829692164119566 0 -0.0020601164349512693 0.044097352527585724 0 -0.007342735246446519 0.034411677364114192 0 -0.0052048095911242237 0.03539789586335073 0 -0.003286567109028291 0.032078223079429015 0 -0.0049553714995654672 0.05428708922320926 0 -0.0049264248695584005 0.057090859214018623 0 -0.0011437662094544588 0.054924440078815931 0 -0.0078515557234433205 0.040829692164119566 0 -0.0066543437661488241 0.035925148124648372 0 -0.0049553714995654672 0.05428708922320926 0 -0.0079260081518520206 0.055515525354579813 0 -0.0049264248695584005 0.057090859214018623 0 -0.010727282142593086 0.047756287619540788 0 -0.0078515557234433205 0.040829692164119566 0 -0.014342212223787797 0.038928590561574473 0 -0.014322069365858217 0.039672913076804366 0 -0.013542200618630944 0.03929627556615272 0 -0.010933334339484985 0.036575959057247691 0 -0.0077708332989938579 0.037811907946894673 0 -0.0087811044532259009 0.039109972580070394 0 -0.010933334339484985 0.036575959057247691 0 -0.0077708332989938579 0.037811907946894673 0 -0.0072038985713195509 0.036188831117385016 0 -0.010933334339484985 0.036575959057247691 0 -0.007434537315107714 0.034334116115243986 0 -0.0072038985713195509 0.036188831117385016 0 -0.01282944130544089 0.037884700499784311 0 -0.0078515557234433205 0.040829692164119566 0 -0.0052048095911242237 0.03539789586335073 0 -0.0060362223759622214 0.03743809246963551 0 -0.0032657282199286012 0.038658217129176886 0 -0.0077708332989938579 0.037811907946894673 0 -0.0072038985713195509 0.036188831117385016 0 -0.0060362223759622214 0.03743809246963551 0 -0.007434537315107714 0.034334116115243986 0 -0.0072038985713195509 0.036188831117385016 0 -0.0052048095911242237 0.03539789586335073 0 -0.0072038985713195509 0.036188831117385016 0 -0.0052048095911242237 0.03539789586335073 0 -0.0060362223759622214 0.03743809246963551 0 -0.0052048095911242237 0.03539789586335073 0 -0.002329746960503466 0.034314551318200215 0 -0.0032657282199286012 0.038658217129176886 0 -0.002329746960503466 0.034314551318200215 0 0.00077870305883003563 0.034715644328485382 0 -0.0032657282199286012 0.038658217129176886 0 -0.002329746960503466 0.034314551318200215 0 -0.00036918788118727093 0.032736398969945617 0 -0.003286567109028291 0.032078223079429015 0 -0.0052048095911242237 0.03539789586335073 0 -0.002329746960503466 0.034314551318200215 0 -0.003286567109028291 0.032078223079429015 0 -0.002329746960503466 0.034314551318200215 0 -0.00036918788118727093 0.032736398969945617 0 0.00077870305883003563 0.034715644328485382 0 -0.00036918788118727093 0.032736398969945617 0 0.00077870305883003563 0.034715644328485382 0 0.0022050392111610372 0.032329028675186243 0 0.00063834363870637607 0.034891481666105846 0 -0.001649400237292346 0.036963429824028157 0 0.00077870305883003563 0.034715644328485382 0 0.0039313545576846916 0.033643101545814132 0 0.003807467506894723 0.035276992664378316 0 0.0055453760645521114 0.034246841187083842 0 0.0039313545576846916 0.033643101545814132 0 0.003807467506894723 0.035276992664378316 0 0.0039313545576846916 0.033643101545814132 0 0.0022050392111610372 0.032329028675186243 0 0.0046921956872115972 0.031917409004904085 0 0.0067127788697578924 0.032601302151219209 0 0.0039313545576846916 0.033643101545814132 0 0.0046921956872115972 0.031917409004904085 0 0.00077870305883003563 0.034715644328485382 0 0.0039313545576846916 0.033643101545814132 0 0.0022050392111610372 0.032329028675186243 0 0.0022050392111610372 0.032329028675186243 0 0.0036192562851187012 0.030454919462017966 0 0.00037889543376259986 0.030478775198448622 0 0.0022050392111610372 0.032329028675186243 0 0.0046921956872115972 0.031917409004904085 0 0.0036192562851187012 0.030454919462017966 0 0.0046921956872115972 0.031917409004904085 0 0.005224257762225919 0.030331159340425518 0 0.0036192562851187012 0.030454919462017966 0 0.0063421907909900028 0.031364870282574522 0 0.0046921956872115972 0.031917409004904085 0 0.005224257762225919 0.030331159340425518 0 0.0058784723057491335 0.029830881966963749 0 0.0057094321470972289 0.029353717079068309 0 0.0051998123041388641 0.02968251962498555 0 0.0058784723057491335 0.029830881966963749 0 0.0051998123041388641 0.02968251962498555 0 0.005224257762225919 0.030331159340425518 0 0.0051998123041388641 0.02968251962498555 0 0.005224257762225919 0.030331159340425518 0 0.0045667507745513645 0.029732360580149556 0 0.005224257762225919 0.030331159340425518 0 0.0045667507745513645 0.029732360580149556 0 0.0036192562851187012 0.030454919462017966 0 0.0045667507745513645 0.029732360580149556 0 0.0036192562851187012 0.030454919462017966 0 0.004055426567481913 0.028799085852971414 0 0.0045667507745513645 0.029732360580149556 0 0.004055426567481913 0.028799085852971414 0 0.0047794269874750443 0.029117028460397959 0 0.0060494717560837762 0.028883878223865227 0 0.004055426567481913 0.028799085852971414 0 0.0047794269874750443 0.029117028460397959 0 0.0057094321470972289 0.029353717079068309 0 0.0060494717560837762 0.028883878223865227 0 0.0047794269874750443 0.029117028460397959 0 0.0051998123041388641 0.02968251962498555 0 0.0045667507745513645 0.029732360580149556 0 0.0047794269874750443 0.029117028460397959 0 0.0057094321470972289 0.029353717079068309 0 0.0051998123041388641 0.02968251962498555 0 0.0047794269874750443 0.029117028460397959 0 0.0036192562851187012 0.030454919462017966 0 0.004055426567481913 0.028799085852971414 0 0.00037889543376259986 0.030478775198448622 0 0.0053610106821658813 0.050286509147506549 0 0.0025384939269131033 0.050393494016072932 0 0.0024285404680604431 0.052562835771019174 0 0.0059298302029275173 0.037891257224062801 0 0.0010445948936433792 0.041748546313149559 0 -0.00016745741501818513 0.049432043189061851 0 0.0025384939269131033 0.050393494016072932 0 -0.00024129787519169368 0.051825015828388582 0 0.0025384939269131033 0.050393494016072932 0 -0.00024129787519169368 0.051825015828388582 0 0.0024285404680604431 0.052562835771019174 0 -0.0025497649716659295 0.050651663314388536 0 -0.00273457064594473 0.052949523301465073 0 -0.00024129787519169368 0.051825015828388582 0 -0.00273457064594473 0.052949523301465073 0 -0.00024129787519169368 0.051825015828388582 0 -0.0011437662094544588 0.054924440078815931 0 -0.0020601164349512693 0.044097352527585724 0 0.0010445948936433792 0.041748546313149559 0 -0.00024129787519169368 0.051825015828388582 0 -0.0011437662094544588 0.054924440078815931 0 0.0024285404680604431 0.052562835771019174 0 -0.00036918788118727093 0.032736398969945617 0 0.0022050392111610372 0.032329028675186243 0 0.00037889543376259986 0.030478775198448622 0 -0.00036918788118727093 0.032736398969945617 0 -0.003286567109028291 0.032078223079429015 0 0.00037889543376259986 0.030478775198448622 0 -0.013576510068717724 0.044175449892112424 0 -0.013388763145596861 0.045180930937930089 0 -0.012541574119200476 0.044165574989563798 0 -0.013576510068717724 0.044175449892112424 0 -0.014584631471095018 0.04487757470734894 0 -0.014297421118031818 0.043222038903388681 0 -0.017902982157256199 0.050868520972766409 0 -0.018476027234706902 0.051014405285369512 0 -0.018418150386703754 0.051086225820465084 0 -0.01677250675048135 0.04760182454616442 0 -0.013406541577885237 0.048935703304143138 0 -0.013576510068717724 0.044175449892112424 0 -0.014584631471095018 0.04487757470734894 0 -0.013388763145596861 0.045180930937930089 0 -0.027661901048679483 0.03752973751580678 0 -0.028351095660822577 0.046192655669932157 0 -0.013388763145596861 0.045180930937930089 0 -0.012541574119200476 0.044165574989563798 0 -0.012505386283564707 0.045594548741038347 0 -0.04285428471418213 0.033761495716823978 0 -0.042733009490125269 0.033940186546518876 0 -0.042378745927115213 0.033435212627444061 0 -0.04285428471418213 0.033761495716823978 0 -0.042733009490125269 0.033940186546518876 0 -0.042929386945805732 0.033930299286771312 0 -0.042733009490125269 0.033940186546518876 0 -0.042929386945805732 0.033930299286771312 0 -0.043361848119652657 0.033761217611802251 0 -0.027661901048679483 0.03752973751580678 0 -0.027959168453496882 0.038269152114789103 0 -0.042929386945805732 0.033930299286771312 0 -0.043024610921664527 0.033604341820990459 0 -0.043361848119652657 0.033761217611802251 0 -0.043024610921664527 0.033604341820990459 0 -0.043361848119652657 0.033761217611802251 0 -0.043365446821815853 0.033252912171483941 0 -0.012597608970889946 0.042206746754846362 0 -0.014728346121315202 0.041193804706460911 0 -0.012983721776098293 0.039638773311842804 0 -0.013576510068717724 0.044175449892112424 0 -0.012541574119200476 0.044165574989563798 0 -0.012597608970889946 0.042206746754846362 0 -0.013576510068717724 0.044175449892112424 0 -0.012597608970889946 0.042206746754846362 0 -0.014297421118031818 0.043222038903388681 0 -0.012597608970889946 0.042206746754846362 0 -0.014297421118031818 0.043222038903388681 0 -0.014728346121315202 0.041193804706460911 0 -0.014297421118031818 0.043222038903388681 0 -0.014728346121315202 0.041193804706460911 0 -0.015442657262188167 0.042584818036616331 0 -0.014728346121315202 0.041193804706460911 0 -0.015657295726298825 0.040939413455153645 0 -0.015442657262188167 0.042584818036616331 0 -0.015657295726298825 0.040939413455153645 0 -0.016650295037829017 0.043029387646180799 0 -0.015442657262188167 0.042584818036616331 0 -0.015657295726298825 0.040939413455153645 0 -0.016650295037829017 0.043029387646180799 0 -0.0167305894783473 0.040445924840044604 0 -0.016650295037829017 0.043029387646180799 0 -0.018657997215123234 0.045584513127578663 0 -0.015836821069767852 0.044825865277481634 0 -0.016650295037829017 0.043029387646180799 0 -0.015442657262188167 0.042584818036616331 0 -0.015836821069767852 0.044825865277481634 0 -0.014297421118031818 0.043222038903388681 0 -0.015442657262188167 0.042584818036616331 0 -0.015836821069767852 0.044825865277481634 0 -0.015048207788170589 0.039309756619013467 0 -0.01558696644011185 0.039695072472233174 0 -0.016019842398046186 0.039218371285778875 0 -0.01558696644011185 0.039695072472233174 0 -0.016411398844023806 0.040261665257428539 0 -0.016019842398046186 0.039218371285778875 0 -0.01558696644011185 0.039695072472233174 0 -0.016411398844023806 0.040261665257428539 0 -0.015533133554858183 0.03998419673964141 0 -0.016834220586859058 0.040665155225582061 0 -0.018926455854900985 0.040813447642285984 0 -0.016650295037829017 0.043029387646180799 0 -0.0167305894783473 0.040445924840044604 0 -0.021001575264360715 0.043815616785292902 0 -0.016411398844023806 0.040261665257428539 0 -0.0167305894783473 0.040445924840044604 0 -0.016019842398046186 0.039218371285778875 0 -0.016650295037829017 0.043029387646180799 0 -0.018657997215123234 0.045584513127578663 0 -0.021001575264360715 0.043815616785292902 0 -0.01516762590435586 0.049008592450602614 0 -0.018926455854900985 0.040813447642285984 0 -0.018657997215123234 0.045584513127578663 0 -0.021001575264360715 0.043815616785292902 0 -0.020896507567168539 0.047155679347998275 0 -0.024680943771477674 0.047789404712681831 0 -0.021001575264360715 0.043815616785292902 0 -0.020896507567168539 0.047155679347998275 0 -0.01516762590435586 0.049008592450602614 0 -0.018461602083585361 0.051891834697986222 0 -0.024680943771477674 0.047789404712681831 0 -0.020896507567168539 0.047155679347998275 0 -0.020993813274533552 0.049849048516264823 0 -0.018657997215123234 0.045584513127578663 0 -0.01862478260947302 0.04909371755688461 0 -0.017087725173238772 0.049551167792370322 0 -0.020896507567168539 0.047155679347998275 0 -0.01862478260947302 0.04909371755688461 0 -0.020993813274533552 0.049849048516264823 0 -0.018657997215123234 0.045584513127578663 0 -0.020896507567168539 0.047155679347998275 0 -0.01862478260947302 0.04909371755688461 0 -0.017705598069682433 0.051681316268271375 0 -0.018461602083585361 0.051891834697986222 0 -0.01862478260947302 0.04909371755688461 0 -0.017835787612001469 0.051509130685394484 0 -0.020993813274533552 0.049849048516264823 0 -0.017835787612001469 0.051509130685394484 0 -0.015186684312246885 0.053915008276117483 0 -0.014828073030836367 0.051565090935479396 0 -0.012948122408618461 0.053308796518520739 0 -0.015186684312246885 0.053915008276117483 0 -0.014828073030836367 0.051565090935479396 0 -0.014584631471095018 0.04487757470734894 0 -0.014297421118031818 0.043222038903388681 0 -0.015836821069767852 0.044825865277481634 0 -0.01677250675048135 0.04760182454616442 0 -0.016633300567135131 0.047099925706447388 0 -0.018811706878058408 0.04564784524072741 0 -0.016633300567135131 0.047099925706447388 0 -0.017835787612001469 0.051509130685394484 0 -0.017087725173238772 0.049551167792370322 0 -0.017855850478810765 0.051073519520497636 0 -0.01862478260947302 0.04909371755688461 0 -0.017835787612001469 0.051509130685394484 0 -0.017087725173238772 0.049551167792370322 0 -0.017902982157256199 0.050868520972766409 0 -0.017087725173238772 0.049551167792370322 0 -0.017855850478810765 0.051073519520497636 0 -0.017902982157256199 0.050868520972766409 0 -0.017855850478810765 0.051073519520497636 0 -0.018418150386703754 0.051086225820465084 0 -0.017855850478810765 0.051073519520497636 0 -0.018450315744642436 0.050992895159866596 0 -0.018418150386703754 0.051086225820465084 0 -0.017855850478810765 0.051073519520497636 0 -0.017880120628196845 0.050998538845643648 0 -0.018450315744642436 0.050992895159866596 0 -0.017835787612001469 0.051509130685394484 0 -0.017855850478810765 0.051073519520497636 0 -0.017880120628196845 0.050998538845643648 0 -0.018230327865405977 0.050382017840247005 0 -0.018450315744642436 0.050992895159866596 0 -0.018820670270942912 0.050744886591032455 0 -0.017880120628196845 0.050998538845643648 0 -0.018230327865405977 0.050382017840247005 0 -0.018450315744642436 0.050992895159866596 0 -0.017880120628196845 0.050998538845643648 0 -0.018230327865405977 0.050382017840247005 0 -0.016940151810589641 0.050235509568874556 0 -0.018450315744642436 0.050992895159866596 0 -0.018820349285536331 0.051360910601306063 0 -0.018418150386703754 0.051086225820465084 0 -0.018450315744642436 0.050992895159866596 0 -0.018820670270942912 0.050744886591032455 0 -0.018820349285536331 0.051360910601306063 0 -0.014828073030836367 0.051565090935479396 0 -0.016654620455501503 0.05088264989815551 0 -0.01495552942420404 0.049801286279054731 0 -0.012919780582837673 0.049952614907305425 0 -0.014828073030836367 0.051565090935479396 0 -0.01495552942420404 0.049801286279054731 0 -0.017835787612001469 0.051509130685394484 0 -0.014828073030836367 0.051565090935479396 0 -0.016654620455501503 0.05088264989815551 0 -0.017835787612001469 0.051509130685394484 0 -0.017880120628196845 0.050998538845643648 0 -0.016654620455501503 0.05088264989815551 0 -0.017880120628196845 0.050998538845643648 0 -0.016654620455501503 0.05088264989815551 0 -0.016940151810589641 0.050235509568874556 0 -0.018230327865405977 0.050382017840247005 0 -0.016940151810589641 0.050235509568874556 0 -0.017366918591414898 0.049444588813684319 0 -0.016940151810589641 0.050235509568874556 0 -0.01495552942420404 0.049801286279054731 0 -0.015301897343572134 0.048519627727738421 0 -0.016654620455501503 0.05088264989815551 0 -0.016940151810589641 0.050235509568874556 0 -0.01495552942420404 0.049801286279054731 0 -0.012482763234300781 0.048176427755345468 0 -0.01495552942420404 0.049801286279054731 0 -0.015301897343572134 0.048519627727738421 0 -0.012482763234300781 0.048176427755345468 0 -0.012919780582837673 0.049952614907305425 0 -0.01495552942420404 0.049801286279054731 0 -0.012482763234300781 0.048176427755345468 0 -0.01341680465130287 0.047091375330635558 0 -0.015301897343572134 0.048519627727738421 0 -0.01341680465130287 0.047091375330635558 0 -0.015301897343572134 0.048519627727738421 0 -0.014958946027550693 0.046676789619130549 0 -0.015301897343572134 0.048519627727738421 0 -0.017366918591414898 0.049444588813684319 0 -0.016805960127074408 0.047641810864586742 0 -0.015301897343572134 0.048519627727738421 0 -0.016805960127074408 0.047641810864586742 0 -0.014958946027550693 0.046676789619130549 0 -0.016940151810589641 0.050235509568874556 0 -0.015301897343572134 0.048519627727738421 0 -0.017366918591414898 0.049444588813684319 0 -0.017366918591414898 0.049444588813684319 0 -0.016805960127074408 0.047641810864586742 0 -0.018905029849963454 0.049775709841743676 0 -0.017819143743590556 0.048497061358407048 0 -0.017612734306518767 0.047397445889978518 0 -0.017958843559922298 0.046516571108641151 0 -0.016805960127074408 0.047641810864586742 0 -0.018905029849963454 0.049775709841743676 0 -0.018196701420798066 0.045870424279990503 0 -0.015703012151100516 0.044984498712909465 0 -0.016805960127074408 0.047641810864586742 0 -0.015703012151100516 0.044984498712909465 0 -0.016805960127074408 0.047641810864586742 0 -0.014958946027550693 0.046676789619130549 0 -0.012769240498785332 0.043902280182165479 0 -0.01341680465130287 0.047091375330635558 0 -0.014958946027550693 0.046676789619130549 0 -0.012769240498785332 0.043902280182165479 0 -0.015703012151100516 0.044984498712909465 0 -0.014958946027550693 0.046676789619130549 0 -0.018820670270942912 0.050744886591032455 0 -0.018989504458171751 0.051777415865290874 0 -0.018820349285536331 0.051360910601306063 0 -0.018820670270942912 0.050744886591032455 0 -0.018878177711664512 0.051678418685615783 0 -0.018989504458171751 0.051777415865290874 0 -0.018230327865405977 0.050382017840247005 0 -0.017366918591414898 0.049444588813684319 0 -0.018905029849963454 0.049775709841743676 0 -0.018820670270942912 0.050744886591032455 0 -0.018905029849963454 0.049775709841743676 0 -0.018878177711664512 0.051678418685615783 0 -0.018230327865405977 0.050382017840247005 0 -0.018820670270942912 0.050744886591032455 0 -0.018905029849963454 0.049775709841743676 0 -0.019873242898281466 0.051349989388689947 0 -0.018905029849963454 0.049775709841743676 0 -0.018878177711664512 0.051678418685615783 0 -0.019873242898281466 0.051349989388689947 0 -0.018878177711664512 0.051678418685615783 0 -0.01923798657804391 0.052563604336490329 0 -0.017819143743590556 0.048497061358407048 0 -0.018985755422232811 0.049790972589053795 0 -0.018878177711664512 0.051678418685615783 0 -0.018989504458171751 0.051777415865290874 0 -0.019076743309063587 0.052860789611170446 0 -0.019383886673392848 0.053244205401172522 0 -0.018989504458171751 0.051777415865290874 0 -0.019076743309063587 0.052860789611170446 0 -0.019383886673392848 0.053244205401172522 0 -0.019079424692545432 0.05231469305753747 0 -0.019746568949889989 0.054574168827823274 0 -0.019383886673392848 0.053244205401172522 0 -0.019746568949889989 0.054574168827823274 0 -0.019676167734817427 0.05369367558206186 0 -0.019383886673392848 0.053244205401172522 0 -0.019079424692545432 0.05231469305753747 0 -0.018989504458171751 0.051777415865290874 0 -0.019079424692545432 0.05231469305753747 0 -0.018989504458171751 0.051777415865290874 0 -0.018820349285536331 0.051360910601306063 0 -0.018820349285536331 0.051360910601306063 0 -0.01869819487191476 0.051392829570279561 0 -0.018418150386703754 0.051086225820465084 0 -0.019079424692545432 0.05231469305753747 0 -0.01869819487191476 0.051392829570279561 0 -0.018399867212724682 0.051548045187703784 0 -0.019079424692545432 0.05231469305753747 0 -0.018820349285536331 0.051360910601306063 0 -0.01869819487191476 0.051392829570279561 0 -0.018476027234706902 0.051014405285369512 0 -0.01869819487191476 0.051392829570279561 0 -0.018399867212724682 0.051548045187703784 0 -0.018476027234706902 0.051014405285369512 0 -0.01869819487191476 0.051392829570279561 0 -0.018418150386703754 0.051086225820465084 0 -0.028351095660822577 0.046192655669932157 0 -0.041384241866094573 0.044763461828531262 0 -0.04285428471418213 0.033761495716823978 0 -0.042378745927115213 0.033435212627444061 0 -0.042886973924108306 0.032754490067902847 0 -0.018476027234706902 0.051014405285369512 0 -0.018222322686656408 0.05112414075408931 0 -0.018399867212724682 0.051548045187703784 0 -0.013406541577885237 0.048935703304143138 0 -0.028351095660822577 0.046192655669932157 0 -0.018222322686656408 0.05112414075408931 0 -0.018399867212724682 0.051548045187703784 0 -0.017859600039927082 0.052055022204398962 0 -0.028351095660822577 0.046192655669932157 0 -0.026541809460030295 0.057156044330629568 0 -0.019079424692545432 0.05231469305753747 0 -0.018399867212724682 0.051548045187703784 0 -0.017859600039927082 0.052055022204398962 0 -0.035986686270758593 0.057248755513768228 0 -0.035788318175406147 0.058355978039452097 0 -0.035178321599658037 0.057840189174383771 0 -0.017859600039927082 0.052055022204398962 0 -0.018404696350967659 0.053284618676083119 0 -0.017080911098487826 0.054425519801895708 0 -0.026541809460030295 0.057156044330629568 0 -0.025773722687739749 0.055686417157278907 0 -0.035788318175406147 0.058355978039452097 0 -0.035518017718518563 0.059232408178987776 0 -0.035123293749504368 0.05871932147366625 0 -0.019079424692545432 0.05231469305753747 0 -0.017859600039927082 0.052055022204398962 0 -0.018404696350967659 0.053284618676083119 0 -0.019079424692545432 0.05231469305753747 0 -0.018404696350967659 0.053284618676083119 0 -0.019746568949889989 0.054574168827823274 0 -0.019746568949889989 0.054574168827823274 0 -0.024834870181406499 0.058340390874974918 0 -0.023765946565920657 0.056717149034653122 0 -0.018404696350967659 0.053284618676083119 0 -0.019746568949889989 0.054574168827823274 0 -0.017080911098487826 0.054425519801895708 0 -0.018182791008866106 0.055120108057647922 0 -0.025773722687739749 0.055686417157278907 0 -0.025011009273882726 0.057949062588015778 0 -0.024834870181406499 0.058340390874974918 0 -0.023765946565920657 0.056717149034653122 0 -0.025011009273882726 0.057949062588015778 0 -0.026401449139349557 0.057872976820116086 0 -0.025395489322583866 0.057305956239492396 0 -0.025011009273882726 0.057949062588015778 0 -0.024979312265825081 0.058436535512892726 0 -0.026401449139349557 0.057872976820116086 0 -0.025672294830284006 0.056088215677558693 0 -0.025773722687739749 0.055686417157278907 0 -0.026401449139349557 0.057872976820116086 0 -0.025395489322583866 0.057305956239492396 0 -0.025921919703206547 0.056994398596890504 0 -0.025395489322583866 0.057305956239492396 0 -0.024902230797081881 0.056638657985826596 0 -0.025921919703206547 0.056994398596890504 0 -0.025011009273882726 0.057949062588015778 0 -0.025395489322583866 0.057305956239492396 0 -0.024768543527133452 0.057136552674605025 0 -0.025395489322583866 0.057305956239492396 0 -0.024902230797081881 0.056638657985826596 0 -0.024768543527133452 0.057136552674605025 0 -0.025465365400054087 0.056454437338460367 0 -0.024902230797081881 0.056638657985826596 0 -0.025921919703206547 0.056994398596890504 0 -0.025465365400054087 0.056454437338460367 0 -0.024902230797081881 0.056638657985826596 0 -0.02493208475060477 0.055825375991555348 0 -0.025465365400054087 0.056454437338460367 0 -0.025921919703206547 0.056994398596890504 0 -0.026115190542762092 0.056364271631586055 0 -0.024902230797081881 0.056638657985826596 0 -0.023765946565920657 0.056717149034653122 0 -0.024768543527133452 0.057136552674605025 0 -0.025011009273882726 0.057949062588015778 0 -0.023765946565920657 0.056717149034653122 0 -0.024768543527133452 0.057136552674605025 0 -0.024902230797081881 0.056638657985826596 0 -0.023765946565920657 0.056717149034653122 0 -0.023769829675369641 0.055846703897750274 0 -0.024902230797081881 0.056638657985826596 0 -0.023769829675369641 0.055846703897750274 0 -0.02493208475060477 0.055825375991555348 0 -0.023769829675369641 0.055846703897750274 0 -0.023630207299838626 0.055046856009696249 0 -0.022860633242445402 0.055115017475129438 0 -0.023769829675369641 0.055846703897750274 0 -0.023630207299838626 0.055046856009696249 0 -0.02493208475060477 0.055825375991555348 0 -0.023630207299838626 0.055046856009696249 0 -0.02493208475060477 0.055825375991555348 0 -0.024565921738167937 0.054803529531684096 0 -0.025465365400054087 0.056454437338460367 0 -0.026115190542762092 0.056364271631586055 0 -0.02493208475060477 0.055825375991555348 0 -0.02493208475060477 0.055825375991555348 0 -0.025863603922017062 0.0555468875576186 0 -0.024565921738167937 0.054803529531684096 0 -0.026115190542762092 0.056364271631586055 0 -0.02493208475060477 0.055825375991555348 0 -0.025863603922017062 0.0555468875576186 0 -0.026115190542762092 0.056364271631586055 0 -0.025863603922017062 0.0555468875576186 0 -0.027026219094155032 0.056196043023633582 0 -0.025863603922017062 0.0555468875576186 0 -0.025672793352549017 0.054733507765684399 0 -0.026915012047035638 0.055276456905131138 0 -0.025863603922017062 0.0555468875576186 0 -0.027026219094155032 0.056196043023633582 0 -0.026915012047035638 0.055276456905131138 0 -0.025672793352549017 0.054733507765684399 0 -0.026377080733011565 0.05454773562755473 0 -0.026915012047035638 0.055276456905131138 0 -0.025863603922017062 0.0555468875576186 0 -0.025672793352549017 0.054733507765684399 0 -0.024565921738167937 0.054803529531684096 0 -0.023630207299838626 0.055046856009696249 0 -0.024565921738167937 0.054803529531684096 0 -0.023416012954624116 0.054244352544862831 0 -0.024565921738167937 0.054803529531684096 0 -0.024575110722853379 0.053972205175404714 0 -0.023416012954624116 0.054244352544862831 0 -0.024575110722853379 0.053972205175404714 0 -0.023396305776725544 0.053395053132893222 0 -0.023416012954624116 0.054244352544862831 0 -0.025672793352549017 0.054733507765684399 0 -0.024565921738167937 0.054803529531684096 0 -0.024575110722853379 0.053972205175404714 0 -0.024575110722853379 0.053972205175404714 0 -0.024235767524708705 0.053159728344723246 0 -0.023396305776725544 0.053395053132893222 0 -0.024235767524708705 0.053159728344723246 0 -0.023396305776725544 0.053395053132893222 0 -0.023603202197286708 0.05243529990648927 0 -0.024575110722853379 0.053972205175404714 0 -0.024235767524708705 0.053159728344723246 0 -0.025165571169009523 0.053134154370028941 0 -0.025165571169009523 0.053134154370028941 0 -0.026295647543231361 0.053840827085117574 0 -0.025976374124410596 0.053044278324653672 0 -0.025165571169009523 0.053134154370028941 0 -0.026295647543231361 0.053840827085117574 0 -0.025631998753565494 0.054093846925938098 0 -0.026295647543231361 0.053840827085117574 0 -0.0270853265536912 0.053949761814244081 0 -0.026699217202711945 0.053316878874673249 0 -0.026295647543231361 0.053840827085117574 0 -0.025976374124410596 0.053044278324653672 0 -0.026699217202711945 0.053316878874673249 0 -0.026295647543231361 0.053840827085117574 0 -0.026377080733011565 0.05454773562755473 0 -0.025631998753565494 0.054093846925938098 0 -0.025672793352549017 0.054733507765684399 0 -0.026377080733011565 0.05454773562755473 0 -0.025631998753565494 0.054093846925938098 0 -0.026295647543231361 0.053840827085117574 0 -0.026377080733011565 0.05454773562755473 0 -0.027394300907635775 0.054675648680134116 0 -0.025672793352549017 0.054733507765684399 0 -0.024575110722853379 0.053972205175404714 0 -0.025631998753565494 0.054093846925938098 0 -0.024575110722853379 0.053972205175404714 0 -0.025165571169009523 0.053134154370028941 0 -0.025631998753565494 0.054093846925938098 0 -0.022203118896997717 0.052688936219396874 0 -0.020844945915446233 0.053102822123239829 0 -0.021167402674117684 0.052013185726041258 0 -0.022203118896997717 0.052688936219396874 0 -0.022140123245013046 0.053662367303512676 0 -0.020844945915446233 0.053102822123239829 0 -0.022203118896997717 0.052688936219396874 0 -0.023396305776725544 0.053395053132893222 0 -0.022140123245013046 0.053662367303512676 0 -0.022203118896997717 0.052688936219396874 0 -0.023396305776725544 0.053395053132893222 0 -0.023603202197286708 0.05243529990648927 0 -0.023396305776725544 0.053395053132893222 0 -0.023416012954624116 0.054244352544862831 0 -0.022140123245013046 0.053662367303512676 0 -0.023416012954624116 0.054244352544862831 0 -0.022140123245013046 0.053662367303512676 0 -0.022420539778011991 0.054564181819470731 0 -0.022140123245013046 0.053662367303512676 0 -0.020903206071028309 0.054169921534438788 0 -0.020844945915446233 0.053102822123239829 0 -0.020903206071028309 0.054169921534438788 0 -0.022420539778011991 0.054564181819470731 0 -0.021836193507593565 0.055071659765342083 0 -0.019746568949889989 0.054574168827823274 0 -0.023765946565920657 0.056717149034653122 0 -0.021836193507593565 0.055071659765342083 0 -0.022140123245013046 0.053662367303512676 0 -0.020903206071028309 0.054169921534438788 0 -0.022420539778011991 0.054564181819470731 0 -0.019746568949889989 0.054574168827823274 0 -0.020903206071028309 0.054169921534438788 0 -0.021836193507593565 0.055071659765342083 0 -0.022420539778011991 0.054564181819470731 0 -0.022860633242445402 0.055115017475129438 0 -0.021836193507593565 0.055071659765342083 0 -0.023630207299838626 0.055046856009696249 0 -0.022420539778011991 0.054564181819470731 0 -0.022860633242445402 0.055115017475129438 0 -0.023630207299838626 0.055046856009696249 0 -0.023416012954624116 0.054244352544862831 0 -0.022420539778011991 0.054564181819470731 0 -0.023769829675369641 0.055846703897750274 0 -0.022860633242445402 0.055115017475129438 0 -0.021836193507593565 0.055071659765342083 0 -0.023765946565920657 0.056717149034653122 0 -0.023769829675369641 0.055846703897750274 0 -0.021836193507593565 0.055071659765342083 0 -0.019746568949889989 0.054574168827823274 0 -0.020903206071028309 0.054169921534438788 0 -0.019676167734817427 0.05369367558206186 0 -0.019676167734817427 0.05369367558206186 0 -0.020166873412368762 0.053514096174752321 0 -0.019476417547158845 0.053202671531069001 0 -0.020903206071028309 0.054169921534438788 0 -0.019676167734817427 0.05369367558206186 0 -0.020166873412368762 0.053514096174752321 0 -0.019383886673392848 0.053244205401172522 0 -0.019676167734817427 0.05369367558206186 0 -0.019076743309063587 0.052860789611170446 0 -0.019676167734817427 0.05369367558206186 0 -0.019076743309063587 0.052860789611170446 0 -0.019476417547158845 0.053202671531069001 0 -0.019076743309063587 0.052860789611170446 0 -0.019476417547158845 0.053202671531069001 0 -0.019078466748800298 0.052865753768020947 0 -0.019078466748800298 0.052865753768020947 0 -0.01939315505935325 0.052849188650139524 0 -0.01902544933334575 0.052697544734830681 0 -0.019476417547158845 0.053202671531069001 0 -0.01939315505935325 0.052849188650139524 0 -0.019956301851829745 0.053039446348972091 0 -0.019476417547158845 0.053202671531069001 0 -0.019078466748800298 0.052865753768020947 0 -0.01939315505935325 0.052849188650139524 0 -0.01939315505935325 0.052849188650139524 0 -0.019200166706085191 0.052421107564421449 0 -0.019920475737748407 0.052396840653608355 0 -0.01939315505935325 0.052849188650139524 0 -0.019956301851829745 0.053039446348972091 0 -0.019920475737748407 0.052396840653608355 0 -0.01939315505935325 0.052849188650139524 0 -0.019200166706085191 0.052421107564421449 0 -0.01902544933334575 0.052697544734830681 0 -0.019200166706085191 0.052421107564421449 0 -0.01902544933334575 0.052697544734830681 0 -0.018839750619107788 0.052648961977015525 0 -0.020903206071028309 0.054169921534438788 0 -0.020166873412368762 0.053514096174752321 0 -0.020844945915446233 0.053102822123239829 0 -0.020166873412368762 0.053514096174752321 0 -0.019476417547158845 0.053202671531069001 0 -0.019956301851829745 0.053039446348972091 0 -0.020166873412368762 0.053514096174752321 0 -0.019956301851829745 0.053039446348972091 0 -0.020844945915446233 0.053102822123239829 0 -0.019956301851829745 0.053039446348972091 0 -0.019920475737748407 0.052396840653608355 0 -0.020844945915446233 0.053102822123239829 0 -0.019920475737748407 0.052396840653608355 0 -0.020844945915446233 0.053102822123239829 0 -0.021167402674117684 0.052013185726041258 0 -0.019920475737748407 0.052396840653608355 0 -0.021167402674117684 0.052013185726041258 0 -0.020347987077407221 0.051335377245341256 0 -0.021167402674117684 0.052013185726041258 0 -0.020347987077407221 0.051335377245341256 0 -0.021511329588050156 0.050724013344978086 0 -0.019200166706085191 0.052421107564421449 0 -0.019035868952247161 0.051501230381495698 0 -0.018839750619107788 0.052648961977015525 0 -0.019920475737748407 0.052396840653608355 0 -0.020347987077407221 0.051335377245341256 0 -0.019035868952247161 0.051501230381495698 0 -0.019200166706085191 0.052421107564421449 0 -0.019920475737748407 0.052396840653608355 0 -0.019035868952247161 0.051501230381495698 0 -0.020347987077407221 0.051335377245341256 0 -0.019035868952247161 0.051501230381495698 0 -0.02022439499373686 0.04955005675617663 0 -0.018940964710069758 0.050875746447292154 0 -0.02022439499373686 0.04955005675617663 0 -0.018158758012959922 0.049274429104737866 0 -0.019060771938998952 0.051191093961844361 0 -0.020140403404554429 0.049683696625393486 0 -0.021511329588050156 0.050724013344978086 0 -0.02022439499373686 0.04955005675617663 0 -0.0219547848080738 0.049342803546532622 0 -0.020347987077407221 0.051335377245341256 0 -0.021511329588050156 0.050724013344978086 0 -0.02022439499373686 0.04955005675617663 0 -0.02022439499373686 0.04955005675617663 0 -0.0219547848080738 0.049342803546532622 0 -0.021491409800502306 0.048065513348465892 0 -0.021511329588050156 0.050724013344978086 0 -0.0219547848080738 0.049342803546532622 0 -0.023178984070755491 0.050082641041399763 0 -0.023178984070755491 0.050082641041399763 0 -0.024136969457417265 0.049409814898487427 0 -0.023471871959274047 0.048357067368641427 0 -0.0219547848080738 0.049342803546532622 0 -0.023178984070755491 0.050082641041399763 0 -0.023471871959274047 0.048357067368641427 0 -0.024136969457417265 0.049409814898487427 0 -0.025336980396522223 0.049103537715480275 0 -0.023471871959274047 0.048357067368641427 0 -0.025336980396522223 0.049103537715480275 0 -0.025458216872250257 0.050538761295871176 0 -0.024554124036369831 0.050164238802223614 0 -0.025336980396522223 0.049103537715480275 0 -0.025458216872250257 0.050538761295871176 0 -0.026417134998475183 0.051352156043829651 0 -0.025458216872250257 0.050538761295871176 0 -0.024554124036369831 0.050164238802223614 0 -0.025004268220922742 0.05093310034915529 0 -0.024136969457417265 0.049409814898487427 0 -0.025336980396522223 0.049103537715480275 0 -0.024554124036369831 0.050164238802223614 0 -0.023178984070755491 0.050082641041399763 0 -0.024136969457417265 0.049409814898487427 0 -0.024554124036369831 0.050164238802223614 0 -0.023178984070755491 0.050082641041399763 0 -0.024554124036369831 0.050164238802223614 0 -0.024135011007690631 0.051260383621736412 0 -0.024554124036369831 0.050164238802223614 0 -0.024135011007690631 0.051260383621736412 0 -0.025004268220922742 0.05093310034915529 0 -0.024135011007690631 0.051260383621736412 0 -0.02518601776715583 0.051589276135301627 0 -0.02463700980624358 0.052218262834875157 0 -0.024135011007690631 0.051260383621736412 0 -0.025004268220922742 0.05093310034915529 0 -0.02518601776715583 0.051589276135301627 0 -0.025458216872250257 0.050538761295871176 0 -0.025743955678970643 0.051161160948245785 0 -0.026417134998475183 0.051352156043829651 0 -0.025458216872250257 0.050538761295871176 0 -0.025743955678970643 0.051161160948245785 0 -0.025004268220922742 0.05093310034915529 0 -0.025743955678970643 0.051161160948245785 0 -0.025004268220922742 0.05093310034915529 0 -0.02518601776715583 0.051589276135301627 0 -0.025743955678970643 0.051161160948245785 0 -0.02518601776715583 0.051589276135301627 0 -0.026113873862436934 0.051886727685915471 0 -0.025743955678970643 0.051161160948245785 0 -0.026417134998475183 0.051352156043829651 0 -0.026113873862436934 0.051886727685915471 0 -0.026417134998475183 0.051352156043829651 0 -0.026113873862436934 0.051886727685915471 0 -0.026955613156148091 0.05211413234396492 0 -0.026113873862436934 0.051886727685915471 0 -0.026602215968645451 0.05263750902626739 0 -0.026955613156148091 0.05211413234396492 0 -0.026113873862436934 0.051886727685915471 0 -0.025561797223350054 0.052380794162788014 0 -0.026602215968645451 0.05263750902626739 0 -0.02518601776715583 0.051589276135301627 0 -0.025561797223350054 0.052380794162788014 0 -0.02463700980624358 0.052218262834875157 0 -0.02518601776715583 0.051589276135301627 0 -0.026113873862436934 0.051886727685915471 0 -0.025561797223350054 0.052380794162788014 0 -0.025165571169009523 0.053134154370028941 0 -0.025561797223350054 0.052380794162788014 0 -0.025976374124410596 0.053044278324653672 0 -0.025165571169009523 0.053134154370028941 0 -0.025561797223350054 0.052380794162788014 0 -0.02463700980624358 0.052218262834875157 0 -0.025561797223350054 0.052380794162788014 0 -0.025976374124410596 0.053044278324653672 0 -0.026602215968645451 0.05263750902626739 0 -0.025976374124410596 0.053044278324653672 0 -0.026602215968645451 0.05263750902626739 0 -0.026699217202711945 0.053316878874673249 0 -0.024135011007690631 0.051260383621736412 0 -0.02463700980624358 0.052218262834875157 0 -0.023603202197286708 0.05243529990648927 0 -0.024235767524708705 0.053159728344723246 0 -0.025165571169009523 0.053134154370028941 0 -0.02463700980624358 0.052218262834875157 0 -0.024235767524708705 0.053159728344723246 0 -0.02463700980624358 0.052218262834875157 0 -0.023603202197286708 0.05243529990648927 0 -0.022203118896997717 0.052688936219396874 0 -0.023603202197286708 0.05243529990648927 0 -0.022591608130458605 0.051616834011952585 0 -0.024135011007690631 0.051260383621736412 0 -0.023603202197286708 0.05243529990648927 0 -0.022591608130458605 0.051616834011952585 0 -0.022203118896997717 0.052688936219396874 0 -0.021167402674117684 0.052013185726041258 0 -0.022591608130458605 0.051616834011952585 0 -0.021167402674117684 0.052013185726041258 0 -0.021511329588050156 0.050724013344978086 0 -0.022591608130458605 0.051616834011952585 0 -0.021511329588050156 0.050724013344978086 0 -0.023178984070755491 0.050082641041399763 0 -0.022591608130458605 0.051616834011952585 0 -0.023178984070755491 0.050082641041399763 0 -0.024135011007690631 0.051260383621736412 0 -0.022591608130458605 0.051616834011952585 0 -0.010539115053350031 0.043714412515515721 0 -0.011106598852157272 0.043193229459643469 0 -0.011592534441066468 0.044099654198086681 0 -0.01013952238914563 0.043166809457923318 0 -0.010539115053350031 0.043714412515515721 0 -0.011106598852157272 0.043193229459643469 0 -0.010481479653098679 0.044437499035239247 0 -0.010539115053350031 0.043714412515515721 0 -0.011592534441066468 0.044099654198086681 0 -0.012769240498785332 0.043902280182165479 0 -0.015703012151100516 0.044984498712909465 0 -0.016387261740477659 0.042643444367332813 0 -0.011548584899736999 0.043780810105811467 0 -0.014997814070017287 0.047342077826388801 0 -0.014997814070017287 0.047342077826388801 0 -0.016256239162799821 0.05157190857203689 0 -0.017819143743590556 0.048497061358407048 0 -0.014997814070017287 0.047342077826388801 0 -0.017162632332295525 0.04985621207309781 0 -0.016766276179147496 0.050031354827961415 0 -0.016915683322237317 0.049803202756967195 0 -0.018196701420798066 0.045870424279990503 0 -0.015703012151100516 0.044984498712909465 0 -0.016387261740477659 0.042643444367332813 0 -0.016953460368166435 0.04944254439989141 0 -0.017162632332295525 0.04985621207309781 0 -0.016915683322237317 0.049803202756967195 0 -0.012140313837563399 0.047184773765415931 0 -0.014997814070017287 0.047342077826388801 0 -0.013511474698084227 0.05164515093625429 0 -0.01443978224236395 0.053326468295577051 0 -0.014726996379930175 0.052066917512107 0 -0.01443978224236395 0.053326468295577051 0 -0.014726996379930175 0.052066917512107 0 -0.016070521910052503 0.052774747038283859 0 -0.016070521910052503 0.052774747038283859 0 -0.016753516539271224 0.051343180861536594 0 -0.015543787413947406 0.051479806276110748 0 -0.016070521910052503 0.052774747038283859 0 -0.017725539611402299 0.052216854832330989 0 -0.016753516539271224 0.051343180861536594 0 -0.016766276179147496 0.050031354827961415 0 -0.016655724640344264 0.049820851857386397 0 -0.016372433652810582 0.050208398829299825 0 -0.014726996379930175 0.052066917512107 0 -0.016070521910052503 0.052774747038283859 0 -0.015543787413947406 0.051479806276110748 0 -0.016766276179147496 0.050031354827961415 0 -0.016915683322237317 0.049803202756967195 0 -0.016655724640344264 0.049820851857386397 0 -0.016953460368166435 0.04944254439989141 0 -0.016915683322237317 0.049803202756967195 0 -0.016655724640344264 0.049820851857386397 0 -0.017819143743590556 0.048497061358407048 0 -0.017868390563311406 0.051349245161671685 0 -0.018878177711664512 0.051678418685615783 0 -0.01923798657804391 0.052563604336490329 0 -0.018969880110639579 0.052705233637258958 0 -0.018878177711664512 0.051678418685615783 0 -0.019076743309063587 0.052860789611170446 0 -0.018969880110639579 0.052705233637258958 0 -0.019076743309063587 0.052860789611170446 0 -0.019078466748800298 0.052865753768020947 0 -0.018969880110639579 0.052705233637258958 0 -0.016256239162799821 0.05157190857203689 0 -0.017708522627331177 0.051643366797640658 0 -0.019078466748800298 0.052865753768020947 0 -0.018969880110639579 0.052705233637258958 0 -0.01882956437048431 0.052718522354698656 0 -0.019078466748800298 0.052865753768020947 0 -0.01902544933334575 0.052697544734830681 0 -0.01882956437048431 0.052718522354698656 0 -0.01923798657804391 0.052563604336490329 0 -0.018969880110639579 0.052705233637258958 0 -0.01882956437048431 0.052718522354698656 0 -0.017868390563311406 0.051349245161671685 0 -0.017708522627331177 0.051643366797640658 0 -0.019035868952247161 0.051501230381495698 0 -0.018839750619107788 0.052648961977015525 0 -0.018729904592522436 0.052748015138766376 0 -0.01902544933334575 0.052697544734830681 0 -0.018839750619107788 0.052648961977015525 0 -0.01882956437048431 0.052718522354698656 0 -0.017918703701028854 0.051678191981605913 0 -0.017708522627331177 0.051643366797640658 0 -0.018940964710069758 0.050875746447292154 0 -0.017725539611402299 0.052216854832330989 0 -0.017778358805039338 0.051249941931349803 0 -0.019060771938998952 0.051191093961844361 0 -0.017708522627331177 0.051643366797640658 0 -0.017778358805039338 0.051249941931349803 0 -0.01770276500141605 0.050562140622131935 0 -0.016753516539271224 0.051343180861536594 0 -0.017725539611402299 0.052216854832330989 0 -0.017778358805039338 0.051249941931349803 0 -0.016753516539271224 0.051343180861536594 0 -0.01770276500141605 0.050562140622131935 0 -0.016651516803101504 0.049974593045918878 0 -0.016753516539271224 0.051343180861536594 0 -0.018940964710069758 0.050875746447292154 0 -0.017778358805039338 0.051249941931349803 0 -0.01770276500141605 0.050562140622131935 0 -0.01770276500141605 0.050562140622131935 0 -0.018158758012959922 0.049274429104737866 0 -0.016651516803101504 0.049974593045918878 0 -0.018158758012959922 0.049274429104737866 0 -0.016651516803101504 0.049974593045918878 0 -0.016461450841531906 0.0487485247380628 0 -0.018940964710069758 0.050875746447292154 0 -0.01770276500141605 0.050562140622131935 0 -0.018158758012959922 0.049274429104737866 0 -0.016651516803101504 0.049974593045918878 0 -0.015291679755105102 0.049674563959943477 0 -0.016461450841531906 0.0487485247380628 0 -0.016651516803101504 0.049974593045918878 0 -0.015746611645584455 0.050540355383389225 0 -0.015291679755105102 0.049674563959943477 0 -0.016651516803101504 0.049974593045918878 0 -0.015746611645584455 0.050540355383389225 0 -0.016753516539271224 0.051343180861536594 0 -0.015746611645584455 0.050540355383389225 0 -0.016753516539271224 0.051343180861536594 0 -0.015543787413947406 0.051479806276110748 0 -0.014726996379930175 0.052066917512107 0 -0.015543787413947406 0.051479806276110748 0 -0.014524697120152044 0.050664543357057765 0 -0.013511474698084227 0.05164515093625429 0 -0.014726996379930175 0.052066917512107 0 -0.014524697120152044 0.050664543357057765 0 -0.015746611645584455 0.050540355383389225 0 -0.014524697120152044 0.050664543357057765 0 -0.015291679755105102 0.049674563959943477 0 -0.015746611645584455 0.050540355383389225 0 -0.015543787413947406 0.051479806276110748 0 -0.014524697120152044 0.050664543357057765 0 -0.015291679755105102 0.049674563959943477 0 -0.01445941614805123 0.048688617446315231 0 -0.016461450841531906 0.0487485247380628 0 -0.015291679755105102 0.049674563959943477 0 -0.01421411969932118 0.049744086308973104 0 -0.01445941614805123 0.048688617446315231 0 -0.014524697120152044 0.050664543357057765 0 -0.015291679755105102 0.049674563959943477 0 -0.01421411969932118 0.049744086308973104 0 -0.010974053147764701 0.048306284281789687 0 -0.014025044980582067 0.049128876596631676 0 -0.01421411969932118 0.049744086308973104 0 -0.012583706920052673 0.049948090995939831 0 -0.01445941614805123 0.048688617446315231 0 -0.011169907317014399 0.049340216450259856 0 -0.010990187332224205 0.050689517715422357 0 -0.012358393580912464 0.048700179020553451 0 -0.010990187332224205 0.050689517715422357 0 -0.012358393580912464 0.048700179020553451 0 -0.013519882311570263 0.049095611289360075 0 -0.014524697120152044 0.050664543357057765 0 -0.01421411969932118 0.049744086308973104 0 -0.012583706920052673 0.049948090995939831 0 -0.010615146593359092 0.050024194115975307 0 -0.011169907317014399 0.049340216450259856 0 -0.010990187332224205 0.050689517715422357 0 -0.012140313837563399 0.047184773765415931 0 -0.010974053147764701 0.048306284281789687 0 -0.01013952238914563 0.043166809457923318 0 -0.011106598852157272 0.043193229459643469 0 -0.010631745449088063 0.042085355037578792 0 -0.013511474698084227 0.05164515093625429 0 -0.014524697120152044 0.050664543357057765 0 -0.012583706920052673 0.049948090995939831 0 -0.010588172727128522 0.047422342158814544 0 -0.011956852420640315 0.045990573987383467 0 -0.012217128574731005 0.04729651462815801 0 -0.011956852420640315 0.045990573987383467 0 -0.012217128574731005 0.04729651462815801 0 -0.01359735155741437 0.046484814168244598 0 -0.010446111202872312 0.047504789907898338 0 -0.012162305940881307 0.048568587152204704 0 -0.010588172727128522 0.047422342158814544 0 -0.012217128574731005 0.04729651462815801 0 -0.012358393580912464 0.048700179020553451 0 -0.010254695886225343 0.048687359529068837 0 -0.011169907317014399 0.049340216450259856 0 -0.012358393580912464 0.048700179020553451 0 -0.012217128574731005 0.04729651462815801 0 -0.012358393580912464 0.048700179020553451 0 -0.013504232439026593 0.047833268555881964 0 -0.013504232439026593 0.047833268555881964 0 -0.013519882311570263 0.049095611289360075 0 -0.015853351027850956 0.047625856783073309 0 -0.012358393580912464 0.048700179020553451 0 -0.013504232439026593 0.047833268555881964 0 -0.013519882311570263 0.049095611289360075 0 -0.013504232439026593 0.047833268555881964 0 -0.01359735155741437 0.046484814168244598 0 -0.015853351027850956 0.047625856783073309 0 -0.012217128574731005 0.04729651462815801 0 -0.013504232439026593 0.047833268555881964 0 -0.01359735155741437 0.046484814168244598 0 -0.01359735155741437 0.046484814168244598 0 -0.015853351027850956 0.047625856783073309 0 -0.015040322432999284 0.045556248601225667 0 -0.015853351027850956 0.047625856783073309 0 -0.018287990446731003 0.045962974257880963 0 -0.015040322432999284 0.045556248601225667 0 -0.01445941614805123 0.048688617446315231 0 -0.016355174228915706 0.047360883467477827 0 -0.016461450841531906 0.0487485247380628 0 -0.014025044980582067 0.049128876596631676 0 -0.016144424351914193 0.047429553464382428 0 -0.016355174228915706 0.047360883467477827 0 -0.016461450841531906 0.0487485247380628 0 -0.017890667674607019 0.047568480423063456 0 -0.018158758012959922 0.049274429104737866 0 -0.016461450841531906 0.0487485247380628 0 -0.017890667674607019 0.047568480423063456 0 -0.016355174228915706 0.047360883467477827 0 -0.017890667674607019 0.047568480423063456 0 -0.018287990446731003 0.045962974257880963 0 -0.016144424351914193 0.047429553464382428 0 -0.018147481784161167 0.046074739379330196 0 -0.018287990446731003 0.045962974257880963 0 -0.016705880029001707 0.044415187475533136 0 -0.015040322432999284 0.045556248601225667 0 -0.017903373772814132 0.050791125524223824 0 -0.020978743159336389 0.050636609161470544 0 -0.018287990446731003 0.045962974257880963 0 -0.016705880029001707 0.044415187475533136 0 -0.019926394674273432 0.044376109190868103 0 -0.019063262288174784 0.057129548362422074 0 -0.018457502853738091 0.054999961022758337 0 -0.021605256906706956 0.054999957699180403 0 -0.019063262288174784 0.057129548362422074 0 -0.018457502853738091 0.054999961022758337 0 -0.015965714093052429 0.0571209127006818 0 -0.017903373772814132 0.050791125524223824 0 -0.014707153094053394 0.050864819608083991 0 -0.016705880029001707 0.044415187475533136 0 -0.015040322432999284 0.045556248601225667 0 -0.013432184497528995 0.044579475688094936 0 -0.01359735155741437 0.046484814168244598 0 -0.015040322432999284 0.045556248601225667 0 -0.013432184497528995 0.044579475688094936 0 -0.011956852420640315 0.045990573987383467 0 -0.01359735155741437 0.046484814168244598 0 -0.013432184497528995 0.044579475688094936 0 -0.018457502853738091 0.054999961022758337 0 -0.015965714093052429 0.0571209127006818 0 -0.015309744230340294 0.05499995994865161 0 -0.012869457847131578 0.057112449660548521 0 -0.015965714093052429 0.0571209127006818 0 -0.015309744230340294 0.05499995994865161 0 -0.011707725321634306 0.050826261437757758 0 -0.014707153094053394 0.050864819608083991 0 -0.010510170140706121 0.044779583747149222 0 -0.011956852420640315 0.045990573987383467 0 -0.013432184497528995 0.044579475688094936 0 -0.022760136274422305 0.045669107215752833 0 -0.023921883224758193 0.046783443833358612 0 -0.022936797542540174 0.044389004532929953 0 -0.025114163263495103 0.048915651781078581 0 -0.024371168443283884 0.051673076718870739 0 -0.022513805057116962 0.046159504791210601 0 -0.023921883224758193 0.046783443833358612 0 -0.022650014478912191 0.047178572488171429 0 -0.022513805057116962 0.046159504791210601 0 -0.022650014478912191 0.047178572488171429 0 -0.021390747533197703 0.046562830472289492 0 -0.022513805057116962 0.046159504791210601 0 -0.022760136274422305 0.045669107215752833 0 -0.021664926767321877 0.045341611294248463 0 -0.022513805057116962 0.046159504791210601 0 -0.021390747533197703 0.046562830472289492 0 -0.021664926767321877 0.045341611294248463 0 -0.022513805057116962 0.046159504791210601 0 -0.022760136274422305 0.045669107215752833 0 -0.023921883224758193 0.046783443833358612 0 -0.026450037628045708 0.052457758215549183 0 -0.026189083559517268 0.05179275073234002 0 -0.026581585085908532 0.052094634249038083 0 -0.026774656526312782 0.052209714599074551 0 -0.026450037628045708 0.052457758215549183 0 -0.026930849750281313 0.052527979789383415 0 -0.026774656526312782 0.052209714599074551 0 -0.026450037628045708 0.052457758215549183 0 -0.026581585085908532 0.052094634249038083 0 -0.025336980396522223 0.049103537715480275 0 -0.023921883224758193 0.046783443833358612 0 -0.023471871959274047 0.048357067368641427 0 -0.026072390432867975 0.051208029413224679 0 -0.025114163263495103 0.048915651781078581 0 -0.026725071316793435 0.053158795511155529 0 -0.026450037628045708 0.052457758215549183 0 -0.026930849750281313 0.052527979789383415 0 -0.023471871959274047 0.048357067368641427 0 -0.022650014478912191 0.047178572488171429 0 -0.021491409800502306 0.048065513348465892 0 -0.0219547848080738 0.049342803546532622 0 -0.023471871959274047 0.048357067368641427 0 -0.021491409800502306 0.048065513348465892 0 -0.023921883224758193 0.046783443833358612 0 -0.023471871959274047 0.048357067368641427 0 -0.022650014478912191 0.047178572488171429 0 -0.022650014478912191 0.047178572488171429 0 -0.021491409800502306 0.048065513348465892 0 -0.021390747533197703 0.046562830472289492 0 -0.02022439499373686 0.04955005675617663 0 -0.021491409800502306 0.048065513348465892 0 -0.019574595800270534 0.047549285192616433 0 -0.021491409800502306 0.048065513348465892 0 -0.019574595800270534 0.047549285192616433 0 -0.021390747533197703 0.046562830472289492 0 -0.02022439499373686 0.04955005675617663 0 -0.018158758012959922 0.049274429104737866 0 -0.019574595800270534 0.047549285192616433 0 -0.018158758012959922 0.049274429104737866 0 -0.017890667674607019 0.047568480423063456 0 -0.019574595800270534 0.047549285192616433 0 -0.018287990446731003 0.045962974257880963 0 -0.019574595800270534 0.047549285192616433 0 -0.019992407633482409 0.046003114391505368 0 -0.017890667674607019 0.047568480423063456 0 -0.018287990446731003 0.045962974257880963 0 -0.019574595800270534 0.047549285192616433 0 -0.019574595800270534 0.047549285192616433 0 -0.019992407633482409 0.046003114391505368 0 -0.021390747533197703 0.046562830472289492 0 -0.019992407633482409 0.046003114391505368 0 -0.021390747533197703 0.046562830472289492 0 -0.021664926767321877 0.045341611294248463 0 -0.020978743159336389 0.050636609161470544 0 -0.024371168443283884 0.051673076718870739 0 -0.021664926767321877 0.045341611294248463 0 -0.019926394674273432 0.044376109190868103 0 -0.022936797542540174 0.044389004532929953 0 -0.022161889964852202 0.057137198222534595 0 -0.023915623286885648 0.056105308002660122 0 -0.025254014024115309 0.057133416768085872 0 -0.019992407633482409 0.046003114391505368 0 -0.021664926767321877 0.045341611294248463 0 -0.019926394674273432 0.044376109190868103 0 -0.018287990446731003 0.045962974257880963 0 -0.019992407633482409 0.046003114391505368 0 -0.019926394674273432 0.044376109190868103 0 -0.019063262288174784 0.057129548362422074 0 -0.022161889964852202 0.057137198222534595 0 -0.021605256906706956 0.054999957699180403 0 -0.021605256906706956 0.054999957699180403 0 -0.023915623286885648 0.056105308002660122 0 -0.02475302723470487 0.054999955701028468 0 -0.022161889964852202 0.057137198222534595 0 -0.021605256906706956 0.054999957699180403 0 -0.023915623286885648 0.056105308002660122 0 -0.023915623286885648 0.056105308002660122 0 -0.02475302723470487 0.054999955701028468 0 -0.024832660737082995 0.055853107038881467 0 -0.02475302723470487 0.054999955701028468 0 -0.024832660737082995 0.055853107038881467 0 -0.025873888917850883 0.055831246868279429 0 -0.025035014446133461 0.056542366102350562 0 -0.026098209502770406 0.056521849837554664 0 -0.025873888917850883 0.055831246868279429 0 -0.025035014446133461 0.056542366102350562 0 -0.024832660737082995 0.055853107038881467 0 -0.025873888917850883 0.055831246868279429 0 -0.023915623286885648 0.056105308002660122 0 -0.025035014446133461 0.056542366102350562 0 -0.025254014024115309 0.057133416768085872 0 -0.023915623286885648 0.056105308002660122 0 -0.025035014446133461 0.056542366102350562 0 -0.024832660737082995 0.055853107038881467 0 -0.02533817372214027 0.055186021613030899 0 -0.024371168443283884 0.051673076718870739 0 -0.025035014446133461 0.056542366102350562 0 -0.025261625549668546 0.057139514426275469 0 -0.026098209502770406 0.056521849837554664 0 -0.022760136274422305 0.045669107215752833 0 -0.021664926767321877 0.045341611294248463 0 -0.022936797542540174 0.044389004532929953 0 -0.026189083559517268 0.05179275073234002 0 -0.026533377248058078 0.051933692415545178 0 -0.026669020291251115 0.051882658723869532 0 -0.025261625549668546 0.057139514426275469 0 -0.026098209502770406 0.056521849837554664 0 -0.027926824994302886 0.057149110071319689 0 -0.026189083559517268 0.05179275073234002 0 -0.026669020291251115 0.051882658723869532 0 -0.02689695954059923 0.051811944224494172 0 -0.024371168443283884 0.051673076718870739 0 -0.027788199133594958 0.055237181678124733 0 -0.026670098474324694 0.051978930476258733 0 -0.026533377248058078 0.051933692415545178 0 -0.026669020291251115 0.051882658723869532 0 -0.026670098474324694 0.051978930476258733 0 -0.026581585085908532 0.052094634249038083 0 -0.026533377248058078 0.051933692415545178 0 -0.026670098474324694 0.051978930476258733 0 -0.026786408347587828 0.051939436472198779 0 -0.026792277768580706 0.052034348616098451 0 -0.026669020291251115 0.051882658723869532 0 -0.026820566426422082 0.051884963803862726 0 -0.026786408347587828 0.051939436472198779 0 -0.026670098474324694 0.051978930476258733 0 -0.026669020291251115 0.051882658723869532 0 -0.026786408347587828 0.051939436472198779 0 -0.026670098474324694 0.051978930476258733 0 -0.026581585085908532 0.052094634249038083 0 -0.026792277768580706 0.052034348616098451 0 -0.026774656526312782 0.052209714599074551 0 -0.026581585085908532 0.052094634249038083 0 -0.026792277768580706 0.052034348616098451 0 -0.026189083559517268 0.05179275073234002 0 -0.026581585085908532 0.052094634249038083 0 -0.026533377248058078 0.051933692415545178 0 -0.026784191174090158 0.056105041345541395 0 -0.025873888917850883 0.055831246868279429 0 -0.027900684183513026 0.054999955341763974 0 -0.026784191174090158 0.056105041345541395 0 -0.026098209502770406 0.056521849837554664 0 -0.027926824994302886 0.057149110071319689 0 -0.02475302723470487 0.054999955701028468 0 -0.025873888917850883 0.055831246868279429 0 -0.027900684183513026 0.054999955341763974 0 -0.026784191174090158 0.056105041345541395 0 -0.026098209502770406 0.056521849837554664 0 -0.025873888917850883 0.055831246868279429 0 -0.027903655861192863 0.054999608350564395 0 -0.029729574542254236 0.055723749622285677 0 -0.030683600260491228 0.054999357770118877 0 -0.027903655861192863 0.054999608350564395 0 -0.029729574542254236 0.055723749622285677 0 -0.029603950258319748 0.055953510528280882 0 -0.027901390077061859 0.05500140587043955 0 -0.027788199133594958 0.055237181678124733 0 -0.026784191174090158 0.056105041345541395 0 -0.027900684183513026 0.054999955341763974 0 -0.027926824994302886 0.057149110071319689 0 -0.029729574542254236 0.055723749622285677 0 -0.030683600260491228 0.054999357770118877 0 -0.030727829848002267 0.055814959959033697 0 -0.030727829848002267 0.055814959959033697 0 -0.031186510701263416 0.056089086595501138 0 -0.032131305890058678 0.055829403276203622 0 -0.029729574542254236 0.055723749622285677 0 -0.030727829848002267 0.055814959959033697 0 -0.030256906045644093 0.056005232497238801 0 -0.030256906045644093 0.056005232497238801 0 -0.03058635162095439 0.056160688812343144 0 -0.031186510701263416 0.056089086595501138 0 -0.030727829848002267 0.055814959959033697 0 -0.030256906045644093 0.056005232497238801 0 -0.031186510701263416 0.056089086595501138 0 -0.026669020291251115 0.051882658723869532 0 -0.02689695954059923 0.051811944224494172 0 -0.026820566426422082 0.051884963803862726 0 -0.029729574542254236 0.055723749622285677 0 -0.029603950258319748 0.055953510528280882 0 -0.029781141598490806 0.056020268562464032 0 -0.027788199133594958 0.055237181678124733 0 -0.02803613332722649 0.054319564386393494 0 -0.02689695954059923 0.051811944224494172 0 -0.026896517329219109 0.051893430113182003 0 -0.026820566426422082 0.051884963803862726 0 -0.029729574542254236 0.055723749622285677 0 -0.029781141598490806 0.056020268562464032 0 -0.030256906045644093 0.056005232497238801 0 -0.029781141598490806 0.056020268562464032 0 -0.030256906045644093 0.056005232497238801 0 -0.030307223779804007 0.056118524226882655 0 -0.030256906045644093 0.056005232497238801 0 -0.03058635162095439 0.056160688812343144 0 -0.030307223779804007 0.056118524226882655 0 -0.026774656526312782 0.052209714599074551 0 -0.026896517329219109 0.051893430113182003 0 -0.026792277768580706 0.052034348616098451 0 -0.026896517329219109 0.051893430113182003 0 -0.026820566426422082 0.051884963803862726 0 -0.026786408347587828 0.051939436472198779 0 -0.026896517329219109 0.051893430113182003 0 -0.026786408347587828 0.051939436472198779 0 -0.026792277768580706 0.052034348616098451 0 -0.02803613332722649 0.054319564386393494 0 -0.028779459510753259 0.054237613602475532 0 -0.030647464206505579 0.056241983115825372 0 -0.03058635162095439 0.056160688812343144 0 -0.031010405523566473 0.056205118464898549 0 -0.029781141598490806 0.056020268562464032 0 -0.030647464206505579 0.056241983115825372 0 -0.030307223779804007 0.056118524226882655 0 -0.026774656526312782 0.052209714599074551 0 -0.026896517329219109 0.051893430113182003 0 -0.026930849750281313 0.052527979789383415 0 -0.030647464206505579 0.056241983115825372 0 -0.03058635162095439 0.056160688812343144 0 -0.030307223779804007 0.056118524226882655 0 -0.03058635162095439 0.056160688812343144 0 -0.031186510701263416 0.056089086595501138 0 -0.031010405523566473 0.056205118464898549 0 -0.031186510701263416 0.056089086595501138 0 -0.031010405523566473 0.056205118464898549 0 -0.031931498129888228 0.056157831731711558 0 -0.031010405523566473 0.056205118464898549 0 -0.031411454519554065 0.056226929000759859 0 -0.031931498129888228 0.056157831731711558 0 -0.031010405523566473 0.056205118464898549 0 -0.031411454519554065 0.056226929000759859 0 -0.030863563202815098 0.05620148563220926 0 -0.031411454519554065 0.056226929000759859 0 -0.030863563202815098 0.05620148563220926 0 -0.031039950028717109 0.05611543948816463 0 -0.026725071316793435 0.053158795511155529 0 -0.026930849750281313 0.052527979789383415 0 -0.026978261709812913 0.053195070253710015 0 -0.028779459510753259 0.054237613602475532 0 -0.028871378017046589 0.054820018989701173 0 -0.030647464206505579 0.056241983115825372 0 -0.030863563202815098 0.05620148563220926 0 -0.030838806018536072 0.056116699318834035 0 -0.030647464206505579 0.056241983115825372 0 -0.031010405523566473 0.056205118464898549 0 -0.030863563202815098 0.05620148563220926 0 -0.032613908060658191 0.056329548364124453 0 -0.032926117355664475 0.05598694840245743 0 -0.034343168381732937 0.056316173725515312 0 -0.032613908060658191 0.056329548364124453 0 -0.034343168381732937 0.056316173725515312 0 -0.033881729978395871 0.056827939419974341 0 -0.031411454519554065 0.056226929000759859 0 -0.032613908060658191 0.056329548364124453 0 -0.031931498129888228 0.056157831731711558 0 -0.031411454519554065 0.056226929000759859 0 -0.032613908060658191 0.056329548364124453 0 -0.031833785358869333 0.056306875927859754 0 -0.032613908060658191 0.056329548364124453 0 -0.031931498129888228 0.056157831731711558 0 -0.032926117355664475 0.05598694840245743 0 -0.031186510701263416 0.056089086595501138 0 -0.031931498129888228 0.056157831731711558 0 -0.032926117355664475 0.05598694840245743 0 -0.032926117355664475 0.05598694840245743 0 -0.03390424031308141 0.05597439637115588 0 -0.032131305890058678 0.055829403276203622 0 -0.031186510701263416 0.056089086595501138 0 -0.032926117355664475 0.05598694840245743 0 -0.032131305890058678 0.055829403276203622 0 -0.030683600260491228 0.054999357770118877 0 -0.030727829848002267 0.055814959959033697 0 -0.032131305890058678 0.055829403276203622 0 -0.030683600260491228 0.054999357770118877 0 -0.032131305890058678 0.055829403276203622 0 -0.033465501667297094 0.054999387688604386 0 -0.03390424031308141 0.05597439637115588 0 -0.032131305890058678 0.055829403276203622 0 -0.033465501667297094 0.054999387688604386 0 -0.03390424031308141 0.05597439637115588 0 -0.033465501667297094 0.054999387688604386 0 -0.036247470054331321 0.054999565356750435 0 -0.03390424031308141 0.05597439637115588 0 -0.036247470054331321 0.054999565356750435 0 -0.035646775757705793 0.056890738929490238 0 -0.036247470054331321 0.054999565356750435 0 -0.035646775757705793 0.056890738929490238 0 -0.038873275274987497 0.056227867424588358 0 -0.03570812640369047 0.055510256597856848 0 -0.038863002607051347 0.055083838421739022 0 -0.035723235977955688 0.054173456117662569 0 -0.037958450769378739 0.054771056850852144 0 -0.036731147239084494 0.055290167240745001 0 -0.035723235977955688 0.054173456117662569 0 -0.038885454839401846 0.053823720093127303 0 -0.037958450769378739 0.054771056850852144 0 -0.033203820424323703 0.055981670555495293 0 -0.03570812640369047 0.055510256597856848 0 -0.032926117355664475 0.05598694840245743 0 -0.03390424031308141 0.05597439637115588 0 -0.035646775757705793 0.056890738929490238 0 -0.038863002607051347 0.055083838421739022 0 -0.041586638629255129 0.054844769629142739 0 -0.03903060425903894 0.054999840734445631 0 -0.038873275274987497 0.056227867424588358 0 -0.041877542563445502 0.05491357851466927 0 -0.040045039626533885 0.054423747059297201 0 -0.038885454839401846 0.053823720093127303 0 -0.041878173175248806 0.05491021999833845 0 -0.040891895630797322 0.054733158875994198 0 -0.040045039626533885 0.054423747059297201 0 -0.041878173175248806 0.05491021999833845 0 -0.040891895630797322 0.054733158875994198 0 -0.040045039626533885 0.054423747059297201 0 -0.040518542050045875 0.054844728940436856 0 -0.040891895630797322 0.054733158875994198 0 -0.040518542050045875 0.054844728940436856 0 -0.041048134251602933 0.054951333697771124 0 -0.036247470054331321 0.054999565356750435 0 -0.03903060425903894 0.054999840734445631 0 -0.038873275274987497 0.056227867424588358 0 -0.038885454839401846 0.053823720093127303 0 -0.037958450769378739 0.054771056850852144 0 -0.039742389478798767 0.054980329208730187 0 -0.037958450769378739 0.054771056850852144 0 -0.039742389478798767 0.054980329208730187 0 -0.038326638912503763 0.055564112263651468 0 -0.040045039626533885 0.054423747059297201 0 -0.038885454839401846 0.053823720093127303 0 -0.039742389478798767 0.054980329208730187 0 -0.040045039626533885 0.054423747059297201 0 -0.039742389478798767 0.054980329208730187 0 -0.040518542050045875 0.054844728940436856 0 -0.039742389478798767 0.054980329208730187 0 -0.040763295858196893 0.055160463617881871 0 -0.040791290868939421 0.055557211294176297 0 -0.039742389478798767 0.054980329208730187 0 -0.040763295858196893 0.055160463617881871 0 -0.040518542050045875 0.054844728940436856 0 -0.040763295858196893 0.055160463617881871 0 -0.040518542050045875 0.054844728940436856 0 -0.041048134251602933 0.054951333697771124 0 -0.039742389478798767 0.054980329208730187 0 -0.039686717530716197 0.055836920082599627 0 -0.040791290868939421 0.055557211294176297 0 -0.039742389478798767 0.054980329208730187 0 -0.039686717530716197 0.055836920082599627 0 -0.038326638912503763 0.055564112263651468 0 -0.039686717530716197 0.055836920082599627 0 -0.039642185540659139 0.056490762791475635 0 -0.040773348053763099 0.056160815733112129 0 -0.038326638912503763 0.055564112263651468 0 -0.03839530374466487 0.056328346463107283 0 -0.036521116443919491 0.056101811831828628 0 -0.039686717530716197 0.055836920082599627 0 -0.038326638912503763 0.055564112263651468 0 -0.03839530374466487 0.056328346463107283 0 -0.037958450769378739 0.054771056850852144 0 -0.038326638912503763 0.055564112263651468 0 -0.036731147239084494 0.055290167240745001 0 -0.03839530374466487 0.056328346463107283 0 -0.036521116443919491 0.056101811831828628 0 -0.037384145881968894 0.056907786353368149 0 -0.03839530374466487 0.056328346463107283 0 -0.038846899975818021 0.056973435543155662 0 -0.037384145881968894 0.056907786353368149 0 -0.039642185540659139 0.056490762791475635 0 -0.038846899975818021 0.056973435543155662 0 -0.040274414065823667 0.057075029654039655 0 -0.039686717530716197 0.055836920082599627 0 -0.03839530374466487 0.056328346463107283 0 -0.039642185540659139 0.056490762791475635 0 -0.03839530374466487 0.056328346463107283 0 -0.039642185540659139 0.056490762791475635 0 -0.038846899975818021 0.056973435543155662 0 -0.032926117355664475 0.05598694840245743 0 -0.035723235977955688 0.054173456117662569 0 -0.03494455169966787 0.055685641641074868 0 -0.032926117355664475 0.05598694840245743 0 -0.03494455169966787 0.055685641641074868 0 -0.034343168381732937 0.056316173725515312 0 -0.035723235977955688 0.054173456117662569 0 -0.03494455169966787 0.055685641641074868 0 -0.036731147239084494 0.055290167240745001 0 -0.038326638912503763 0.055564112263651468 0 -0.036731147239084494 0.055290167240745001 0 -0.036521116443919491 0.056101811831828628 0 -0.03494455169966787 0.055685641641074868 0 -0.036731147239084494 0.055290167240745001 0 -0.036521116443919491 0.056101811831828628 0 -0.036521116443919491 0.056101811831828628 0 -0.035597388773870843 0.05694979348105738 0 -0.037384145881968894 0.056907786353368149 0 -0.03494455169966787 0.055685641641074868 0 -0.036521116443919491 0.056101811831828628 0 -0.034343168381732937 0.056316173725515312 0 -0.036521116443919491 0.056101811831828628 0 -0.034343168381732937 0.056316173725515312 0 -0.035597388773870843 0.05694979348105738 0 -0.035597388773870843 0.05694979348105738 0 -0.035056024603359791 0.057559192176928731 0 -0.033881729978395871 0.056827939419974341 0 -0.034343168381732937 0.056316173725515312 0 -0.035597388773870843 0.05694979348105738 0 -0.033881729978395871 0.056827939419974341 0 -0.035597388773870843 0.05694979348105738 0 -0.036690654222810086 0.057560707246848683 0 -0.037384145881968894 0.056907786353368149 0 -0.035597388773870843 0.05694979348105738 0 -0.036690654222810086 0.057560707246848683 0 -0.035056024603359791 0.057559192176928731 0 -0.036690654222810086 0.057560707246848683 0 -0.035056024603359791 0.057559192176928731 0 -0.035956086050250122 0.058450390351515578 0 -0.035056024603359791 0.057559192176928731 0 -0.033881729978395871 0.056827939419974341 0 -0.033574866949665917 0.057262367693814417 0 -0.035056024603359791 0.057559192176928731 0 -0.034587362683523019 0.058096414314990609 0 -0.033574866949665917 0.057262367693814417 0 -0.039175014506852651 0.057616861769560705 0 -0.038846899975818021 0.056973435543155662 0 -0.040274414065823667 0.057075029654039655 0 -0.039175014506852651 0.057616861769560705 0 -0.040274414065823667 0.057075029654039655 0 -0.039989069827029225 0.057846310466082018 0 -0.039175014506852651 0.057616861769560705 0 -0.038846899975818021 0.056973435543155662 0 -0.038033104765610753 0.057444463213387663 0 -0.038846899975818021 0.056973435543155662 0 -0.038033104765610753 0.057444463213387663 0 -0.037384145881968894 0.056907786353368149 0 -0.036690654222810086 0.057560707246848683 0 -0.038033104765610753 0.057444463213387663 0 -0.037384145881968894 0.056907786353368149 0 -0.036690654222810086 0.057560707246848683 0 -0.037941268955506376 0.058163200170355825 0 -0.035956086050250122 0.058450390351515578 0 -0.036690654222810086 0.057560707246848683 0 -0.038033104765610753 0.057444463213387663 0 -0.037941268955506376 0.058163200170355825 0 -0.039175014506852651 0.057616861769560705 0 -0.038033104765610753 0.057444463213387663 0 -0.037941268955506376 0.058163200170355825 0 -0.039175014506852651 0.057616861769560705 0 -0.037941268955506376 0.058163200170355825 0 -0.039272733840238008 0.058287607531132671 0 -0.039272733840238008 0.058287607531132671 0 -0.039989069827029225 0.057846310466082018 0 -0.039942535053608605 0.058324261027765827 0 -0.039175014506852651 0.057616861769560705 0 -0.039272733840238008 0.058287607531132671 0 -0.039989069827029225 0.057846310466082018 0 -0.039863187070527148 0.058996894348024666 0 -0.038451259921592346 0.059146095181774272 0 -0.039814153015023876 0.060300841424458192 0 -0.039272733840238008 0.058287607531132671 0 -0.039863187070527148 0.058996894348024666 0 -0.039942535053608605 0.058324261027765827 0 -0.039272733840238008 0.058287607531132671 0 -0.039863187070527148 0.058996894348024666 0 -0.038451259921592346 0.059146095181774272 0 -0.037941268955506376 0.058163200170355825 0 -0.039272733840238008 0.058287607531132671 0 -0.038451259921592346 0.059146095181774272 0 -0.037941268955506376 0.058163200170355825 0 -0.038451259921592346 0.059146095181774272 0 -0.036765157100282726 0.059155872540476911 0 -0.037941268955506376 0.058163200170355825 0 -0.036765157100282726 0.059155872540476911 0 -0.035956086050250122 0.058450390351515578 0 -0.036765157100282726 0.059155872540476911 0 -0.037038857058079216 0.0594339710442644 0 -0.036154445418985222 0.059210590534815158 0 -0.038451259921592346 0.059146095181774272 0 -0.036765157100282726 0.059155872540476911 0 -0.037790754453630095 0.061772903774906199 0 -0.03765386443115129 0.062080577678912965 0 -0.044800614514007721 0.046420051835438937 0 -0.044800614514007721 0.046420051835438937 0 -0.048777945920821443 0.050505152426486573 0 -0.038451259921592346 0.059146095181774272 0 -0.037790754453630095 0.061772903774906199 0 -0.039814153015023876 0.060300841424458192 0 -0.037790754453630095 0.061772903774906199 0 -0.039814153015023876 0.060300841424458192 0 -0.042248890178355342 0.060281536020834463 0 -0.035056024603359791 0.057559192176928731 0 -0.034587362683523019 0.058096414314990609 0 -0.035956086050250122 0.058450390351515578 0 -0.034587362683523019 0.058096414314990609 0 -0.035956086050250122 0.058450390351515578 0 -0.035308872194837596 0.058840861291877926 0 -0.034587362683523019 0.058096414314990609 0 -0.035308872194837596 0.058840861291877926 0 -0.034299230902060995 0.05865019090842357 0 -0.036765157100282726 0.059155872540476911 0 -0.035956086050250122 0.058450390351515578 0 -0.036154445418985222 0.059210590534815158 0 -0.035956086050250122 0.058450390351515578 0 -0.036154445418985222 0.059210590534815158 0 -0.035308872194837596 0.058840861291877926 0 -0.036154445418985222 0.059210590534815158 0 -0.035308872194837596 0.058840861291877926 0 -0.035667425852073317 0.059785443276550783 0 -0.035308872194837596 0.058840861291877926 0 -0.034299230902060995 0.05865019090842357 0 -0.035667425852073317 0.059785443276550783 0 -0.034299230902060995 0.05865019090842357 0 -0.033045688229394389 0.058413055234251797 0 -0.034115474613613479 0.059289167102583772 0 -0.034299230902060995 0.05865019090842357 0 -0.033236895938043132 0.057742846980019996 0 -0.033045688229394389 0.058413055234251797 0 -0.034587362683523019 0.058096414314990609 0 -0.034299230902060995 0.05865019090842357 0 -0.033236895938043132 0.057742846980019996 0 -0.033236895938043132 0.057742846980019996 0 -0.033574866949665917 0.057262367693814417 0 -0.032163929603986757 0.056825520960176519 0 -0.034587362683523019 0.058096414314990609 0 -0.033236895938043132 0.057742846980019996 0 -0.033574866949665917 0.057262367693814417 0 -0.031634485491293898 0.057463495487726252 0 -0.030822493603239864 0.05625984523932407 0 -0.032163929603986757 0.056825520960176519 0 -0.033236895938043132 0.057742846980019996 0 -0.031634485491293898 0.057463495487726252 0 -0.032163929603986757 0.056825520960176519 0 -0.031634485491293898 0.057463495487726252 0 -0.033045688229394389 0.058413055234251797 0 -0.031905333753521628 0.059345743659682731 0 -0.033236895938043132 0.057742846980019996 0 -0.031634485491293898 0.057463495487726252 0 -0.033045688229394389 0.058413055234251797 0 -0.033045688229394389 0.058413055234251797 0 -0.031905333753521628 0.059345743659682731 0 -0.034115474613613479 0.059289167102583772 0 -0.029946199488364411 0.057671548090997629 0 -0.029138250821847251 0.059114868520867968 0 -0.031905333753521628 0.059345743659682731 0 -0.031634485491293898 0.057463495487726252 0 -0.029946199488364411 0.057671548090997629 0 -0.031905333753521628 0.059345743659682731 0 -0.031634485491293898 0.057463495487726252 0 -0.029946199488364411 0.057671548090997629 0 -0.029902794870615427 0.05643479146869438 0 -0.026401449139349557 0.057872976820116086 0 -0.027620675511791128 0.057240906381194209 0 -0.029138250821847251 0.059114868520867968 0 -0.026401449139349557 0.057872976820116086 0 -0.025921919703206547 0.056994398596890504 0 -0.027620675511791128 0.057240906381194209 0 -0.025921919703206547 0.056994398596890504 0 -0.026115190542762092 0.056364271631586055 0 -0.027620675511791128 0.057240906381194209 0 -0.029946199488364411 0.057671548090997629 0 -0.027620675511791128 0.057240906381194209 0 -0.029138250821847251 0.059114868520867968 0 -0.029946199488364411 0.057671548090997629 0 -0.027620675511791128 0.057240906381194209 0 -0.028502293685478748 0.056490327436426915 0 -0.029946199488364411 0.057671548090997629 0 -0.028502293685478748 0.056490327436426915 0 -0.029902794870615427 0.05643479146869438 0 -0.027620675511791128 0.057240906381194209 0 -0.028502293685478748 0.056490327436426915 0 -0.027026219094155032 0.056196043023633582 0 -0.028502293685478748 0.056490327436426915 0 -0.027026219094155032 0.056196043023633582 0 -0.027777365712855676 0.055832545775385399 0 -0.026115190542762092 0.056364271631586055 0 -0.027620675511791128 0.057240906381194209 0 -0.027026219094155032 0.056196043023633582 0 -0.026915012047035638 0.055276456905131138 0 -0.027777365712855676 0.055832545775385399 0 -0.027891742032112393 0.055290263291771329 0 -0.026915012047035638 0.055276456905131138 0 -0.027891742032112393 0.055290263291771329 0 -0.027394300907635775 0.054675648680134116 0 -0.026377080733011565 0.05454773562755473 0 -0.026915012047035638 0.055276456905131138 0 -0.027394300907635775 0.054675648680134116 0 -0.027026219094155032 0.056196043023633582 0 -0.026915012047035638 0.055276456905131138 0 -0.027777365712855676 0.055832545775385399 0 -0.027777365712855676 0.055832545775385399 0 -0.027891742032112393 0.055290263291771329 0 -0.028940542250122849 0.055594761534877274 0 -0.028502293685478748 0.056490327436426915 0 -0.027777365712855676 0.055832545775385399 0 -0.028940542250122849 0.055594761534877274 0 -0.028502293685478748 0.056490327436426915 0 -0.028940542250122849 0.055594761534877274 0 -0.029902794870615427 0.05643479146869438 0 -0.028940542250122849 0.055594761534877274 0 -0.029740160595889905 0.055501978339226057 0 -0.029902794870615427 0.05643479146869438 0 -0.029740160595889905 0.055501978339226057 0 -0.029334222255971248 0.055056619150220434 0 -0.02916774414637522 0.055138023404347251 0 -0.029334222255971248 0.055056619150220434 0 -0.02916774414637522 0.055138023404347251 0 -0.028841249544680089 0.054451731236425049 0 -0.028940542250122849 0.055594761534877274 0 -0.029740160595889905 0.055501978339226057 0 -0.02916774414637522 0.055138023404347251 0 -0.028940542250122849 0.055594761534877274 0 -0.02916774414637522 0.055138023404347251 0 -0.028394134550668988 0.054933813133477769 0 -0.027891742032112393 0.055290263291771329 0 -0.028940542250122849 0.055594761534877274 0 -0.028394134550668988 0.054933813133477769 0 -0.027891742032112393 0.055290263291771329 0 -0.028394134550668988 0.054933813133477769 0 -0.027394300907635775 0.054675648680134116 0 -0.028394134550668988 0.054933813133477769 0 -0.027823373897909585 0.054286103157361328 0 -0.027394300907635775 0.054675648680134116 0 -0.02916774414637522 0.055138023404347251 0 -0.028394134550668988 0.054933813133477769 0 -0.028841249544680089 0.054451731236425049 0 -0.029334222255971248 0.055056619150220434 0 -0.028841249544680089 0.054451731236425049 0 -0.02963588522548383 0.055224702492387305 0 -0.028841249544680089 0.054451731236425049 0 -0.027949919453511714 0.053584781369090513 0 -0.027823373897909585 0.054286103157361328 0 -0.028394134550668988 0.054933813133477769 0 -0.028841249544680089 0.054451731236425049 0 -0.027823373897909585 0.054286103157361328 0 -0.026295647543231361 0.053840827085117574 0 -0.0270853265536912 0.053949761814244081 0 -0.027394300907635775 0.054675648680134116 0 -0.027823373897909585 0.054286103157361328 0 -0.0270853265536912 0.053949761814244081 0 -0.027394300907635775 0.054675648680134116 0 -0.027823373897909585 0.054286103157361328 0 -0.027389811828992895 0.05349609142772789 0 -0.0270853265536912 0.053949761814244081 0 -0.027949919453511714 0.053584781369090513 0 -0.027823373897909585 0.054286103157361328 0 -0.027389811828992895 0.05349609142772789 0 -0.027389811828992895 0.05349609142772789 0 -0.0270853265536912 0.053949761814244081 0 -0.026699217202711945 0.053316878874673249 0 -0.031634485491293898 0.057463495487726252 0 -0.029902794870615427 0.05643479146869438 0 -0.030822493603239864 0.05625984523932407 0 -0.029740160595889905 0.055501978339226057 0 -0.029902794870615427 0.05643479146869438 0 -0.030822493603239864 0.05625984523932407 0 -0.030822493603239864 0.05625984523932407 0 -0.03128459858873063 0.056198688933938742 0 -0.032163929603986757 0.056825520960176519 0 -0.030822493603239864 0.05625984523932407 0 -0.030306904183706799 0.055751318335937557 0 -0.03128459858873063 0.056198688933938742 0 -0.029740160595889905 0.055501978339226057 0 -0.030822493603239864 0.05625984523932407 0 -0.030306904183706799 0.055751318335937557 0 -0.030306904183706799 0.055751318335937557 0 -0.030586448428967152 0.055904103428984678 0 -0.030103877937475734 0.055622526957063587 0 -0.030306904183706799 0.055751318335937557 0 -0.030586448428967152 0.055904103428984678 0 -0.03128459858873063 0.056198688933938742 0 -0.027924134660318758 0.054047767569465915 0 -0.028871378017046589 0.054820018989701173 0 -0.026072390432867975 0.051208029413224679 0 -0.027924134660318758 0.054047767569465915 0 -0.029927518913288036 0.055467674323237362 0 -0.030376103448399031 0.055798452634177487 0 -0.030838806018536072 0.056116699318834035 0 -0.025336980396522223 0.049103537715480275 0 -0.026417134998475183 0.051352156043829651 0 -0.028196971605027071 0.052905233575691706 0 -0.02963588522548383 0.055224702492387305 0 -0.029927518913288036 0.055467674323237362 0 -0.030838806018536072 0.056116699318834035 0 -0.026417134998475183 0.051352156043829651 0 -0.026955613156148091 0.05211413234396492 0 -0.028196971605027071 0.052905233575691706 0 -0.026602215968645451 0.05263750902626739 0 -0.026955613156148091 0.05211413234396492 0 -0.02736610383325086 0.052683747698904833 0 -0.026955613156148091 0.05211413234396492 0 -0.02736610383325086 0.052683747698904833 0 -0.028196971605027071 0.052905233575691706 0 -0.026602215968645451 0.05263750902626739 0 -0.027123001678079323 0.053053579053310519 0 -0.02736610383325086 0.052683747698904833 0 -0.027389811828992895 0.05349609142772789 0 -0.026699217202711945 0.053316878874673249 0 -0.027123001678079323 0.053053579053310519 0 -0.026602215968645451 0.05263750902626739 0 -0.026699217202711945 0.053316878874673249 0 -0.027123001678079323 0.053053579053310519 0 -0.027389811828992895 0.05349609142772789 0 -0.027123001678079323 0.053053579053310519 0 -0.02736610383325086 0.052683747698904833 0 -0.027389811828992895 0.05349609142772789 0 -0.02736610383325086 0.052683747698904833 0 -0.028196971605027071 0.052905233575691706 0 -0.027949919453511714 0.053584781369090513 0 -0.027389811828992895 0.05349609142772789 0 -0.028196971605027071 0.052905233575691706 0 -0.028841249544680089 0.054451731236425049 0 -0.027949919453511714 0.053584781369090513 0 -0.028196971605027071 0.052905233575691706 0 -0.028001540938058359 0.054285645221320587 0 -0.027924134660318758 0.054047767569465915 0 -0.02963588522548383 0.055224702492387305 0 -0.029740259432830811 0.055348424772806368 0 -0.029585986714630367 0.055258183537970851 0 -0.02963588522548383 0.055224702492387305 0 -0.029927518913288036 0.055467674323237362 0 -0.029740259432830811 0.055348424772806368 0 -0.029818135342564341 0.055418222111846313 0 -0.029769087941315706 0.055408663501258289 0 -0.030103877937475734 0.055622526957063587 0 -0.029927518913288036 0.055467674323237362 0 -0.029818135342564341 0.055418222111846313 0 -0.030103877937475734 0.055622526957063587 0 -0.029927518913288036 0.055467674323237362 0 -0.029818135342564341 0.055418222111846313 0 -0.029740259432830811 0.055348424772806368 0 -0.029818135342564341 0.055418222111846313 0 -0.029740259432830811 0.055348424772806368 0 -0.029585986714630367 0.055258183537970851 0 -0.029334222255971248 0.055056619150220434 0 -0.02963588522548383 0.055224702492387305 0 -0.029585986714630367 0.055258183537970851 0 -0.029334222255971248 0.055056619150220434 0 -0.029585986714630367 0.055258183537970851 0 -0.029769087941315706 0.055408663501258289 0 -0.029818135342564341 0.055418222111846313 0 -0.029585986714630367 0.055258183537970851 0 -0.029769087941315706 0.055408663501258289 0 -0.029740160595889905 0.055501978339226057 0 -0.029334222255971248 0.055056619150220434 0 -0.029769087941315706 0.055408663501258289 0 -0.029740160595889905 0.055501978339226057 0 -0.030306904183706799 0.055751318335937557 0 -0.029769087941315706 0.055408663501258289 0 -0.030306904183706799 0.055751318335937557 0 -0.029769087941315706 0.055408663501258289 0 -0.030103877937475734 0.055622526957063587 0 -0.029927518913288036 0.055467674323237362 0 -0.030103877937475734 0.055622526957063587 0 -0.030376103448399031 0.055798452634177487 0 -0.030586448428967152 0.055904103428984678 0 -0.030103877937475734 0.055622526957063587 0 -0.030376103448399031 0.055798452634177487 0 -0.026725071316793435 0.053158795511155529 0 -0.027027427529198483 0.05390912116545693 0 -0.026978261709812913 0.053195070253710015 0 -0.030376103448399031 0.055798452634177487 0 -0.030670868458074461 0.05601624311317973 0 -0.030838806018536072 0.056116699318834035 0 -0.030586448428967152 0.055904103428984678 0 -0.030376103448399031 0.055798452634177487 0 -0.030670868458074461 0.05601624311317973 0 -0.030863563202815098 0.05620148563220926 0 -0.030670868458074461 0.05601624311317973 0 -0.030838806018536072 0.056116699318834035 0 -0.03128459858873063 0.056198688933938742 0 -0.031039950028717109 0.05611543948816463 0 -0.031833785358869333 0.056306875927859754 0 -0.030586448428967152 0.055904103428984678 0 -0.030670868458074461 0.05601624311317973 0 -0.031039950028717109 0.05611543948816463 0 -0.030586448428967152 0.055904103428984678 0 -0.03128459858873063 0.056198688933938742 0 -0.031039950028717109 0.05611543948816463 0 -0.030863563202815098 0.05620148563220926 0 -0.030670868458074461 0.05601624311317973 0 -0.031039950028717109 0.05611543948816463 0 -0.031411454519554065 0.056226929000759859 0 -0.031039950028717109 0.05611543948816463 0 -0.031833785358869333 0.056306875927859754 0 -0.032613908060658191 0.056329548364124453 0 -0.031833785358869333 0.056306875927859754 0 -0.032555534888929795 0.056624965640660441 0 -0.03128459858873063 0.056198688933938742 0 -0.031833785358869333 0.056306875927859754 0 -0.032555534888929795 0.056624965640660441 0 -0.032613908060658191 0.056329548364124453 0 -0.033881729978395871 0.056827939419974341 0 -0.032555534888929795 0.056624965640660441 0 -0.033881729978395871 0.056827939419974341 0 -0.033574866949665917 0.057262367693814417 0 -0.032555534888929795 0.056624965640660441 0 -0.033574866949665917 0.057262367693814417 0 -0.032163929603986757 0.056825520960176519 0 -0.032555534888929795 0.056624965640660441 0 -0.03128459858873063 0.056198688933938742 0 -0.032163929603986757 0.056825520960176519 0 -0.032555534888929795 0.056624965640660441 0 -0.055928304662988357 0.04924803524254049 0 -0.054999835580289154 0.0481640441236003 0 -0.054999980316025369 0.050709302934637414 0 -0.055928304662988357 0.04924803524254049 0 -0.054999835580289154 0.0481640441236003 0 -0.056263926179206121 0.04827048753920074 0 -0.055928304662988357 0.04924803524254049 0 -0.056660054839587685 0.049368389741115626 0 -0.056263926179206121 0.04827048753920074 0 -0.057165248328270114 0.049152023408287844 0 -0.056660054839587685 0.049368389741115626 0 -0.056263926179206121 0.04827048753920074 0 -0.057165248328270114 0.049152023408287844 0 -0.056660054839587685 0.049368389741115626 0 -0.057286475450689357 0.04995569457795352 0 -0.055928304662988357 0.04924803524254049 0 -0.056660054839587685 0.049368389741115626 0 -0.056432453190568971 0.050106855537881946 0 -0.056660054839587685 0.049368389741115626 0 -0.056432453190568971 0.050106855537881946 0 -0.057286475450689357 0.04995569457795352 0 -0.056432453190568971 0.050106855537881946 0 -0.056893811736734703 0.051649432617432926 0 -0.057286475450689357 0.04995569457795352 0 -0.055928304662988357 0.04924803524254049 0 -0.056432453190568971 0.050106855537881946 0 -0.054999980316025369 0.050709302934637414 0 -0.056432453190568971 0.050106855537881946 0 -0.054999980316025369 0.050709302934637414 0 -0.056893811736734703 0.051649432617432926 0 -0.054999532419214923 0.05325607956306834 0 -0.054791063718840842 0.053880132312995446 0 -0.054999980316025369 0.050709302934637414 0 -0.054999712220859705 0.053254558767213862 0 -0.056893811736734703 0.051649432617432926 0 -0.055001144787970399 0.054993739298448502 0 -0.053018106894360026 0.056173116673302693 0 -0.050662023011028276 0.055000240911432643 0 -0.054995906127986861 0.053268114356325127 0 -0.055001144787970399 0.054993739298448502 0 -0.053018106894360026 0.056173116673302693 0 -0.054791063718840842 0.053880132312995446 0 -0.053754778254423305 0.05406656559419467 0 -0.053018106894360026 0.056173116673302693 0 -0.050662023011028276 0.055000240911432643 0 -0.050245039426693727 0.057781424258655172 0 -0.050662023011028276 0.055000240911432643 0 -0.050245039426693727 0.057781424258655172 0 -0.047685367105129689 0.056790577980957761 0 -0.050245039426693727 0.057781424258655172 0 -0.047763254925383143 0.058868795966245245 0 -0.047685367105129689 0.056790577980957761 0 -0.057349721865460258 0.049805866314354963 0 -0.057697268663670094 0.05023662520627678 0 -0.056881475965245863 0.049541137631864927 0 -0.053754778254423305 0.05406656559419467 0 -0.052978898525882744 0.054122300839886811 0 -0.057349721865460258 0.049805866314354963 0 -0.057697268663670094 0.05023662520627678 0 -0.057587777092266243 0.049881321185498477 0 -0.056893811736734703 0.051649432617432926 0 -0.057697268663670094 0.05023662520627678 0 -0.057286475450689357 0.04995569457795352 0 -0.057697268663670094 0.05023662520627678 0 -0.057286475450689357 0.04995569457795352 0 -0.057587777092266243 0.049881321185498477 0 -0.057587777092266243 0.049881321185498477 0 -0.057582616072843359 0.049639839425401927 0 -0.057569849192202149 0.049762877583803634 0 -0.057582616072843359 0.049639839425401927 0 -0.057816810301316725 0.049641087169430033 0 -0.057569849192202149 0.049762877583803634 0 -0.057165248328270114 0.049152023408287844 0 -0.057286475450689357 0.04995569457795352 0 -0.057582616072843359 0.049639839425401927 0 -0.057286475450689357 0.04995569457795352 0 -0.057587777092266243 0.049881321185498477 0 -0.057582616072843359 0.049639839425401927 0 -0.057165248328270114 0.049152023408287844 0 -0.057511526617067071 0.049124283761003015 0 -0.057247065941845837 0.048737690948537367 0 -0.057165248328270114 0.049152023408287844 0 -0.057582616072843359 0.049639839425401927 0 -0.057511526617067071 0.049124283761003015 0 -0.057582616072843359 0.049639839425401927 0 -0.057511526617067071 0.049124283761003015 0 -0.057816810301316725 0.049641087169430033 0 -0.057816810301316725 0.049641087169430033 0 -0.057063132240338932 0.049913101637943123 0 -0.057569849192202149 0.049762877583803634 0 -0.057075686844300873 0.050095364721642707 0 -0.056952378043741037 0.050219687642974617 0 -0.057063132240338932 0.049913101637943123 0 -0.057196525878950813 0.049961405653689409 0 -0.056933011579574123 0.049976391397234803 0 -0.057349721865460258 0.049805866314354963 0 -0.057196525878950813 0.049961405653689409 0 -0.056651210822377285 0.050090641827455831 0 -0.057349721865460258 0.049805866314354963 0 -0.057587777092266243 0.049881321185498477 0 -0.057569849192202149 0.049762877583803634 0 -0.057349721865460258 0.049805866314354963 0 -0.057196525878950813 0.049961405653689409 0 -0.057569849192202149 0.049762877583803634 0 -0.057063132240338932 0.049913101637943123 0 -0.057196525878950813 0.049961405653689409 0 -0.057569849192202149 0.049762877583803634 0 -0.057196525878950813 0.049961405653689409 0 -0.056651210822377285 0.050090641827455831 0 -0.056714682383611353 0.050756396958895396 0 -0.056651210822377285 0.050090641827455831 0 -0.05590393914234143 0.050638804566695519 0 -0.056714682383611353 0.050756396958895396 0 -0.055326698156714441 0.049871670256375886 0 -0.05590393914234143 0.050638804566695519 0 -0.055452965825173971 0.051836119419248664 0 -0.056651210822377285 0.050090641827455831 0 -0.055326698156714441 0.049871670256375886 0 -0.05590393914234143 0.050638804566695519 0 -0.046904952513378777 0.054700820056923796 0 -0.052978898525882744 0.054122300839886811 0 -0.046904952513378777 0.054700820056923796 0 -0.043785289679228727 0.056997374868369567 0 -0.045439478032145798 0.059683803901031132 0 -0.047763254925383143 0.058868795966245245 0 -0.045104467601073388 0.057304897976325479 0 -0.056651210822377285 0.050090641827455831 0 -0.055326698156714441 0.049871670256375886 0 -0.056881475965245863 0.049541137631864927 0 -0.057349721865460258 0.049805866314354963 0 -0.056651210822377285 0.050090641827455831 0 -0.056881475965245863 0.049541137631864927 0 -0.047763254925383143 0.058868795966245245 0 -0.047685367105129689 0.056790577980957761 0 -0.045104467601073388 0.057304897976325479 0 -0.050662023011028276 0.055000240911432643 0 -0.047685367105129689 0.056790577980957761 0 -0.044596195736615649 0.05499928031645105 0 -0.047685367105129689 0.056790577980957761 0 -0.045104467601073388 0.057304897976325479 0 -0.044596195736615649 0.05499928031645105 0 -0.043785289679228727 0.056997374868369567 0 -0.044595306114314712 0.054999020782235772 0 -0.042859603298448359 0.055552644693099028 0 -0.042537092929507497 0.055404905699585581 0 -0.041801734745494146 0.055833957893544929 0 -0.042859603298448359 0.055552644693099028 0 -0.042537092929507497 0.055404905699585581 0 -0.044591525338885843 0.055000196481829883 0 -0.044591525338885843 0.055000196481829883 0 -0.041878173175248806 0.05491021999833845 0 -0.042143872013575084 0.055114625389729881 0 -0.042537092929507497 0.055404905699585581 0 -0.044591525338885843 0.055000196481829883 0 -0.042143872013575084 0.055114625389729881 0 -0.041878173175248806 0.05491021999833845 0 -0.042143872013575084 0.055114625389729881 0 -0.041392971797415717 0.054869595668903745 0 -0.040891895630797322 0.054733158875994198 0 -0.041878173175248806 0.05491021999833845 0 -0.041392971797415717 0.054869595668903745 0 -0.042143872013575084 0.055114625389729881 0 -0.041526458043916525 0.055053672245184891 0 -0.041533925970842586 0.055287643333250189 0 -0.042143872013575084 0.055114625389729881 0 -0.041526458043916525 0.055053672245184891 0 -0.041392971797415717 0.054869595668903745 0 -0.040891895630797322 0.054733158875994198 0 -0.041392971797415717 0.054869595668903745 0 -0.041048134251602933 0.054951333697771124 0 -0.041526458043916525 0.055053672245184891 0 -0.041392971797415717 0.054869595668903745 0 -0.041048134251602933 0.054951333697771124 0 -0.042537092929507497 0.055404905699585581 0 -0.041533925970842586 0.055287643333250189 0 -0.041801734745494146 0.055833957893544929 0 -0.040763295858196893 0.055160463617881871 0 -0.041048134251602933 0.054951333697771124 0 -0.041533925970842586 0.055287643333250189 0 -0.041526458043916525 0.055053672245184891 0 -0.041048134251602933 0.054951333697771124 0 -0.041533925970842586 0.055287643333250189 0 -0.042537092929507497 0.055404905699585581 0 -0.042143872013575084 0.055114625389729881 0 -0.041533925970842586 0.055287643333250189 0 -0.041533925970842586 0.055287643333250189 0 -0.040791290868939421 0.055557211294176297 0 -0.041801734745494146 0.055833957893544929 0 -0.040763295858196893 0.055160463617881871 0 -0.041533925970842586 0.055287643333250189 0 -0.040791290868939421 0.055557211294176297 0 -0.040773348053763099 0.056160815733112129 0 -0.041801734745494146 0.055833957893544929 0 -0.041288171050850975 0.056672273789775851 0 -0.039686717530716197 0.055836920082599627 0 -0.040791290868939421 0.055557211294176297 0 -0.040773348053763099 0.056160815733112129 0 -0.040791290868939421 0.055557211294176297 0 -0.040773348053763099 0.056160815733112129 0 -0.041801734745494146 0.055833957893544929 0 -0.042588185898159624 0.056459228101204399 0 -0.042859603298448359 0.055552644693099028 0 -0.041801734745494146 0.055833957893544929 0 -0.042588185898159624 0.056459228101204399 0 -0.041801734745494146 0.055833957893544929 0 -0.041288171050850975 0.056672273789775851 0 -0.046904952513378777 0.054700820056923796 0 -0.039723295583205642 0.05726331635313274 0 -0.042078296213651098 0.056289745250789586 0 -0.041786541165407511 0.056882591914958772 0 -0.041288171050850975 0.056672273789775851 0 -0.041786541165407511 0.056882591914958772 0 -0.041288171050850975 0.056672273789775851 0 -0.041280347910824189 0.057301779087209626 0 -0.040773348053763099 0.056160815733112129 0 -0.041288171050850975 0.056672273789775851 0 -0.040274414065823667 0.057075029654039655 0 -0.039642185540659139 0.056490762791475635 0 -0.040773348053763099 0.056160815733112129 0 -0.040274414065823667 0.057075029654039655 0 -0.040274414065823667 0.057075029654039655 0 -0.040707186898335787 0.057643114591286682 0 -0.039989069827029225 0.057846310466082018 0 -0.041288171050850975 0.056672273789775851 0 -0.040274414065823667 0.057075029654039655 0 -0.041280347910824189 0.057301779087209626 0 -0.040274414065823667 0.057075029654039655 0 -0.040707186898335787 0.057643114591286682 0 -0.041280347910824189 0.057301779087209626 0 -0.041786541165407511 0.056882591914958772 0 -0.041655462173287409 0.057326727761430225 0 -0.041867342853339422 0.057410568165441787 0 -0.041786541165407511 0.056882591914958772 0 -0.041280347910824189 0.057301779087209626 0 -0.041655462173287409 0.057326727761430225 0 -0.041655462173287409 0.057326727761430225 0 -0.041867342853339422 0.057410568165441787 0 -0.041564758439930356 0.057647958942953388 0 -0.041280347910824189 0.057301779087209626 0 -0.041655462173287409 0.057326727761430225 0 -0.041564758439930356 0.057647958942953388 0 -0.041280347910824189 0.057301779087209626 0 -0.041564758439930356 0.057647958942953388 0 -0.041066071814568464 0.057838608030116027 0 -0.040707186898335787 0.057643114591286682 0 -0.041280347910824189 0.057301779087209626 0 -0.041066071814568464 0.057838608030116027 0 -0.041564758439930356 0.057647958942953388 0 -0.04103148050627544 0.058372115825227826 0 -0.042259602457789057 0.057727504820130213 0 -0.043453983495760372 0.057256934270187083 0 -0.048207876010740613 0.054961972966899655 0 -0.048176358427446331 0.054992672167953803 0 -0.045164052479065832 0.056332758494958189 0 -0.050890172303868553 0.052259935702203775 0 -0.042070881628725555 0.057509609474375029 0 -0.041874231679359331 0.058308045102261348 0 -0.044790104647812405 0.056125423385884977 0 -0.040557306308587414 0.058439426015100555 0 -0.048207876010740613 0.054961972966899655 0 -0.041564758439930356 0.057647958942953388 0 -0.041066071814568464 0.057838608030116027 0 -0.04103148050627544 0.058372115825227826 0 -0.039863187070527148 0.058996894348024666 0 -0.04103148050627544 0.058372115825227826 0 -0.040505849294288881 0.058180504214613273 0 -0.041066071814568464 0.057838608030116027 0 -0.04103148050627544 0.058372115825227826 0 -0.040505849294288881 0.058180504214613273 0 -0.040707186898335787 0.057643114591286682 0 -0.041066071814568464 0.057838608030116027 0 -0.040505849294288881 0.058180504214613273 0 -0.040707186898335787 0.057643114591286682 0 -0.040505849294288881 0.058180504214613273 0 -0.039989069827029225 0.057846310466082018 0 -0.040505849294288881 0.058180504214613273 0 -0.039989069827029225 0.057846310466082018 0 -0.039942535053608605 0.058324261027765827 0 -0.039863187070527148 0.058996894348024666 0 -0.040505849294288881 0.058180504214613273 0 -0.039942535053608605 0.058324261027765827 0 -0.040372488443687675 0.058700494848044502 0 -0.040557306308587414 0.058439426015100555 0 -0.039974176590980161 0.060204692159393218 0 -0.043453983495760372 0.057256934270187083 0 -0.039863187070527148 0.058996894348024666 0 -0.039814153015023876 0.060300841424458192 0 -0.041874231679359331 0.058308045102261348 0 -0.039814153015023876 0.060300841424458192 0 -0.042248890178355342 0.060281536020834463 0 -0.045164052479065832 0.056332758494958189 0 -0.039863187070527148 0.058996894348024666 0 -0.042070881628725555 0.057509609474375029 0 -0.041874231679359331 0.058308045102261348 0 -0.054771109618541015 0.039981221904689584 0 -0.053288619400363918 0.040764578452643342 0 -0.053298525056554934 0.038613304728693371 0 -0.042248890178355342 0.060281536020834463 0 -0.047991035507446433 0.058100160861215659 0 -0.045164052479065832 0.056332758494958189 0 -0.048777945920821443 0.050505152426486573 0 -0.050695937723727061 0.049327059916160279 0 -0.048176358427446331 0.054992672167953803 0 -0.047991035507446433 0.058100160861215659 0 -0.050410126068847122 0.055055660162490763 0 -0.048176358427446331 0.054992672167953803 0 -0.047991035507446433 0.058100160861215659 0 -0.045164052479065832 0.056332758494958189 0 -0.053288619400363918 0.040764578452643342 0 -0.052118412363974562 0.039736320307955562 0 -0.051756523801554502 0.041562235052194356 0 -0.047991035507446433 0.058100160861215659 0 -0.05330984985051123 0.055552992642164081 0 -0.050410126068847122 0.055055660162490763 0 -0.050695937723727061 0.049327059916160279 0 -0.052046132586190334 0.04880508896077556 0 -0.053288619400363918 0.040764578452643342 0 -0.052118412363974562 0.039736320307955562 0 -0.053298525056554934 0.038613304728693371 0 -0.052118412363974562 0.039736320307955562 0 -0.050656852468539626 0.040210641759830093 0 -0.05118079752064008 0.038073808575115109 0 -0.051756523801554502 0.041562235052194356 0 -0.050191374135104043 0.042358024361747501 0 -0.050656852468539626 0.040210641759830093 0 -0.052118412363974562 0.039736320307955562 0 -0.051756523801554502 0.041562235052194356 0 -0.050656852468539626 0.040210641759830093 0 -0.054294784234874875 0.053412057469479267 0 -0.05330984985051123 0.055552992642164081 0 -0.057042696668863961 0.05343913573853 0 -0.054294784234874875 0.053412057469479267 0 -0.055298479525593747 0.051658563336094469 0 -0.057042696668863961 0.05343913573853 0 -0.052046132586190334 0.04880508896077556 0 -0.055618903674354535 0.046650385974797412 0 -0.054294784234874875 0.053412057469479267 0 -0.052313197333235043 0.054276297361802311 0 -0.052533663495160511 0.052989993802707289 0 -0.054294784234874875 0.053412057469479267 0 -0.052533663495160511 0.052989993802707289 0 -0.053649750984508054 0.052448662340537147 0 -0.054294784234874875 0.053412057469479267 0 -0.05330984985051123 0.055552992642164081 0 -0.052313197333235043 0.054276297361802311 0 -0.052313197333235043 0.054276297361802311 0 -0.050410126068847122 0.055055660162490763 0 -0.051006458291498136 0.05339739561891596 0 -0.05330984985051123 0.055552992642164081 0 -0.052313197333235043 0.054276297361802311 0 -0.050410126068847122 0.055055660162490763 0 -0.048176358427446331 0.054992672167953803 0 -0.050410126068847122 0.055055660162490763 0 -0.050124537650620166 0.05393940861487713 0 -0.050410126068847122 0.055055660162490763 0 -0.051006458291498136 0.05339739561891596 0 -0.050124537650620166 0.05393940861487713 0 -0.048176358427446331 0.054992672167953803 0 -0.050124537650620166 0.05393940861487713 0 -0.050890172303868553 0.052259935702203775 0 -0.051006458291498136 0.05339739561891596 0 -0.050124537650620166 0.05393940861487713 0 -0.050890172303868553 0.052259935702203775 0 -0.048655171666799384 0.054081898842514624 0 -0.048207876010740613 0.054961972966899655 0 -0.052313197333235043 0.054276297361802311 0 -0.051006458291498136 0.05339739561891596 0 -0.052533663495160511 0.052989993802707289 0 -0.051006458291498136 0.05339739561891596 0 -0.051027137491102256 0.052618861055784082 0 -0.052533663495160511 0.052989993802707289 0 -0.042078296213651098 0.056289745250789586 0 -0.041786541165407511 0.056882591914958772 0 -0.042259602457789057 0.057727504820130213 0 -0.041786541165407511 0.056882591914958772 0 -0.041867342853339422 0.057410568165441787 0 -0.042259602457789057 0.057727504820130213 0 -0.046904952513378777 0.054700820056923796 0 -0.048207876010740613 0.054961972966899655 0 -0.05590393914234143 0.050638804566695519 0 -0.055452965825173971 0.051836119419248664 0 -0.055891848300687282 0.051498201633050834 0 -0.048207876010740613 0.054961972966899655 0 -0.054849026454098594 0.051013710760654328 0 -0.051027137491102256 0.052618861055784082 0 -0.052533663495160511 0.052989993802707289 0 -0.052415131636331429 0.051793065016311458 0 -0.041867342853339422 0.057410568165441787 0 -0.041564758439930356 0.057647958942953388 0 -0.042259602457789057 0.057727504820130213 0 -0.056813992475649902 0.049935841627500609 0 -0.054849026454098594 0.051013710760654328 0 -0.057063132240338932 0.049913101637943123 0 -0.056809524395114962 0.050084575156544561 0 -0.056933011579574123 0.049976391397234803 0 -0.057063132240338932 0.049913101637943123 0 -0.052415131636331429 0.051793065016311458 0 -0.055298479525593747 0.051658563336094469 0 -0.052415131636331429 0.051793065016311458 0 -0.055298479525593747 0.051658563336094469 0 -0.053649750984508054 0.052448662340537147 0 -0.054849026454098594 0.051013710760654328 0 -0.056952378043741037 0.050219687642974617 0 -0.05590393914234143 0.050638804566695519 0 -0.055891848300687282 0.051498201633050834 0 -0.056714682383611353 0.050756396958895396 0 -0.054294784234874875 0.053412057469479267 0 -0.055298479525593747 0.051658563336094469 0 -0.053649750984508054 0.052448662340537147 0 -0.052533663495160511 0.052989993802707289 0 -0.052415131636331429 0.051793065016311458 0 -0.053649750984508054 0.052448662340537147 0 -0.057816810301316725 0.049641087169430033 0 -0.057697529042412959 0.048605228759710274 0 -0.05839843168189187 0.047742912359704626 0 -0.057816810301316725 0.049641087169430033 0 -0.057063132240338932 0.049913101637943123 0 -0.057042696668863961 0.05343913573853 0 -0.058237998429231268 0.051270759076476026 0 -0.055618903674354535 0.046650385974797412 0 -0.057063132240338932 0.049913101637943123 0 -0.055298479525593747 0.051658563336094469 0 -0.057042696668863961 0.05343913573853 0 -0.057280655034471731 0.048241297963497846 0 -0.057697529042412959 0.048605228759710274 0 -0.05839843168189187 0.047742912359704626 0 -0.057511526617067071 0.049124283761003015 0 -0.057816810301316725 0.049641087169430033 0 -0.057697529042412959 0.048605228759710274 0 -0.057511526617067071 0.049124283761003015 0 -0.057247065941845837 0.048737690948537367 0 -0.057697529042412959 0.048605228759710274 0 -0.057247065941845837 0.048737690948537367 0 -0.057484991151857977 0.048422598728175635 0 -0.057697529042412959 0.048605228759710274 0 -0.05825781820130186 0.046962451587448904 0 -0.058160180959376091 0.047802562902770039 0 -0.05825781820130186 0.046962451587448904 0 -0.055618903674354535 0.046650385974797412 0 -0.058074041484538361 0.04529046755431531 0 -0.058236408802652163 0.042982195019387014 0 -0.056522123986287615 0.043936446575486891 0 -0.058074041484538361 0.04529046755431531 0 -0.059424780917137661 0.044665127831954095 0 -0.058236408802652163 0.042982195019387014 0 -0.055618903674354535 0.046650385974797412 0 -0.055288612750740186 0.040463861097133923 0 -0.059424780917137661 0.044665127831954095 0 -0.060035988849065261 0.04208952677714442 0 -0.058236408802652163 0.042982195019387014 0 -0.060035988849065261 0.04208952677714442 0 -0.058236408802652163 0.042982195019387014 0 -0.059112044567738518 0.040372170260455434 0 -0.058236408802652163 0.042982195019387014 0 -0.057691419974698045 0.040522991473026619 0 -0.059112044567738518 0.040372170260455434 0 -0.058236408802652163 0.042982195019387014 0 -0.056668017026361241 0.041982574241111369 0 -0.056522123986287615 0.043936446575486891 0 -0.058236408802652163 0.042982195019387014 0 -0.056668017026361241 0.041982574241111369 0 -0.057691419974698045 0.040522991473026619 0 -0.056668017026361241 0.041982574241111369 0 -0.054999799516832225 0.043069417189781217 0 -0.054999730370885354 0.040552005152280149 0 -0.056668017026361241 0.041982574241111369 0 -0.054999799516832225 0.043069417189781217 0 -0.056522123986287615 0.043936446575486891 0 -0.055000042978747776 0.043071155322457561 0 -0.054999900036202261 0.045617293377927276 0 -0.057069661778784815 0.044862006722432263 0 -0.055000346785609382 0.043071422060215955 0 -0.056815666465873618 0.044295358034995874 0 -0.054999900036202261 0.045617293377927276 0 -0.057069661778784815 0.044862006722432263 0 -0.055991995761771607 0.046679877085625009 0 -0.059382299786386941 0.046782627214311374 0 -0.057069661778784815 0.044862006722432263 0 -0.057165770524520154 0.046625217763895381 0 -0.05825781820130186 0.046962451587448904 0 -0.056815666465873618 0.044295358034995874 0 -0.057069661778784815 0.044862006722432263 0 -0.057165770524520154 0.046625217763895381 0 -0.055991995761771607 0.046679877085625009 0 -0.05825781820130186 0.046962451587448904 0 -0.056366247519616774 0.048461261959150431 0 -0.057165248328270114 0.049152023408287844 0 -0.057247065941845837 0.048737690948537367 0 -0.056263926179206121 0.04827048753920074 0 -0.059382299786386941 0.046782627214311374 0 -0.057165770524520154 0.046625217763895381 0 -0.056263926179206121 0.04827048753920074 0 -0.057247065941845837 0.048737690948537367 0 -0.057484991151857977 0.048422598728175635 0 -0.056263926179206121 0.04827048753920074 0 -0.054999835580289154 0.0481640441236003 0 -0.054999900036202261 0.045617293377927276 0 -0.055991995761771607 0.046679877085625009 0 -0.054999835580289154 0.0481640441236003 0 -0.056263926179206121 0.04827048753920074 0 -0.055991995761771607 0.046679877085625009 0 -0.057165770524520154 0.046625217763895381 0 -0.056263926179206121 0.04827048753920074 0 -0.055991995761771607 0.046679877085625009 0 -0.054999797608249731 0.035513400983868113 0 -0.056734592807469827 0.034880944358821879 0 -0.05499985046720491 0.032994480979976787 0 -0.054999797608249731 0.035513400983868113 0 -0.056734592807469827 0.034880944358821879 0 -0.057043982527463455 0.03699490952411167 0 -0.057111270908501342 0.036839558238310512 0 -0.058403449827872544 0.035242794968036763 0 -0.056734592807469827 0.034880944358821879 0 -0.057043982527463455 0.03699490952411167 0 -0.058874015525947974 0.034921841865398581 0 -0.054999797608249731 0.035513400983868113 0 -0.057043982527463455 0.03699490952411167 0 -0.054999781360396557 0.038032548461875974 0 -0.054999781360396557 0.038032548461875974 0 -0.054999730370885354 0.040552005152280149 0 -0.056503695068302794 0.039350309847541377 0 -0.057043982527463455 0.03699490952411167 0 -0.054999781360396557 0.038032548461875974 0 -0.056503695068302794 0.039350309847541377 0 -0.056668017026361241 0.041982574241111369 0 -0.054999730370885354 0.040552005152280149 0 -0.056503695068302794 0.039350309847541377 0 -0.056503695068302794 0.039350309847541377 0 -0.057802381665420621 0.038917087145907393 0 -0.057691419974698045 0.040522991473026619 0 -0.056668017026361241 0.041982574241111369 0 -0.056503695068302794 0.039350309847541377 0 -0.057691419974698045 0.040522991473026619 0 -0.057043982527463455 0.03699490952411167 0 -0.056503695068302794 0.039350309847541377 0 -0.057802381665420621 0.038917087145907393 0 -0.057802381665420621 0.038917087145907393 0 -0.059112044567738518 0.040372170260455434 0 -0.058692268109697 0.037499097218434557 0 -0.057043982527463455 0.03699490952411167 0 -0.057802381665420621 0.038917087145907393 0 -0.058692268109697 0.037499097218434557 0 -0.057802381665420621 0.038917087145907393 0 -0.057691419974698045 0.040522991473026619 0 -0.059112044567738518 0.040372170260455434 0 -0.060035988849065261 0.04208952677714442 0 -0.059112044567738518 0.040372170260455434 0 -0.060401127219650026 0.039313253554878656 0 -0.059112044567738518 0.040372170260455434 0 -0.058692268109697 0.037499097218434557 0 -0.060401127219650026 0.039313253554878656 0 -0.058692268109697 0.037499097218434557 0 -0.058767684696431795 0.03606356232458164 0 -0.060392323979149697 0.036632709719812986 0 -0.057043982527463455 0.03699490952411167 0 -0.058692268109697 0.037499097218434557 0 -0.057817992699099367 0.035474851665727523 0 -0.058692268109697 0.037499097218434557 0 -0.057817992699099367 0.035474851665727523 0 -0.058767684696431795 0.03606356232458164 0 -0.057817992699099367 0.035474851665727523 0 -0.058767684696431795 0.03606356232458164 0 -0.05925557636554743 0.034937692727626264 0 -0.051793322940723086 0.035899061516929558 0 -0.053114600848366063 0.036901992401104616 0 -0.054158198912303793 0.035557323006146849 0 -0.051793322940723086 0.035899061516929558 0 -0.054158198912303793 0.035557323006146849 0 -0.053058347455592722 0.03367298541520259 0 -0.058767684696431795 0.03606356232458164 0 -0.05925557636554743 0.034937692727626264 0 -0.060392323979149697 0.036632709719812986 0 -0.056085937395131423 0.036271573214257363 0 -0.056220612156103654 0.034024398953881062 0 -0.05925557636554743 0.034937692727626264 0 -0.060392323979149697 0.036632709719812986 0 -0.059951255251811178 0.034087956972093714 0 -0.051793322940723086 0.035899061516929558 0 -0.053058347455592722 0.03367298541520259 0 -0.052599936552177387 0.033789993083737209 0 -0.058692268109697 0.037499097218434557 0 -0.060392323979149697 0.036632709719812986 0 -0.060401127219650026 0.039313253554878656 0 -0.056085937395131423 0.036271573214257363 0 -0.055769318676167058 0.038867299914793145 0 -0.055288612750740186 0.040463861097133923 0 -0.055769318676167058 0.038867299914793145 0 -0.052118412363974562 0.039736320307955562 0 -0.05118079752064008 0.038073808575115109 0 -0.053298525056554934 0.038613304728693371 0 -0.051793322940723086 0.035899061516929558 0 -0.05118079752064008 0.038073808575115109 0 -0.053114600848366063 0.036901992401104616 0 -0.05118079752064008 0.038073808575115109 0 -0.053114600848366063 0.036901992401104616 0 -0.053298525056554934 0.038613304728693371 0 -0.054771109618541015 0.039981221904689584 0 -0.053298525056554934 0.038613304728693371 0 -0.055200418631412403 0.037417914537278905 0 -0.053114600848366063 0.036901992401104616 0 -0.053298525056554934 0.038613304728693371 0 -0.055200418631412403 0.037417914537278905 0 -0.054073479079088146 0.031838108881420024 0 -0.05317517576933975 0.034304442045146488 0 -0.051139190390778397 0.030611574757407709 0 -0.052365349270088804 0.032220988069399582 0 -0.051209617719982309 0.032582311745958777 0 -0.053114600848366063 0.036901992401104616 0 -0.055200418631412403 0.037417914537278905 0 -0.054158198912303793 0.035557323006146849 0 -0.05317517576933975 0.034304442045146488 0 -0.05305539529331315 0.033503766326905202 0 -0.052365349270088804 0.032220988069399582 0 -0.051528845288829651 0.033334299277583655 0 -0.051209617719982309 0.032582311745958777 0 -0.051528845288829651 0.033334299277583655 0 -0.052476348573705089 0.033568358100795739 0 -0.051632317321444507 0.033861877303249133 0 -0.052365349270088804 0.032220988069399582 0 -0.051528845288829651 0.033334299277583655 0 -0.052476348573705089 0.033568358100795739 0 -0.052476348573705089 0.033568358100795739 0 -0.053106295471956222 0.03370711665021392 0 -0.053058347455592722 0.03367298541520259 0 -0.052365349270088804 0.032220988069399582 0 -0.052476348573705089 0.033568358100795739 0 -0.053058347455592722 0.03367298541520259 0 -0.052476348573705089 0.033568358100795739 0 -0.053106295471956222 0.03370711665021392 0 -0.052417483673165538 0.034050132952639645 0 -0.053106295471956222 0.03370711665021392 0 -0.053328264945307673 0.033753348471084257 0 -0.053245784597742693 0.033601064979129104 0 -0.053106295471956222 0.03370711665021392 0 -0.052417483673165538 0.034050132952639645 0 -0.053328264945307673 0.033753348471084257 0 -0.052476348573705089 0.033568358100795739 0 -0.052417483673165538 0.034050132952639645 0 -0.051632317321444507 0.033861877303249133 0 -0.052417483673165538 0.034050132952639645 0 -0.051632317321444507 0.033861877303249133 0 -0.05135663092445214 0.03432116682727844 0 -0.052417483673165538 0.034050132952639645 0 -0.051847746111613691 0.034403336423616322 0 -0.05135663092445214 0.03432116682727844 0 -0.052417483673165538 0.034050132952639645 0 -0.051847746111613691 0.034403336423616322 0 -0.051969905526563477 0.034491951626063277 0 -0.052417483673165538 0.034050132952639645 0 -0.051969905526563477 0.034491951626063277 0 -0.051992728769823575 0.034465500685311845 0 -0.051969905526563477 0.034491951626063277 0 -0.051947617029590686 0.03451087655159181 0 -0.051914643636255225 0.034364209718256093 0 -0.051847746111613691 0.034403336423616322 0 -0.051969905526563477 0.034491951626063277 0 -0.051947617029590686 0.03451087655159181 0 -0.05445753913414153 0.033281596650211354 0 -0.053245784597742693 0.033601064979129104 0 -0.055626379337480186 0.033330243798529058 0 -0.051969905526563477 0.034491951626063277 0 -0.051992728769823575 0.034465500685311845 0 -0.051914643636255225 0.034364209718256093 0 -0.05445753913414153 0.033281596650211354 0 -0.053328264945307673 0.033753348471084257 0 -0.053245784597742693 0.033601064979129104 0 -0.052417483673165538 0.034050132952639645 0 -0.05445753913414153 0.033281596650211354 0 -0.053328264945307673 0.033753348471084257 0 -0.052514754326146967 0.033931632501896493 0 -0.053141981407175062 0.03364142878493627 0 -0.058507570752575129 0.031485905382530689 0 -0.057839421380878234 0.032145692592585491 0 -0.058601048801602849 0.031537552605155818 0 -0.058507570752575129 0.031485905382530689 0 -0.057839421380878234 0.032145692592585491 0 -0.055626379337480186 0.033330243798529058 0 -0.055880056616273252 0.032763764486945422 0 -0.055581560690059366 0.033480928804457598 0 -0.057839421380878234 0.032145692592585491 0 -0.058319706204477191 0.032151185744690086 0 -0.057118437186805787 0.033055958774622994 0 -0.057839421380878234 0.032145692592585491 0 -0.057118437186805787 0.033055958774622994 0 -0.055626379337480186 0.033330243798529058 0 -0.058319706204477191 0.032151185744690086 0 -0.058838733233331213 0.031545582504974475 0 -0.059189234068500289 0.032737912827733924 0 -0.058319706204477191 0.032151185744690086 0 -0.059189234068500289 0.032737912827733924 0 -0.058372379289245893 0.033034778378094445 0 -0.058319706204477191 0.032151185744690086 0 -0.058372379289245893 0.033034778378094445 0 -0.057118437186805787 0.033055958774622994 0 -0.058601048801602849 0.031537552605155818 0 -0.059077235830885352 0.031388609531448633 0 -0.058838733233331213 0.031545582504974475 0 -0.058319706204477191 0.032151185744690086 0 -0.058601048801602849 0.031537552605155818 0 -0.058838733233331213 0.031545582504974475 0 -0.057839421380878234 0.032145692592585491 0 -0.058319706204477191 0.032151185744690086 0 -0.058601048801602849 0.031537552605155818 0 -0.058395156637058007 0.031556192100660664 0 -0.058946703166044348 0.033098619978970109 0 -0.058601048801602849 0.031537552605155818 0 -0.059234138647590355 0.033485455393307904 0 -0.057299302112202175 0.033542622556612126 0 -0.058507570752575129 0.031485905382530689 0 -0.058601048801602849 0.031537552605155818 0 -0.059234138647590355 0.033485455393307904 0 -0.055880056616273252 0.032763764486945422 0 -0.056220612156103654 0.034024398953881062 0 -0.053106295471956222 0.03370711665021392 0 -0.053245784597742693 0.033601064979129104 0 -0.052599936552177387 0.033789993083737209 0 -0.058507570752575129 0.031485905382530689 0 -0.059951255251811178 0.034087956972093714 0 -0.059234138647590355 0.033485455393307904 0 -0.053106295471956222 0.03370711665021392 0 -0.053058347455592722 0.03367298541520259 0 -0.052599936552177387 0.033789993083737209 0 -0.05925557636554743 0.034937692727626264 0 -0.059951255251811178 0.034087956972093714 0 -0.059234138647590355 0.033485455393307904 0 -0.05925557636554743 0.034937692727626264 0 -0.059234138647590355 0.033485455393307904 0 -0.05857932817082203 0.034001773520157701 0 -0.058787617818600403 0.03362453192868526 0 -0.058946703166044348 0.033098619978970109 0 -0.058403449827872544 0.035242794968036763 0 -0.058946703166044348 0.033098619978970109 0 -0.057817992699099367 0.035474851665727523 0 -0.05925557636554743 0.034937692727626264 0 -0.05857932817082203 0.034001773520157701 0 -0.058946703166044348 0.033098619978970109 0 -0.057769400708722912 0.032671328722992089 0 -0.058874015525947974 0.034921841865398581 0 -0.060469535024001202 0.033019689558213244 0 -0.057675907864871021 0.03309153728015863 0 -0.059073501333060233 0.031838816122656828 0 -0.058306300497060329 0.0313478428303159 0 -0.057609518237716512 0.03244208116880485 0 -0.058306300497060329 0.0313478428303159 0 -0.057596220025264239 0.031160900094658571 0 -0.057609518237716512 0.03244208116880485 0 -0.059073501333060233 0.031838816122656828 0 -0.058306300497060329 0.0313478428303159 0 -0.059077235830885352 0.031388609531448633 0 -0.058601048801602849 0.031537552605155818 0 -0.059073501333060233 0.031838816122656828 0 -0.059077235830885352 0.031388609531448633 0 -0.059077235830885352 0.031388609531448633 0 -0.059040546421329138 0.030880346225808927 0 -0.058838733233331213 0.031545582504974475 0 -0.059040546421329138 0.030880346225808927 0 -0.058564345161322112 0.029440615726907728 0 -0.060011192120426958 0.028796016632029905 0 -0.058564345161322112 0.029440615726907728 0 -0.058978575393491911 0.028506591340804657 0 -0.060011192120426958 0.028796016632029905 0 -0.059122925855477543 0.031016270401033323 0 -0.059641167638289527 0.030608019298448842 0 -0.059040546421329138 0.030880346225808927 0 -0.058838733233331213 0.031545582504974475 0 -0.059189234068500289 0.032737912827733924 0 -0.059040546421329138 0.030880346225808927 0 -0.058564345161322112 0.029440615726907728 0 -0.057936030441619414 0.030342548097991667 0 -0.058564345161322112 0.029440615726907728 0 -0.057657163610421065 0.028911290289982693 0 -0.05817134266439037 0.028213287114414624 0 -0.058564345161322112 0.029440615726907728 0 -0.057936030441619414 0.030342548097991667 0 -0.057657163610421065 0.028911290289982693 0 -0.059045149259345363 0.031254680712163668 0 -0.057804569758568611 0.030175288236724003 0 -0.059077235830885352 0.031388609531448633 0 -0.059040546421329138 0.030880346225808927 0 -0.057936030441619414 0.030342548097991667 0 -0.058306300497060329 0.0313478428303159 0 -0.059077235830885352 0.031388609531448633 0 -0.057718406868458437 0.02998075299889064 0 -0.058306300497060329 0.0313478428303159 0 -0.057718406868458437 0.02998075299889064 0 -0.057596220025264239 0.031160900094658571 0 -0.057718406868458437 0.02998075299889064 0 -0.056690070517585241 0.031153424589799712 0 -0.057596220025264239 0.031160900094658571 0 -0.057936030441619414 0.030342548097991667 0 -0.057657163610421065 0.028911290289982693 0 -0.054999837323882236 0.028467062308642148 0 -0.057804569758568611 0.030175288236724003 0 -0.055000532403111389 0.028466491790729086 0 -0.057657163610421065 0.028911290289982693 0 -0.054999837323882236 0.028467062308642148 0 -0.056242371888966247 0.027309983427363026 0 -0.055000187809371472 0.028466625776764443 0 -0.054999729022294136 0.030730167892696589 0 -0.056690070517585241 0.031153424589799712 0 -0.057718406868458437 0.02998075299889064 0 -0.055000187809371472 0.028466625776764443 0 -0.056690070517585241 0.031153424589799712 0 -0.054999729022294136 0.030730167892696589 0 -0.056690070517585241 0.031153424589799712 0 -0.055000249693153716 0.032993458149331731 0 -0.056690070517585241 0.031153424589799712 0 -0.057609518237716512 0.03244208116880485 0 -0.055000249693153716 0.032993458149331731 0 -0.056690070517585241 0.031153424589799712 0 -0.057596220025264239 0.031160900094658571 0 -0.057609518237716512 0.03244208116880485 0 -0.056734592807469827 0.034880944358821879 0 -0.058874015525947974 0.034921841865398581 0 -0.057675907864871021 0.03309153728015863 0 -0.057769400708722912 0.032671328722992089 0 -0.055000103992344757 0.032994014522671665 0 -0.056734592807469827 0.034880944358821879 0 -0.057675907864871021 0.03309153728015863 0 -0.05499985046720491 0.032994480979976787 0 -0.043953735005720175 0.031760072386640983 0 -0.045828621015510863 0.032879227281771284 0 -0.043674571791851614 0.03349044858604372 0 -0.043953735005720175 0.031760072386640983 0 -0.045828621015510863 0.032879227281771284 0 -0.045706258534602327 0.030691768117422906 0 -0.043953735005720175 0.031760072386640983 0 -0.042886973924108306 0.032754490067902847 0 -0.043674571791851614 0.03349044858604372 0 -0.034500411406270581 0.058495524331286415 0 -0.035178321599658037 0.057840189174383771 0 -0.035123293749504368 0.05871932147366625 0 -0.035788318175406147 0.058355978039452097 0 -0.035178321599658037 0.057840189174383771 0 -0.035123293749504368 0.05871932147366625 0 -0.038764053017340386 0.045287515385340149 0 -0.041384241866094573 0.044763461828531262 0 -0.034500411406270581 0.058495524331286415 0 -0.034653402080545924 0.058994967434017519 0 -0.035123293749504368 0.05871932147366625 0 -0.024979312265825081 0.058436535512892726 0 -0.026401449139349557 0.057872976820116086 0 -0.029138250821847251 0.059114868520867968 0 -0.025773722687739749 0.055686417157278907 0 -0.032926064585657291 0.059326602288362014 0 -0.035518017718518563 0.059232408178987776 0 -0.035123293749504368 0.05871932147366625 0 -0.034935950471257457 0.059273180599649873 0 -0.034653402080545924 0.058994967434017519 0 -0.035123293749504368 0.05871932147366625 0 -0.034935950471257457 0.059273180599649873 0 -0.034653402080545924 0.058994967434017519 0 -0.034935950471257457 0.059273180599649873 0 -0.034447364847060485 0.059317238373676341 0 -0.032926064585657291 0.059326602288362014 0 -0.03301621984179956 0.059303757699308908 0 -0.03301621984179956 0.059303757699308908 0 -0.034108747406892799 0.059294644203061943 0 -0.034447364847060485 0.059317238373676341 0 -0.034347834813600688 0.059142599404057354 0 -0.034115474613613479 0.059289167102583772 0 -0.034653402080545924 0.058994967434017519 0 -0.034447364847060485 0.059317238373676341 0 -0.034347834813600688 0.059142599404057354 0 -0.038764053017340386 0.045287515385340149 0 -0.040220496163431332 0.045020026390017516 0 -0.034500411406270581 0.058495524331286415 0 -0.034347834813600688 0.059142599404057354 0 -0.034301808288264436 0.059393442284082387 0 -0.034500411406270581 0.058495524331286415 0 -0.034653402080545924 0.058994967434017519 0 -0.034347834813600688 0.059142599404057354 0 -0.034347834813600688 0.059142599404057354 0 -0.034301808288264436 0.059393442284082387 0 -0.034115474613613479 0.059289167102583772 0 -0.034299230902060995 0.05865019090842357 0 -0.034115474613613479 0.059289167102583772 0 -0.035667425852073317 0.059785443276550783 0 -0.034301808288264436 0.059393442284082387 0 -0.034115474613613479 0.059289167102583772 0 -0.035667425852073317 0.059785443276550783 0 -0.037038857058079216 0.0594339710442644 0 -0.036154445418985222 0.059210590534815158 0 -0.035667425852073317 0.059785443276550783 0 -0.047776579450713084 0.029705433457778038 0 -0.049069447943083301 0.030829468856461852 0 -0.04729092558707837 0.031324550047864434 0 -0.045706258534602327 0.030691768117422906 0 -0.047776579450713084 0.029705433457778038 0 -0.04729092558707837 0.031324550047864434 0 -0.040220496163431332 0.045020026390017516 0 -0.041493793811273293 0.04444794950789744 0 -0.056195354945613618 0.039231402542971076 0 -0.054771109618541015 0.039981221904689584 0 -0.055200418631412403 0.037417914537278905 0 -0.044800614514007721 0.046420051835438937 0 -0.054073479079088146 0.031838108881420024 0 -0.044800614514007721 0.046420051835438937 0 -0.041493793811273293 0.04444794950789744 0 -0.049777917946623534 0.028975065347694371 0 -0.047776579450713084 0.029705433457778038 0 -0.049069447943083301 0.030829468856461852 0 -0.049777917946623534 0.028975065347694371 0 -0.051139190390778397 0.030611574757407709 0 -0.049069447943083301 0.030829468856461852 0 -0.051139190390778397 0.030611574757407709 0 -0.050019254521499287 0.032149694212833417 0 -0.051209617719982309 0.032582311745958777 0 -0.051139190390778397 0.030611574757407709 0 -0.049069447943083301 0.030829468856461852 0 -0.050019254521499287 0.032149694212833417 0 -0.049069447943083301 0.030829468856461852 0 -0.050019254521499287 0.032149694212833417 0 -0.048123135378795957 0.032476534943325711 0 -0.050019254521499287 0.032149694212833417 0 -0.049581699475316245 0.032949918663555643 0 -0.050606066042006077 0.033164797338081198 0 -0.049581699475316245 0.032949918663555643 0 -0.048123135378795957 0.032476534943325711 0 -0.049758301810786845 0.033767564367690843 0 -0.050019254521499287 0.032149694212833417 0 -0.049581699475316245 0.032949918663555643 0 -0.048123135378795957 0.032476534943325711 0 -0.050019254521499287 0.032149694212833417 0 -0.051209617719982309 0.032582311745958777 0 -0.050606066042006077 0.033164797338081198 0 -0.045828621015510863 0.032879227281771284 0 -0.045706258534602327 0.030691768117422906 0 -0.04729092558707837 0.031324550047864434 0 -0.045828621015510863 0.032879227281771284 0 -0.04729092558707837 0.031324550047864434 0 -0.048123135378795957 0.032476534943325711 0 -0.049069447943083301 0.030829468856461852 0 -0.04729092558707837 0.031324550047864434 0 -0.048123135378795957 0.032476534943325711 0 -0.049115430990298622 0.032816278807124746 0 -0.045899860176262693 0.033704444316279648 0 -0.045828621015510863 0.032879227281771284 0 -0.048123135378795957 0.032476534943325711 0 -0.047437136047441729 0.033548912980901624 0 -0.045828621015510863 0.032879227281771284 0 -0.047437136047441729 0.033548912980901624 0 -0.046741595215937841 0.034525170882362212 0 -0.047437136047441729 0.033548912980901624 0 -0.046741595215937841 0.034525170882362212 0 -0.048714819201816827 0.034076917929098616 0 -0.048123135378795957 0.032476534943325711 0 -0.047437136047441729 0.033548912980901624 0 -0.048714819201816827 0.034076917929098616 0 -0.043817459245723049 0.034562336062390703 0 -0.045899860176262693 0.033704444316279648 0 -0.040896188245700626 0.034256235964185797 0 -0.041419987836917228 0.034384375826164 0 -0.041069422324373613 0.034013691449482492 0 -0.040896188245700626 0.034256235964185797 0 -0.041419987836917228 0.034384375826164 0 -0.040713767249716343 0.0345796080708589 0 -0.040896188245700626 0.034256235964185797 0 -0.040767841288254905 0.033945456862962083 0 -0.041069422324373613 0.034013691449482492 0 -0.051528845288829651 0.033334299277583655 0 -0.051632317321444507 0.033861877303249133 0 -0.050944612738985706 0.033776154693626187 0 -0.051528845288829651 0.033334299277583655 0 -0.050606066042006077 0.033164797338081198 0 -0.050944612738985706 0.033776154693626187 0 -0.051528845288829651 0.033334299277583655 0 -0.051209617719982309 0.032582311745958777 0 -0.050606066042006077 0.033164797338081198 0 -0.050606066042006077 0.033164797338081198 0 -0.050497324928575088 0.033542644963224295 0 -0.050077913249754663 0.033375365796217811 0 -0.050497324928575088 0.033542644963224295 0 -0.050290402509144447 0.033714310199394526 0 -0.050944612738985706 0.033776154693626187 0 -0.050606066042006077 0.033164797338081198 0 -0.050497324928575088 0.033542644963224295 0 -0.050944612738985706 0.033776154693626187 0 -0.050290402509144447 0.033714310199394526 0 -0.049847587283245537 0.033675065066189371 0 -0.050514948232220976 0.033953214129108178 0 -0.050497324928575088 0.033542644963224295 0 -0.050290402509144447 0.033714310199394526 0 -0.049965982889900659 0.033672081874984224 0 -0.050497324928575088 0.033542644963224295 0 -0.049965982889900659 0.033672081874984224 0 -0.050077913249754663 0.033375365796217811 0 -0.049965982889900659 0.033672081874984224 0 -0.050077913249754663 0.033375365796217811 0 -0.049758301810786845 0.033767564367690843 0 -0.050290402509144447 0.033714310199394526 0 -0.049965982889900659 0.033672081874984224 0 -0.049847587283245537 0.033675065066189371 0 -0.049581699475316245 0.032949918663555643 0 -0.050077913249754663 0.033375365796217811 0 -0.049758301810786845 0.033767564367690843 0 -0.049581699475316245 0.032949918663555643 0 -0.050606066042006077 0.033164797338081198 0 -0.050077913249754663 0.033375365796217811 0 -0.04690125787463207 0.033485224147421486 0 -0.045899860176262693 0.033704444316279648 0 -0.045899860176262693 0.033704444316279648 0 -0.048684223829346229 0.033957899411633116 0 -0.049847587283245537 0.033675065066189371 0 -0.050514948232220976 0.033953214129108178 0 -0.051087899851564519 0.034781743344355041 0 -0.040713767249716343 0.0345796080708589 0 -0.040649930943304269 0.034225571057716037 0 -0.040286421115768786 0.033814095909676101 0 -0.040896188245700626 0.034256235964185797 0 -0.040713767249716343 0.0345796080708589 0 -0.040649930943304269 0.034225571057716037 0 -0.040896188245700626 0.034256235964185797 0 -0.040637582627493132 0.034056239646158254 0 -0.040767841288254905 0.033945456862962083 0 -0.040896188245700626 0.034256235964185797 0 -0.040649930943304269 0.034225571057716037 0 -0.040637582627493132 0.034056239646158254 0 -0.040649930943304269 0.034225571057716037 0 -0.040637582627493132 0.034056239646158254 0 -0.040286421115768786 0.033814095909676101 0 -0.050514948232220976 0.033953214129108178 0 -0.051060253526761773 0.034113620761517235 0 -0.051087899851564519 0.034781743344355041 0 -0.050514948232220976 0.033953214129108178 0 -0.050944612738985706 0.033776154693626187 0 -0.051060253526761773 0.034113620761517235 0 -0.050290402509144447 0.033714310199394526 0 -0.050514948232220976 0.033953214129108178 0 -0.050944612738985706 0.033776154693626187 0 -0.051060253526761773 0.034113620761517235 0 -0.05135663092445214 0.03432116682727844 0 -0.051087899851564519 0.034781743344355041 0 -0.051632317321444507 0.033861877303249133 0 -0.051060253526761773 0.034113620761517235 0 -0.05135663092445214 0.03432116682727844 0 -0.051632317321444507 0.033861877303249133 0 -0.050944612738985706 0.033776154693626187 0 -0.051060253526761773 0.034113620761517235 0 -0.051847746111613691 0.034403336423616322 0 -0.051947617029590686 0.03451087655159181 0 -0.051488792755569779 0.034397919885304655 0 -0.051847746111613691 0.034403336423616322 0 -0.05135663092445214 0.03432116682727844 0 -0.051488792755569779 0.034397919885304655 0 -0.050368859806637079 0.03381487568837941 0 -0.048684223829346229 0.033957899411633116 0 -0.048684223829346229 0.033957899411633116 0 -0.045366061723872808 0.03352605063189356 0 -0.040545194861948741 0.033820243995867132 0 -0.040707927108517901 0.033648274349727163 0 -0.04049296016153614 0.033287846256301427 0 -0.040286421115768786 0.033814095909676101 0 -0.040545194861948741 0.033820243995867132 0 -0.04049296016153614 0.033287846256301427 0 -0.040637582627493132 0.034056239646158254 0 -0.040286421115768786 0.033814095909676101 0 -0.040545194861948741 0.033820243995867132 0 -0.040545194861948741 0.033820243995867132 0 -0.040767841288254905 0.033945456862962083 0 -0.040707927108517901 0.033648274349727163 0 -0.040637582627493132 0.034056239646158254 0 -0.040545194861948741 0.033820243995867132 0 -0.040767841288254905 0.033945456862962083 0 -0.040672686896718303 0.033300538215098464 0 -0.04049296016153614 0.033287846256301427 0 -0.040635245673108264 0.032855667694179927 0 -0.040707927108517901 0.033648274349727163 0 -0.040672686896718303 0.033300538215098464 0 -0.04049296016153614 0.033287846256301427 0 -0.050941982139254854 0.033442595695120737 0 -0.051142739328533415 0.033546104968226069 0 -0.050949844379539491 0.033659797557659743 0 -0.051499910669210149 0.033572907182790622 0 -0.051158546472643035 0.033026001560786923 0 -0.051173199764891708 0.033363321431517205 0 -0.051158546472643035 0.033026001560786923 0 -0.050941982139254854 0.033442595695120737 0 -0.051173199764891708 0.033363321431517205 0 -0.052056279464317096 0.034111615023617932 0 -0.048684223829346229 0.033957899411633116 0 -0.051499910669210149 0.033572907182790622 0 -0.051173199764891708 0.033363321431517205 0 -0.051142739328533415 0.033546104968226069 0 -0.050941982139254854 0.033442595695120737 0 -0.051173199764891708 0.033363321431517205 0 -0.051142739328533415 0.033546104968226069 0 -0.041419987836917228 0.034384375826164 0 -0.041069422324373613 0.034013691449482492 0 -0.041455999439156101 0.03353578641856049 0 -0.041419987836917228 0.034384375826164 0 -0.041455999439156101 0.03353578641856049 0 -0.042104652569739359 0.034277074845623361 0 -0.040707927108517901 0.033648274349727163 0 -0.041069422324373613 0.034013691449482492 0 -0.041455999439156101 0.03353578641856049 0 -0.040767841288254905 0.033945456862962083 0 -0.040707927108517901 0.033648274349727163 0 -0.041069422324373613 0.034013691449482492 0 -0.04080941203080829 0.033211791651044958 0 -0.041073091157332438 0.033263417575373641 0 -0.040936688499842153 0.032926365707959836 0 -0.04071521723553357 0.033637157173116369 0 -0.041249701795363969 0.033412557198134914 0 -0.040672686896718303 0.033300538215098464 0 -0.04080941203080829 0.033211791651044958 0 -0.040635245673108264 0.032855667694179927 0 -0.040707927108517901 0.033648274349727163 0 -0.04080941203080829 0.033211791651044958 0 -0.041073091157332438 0.033263417575373641 0 -0.040707927108517901 0.033648274349727163 0 -0.040672686896718303 0.033300538215098464 0 -0.04080941203080829 0.033211791651044958 0 -0.041455999439156101 0.03353578641856049 0 -0.042104652569739359 0.034277074845623361 0 -0.042097870615092403 0.033317272519599705 0 -0.042104652569739359 0.034277074845623361 0 -0.042973824378176588 0.03418486208204085 0 -0.042097870615092403 0.033317272519599705 0 -0.041249701795363969 0.033412557198134914 0 -0.041873780616657703 0.033212859274282344 0 -0.041073091157332438 0.033263417575373641 0 -0.041606104117624963 0.033122940850474888 0 -0.041190683109393805 0.032901393561580221 0 -0.043496316395941162 0.034399542456087735 0 -0.043030058298166772 0.034240792983981555 0 -0.043817459245723049 0.034562336062390703 0 -0.043496316395941162 0.034399542456087735 0 -0.045828621015510863 0.032879227281771284 0 -0.044681530582937556 0.034644351542617281 0 -0.043674571791851614 0.03349044858604372 0 -0.045828621015510863 0.032879227281771284 0 -0.046741595215937841 0.034525170882362212 0 -0.044681530582937556 0.034644351542617281 0 -0.044681530582937556 0.034644351542617281 0 -0.043674571791851614 0.03349044858604372 0 -0.042973824378176588 0.03418486208204085 0 -0.04285428471418213 0.033761495716823978 0 -0.043674571791851614 0.03349044858604372 0 -0.042973824378176588 0.03418486208204085 0 -0.04285428471418213 0.033761495716823978 0 -0.042886973924108306 0.032754490067902847 0 -0.043674571791851614 0.03349044858604372 0 -0.04285428471418213 0.033761495716823978 0 -0.042929386945805732 0.033930299286771312 0 -0.042973824378176588 0.03418486208204085 0 -0.042973824378176588 0.03418486208204085 0 -0.042538742909257271 0.033013456626153737 0 -0.042097870615092403 0.033317272519599705 0 -0.042929386945805732 0.033930299286771312 0 -0.043024610921664527 0.033604341820990459 0 -0.042973824378176588 0.03418486208204085 0 -0.043024610921664527 0.033604341820990459 0 -0.042973824378176588 0.03418486208204085 0 -0.042538742909257271 0.033013456626153737 0 -0.043024610921664527 0.033604341820990459 0 -0.042538742909257271 0.033013456626153737 0 -0.043117598123306781 0.032580523536824432 0 -0.042517553287404128 0.033013158221938711 0 -0.041873780616657703 0.033212859274282344 0 -0.042428341916192977 0.032199653765994943 0 -0.041927323914921481 0.031848722800276896 0 -0.041883527671319802 0.032471029188738364 0 -0.042538742909257271 0.033013456626153737 0 -0.042428341916192977 0.032199653765994943 0 -0.041883527671319802 0.032471029188738364 0 -0.042538742909257271 0.033013456626153737 0 -0.042428341916192977 0.032199653765994943 0 -0.043117598123306781 0.032580523536824432 0 -0.042428341916192977 0.032199653765994943 0 -0.042818993135815248 0.031697991044238746 0 -0.043117598123306781 0.032580523536824432 0 -0.042428341916192977 0.032199653765994943 0 -0.042818993135815248 0.031697991044238746 0 -0.042227342857085889 0.031383006247301171 0 -0.042428341916192977 0.032199653765994943 0 -0.042227342857085889 0.031383006247301171 0 -0.041927323914921481 0.031848722800276896 0 -0.042227342857085889 0.031383006247301171 0 -0.042646259313245317 0.030870517208086385 0 -0.042180054322992641 0.030749317562234268 0 -0.042227342857085889 0.031383006247301171 0 -0.041834206864415788 0.031288719595716913 0 -0.041927323914921481 0.031848722800276896 0 -0.042227342857085889 0.031383006247301171 0 -0.041961467519393669 0.031015349870230084 0 -0.041834206864415788 0.031288719595716913 0 -0.041961467519393669 0.031015349870230084 0 -0.042180054322992641 0.030749317562234268 0 -0.041825786463055493 0.030772384713076591 0 -0.042227342857085889 0.031383006247301171 0 -0.041961467519393669 0.031015349870230084 0 -0.042180054322992641 0.030749317562234268 0 -0.042818993135815248 0.031697991044238746 0 -0.042646259313245317 0.030870517208086385 0 -0.043146965730064719 0.031104899315253232 0 -0.042818993135815248 0.031697991044238746 0 -0.042227342857085889 0.031383006247301171 0 -0.042646259313245317 0.030870517208086385 0 -0.046239883168177766 0.031325970047710851 0 -0.045300627147289489 0.03337972635713319 0 -0.049835117457479337 0.034738064341360057 0 -0.049367509126694305 0.034853886817705966 0 -0.04986965944093965 0.034457237477158356 0 -0.046345651038113098 0.025546740923936443 0 -0.050269188689386825 0.025767271920702901 0 -0.048572515627612001 0.026219676006654619 0 -0.041385054162888693 0.031291754693823955 0 -0.041376210215827151 0.031050205908486565 0 -0.041061685109039001 0.031808824962212906 0 -0.046239883168177766 0.031325970047710851 0 -0.050425145639807212 0.030812639238929952 0 -0.049835117457479337 0.034738064341360057 0 -0.049367509126694305 0.034853886817705966 0 -0.05010919017566396 0.03494176917688447 0 -0.041385054162888693 0.031291754693823955 0 -0.041404681320798831 0.031511390557607891 0 -0.041061685109039001 0.031808824962212906 0 -0.046345651038113098 0.025546740923936443 0 -0.046533434173644278 0.026070985741087505 0 -0.047092663514662375 0.026041963863026533 0 -0.041376210215827151 0.031050205908486565 0 -0.041525499229449071 0.03102454994146641 0 -0.041404416198259381 0.031121804549857822 0 -0.041376210215827151 0.031050205908486565 0 -0.041525499229449071 0.03102454994146641 0 -0.041572893050482319 0.030858463064514927 0 -0.041525499229449071 0.03102454994146641 0 -0.04170678765058955 0.031003518358707877 0 -0.041572893050482319 0.030858463064514927 0 -0.041525499229449071 0.03102454994146641 0 -0.041621575718522812 0.031199762958528669 0 -0.04170678765058955 0.031003518358707877 0 -0.041525499229449071 0.03102454994146641 0 -0.041621575718522812 0.031199762958528669 0 -0.041500840095283882 0.03117912868833829 0 -0.041621575718522812 0.031199762958528669 0 -0.041500840095283882 0.03117912868833829 0 -0.041511684648811227 0.031334437867033563 0 -0.041525499229449071 0.03102454994146641 0 -0.041500840095283882 0.03117912868833829 0 -0.041404416198259381 0.031121804549857822 0 -0.041385054162888693 0.031291754693823955 0 -0.041500840095283882 0.03117912868833829 0 -0.041404416198259381 0.031121804549857822 0 -0.041385054162888693 0.031291754693823955 0 -0.041376210215827151 0.031050205908486565 0 -0.041404416198259381 0.031121804549857822 0 -0.041961467519393669 0.031015349870230084 0 -0.04170678765058955 0.031003518358707877 0 -0.041825786463055493 0.030772384713076591 0 -0.04170678765058955 0.031003518358707877 0 -0.041825786463055493 0.030772384713076591 0 -0.041572893050482319 0.030858463064514927 0 -0.041621575718522812 0.031199762958528669 0 -0.04170678765058955 0.031003518358707877 0 -0.041834206864415788 0.031288719595716913 0 -0.041961467519393669 0.031015349870230084 0 -0.04170678765058955 0.031003518358707877 0 -0.041834206864415788 0.031288719595716913 0 -0.041621575718522812 0.031199762958528669 0 -0.041834206864415788 0.031288719595716913 0 -0.041654193404029559 0.031484484428607969 0 -0.041404681320798831 0.031511390557607891 0 -0.041511684648811227 0.031334437867033563 0 -0.041654193404029559 0.031484484428607969 0 -0.041385054162888693 0.031291754693823955 0 -0.041500840095283882 0.03117912868833829 0 -0.041511684648811227 0.031334437867033563 0 -0.041385054162888693 0.031291754693823955 0 -0.041404681320798831 0.031511390557607891 0 -0.041511684648811227 0.031334437867033563 0 -0.041621575718522812 0.031199762958528669 0 -0.041511684648811227 0.031334437867033563 0 -0.041654193404029559 0.031484484428607969 0 -0.041654193404029559 0.031484484428607969 0 -0.041601874103642932 0.032056893844091064 0 -0.041399040217996452 0.031756213464087003 0 -0.041927323914921481 0.031848722800276896 0 -0.041601874103642932 0.032056893844091064 0 -0.041883527671319802 0.032471029188738364 0 -0.041404681320798831 0.031511390557607891 0 -0.041654193404029559 0.031484484428607969 0 -0.041399040217996452 0.031756213464087003 0 -0.041834206864415788 0.031288719595716913 0 -0.041654193404029559 0.031484484428607969 0 -0.041927323914921481 0.031848722800276896 0 -0.041654193404029559 0.031484484428607969 0 -0.041927323914921481 0.031848722800276896 0 -0.041601874103642932 0.032056893844091064 0 -0.041601874103642932 0.032056893844091064 0 -0.041300774662259759 0.032089770701456598 0 -0.041399040217996452 0.031756213464087003 0 -0.041404681320798831 0.031511390557607891 0 -0.041399040217996452 0.031756213464087003 0 -0.041061685109039001 0.031808824962212906 0 -0.041300774662259759 0.032089770701456598 0 -0.041399040217996452 0.031756213464087003 0 -0.041061685109039001 0.031808824962212906 0 -0.041300774662259759 0.032089770701456598 0 -0.041108298668591836 0.032283170676451235 0 -0.041061685109039001 0.031808824962212906 0 -0.041365440825460759 0.032526042215372759 0 -0.041108298668591836 0.032283170676451235 0 -0.041038658004509294 0.032614977726265648 0 -0.041300774662259759 0.032089770701456598 0 -0.041365440825460759 0.032526042215372759 0 -0.041108298668591836 0.032283170676451235 0 -0.041601874103642932 0.032056893844091064 0 -0.041300774662259759 0.032089770701456598 0 -0.041365440825460759 0.032526042215372759 0 -0.041601874103642932 0.032056893844091064 0 -0.041365440825460759 0.032526042215372759 0 -0.041883527671319802 0.032471029188738364 0 -0.042538742909257271 0.033013456626153737 0 -0.041883527671319802 0.032471029188738364 0 -0.041606104117624963 0.033122940850474888 0 -0.041365440825460759 0.032526042215372759 0 -0.041883527671319802 0.032471029188738364 0 -0.041606104117624963 0.033122940850474888 0 -0.041365440825460759 0.032526042215372759 0 -0.041606104117624963 0.033122940850474888 0 -0.041190683109393805 0.032901393561580221 0 -0.041365440825460759 0.032526042215372759 0 -0.041190683109393805 0.032901393561580221 0 -0.041038658004509294 0.032614977726265648 0 -0.041073091157332438 0.033263417575373641 0 -0.041190683109393805 0.032901393561580221 0 -0.040936688499842153 0.032926365707959836 0 -0.041190683109393805 0.032901393561580221 0 -0.040936688499842153 0.032926365707959836 0 -0.041038658004509294 0.032614977726265648 0 -0.040936688499842153 0.032926365707959836 0 -0.040858347584996124 0.032701839105018088 0 -0.041038658004509294 0.032614977726265648 0 -0.040936688499842153 0.032926365707959836 0 -0.040858347584996124 0.032701839105018088 0 -0.040635245673108264 0.032855667694179927 0 -0.04080941203080829 0.033211791651044958 0 -0.040936688499842153 0.032926365707959836 0 -0.040635245673108264 0.032855667694179927 0 -0.040858347584996124 0.032701839105018088 0 -0.040833625448592745 0.032408771906405023 0 -0.040635245673108264 0.032855667694179927 0 -0.050602593888181599 0.034105107334308569 0 -0.048008114122475375 0.033853418375504256 0 -0.050560148086024374 0.034191977817307026 0 -0.050786704665215204 0.033862550943959839 0 -0.050880590167672782 0.034095451080106975 0 -0.050213053895525418 0.034229242339048546 0 -0.050154458986008343 0.03420280115797629 0 -0.050214420336912563 0.034110362384414256 0 -0.045192398612726586 0.033341717905664994 0 -0.048008114122475375 0.033853418375504256 0 -0.050560148086024374 0.034191977817307026 0 -0.050880590167672782 0.034095451080106975 0 -0.050788050371774272 0.034322311061480752 0 -0.040833625448592745 0.032408771906405023 0 -0.041108298668591836 0.032283170676451235 0 -0.041038658004509294 0.032614977726265648 0 -0.040858347584996124 0.032701839105018088 0 -0.040833625448592745 0.032408771906405023 0 -0.041038658004509294 0.032614977726265648 0 -0.051499910669210149 0.033572907182790622 0 -0.051168540152488867 0.033792564320218474 0 -0.051384843467485036 0.034072475071326547 0 -0.051142739328533415 0.033546104968226069 0 -0.051168540152488867 0.033792564320218474 0 -0.050949844379539491 0.033659797557659743 0 -0.051499910669210149 0.033572907182790622 0 -0.051142739328533415 0.033546104968226069 0 -0.051168540152488867 0.033792564320218474 0 -0.051168540152488867 0.033792564320218474 0 -0.051114810172583118 0.034039557768417626 0 -0.051384843467485036 0.034072475071326547 0 -0.045366061723872808 0.03352605063189356 0 -0.048008114122475375 0.033853418375504256 0 -0.050941982139254854 0.033442595695120737 0 -0.050949844379539491 0.033659797557659743 0 -0.050606845935330241 0.033948335387819446 0 -0.051168540152488867 0.033792564320218474 0 -0.050975850473343486 0.03389270269964572 0 -0.051114810172583118 0.034039557768417626 0 -0.051168540152488867 0.033792564320218474 0 -0.050975850473343486 0.03389270269964572 0 -0.050949844379539491 0.033659797557659743 0 -0.050975850473343486 0.03389270269964572 0 -0.050949844379539491 0.033659797557659743 0 -0.050786704665215204 0.033862550943959839 0 -0.051013845271132528 0.033139607098218886 0 -0.048008114122475375 0.033853418375504256 0 -0.050975850473343486 0.03389270269964572 0 -0.050786704665215204 0.033862550943959839 0 -0.050880590167672782 0.034095451080106975 0 -0.050880590167672782 0.034095451080106975 0 -0.051142103796280383 0.034250447151518731 0 -0.050788050371774272 0.034322311061480752 0 -0.050975850473343486 0.03389270269964572 0 -0.050880590167672782 0.034095451080106975 0 -0.051114810172583118 0.034039557768417626 0 -0.050880590167672782 0.034095451080106975 0 -0.051114810172583118 0.034039557768417626 0 -0.051142103796280383 0.034250447151518731 0 -0.051142103796280383 0.034250447151518731 0 -0.051384843467485036 0.034072475071326547 0 -0.051576683658038192 0.034401985108990361 0 -0.051114810172583118 0.034039557768417626 0 -0.051142103796280383 0.034250447151518731 0 -0.051384843467485036 0.034072475071326547 0 -0.051091782706092277 0.034538065076234449 0 -0.051423552999325911 0.034759334575718955 0 -0.051576683658038192 0.034401985108990361 0 -0.051142103796280383 0.034250447151518731 0 -0.051091782706092277 0.034538065076234449 0 -0.051576683658038192 0.034401985108990361 0 -0.051142103796280383 0.034250447151518731 0 -0.051091782706092277 0.034538065076234449 0 -0.050788050371774272 0.034322311061480752 0 -0.051091782706092277 0.034538065076234449 0 -0.050788050371774272 0.034322311061480752 0 -0.050736307898154934 0.034584780008872683 0 -0.052094267895671016 0.030796416553881167 0 -0.053148863291890433 0.025081131064340772 0 -0.051091782706092277 0.034538065076234449 0 -0.050736307898154934 0.034584780008872683 0 -0.050836367031774493 0.034964079933143238 0 -0.051091782706092277 0.034538065076234449 0 -0.051423552999325911 0.034759334575718955 0 -0.050836367031774493 0.034964079933143238 0 -0.053435393570606914 0.025489080760819946 0 -0.053413654241157384 0.025500849860904392 0 -0.053335957151251175 0.025482300786866516 0 -0.053435393570606914 0.025489080760819946 0 -0.053413654241157384 0.025500849860904392 0 -0.053492910894294692 0.025508686797117829 0 -0.045192398612726586 0.033341717905664994 0 -0.045300627147289489 0.03337972635713319 0 -0.050154458986008343 0.03420280115797629 0 -0.04986965944093965 0.034457237477158356 0 -0.050178344325126606 0.03456651152721843 0 -0.040833625448592745 0.032408771906405023 0 -0.041108298668591836 0.032283170676451235 0 -0.041061685109039001 0.031808824962212906 0 -0.050602593888181599 0.034105107334308569 0 -0.050134499760715233 0.03461899025051611 0 -0.050560148086024374 0.034191977817307026 0 -0.050559547356606421 0.034484122238176623 0 -0.050178344325126606 0.03456651152721843 0 -0.050213053895525418 0.034229242339048546 0 -0.050154458986008343 0.03420280115797629 0 -0.050178344325126606 0.03456651152721843 0 -0.050560148086024374 0.034191977817307026 0 -0.050788050371774272 0.034322311061480752 0 -0.050559547356606421 0.034484122238176623 0 -0.050788050371774272 0.034322311061480752 0 -0.050559547356606421 0.034484122238176623 0 -0.050736307898154934 0.034584780008872683 0 -0.050490650856381679 0.034708781467274304 0 -0.05010919017566396 0.03494176917688447 0 -0.050836367031774493 0.034964079933143238 0 -0.050490650856381679 0.034708781467274304 0 -0.050736307898154934 0.034584780008872683 0 -0.050836367031774493 0.034964079933143238 0 -0.050559547356606421 0.034484122238176623 0 -0.050490650856381679 0.034708781467274304 0 -0.050178344325126606 0.03456651152721843 0 -0.050559547356606421 0.034484122238176623 0 -0.050490650856381679 0.034708781467274304 0 -0.050736307898154934 0.034584780008872683 0 -0.05010919017566396 0.03494176917688447 0 -0.050178344325126606 0.03456651152721843 0 -0.049995020928494296 0.034670319821003173 0 -0.050490650856381679 0.034708781467274304 0 -0.05010919017566396 0.03494176917688447 0 -0.050178344325126606 0.03456651152721843 0 -0.049835117457479337 0.034738064341360057 0 -0.04986965944093965 0.034457237477158356 0 -0.049995020928494296 0.034670319821003173 0 -0.04986965944093965 0.034457237477158356 0 -0.050178344325126606 0.03456651152721843 0 -0.049995020928494296 0.034670319821003173 0 -0.049835117457479337 0.034738064341360057 0 -0.05010919017566396 0.03494176917688447 0 -0.049995020928494296 0.034670319821003173 0 -0.050269188689386825 0.025767271920702901 0 -0.049325927206482892 0.026729295914737338 0 -0.049874660569202631 0.027489376630951551 0 -0.056191931971728871 0.012712601841837708 0 -0.056199501292212961 0.012502793723918337 0 -0.055187526854900415 0.012450008879314715 0 -0.050269188689386825 0.025767271920702901 0 -0.049325927206482892 0.026729295914737338 0 -0.048572515627612001 0.026219676006654619 0 -0.049325927206482892 0.026729295914737338 0 -0.049874660569202631 0.027489376630951551 0 -0.048562721138672001 0.02729877889404957 0 -0.050425145639807212 0.030812639238929952 0 -0.053148863291890433 0.025081131064340772 0 -0.05346800293766453 0.019361335621772668 0 -0.053148863291890433 0.025081131064340772 0 -0.050269188689386825 0.025767271920702901 0 -0.049874660569202631 0.027489376630951551 0 -0.054164853548313095 0.026028267289847473 0 -0.056191931971728871 0.012712601841837708 0 -0.055187526854900415 0.012450008879314715 0 -0.054499567440710286 0.013361775729718448 0 -0.056199501292212961 0.012502793723918337 0 -0.055187526854900415 0.012450008879314715 0 -0.055268713952650525 0.011126132532309816 0 -0.055187526854900415 0.012450008879314715 0 -0.055268713952650525 0.011126132532309816 0 -0.053537128537686961 0.012346792983928854 0 -0.056191931971728871 0.012712601841837708 0 -0.056199501292212961 0.012502793723918337 0 -0.054471867107144155 0.01634647111281581 0 -0.055268713952650525 0.011126132532309816 0 -0.057131551283167437 0.010837923732452783 0 -0.057490767092522641 0.0095235121686323802 0 -0.056199501292212961 0.012502793723918337 0 -0.055268713952650525 0.011126132532309816 0 -0.057131551283167437 0.010837923732452783 0 -0.05315545306346172 0.013283355744698478 0 -0.053537128537686961 0.012346792983928854 0 -0.051961711718855295 0.013255903386883882 0 -0.058383124320731242 0.010675959573698565 0 -0.057807574114883388 0.011161295564229257 0 -0.058022047118603905 0.010648968426738507 0 -0.052983250999511067 0.019278552070605047 0 -0.054984940041584877 0.016976634003964479 0 -0.056109837410617945 0.010811026867950728 0 -0.054984940041584877 0.016976634003964479 0 -0.052983250999511067 0.019278552070605047 0 -0.053148863291890433 0.025081131064340772 0 -0.055187526854900415 0.012450008879314715 0 -0.054499567440710286 0.013361775729718448 0 -0.053537128537686961 0.012346792983928854 0 -0.05315545306346172 0.013283355744698478 0 -0.054499567440710286 0.013361775729718448 0 -0.053537128537686961 0.012346792983928854 0 -0.05690593788745555 0.01081341225705359 0 -0.056109837410617945 0.010811026867950728 0 -0.058612292774216361 0.010329464890068521 0 -0.058400479789516936 0.010381180801436102 0 -0.058383124320731242 0.010675959573698565 0 -0.058264611501244692 0.010490804300348648 0 -0.058227219625784962 0.010289509355145087 0 -0.058022047118603905 0.010648968426738507 0 -0.058383124320731242 0.010675959573698565 0 -0.058264611501244692 0.010490804300348648 0 -0.058022047118603905 0.010648968426738507 0 -0.058400479789516936 0.010381180801436102 0 -0.058383124320731242 0.010675959573698565 0 -0.058264611501244692 0.010490804300348648 0 -0.058400479789516936 0.010381180801436102 0 -0.058264611501244692 0.010490804300348648 0 -0.058227219625784962 0.010289509355145087 0 -0.058227219625784962 0.010289509355145087 0 -0.058360779495392527 0.010179966861007956 0 -0.058192457190584808 0.010162320838000997 0 -0.058227219625784962 0.010289509355145087 0 -0.058466185547848756 0.010145438102887925 0 -0.058360779495392527 0.010179966861007956 0 -0.058400479789516936 0.010381180801436102 0 -0.058227219625784962 0.010289509355145087 0 -0.058466185547848756 0.010145438102887925 0 -0.058612292774216361 0.010329464890068521 0 -0.058400479789516936 0.010381180801436102 0 -0.058466185547848756 0.010145438102887925 0 -0.058466185547848756 0.010145438102887925 0 -0.058360779495392527 0.010179966861007956 0 -0.058514288914931704 0.010146688588138756 0 -0.058466185547848756 0.010145438102887925 0 -0.058455520539975783 0.009922459115672768 0 -0.058514288914931704 0.010146688588138756 0 -0.058264965740240114 0.010500001382970397 0 -0.058487660216012448 0.010234777387749317 0 -0.058360779495392527 0.010179966861007956 0 -0.058192457190584808 0.010162320838000997 0 -0.058514288914931704 0.010146688588138756 0 -0.05690593788745555 0.01081341225705359 0 -0.058161821561853178 0.0097637678514109691 0 -0.058612292774216361 0.010329464890068521 0 -0.058646753414210821 0.010068157015561935 0 -0.058854384217316792 0.0099461854349796423 0 -0.058612292774216361 0.010329464890068521 0 -0.058466185547848756 0.010145438102887925 0 -0.058646753414210821 0.010068157015561935 0 -0.058466185547848756 0.010145438102887925 0 -0.058646753414210821 0.010068157015561935 0 -0.058455520539975783 0.009922459115672768 0 -0.058646753414210821 0.010068157015561935 0 -0.058854384217316792 0.0099461854349796423 0 -0.059051239353164267 0.0098721760962307056 0 -0.058646753414210821 0.010068157015561935 0 -0.059051239353164267 0.0098721760962307056 0 -0.058455520539975783 0.009922459115672768 0 -0.058854384217316792 0.0099461854349796423 0 -0.058457329153309638 0.0095808757929157096 0 -0.059051239353164267 0.0098721760962307056 0 -0.058161821561853178 0.0097637678514109691 0 -0.058394734726748602 0.0096075697307726766 0 -0.057490767092522641 0.0095235121686323802 0 -0.058073047135934933 0.0096314254030743889 0 -0.057953980908863029 0.0099747620284107892 0 -0.057131551283167437 0.010837923732452783 0 -0.057490767092522641 0.0095235121686323802 0 -0.057953980908863029 0.0099747620284107892 0 -0.057490767092522641 0.0095235121686323802 0 -0.058073047135934933 0.0096314254030743889 0 -0.058457329153309638 0.0095808757929157096 0 -0.05807903381890149 0.0094014332390159761 0 -0.058133893104893648 0.0096740538211533209 0 -0.057771162659009376 0.0090550565386363566 0 -0.05807903381890149 0.0094014332390159761 0 -0.058073047135934933 0.0096314254030743889 0 -0.058133893104893648 0.0096740538211533209 0 -0.058073047135934933 0.0096314254030743889 0 -0.058133893104893648 0.0096740538211533209 0 -0.057953980908863029 0.0099747620284107892 0 -0.05807903381890149 0.0094014332390159761 0 -0.058457329153309638 0.0095808757929157096 0 -0.057732366493692192 0.0092683651742355606 0 -0.05807903381890149 0.0094014332390159761 0 -0.058073047135934933 0.0096314254030743889 0 -0.058457329153309638 0.0095808757929157096 0 -0.058457329153309638 0.0095808757929157096 0 -0.05725840466510821 0.0095439103183462114 0 -0.057244880889429216 0.010590102993153933 0 -0.05725840466510821 0.0095439103183462114 0 -0.056299267422527374 0.0095196600589555584 0 -0.057244880889429216 0.010590102993153933 0 -0.05725840466510821 0.0095439103183462114 0 -0.056299267422527374 0.0095196600589555584 0 -0.057046298205060894 0.009027801316979776 0 -0.058457329153309638 0.0095808757929157096 0 -0.05725840466510821 0.0095439103183462114 0 -0.057732366493692192 0.0092683651742355606 0 -0.054283674403520436 0.0092578841853059781 0 -0.054692661846011091 0.010109461299245436 0 -0.056299267422527374 0.0095196600589555584 0 -0.054299694137192975 0.0094147045153555493 0 -0.057244880889429216 0.010590102993153933 0 -0.054299694137192975 0.0094147045153555493 0 -0.052595662656904948 0.0094168219354174472 0 -0.053352741283573889 0.0094440915919327337 0 -0.056299267422527374 0.0095196600589555584 0 -0.054299694137192975 0.0094147045153555493 0 -0.05556529730957066 0.0089403761596905558 0 -0.050809254000781408 0.020304596671053474 0 -0.049999789693315817 0.019975313032755768 0 -0.047088066066820131 0.024009004010176516 0 -0.05556529730957066 0.0089403761596905558 0 -0.057262654035417117 0.0084013902215103482 0 -0.053481792988297257 0.0087111444460047042 0 -0.046261388704614936 0.02477037957756071 0 -0.044916812519864742 0.02619616585653009 0 -0.053998268411153259 0.014407904588448921 0 -0.049579833157958539 0.016640425951422257 0 -0.054299694137192975 0.0094147045153555493 0 -0.05556529730957066 0.0089403761596905558 0 -0.053481792988297257 0.0087111444460047042 0 -0.056299267422527374 0.0095196600589555584 0 -0.05556529730957066 0.0089403761596905558 0 -0.057046298205060894 0.009027801316979776 0 -0.05556529730957066 0.0089403761596905558 0 -0.057046298205060894 0.009027801316979776 0 -0.057262654035417117 0.0084013902215103482 0 -0.057732366493692192 0.0092683651742355606 0 -0.057046298205060894 0.009027801316979776 0 -0.057771162659009376 0.0090550565386363566 0 -0.05725840466510821 0.0095439103183462114 0 -0.057732366493692192 0.0092683651742355606 0 -0.057046298205060894 0.009027801316979776 0 -0.057046298205060894 0.009027801316979776 0 -0.057262654035417117 0.0084013902215103482 0 -0.057771162659009376 0.0090550565386363566 0 -0.05807903381890149 0.0094014332390159761 0 -0.057732366493692192 0.0092683651742355606 0 -0.057771162659009376 0.0090550565386363566 0 -0.050809254000781408 0.020304596671053474 0 -0.049999789693315817 0.019975313032755768 0 -0.053870869579921522 0.016127676422648896 0 -0.042721295151305322 0.029472822915288435 0 -0.04215008315985639 0.02976171449221536 0 -0.045510603380755729 0.028832301505984221 0 -0.046261388704614936 0.02477037957756071 0 -0.049685882147095323 0.022561315307859202 0 -0.042721295151305322 0.029472822915288435 0 -0.04215008315985639 0.02976171449221536 0 -0.042446255867109921 0.029653500692959849 0 -0.042721295151305322 0.029472822915288435 0 -0.042442867933723948 0.029877414152642424 0 -0.042446255867109921 0.029653500692959849 0 -0.042721295151305322 0.029472822915288435 0 -0.042442867933723948 0.029877414152642424 0 -0.041749647656802384 0.030262689095459601 0 -0.042721295151305322 0.029472822915288435 0 -0.044380327301799895 0.027745076674140133 0 -0.044473041028839783 0.028540029276979482 0 -0.042707933454764237 0.029470866032725057 0 -0.043055937161266315 0.028815647138169111 0 -0.042668177882821803 0.029536343902476257 0 -0.04215008315985639 0.02976171449221536 0 -0.043141385950346819 0.028626484594576455 0 -0.042668177882821803 0.029536343902476257 0 -0.04215008315985639 0.02976171449221536 0 -0.042446674272422907 0.029729326842123364 0 -0.04215008315985639 0.02976171449221536 0 -0.042446255867109921 0.029653500692959849 0 -0.042446674272422907 0.029729326842123364 0 -0.042488435571224357 0.02991411153661324 0 -0.042446674272422907 0.029729326842123364 0 -0.042645257010467674 0.02985206411670218 0 -0.042442867933723948 0.029877414152642424 0 -0.042446255867109921 0.029653500692959849 0 -0.042488435571224357 0.02991411153661324 0 -0.042446255867109921 0.029653500692959849 0 -0.042488435571224357 0.02991411153661324 0 -0.042446674272422907 0.029729326842123364 0 -0.042668177882821803 0.029536343902476257 0 -0.042446674272422907 0.029729326842123364 0 -0.042645257010467674 0.02985206411670218 0 -0.042646259313245317 0.030870517208086385 0 -0.042454753877668394 0.030384542617827543 0 -0.042180054322992641 0.030749317562234268 0 -0.042645257010467674 0.02985206411670218 0 -0.042710420577967798 0.030225705351794349 0 -0.042915283820756447 0.029878072584943387 0 -0.042488435571224357 0.02991411153661324 0 -0.042645257010467674 0.02985206411670218 0 -0.042710420577967798 0.030225705351794349 0 -0.042488435571224357 0.02991411153661324 0 -0.042454753877668394 0.030384542617827543 0 -0.042324596059548629 0.030205473511645514 0 -0.042488435571224357 0.02991411153661324 0 -0.042710420577967798 0.030225705351794349 0 -0.042454753877668394 0.030384542617827543 0 -0.042646259313245317 0.030870517208086385 0 -0.042710420577967798 0.030225705351794349 0 -0.042454753877668394 0.030384542617827543 0 -0.042646259313245317 0.030870517208086385 0 -0.042710420577967798 0.030225705351794349 0 -0.043075509882574699 0.030413016925782875 0 -0.042442867933723948 0.029877414152642424 0 -0.042324596059548629 0.030205473511645514 0 -0.041749647656802384 0.030262689095459601 0 -0.042324596059548629 0.030205473511645514 0 -0.042180054322992641 0.030749317562234268 0 -0.041749647656802384 0.030262689095459601 0 -0.042442867933723948 0.029877414152642424 0 -0.042488435571224357 0.02991411153661324 0 -0.042324596059548629 0.030205473511645514 0 -0.042454753877668394 0.030384542617827543 0 -0.042324596059548629 0.030205473511645514 0 -0.042180054322992641 0.030749317562234268 0 -0.042180054322992641 0.030749317562234268 0 -0.041825786463055493 0.030772384713076591 0 -0.041749647656802384 0.030262689095459601 0 -0.041825786463055493 0.030772384713076591 0 -0.041749647656802384 0.030262689095459601 0 -0.041572893050482319 0.030858463064514927 0 -0.044380327301799895 0.027745076674140133 0 -0.045340290064011315 0.028055339840573203 0 -0.045928443436897795 0.027371116041410695 0 -0.044380327301799895 0.027745076674140133 0 -0.045340290064011315 0.028055339840573203 0 -0.044473041028839783 0.028540029276979482 0 -0.044380327301799895 0.027745076674140133 0 -0.045928443436897795 0.027371116041410695 0 -0.046045823287933677 0.026599182653009666 0 -0.046119786017463991 0.027871042763138863 0 -0.04737349270614425 0.027697163753423789 0 -0.045510603380755729 0.028832301505984221 0 -0.046119786017463991 0.027871042763138863 0 -0.045340290064011315 0.028055339840573203 0 -0.045928443436897795 0.027371116041410695 0 -0.046119786017463991 0.027871042763138863 0 -0.045340290064011315 0.028055339840573203 0 -0.045510603380755729 0.028832301505984221 0 -0.045928443436897795 0.027371116041410695 0 -0.046497619691763047 0.026755532840659759 0 -0.04670402900714446 0.027293099189327961 0 -0.046119786017463991 0.027871042763138863 0 -0.045928443436897795 0.027371116041410695 0 -0.04670402900714446 0.027293099189327961 0 -0.041376210215827151 0.031050205908486565 0 -0.041749647656802384 0.030262689095459601 0 -0.041572893050482319 0.030858463064514927 0 -0.046345651038113098 0.025546740923936443 0 -0.044380327301799895 0.027745076674140133 0 -0.046045823287933677 0.026599182653009666 0 -0.046239883168177766 0.031325970047710851 0 -0.043055937161266315 0.028815647138169111 0 -0.045928443436897795 0.027371116041410695 0 -0.046045823287933677 0.026599182653009666 0 -0.046497619691763047 0.026755532840659759 0 -0.046345651038113098 0.025546740923936443 0 -0.046045823287933677 0.026599182653009666 0 -0.046533434173644278 0.026070985741087505 0 -0.046345651038113098 0.025546740923936443 0 -0.047092663514662375 0.026041963863026533 0 -0.048572515627612001 0.026219676006654619 0 -0.049874660569202631 0.027489376630951551 0 -0.04737349270614425 0.027697163753423789 0 -0.045510603380755729 0.028832301505984221 0 -0.049874660569202631 0.027489376630951551 0 -0.048562721138672001 0.02729877889404957 0 -0.04737349270614425 0.027697163753423789 0 -0.046045823287933677 0.026599182653009666 0 -0.046533434173644278 0.026070985741087505 0 -0.04670062601182505 0.026325694896588141 0 -0.04670062601182505 0.026325694896588141 0 -0.047375204673238698 0.026416486226669377 0 -0.046884628408001859 0.02663628285926015 0 -0.05346800293766453 0.019361335621772668 0 -0.049685882147095323 0.022561315307859202 0 -0.046533434173644278 0.026070985741087505 0 -0.04670062601182505 0.026325694896588141 0 -0.047092663514662375 0.026041963863026533 0 -0.04670062601182505 0.026325694896588141 0 -0.047092663514662375 0.026041963863026533 0 -0.047375204673238698 0.026416486226669377 0 -0.047375204673238698 0.026416486226669377 0 -0.047327339031141794 0.026691241677010619 0 -0.046884628408001859 0.02663628285926015 0 -0.047327339031141794 0.026691241677010619 0 -0.047275785674926386 0.02701668777179992 0 -0.046884628408001859 0.02663628285926015 0 -0.047375204673238698 0.026416486226669377 0 -0.047327339031141794 0.026691241677010619 0 -0.04777643808199443 0.02669588257893608 0 -0.047327339031141794 0.026691241677010619 0 -0.047275785674926386 0.02701668777179992 0 -0.04777643808199443 0.02669588257893608 0 -0.047275785674926386 0.02701668777179992 0 -0.046884628408001859 0.02663628285926015 0 -0.04670402900714446 0.027293099189327961 0 -0.046497619691763047 0.026755532840659759 0 -0.046884628408001859 0.02663628285926015 0 -0.04670402900714446 0.027293099189327961 0 -0.046045823287933677 0.026599182653009666 0 -0.04670062601182505 0.026325694896588141 0 -0.046497619691763047 0.026755532840659759 0 -0.04670062601182505 0.026325694896588141 0 -0.046497619691763047 0.026755532840659759 0 -0.046884628408001859 0.02663628285926015 0 -0.047092663514662375 0.026041963863026533 0 -0.047375204673238698 0.026416486226669377 0 -0.048572515627612001 0.026219676006654619 0 -0.047375204673238698 0.026416486226669377 0 -0.048572515627612001 0.026219676006654619 0 -0.04777643808199443 0.02669588257893608 0 -0.048572515627612001 0.026219676006654619 0 -0.04777643808199443 0.02669588257893608 0 -0.047986454011869448 0.027087946939499181 0 -0.047275785674926386 0.02701668777179992 0 -0.04777643808199443 0.02669588257893608 0 -0.047986454011869448 0.027087946939499181 0 -0.048572515627612001 0.026219676006654619 0 -0.048562721138672001 0.02729877889404957 0 -0.047986454011869448 0.027087946939499181 0 -0.049325927206482892 0.026729295914737338 0 -0.048572515627612001 0.026219676006654619 0 -0.048562721138672001 0.02729877889404957 0 -0.048562721138672001 0.02729877889404957 0 -0.047986454011869448 0.027087946939499181 0 -0.047496093458386172 0.027416392868018512 0 -0.048562721138672001 0.02729877889404957 0 -0.047496093458386172 0.027416392868018512 0 -0.04737349270614425 0.027697163753423789 0 -0.046119786017463991 0.027871042763138863 0 -0.04670402900714446 0.027293099189327961 0 -0.04737349270614425 0.027697163753423789 0 -0.04670402900714446 0.027293099189327961 0 -0.047496093458386172 0.027416392868018512 0 -0.04737349270614425 0.027697163753423789 0 -0.047275785674926386 0.02701668777179992 0 -0.04670402900714446 0.027293099189327961 0 -0.047496093458386172 0.027416392868018512 0 -0.047275785674926386 0.02701668777179992 0 -0.047986454011869448 0.027087946939499181 0 -0.047496093458386172 0.027416392868018512 0 -0.056098950673751327 0.012691949259463957 0 -0.056095634903681059 0.013329156467139208 0 -0.056191931971728871 0.012712601841837708 0 -0.054471867107144155 0.01634647111281581 0 -0.053870869579921522 0.016127676422648896 0 -0.057131551283167437 0.010837923732452783 0 -0.057953980908863029 0.0099747620284107892 0 -0.058324925885855028 0.010252356668536546 0 -0.056199501292212961 0.012502793723918337 0 -0.057131551283167437 0.010837923732452783 0 -0.058324925885855028 0.010252356668536546 0 -0.058133893104893648 0.0096740538211533209 0 -0.057953980908863029 0.0099747620284107892 0 -0.058324925885855028 0.010252356668536546 0 -0.058133893104893648 0.0096740538211533209 0 -0.057771162659009376 0.0090550565386363566 0 -0.058324925885855028 0.010252356668536546 0 -0.053998268411153259 0.014407904588448921 0 -0.056095634903681059 0.013329156467139208 0 -0.057262654035417117 0.0084013902215103482 0 -0.057771162659009376 0.0090550565386363566 0 -0.058324925885855028 0.010252356668536546 0 -0.042721295151305322 0.029472822915288435 0 -0.044473041028839783 0.028540029276979482 0 -0.045510603380755729 0.028832301505984221 0 -0.050809254000781408 0.020304596671053474 0 -0.054471867107144155 0.01634647111281581 0 -0.053870869579921522 0.016127676422648896 0 -0.045340290064011315 0.028055339840573203 0 -0.044473041028839783 0.028540029276979482 0 -0.045510603380755729 0.028832301505984221 0 -0.054999995592356417 0.021730952582324058 0 -0.056470011540671113 0.021192099990171374 0 -0.054999994183726739 0.019924399180207112 0 -0.056068446149941456 0.021660074393646599 0 -0.056814274443323619 0.024692874613397746 0 -0.054999990998297353 0.021730979458436363 0 -0.056468566613933624 0.021202892372667592 0 -0.056079413490107796 0.02247078464555714 0 -0.055000835677294829 0.021730728299194764 0 -0.056068446149941456 0.021660074393646599 0 -0.056114570300437622 0.023318147084376496 0 -0.057287509459761854 0.022891981738492797 0 -0.057467067765105816 0.02422960673864406 0 -0.057287509459761854 0.022891981738492797 0 -0.057467067765105816 0.02422960673864406 0 -0.059091750698978519 0.024740835183868846 0 -0.056068446149941456 0.021660074393646599 0 -0.056522622827240326 0.020104592867957908 0 -0.056114570300437622 0.023318147084376496 0 -0.057467067765105816 0.02422960673864406 0 -0.057255643045203163 0.025041634416069252 0 -0.057255643045203163 0.025041634416069252 0 -0.057317796543379894 0.025952909191386191 0 -0.059091750698978519 0.024740835183868846 0 -0.057467067765105816 0.02422960673864406 0 -0.057255643045203163 0.025041634416069252 0 -0.059091750698978519 0.024740835183868846 0 -0.056114570300437622 0.023318147084376496 0 -0.057255643045203163 0.025041634416069252 0 -0.056621295100020563 0.025683245868234814 0 -0.057317796543379894 0.025952909191386191 0 -0.056621295100020563 0.025683245868234814 0 -0.057509882807027304 0.026582583369947753 0 -0.057255643045203163 0.025041634416069252 0 -0.057317796543379894 0.025952909191386191 0 -0.056621295100020563 0.025683245868234814 0 -0.056929730068985475 0.02349265878342641 0 -0.055849374650910999 0.023349252133325758 0 -0.05615799818889116 0.024853586006868652 0 -0.054999990998297353 0.021730979458436363 0 -0.055849374650910999 0.023349252133325758 0 -0.055000005321717539 0.023976005280661371 0 -0.056468566613933624 0.021202892372667592 0 -0.056929730068985475 0.02349265878342641 0 -0.056079413490107796 0.02247078464555714 0 -0.056929730068985475 0.02349265878342641 0 -0.056079413490107796 0.02247078464555714 0 -0.055849374650910999 0.023349252133325758 0 -0.054999990998297353 0.021730979458436363 0 -0.056079413490107796 0.02247078464555714 0 -0.055849374650910999 0.023349252133325758 0 -0.055849374650910999 0.023349252133325758 0 -0.055000005321717539 0.023976005280661371 0 -0.05615799818889116 0.024853586006868652 0 -0.055000005321717539 0.023976005280661371 0 -0.05615799818889116 0.024853586006868652 0 -0.05499988441597492 0.026221186482332709 0 -0.05615799818889116 0.024853586006868652 0 -0.056172323986193165 0.026091488311655465 0 -0.057427224921711158 0.025869273366191131 0 -0.05615799818889116 0.024853586006868652 0 -0.05499988441597492 0.026221186482332709 0 -0.056172323986193165 0.026091488311655465 0 -0.054999837323882236 0.028467062308642148 0 -0.05499988441597492 0.026221186482332709 0 -0.056242371888966247 0.027309983427363026 0 -0.05499988441597492 0.026221186482332709 0 -0.056172323986193165 0.026091488311655465 0 -0.056242371888966247 0.027309983427363026 0 -0.056172323986193165 0.026091488311655465 0 -0.056242371888966247 0.027309983427363026 0 -0.057427224921711158 0.025869273366191131 0 -0.057637247229406309 0.028700746029081615 0 -0.057279159030839299 0.026735757877680098 0 -0.057657163610421065 0.028911290289982693 0 -0.05718348710063826 0.02761413260941991 0 -0.05817134266439037 0.028213287114414624 0 -0.057657163610421065 0.028911290289982693 0 -0.056242371888966247 0.027309983427363026 0 -0.057427224921711158 0.025869273366191131 0 -0.05718348710063826 0.02761413260941991 0 -0.057990234056906946 0.02696083366437424 0 -0.05817134266439037 0.028213287114414624 0 -0.056929730068985475 0.02349265878342641 0 -0.05615799818889116 0.024853586006868652 0 -0.057427224921711158 0.025869273366191131 0 -0.056621295100020563 0.025683245868234814 0 -0.05718348710063826 0.02761413260941991 0 -0.057509882807027304 0.026582583369947753 0 -0.05718348710063826 0.02761413260941991 0 -0.057509882807027304 0.026582583369947753 0 -0.057990234056906946 0.02696083366437424 0 -0.056814274443323619 0.024692874613397746 0 -0.057279159030839299 0.026735757877680098 0 -0.057509882807027304 0.026582583369947753 0 -0.057990234056906946 0.02696083366437424 0 -0.058047013182616916 0.026144521089837631 0 -0.057317796543379894 0.025952909191386191 0 -0.057509882807027304 0.026582583369947753 0 -0.058047013182616916 0.026144521089837631 0 -0.058700789978572275 0.026233325994131831 0 -0.057990234056906946 0.02696083366437424 0 -0.05994176920201013 0.026266234029839096 0 -0.058700789978572275 0.026233325994131831 0 -0.057990234056906946 0.02696083366437424 0 -0.058047013182616916 0.026144521089837631 0 -0.057990234056906946 0.02696083366437424 0 -0.059179040654631358 0.027616966895428335 0 -0.059764932362985357 0.026395880906278008 0 -0.058608256778990883 0.026681113405097993 0 -0.058672456618947051 0.027122373329585645 0 -0.057990234056906946 0.02696083366437424 0 -0.05817134266439037 0.028213287114414624 0 -0.059179040654631358 0.027616966895428335 0 -0.058978575393491911 0.028506591340804657 0 -0.05817134266439037 0.028213287114414624 0 -0.059179040654631358 0.027616966895428335 0 -0.058564345161322112 0.029440615726907728 0 -0.058978575393491911 0.028506591340804657 0 -0.05817134266439037 0.028213287114414624 0 -0.059641167638289527 0.030608019298448842 0 -0.058555373270790953 0.031347999471683485 0 -0.060011192120426958 0.028796016632029905 0 -0.059179040654631358 0.027616966895428335 0 -0.059810399147156267 0.027167704212508689 0 -0.060011192120426958 0.028796016632029905 0 -0.059810399147156267 0.027167704212508689 0 -0.060591450271025631 0.027229501243925418 0 -0.058978575393491911 0.028506591340804657 0 -0.060011192120426958 0.028796016632029905 0 -0.059179040654631358 0.027616966895428335 0 -0.059179040654631358 0.027616966895428335 0 -0.059810399147156267 0.027167704212508689 0 -0.059764932362985357 0.026395880906278008 0 -0.058672456618947051 0.027122373329585645 0 -0.058555373270790953 0.031347999471683485 0 -0.059810399147156267 0.027167704212508689 0 -0.059764932362985357 0.026395880906278008 0 -0.060591450271025631 0.027229501243925418 0 -0.058672456618947051 0.027122373329585645 0 -0.056467232348103392 0.029991489072553081 0 -0.058220107260744752 0.025517684183502292 0 -0.055340769483658452 0.024680359860897266 0 -0.056910276312694637 0.02330897135777666 0 -0.056765747298021016 0.023155779987717891 0 -0.056988195468535348 0.022981072553802651 0 -0.057496947649365998 0.02602056674536039 0 -0.057804929528252662 0.026328902801767765 0 -0.05644289662740138 0.026368232521761164 0 -0.058700789978572275 0.026233325994131831 0 -0.05994176920201013 0.026266234029839096 0 -0.059516883337096586 0.025842134093116927 0 -0.058672456618947051 0.027122373329585645 0 -0.058220107260744752 0.025517684183502292 0 -0.058879500486758204 0.025794596327575664 0 -0.058220107260744752 0.025517684183502292 0 -0.058700789978572275 0.026233325994131831 0 -0.059511505013561831 0.025843680501489035 0 -0.058710756195097941 0.025025138315164532 0 -0.057317796543379894 0.025952909191386191 0 -0.058047013182616916 0.026144521089837631 0 -0.058710756195097941 0.025025138315164532 0 -0.057580716647326453 0.025908708219546446 0 -0.057860445503610934 0.023701874965822323 0 -0.058700789978572275 0.026233325994131831 0 -0.058047013182616916 0.026144521089837631 0 -0.058710756195097941 0.025025138315164532 0 -0.058220107260744752 0.025517684183502292 0 -0.057860445503610934 0.023701874965822323 0 -0.05636811213307006 0.020271760004597524 0 -0.057001681192800691 0.020922327287533803 0 -0.057445754485002144 0.019864403810637109 0 -0.056522622827240326 0.020104592867957908 0 -0.057860445503610934 0.023701874965822323 0 -0.056910276312694637 0.02330897135777666 0 -0.056988195468535348 0.022981072553802651 0 -0.057154200616832185 0.023026847344664335 0 -0.057001681192800691 0.020922327287533803 0 -0.057564333764856375 0.020517188026329704 0 -0.057445754485002144 0.019864403810637109 0 -0.057222945570706493 0.021783926713657906 0 -0.057066859651786761 0.019668802965666699 0 -0.057860445503610934 0.023701874965822323 0 -0.057222945570706493 0.021783926713657906 0 -0.056151122353861667 0.021458043669052882 0 -0.05616176533693349 0.018043419946583702 0 -0.055014261574552067 0.018840365575679894 0 -0.057322349908250067 0.023063699083436733 0 -0.057308736536544475 0.023097203605481075 0 -0.057154200616832185 0.023026847344664335 0 -0.05574898354849428 0.02289648452675876 0 -0.055340769483658452 0.024680359860897266 0 -0.056988195468535348 0.022981072553802651 0 -0.057154200616832185 0.023026847344664335 0 -0.057219342800732043 0.02279536664589837 0 -0.057322349908250067 0.023063699083436733 0 -0.057154200616832185 0.023026847344664335 0 -0.057219342800732043 0.02279536664589837 0 -0.05574898354849428 0.02289648452675876 0 -0.057066859651786761 0.019668802965666699 0 -0.054023878671728601 0.020555132844216759 0 -0.055376614569735409 0.019981931964646125 0 -0.054553813388830252 0.019192320606821862 0 -0.054023878671728601 0.020555132844216759 0 -0.053971522751160829 0.020694512265446399 0 -0.055376614569735409 0.019981931964646125 0 -0.055340769483658452 0.024680359860897266 0 -0.054011090940765727 0.023127870558853889 0 -0.05574898354849428 0.02289648452675876 0 -0.055850784910277756 0.016183007522790727 0 -0.053641589816525337 0.025535776358904725 0 -0.053590058649596588 0.02552527386010733 0 -0.053559275158376392 0.025528498030472153 0 -0.053590058649596588 0.02552527386010733 0 -0.053623079639327408 0.02552278521728045 0 -0.053526137584882977 0.025510785859205257 0 -0.054608919260095659 0.031555661697108897 0 -0.052468003098566425 0.029801155197415545 0 -0.053641589816525337 0.025535776358904725 0 -0.053590058649596588 0.02552527386010733 0 -0.053623079639327408 0.02552278521728045 0 -0.056910276312694637 0.02330897135777666 0 -0.057308736536544475 0.023097203605481075 0 -0.057154200616832185 0.023026847344664335 0 -0.057804929528252662 0.026328902801767765 0 -0.056140299872458256 0.027092435428432038 0 -0.05644289662740138 0.026368232521761164 0 -0.054608919260095659 0.031555661697108897 0 -0.056467232348103392 0.029991489072553081 0 -0.057075632252031466 0.034500660946526034 0 -0.057430135460936178 0.034368248514572035 0 -0.057143897779791036 0.033914213305358105 0 -0.055511130135746364 0.028068559423355104 0 -0.056194584145074257 0.029154836176894544 0 -0.054912163046423032 0.02958646996272097 0 -0.055340769483658452 0.024680359860897266 0 -0.054608919260095659 0.031555661697108897 0 -0.055340769483658452 0.024680359860897266 0 -0.056467232348103392 0.029991489072553081 0 -0.057430135460936178 0.034368248514572035 0 -0.057661204086337257 0.03381098709136407 0 -0.057143897779791036 0.033914213305358105 0 -0.056467232348103392 0.029991489072553081 0 -0.058555373270790953 0.031347999471683485 0 -0.058024293899369202 0.029468127011544002 0 -0.057709922568022008 0.02957890420543682 0 -0.057836212206681191 0.029289616217984597 0 -0.058747593322910352 0.034180727389439315 0 -0.058372379289245893 0.033034778378094445 0 -0.057118437186805787 0.033055958774622994 0 -0.059189234068500289 0.032737912827733924 0 -0.058747593322910352 0.034180727389439315 0 -0.058372379289245893 0.033034778378094445 0 -0.057661204086337257 0.03381098709136407 0 -0.057118437186805787 0.033055958774622994 0 -0.057143897779791036 0.033914213305358105 0 -0.058555373270790953 0.031347999471683485 0 -0.057257360527258071 0.033958423477107307 0 -0.057118437186805787 0.033055958774622994 0 -0.056582016188676185 0.033644658471164851 0 -0.057143897779791036 0.033914213305358105 0 -0.057118437186805787 0.033055958774622994 0 -0.056582016188676185 0.033644658471164851 0 -0.055626379337480186 0.033330243798529058 0 -0.052100334780778815 0.034388872358417394 0 -0.051919409501758093 0.034283395042042419 0 -0.051936418660969437 0.034348127253503467 0 -0.057075632252031466 0.034500660946526034 0 -0.056582016188676185 0.033644658471164851 0 -0.057143897779791036 0.033914213305358105 0 -0.054608919260095659 0.031555661697108897 0 -0.054279979061702753 0.034557954530249346 0 -0.051919409501758093 0.034283395042042419 0 -0.051835801443658666 0.034221870778060597 0 -0.051936418660969437 0.034348127253503467 0 -0.05445753913414153 0.033281596650211354 0 -0.056582016188676185 0.033644658471164851 0 -0.055626379337480186 0.033330243798529058 0 -0.053141981407175062 0.03364142878493627 0 -0.054279979061702753 0.034557954530249346 0 -0.051992728769823575 0.034465500685311845 0 -0.051919409501758093 0.034283395042042419 0 -0.051914643636255225 0.034364209718256093 0 -0.051919409501758093 0.034283395042042419 0 -0.051914643636255225 0.034364209718256093 0 -0.051835801443658666 0.034221870778060597 0 -0.052056279464317096 0.034111615023617932 0 -0.051732544590476832 0.034156569772240061 0 -0.051947617029590686 0.03451087655159181 0 -0.051914643636255225 0.034364209718256093 0 -0.051835801443658666 0.034221870778060597 0 -0.051499910669210149 0.033572907182790622 0 -0.051384843467485036 0.034072475071326547 0 -0.051835801443658666 0.034221870778060597 0 -0.051835801443658666 0.034221870778060597 0 -0.051576683658038192 0.034401985108990361 0 -0.051936418660969437 0.034348127253503467 0 -0.051384843467485036 0.034072475071326547 0 -0.051835801443658666 0.034221870778060597 0 -0.051576683658038192 0.034401985108990361 0 -0.051423552999325911 0.034759334575718955 0 -0.051576683658038192 0.034401985108990361 0 -0.051858025146798617 0.034549674922092898 0 -0.052100334780778815 0.034388872358417394 0 -0.051936418660969437 0.034348127253503467 0 -0.051858025146798617 0.034549674922092898 0 -0.051576683658038192 0.034401985108990361 0 -0.051936418660969437 0.034348127253503467 0 -0.051858025146798617 0.034549674922092898 0 -0.054011090940765727 0.023127870558853889 0 -0.054984940041584877 0.016976634003964479 0 -0.053559275158376392 0.025528498030472153 0 -0.053526137584882977 0.025510785859205257 0 -0.053492910894294692 0.025508686797117829 0 -0.053590058649596588 0.02552527386010733 0 -0.053559275158376392 0.025528498030472153 0 -0.053526137584882977 0.025510785859205257 0 -0.052094267895671016 0.030796416553881167 0 -0.052468003098566425 0.029801155197415545 0 -0.053435393570606914 0.025489080760819946 0 -0.053526137584882977 0.025510785859205257 0 -0.053492910894294692 0.025508686797117829 0 -0.057807574114883388 0.011161295564229257 0 -0.05757216410092391 0.010825241075765893 0 -0.058022047118603905 0.010648968426738507 0 -0.057807574114883388 0.011161295564229257 0 -0.057340992020636035 0.011183131613857141 0 -0.05757216410092391 0.010825241075765893 0 -0.055376614569735409 0.019981931964646125 0 -0.056636874108314632 0.019323186442991511 0 -0.055613512898230542 0.019274043640116673 0 -0.054984940041584877 0.016976634003964479 0 -0.056750671979832287 0.015330281316950333 0 -0.057340992020636035 0.011183131613857141 0 -0.05724026717796387 0.01091563654591641 0 -0.05757216410092391 0.010825241075765893 0 -0.058108178978013993 0.010361074876456565 0 -0.05798821559226721 0.010288003555309356 0 -0.057925741390813225 0.010448165790589157 0 -0.05757216410092391 0.010825241075765893 0 -0.057331645057816891 0.010639416459257532 0 -0.057648885929734314 0.010425471692275262 0 -0.057838011069309504 0.010345490882711677 0 -0.05806291300506345 0.011770561766883229 0 -0.057331645057816891 0.010639416459257532 0 -0.057648885929734314 0.010425471692275262 0 -0.05707090870986907 0.010641867558273939 0 -0.05724026717796387 0.01091563654591641 0 -0.05757216410092391 0.010825241075765893 0 -0.057331645057816891 0.010639416459257532 0 -0.05724026717796387 0.01091563654591641 0 -0.057331645057816891 0.010639416459257532 0 -0.056942966068740421 0.010906712133454058 0 -0.058227219625784962 0.010289509355145087 0 -0.057648885929734314 0.010425471692275262 0 -0.058022047118603905 0.010648968426738507 0 -0.05757216410092391 0.010825241075765893 0 -0.057648885929734314 0.010425471692275262 0 -0.058022047118603905 0.010648968426738507 0 -0.058198068917801681 0.010299791033128034 0 -0.057838011069309504 0.010345490882711677 0 -0.058227219625784962 0.010289509355145087 0 -0.058158530595741095 0.010268332662997669 0 -0.058192457190584808 0.010162320838000997 0 -0.058227219625784962 0.010289509355145087 0 -0.058108178978013993 0.010361074876456565 0 -0.058158530595741095 0.010268332662997669 0 -0.058108178978013993 0.010361074876456565 0 -0.058111619688695756 0.01027031946784996 0 -0.058158530595741095 0.010268332662997669 0 -0.058111619688695756 0.01027031946784996 0 -0.058158530595741095 0.010268332662997669 0 -0.058192457190584808 0.010162320838000997 0 -0.058437007332222804 0.010946245597925425 0 -0.05837211753181213 0.010948029308595855 0 -0.058445218663993777 0.010284963337002838 0 -0.058437007332222804 0.010946245597925425 0 -0.05837211753181213 0.010948029308595855 0 -0.058486549825433866 0.010996330387063056 0 -0.058437007332222804 0.010946245597925425 0 -0.058486549825433866 0.010996330387063056 0 -0.058600032089574025 0.01104559082167789 0 -0.05837211753181213 0.010948029308595855 0 -0.058617433633854181 0.011076224905000629 0 -0.058486549825433866 0.010996330387063056 0 -0.05837211753181213 0.010948029308595855 0 -0.058617433633854181 0.011076224905000629 0 -0.058616160635869656 0.010994791289932578 0 -0.058617433633854181 0.011076224905000629 0 -0.058486549825433866 0.010996330387063056 0 -0.058573914034190246 0.011058068917569131 0 -0.058565541853735456 0.011082744941858352 0 -0.058560648536853062 0.01105874104607232 0 -0.058264965740240114 0.010500001382970397 0 -0.058560648536853062 0.01105874104607232 0 -0.058111619688695756 0.01027031946784996 0 -0.058192457190584808 0.010162320838000997 0 -0.05798821559226721 0.010288003555309356 0 -0.058486549825433866 0.010996330387063056 0 -0.058573914034190246 0.011058068917569131 0 -0.058600032089574025 0.01104559082167789 0 -0.058108178978013993 0.010361074876456565 0 -0.058111619688695756 0.01027031946784996 0 -0.05798821559226721 0.010288003555309356 0 -0.058560648536853062 0.01105874104607232 0 -0.058294636590505058 0.011720661252440399 0 -0.058545293171881209 0.011213175423837584 0 -0.058311497722126411 0.011081356883952145 0 -0.058336576749530959 0.011421531372401882 0 -0.058573914034190246 0.011058068917569131 0 -0.058545293171881209 0.011213175423837584 0 -0.058311497722126411 0.011081356883952145 0 -0.058561978459145188 0.011198057716938666 0 -0.058196089419277945 0.011519076251226628 0 -0.058617433633854181 0.011076224905000629 0 -0.058156983447739223 0.012169393389336418 0 -0.05827545302188436 0.011469217946479034 0 -0.058617433633854181 0.011076224905000629 0 -0.058573914034190246 0.011058068917569131 0 -0.058311497722126411 0.011081356883952145 0 -0.058156983447739223 0.012169393389336418 0 -0.057543535023786313 0.012061798544743704 0 -0.057133396377959118 0.013039541268427031 0 -0.058156983447739223 0.012169393389336418 0 -0.057543535023786313 0.012061798544743704 0 -0.05827545302188436 0.011469217946479034 0 -0.058311497722126411 0.011081356883952145 0 -0.058138401878119222 0.011356429160178873 0 -0.057889627378016194 0.01124700342023373 0 -0.058196089419277945 0.011519076251226628 0 -0.057624523728808649 0.012934547139056306 0 -0.058311497722126411 0.011081356883952145 0 -0.058138401878119222 0.011356429160178873 0 -0.058336576749530959 0.011421531372401882 0 -0.05806291300506345 0.011770561766883229 0 -0.057484443444462976 0.015034548020738 0 -0.057787966104480108 0.014028252895059361 0 -0.058294636590505058 0.011720661252440399 0 -0.058138401878119222 0.011356429160178873 0 -0.058062361342186092 0.011645400654929434 0 -0.058336576749530959 0.011421531372401882 0 -0.057084322135491236 0.012944793243995906 0 -0.058074295143702458 0.012267288494014688 0 -0.057158180074844862 0.013114412889085405 0 -0.057787966104480108 0.014028252895059361 0 -0.057749445802853301 0.014141853610588662 0 -0.058557718825627401 0.013575884874937728 0 -0.058320043579739612 0.014177548252915237 0 -0.056718603123291106 0.014277038350839944 0 -0.058074295143702458 0.012267288494014688 0 -0.058695802695358672 0.012527679798124565 0 -0.057158180074844862 0.013114412889085405 0 -0.059063319050726849 0.011597726348176936 0 -0.058074295143702458 0.012267288494014688 0 -0.058695802695358672 0.012527679798124565 0 -0.058560648536853062 0.01105874104607232 0 -0.05806291300506345 0.011770561766883229 0 -0.057331645057816891 0.010639416459257532 0 -0.05707090870986907 0.010641867558273939 0 -0.056969521848502347 0.010914451819489425 0 -0.05806291300506345 0.011770561766883229 0 -0.057461177553073547 0.012646207271008753 0 -0.057523947056421901 0.010774973480372521 0 -0.057461177553073547 0.012646207271008753 0 -0.056151122353861667 0.021458043669052882 0 -0.057478551458820824 0.018137717138988627 0 -0.05616176533693349 0.018043419946583702 0 -0.056750671979832287 0.015330281316950333 0 -0.055850784910277756 0.016183007522790727 0 -0.057461177553073547 0.012646207271008753 0 -0.055850784910277756 0.016183007522790727 0 -0.055376614569735409 0.019981931964646125 0 -0.055613512898230542 0.019274043640116673 0 -0.054553813388830252 0.019192320606821862 0 -0.057340992020636035 0.011183131613857141 0 -0.05724026717796387 0.01091563654591641 0 -0.056835584646562451 0.011184907040470121 0 -0.057412962783527227 0.01440268150701015 0 -0.056949122528084699 0.015565477085369159 0 -0.055857210095294152 0.015490089359738118 0 -0.057461177553073547 0.012646207271008753 0 -0.056900804081023271 0.016654818818278232 0 -0.05724026717796387 0.01091563654591641 0 -0.056942966068740421 0.010906712133454058 0 -0.056835584646562451 0.011184907040470121 0 -0.055850784910277756 0.016183007522790727 0 -0.056900804081023271 0.016654818818278232 0 -0.057067952089556985 0.017552894087813346 0 -0.057265472645323265 0.017422711302158056 0 -0.057333809076220078 0.017575131292267437 0 -0.056900804081023271 0.016654818818278232 0 -0.057375132584001981 0.017323182971507759 0 -0.058320043579739612 0.014177548252915237 0 -0.057539184280429152 0.014731378746009641 0 -0.056718603123291106 0.014277038350839944 0 -0.056900804081023271 0.016654818818278232 0 -0.057066859651786761 0.019668802965666699 0 -0.057564333764856375 0.020517188026329704 0 -0.058121104494105312 0.020111992330932641 0 -0.05803213473743097 0.019904187322632268 0 -0.057066859651786761 0.019668802965666699 0 -0.057375132584001981 0.017323182971507759 0 -0.057539184280429152 0.014731378746009641 0 -0.056898934457334745 0.014689490510569525 0 -0.056718603123291106 0.014277038350839944 0 -0.057375132584001981 0.017323182971507759 0 -0.057484443444462976 0.015034548020738 0 -0.057787966104480108 0.014028252895059361 0 -0.057484443444462976 0.015034548020738 0 -0.058401460998243886 0.016131445739602211 0 -0.05847645994343114 0.016301882343289276 0 -0.058307636628552019 0.016195917849510591 0 -0.057564333764856375 0.020517188026329704 0 -0.05803213473743097 0.019904187322632268 0 -0.057445754485002144 0.019864403810637109 0 -0.057706583492277606 0.016596456341194627 0 -0.056925839790308151 0.016015932712275829 0 -0.057807020507890078 0.01608695325537382 0 -0.05847645994343114 0.016301882343289276 0 -0.057706583492277606 0.016596456341194627 0 -0.058307636628552019 0.016195917849510591 0 -0.057706583492277606 0.016596456341194627 0 -0.058307636628552019 0.016195917849510591 0 -0.057807020507890078 0.01608695325537382 0 -0.057266980521917851 0.016734869235129141 0 -0.057302631359174981 0.016813844737168678 0 -0.057482490824026074 0.016752995635939003 0 -0.057375132584001981 0.017323182971507759 0 -0.057522385070764896 0.017258615721416484 0 -0.057484443444462976 0.015034548020738 0 -0.057522385070764896 0.017258615721416484 0 -0.057706583492277606 0.016596456341194627 0 -0.056925839790308151 0.016015932712275829 0 -0.055892411866018732 0.016521297684579675 0 -0.056522622827240326 0.020104592867957908 0 -0.057522385070764896 0.017258615721416484 0 -0.057522385070764896 0.017258615721416484 0 -0.056062207675980115 0.016352579613657794 0 -0.056014921056729762 0.017333581455159546 0 -0.057822773180437735 0.016693031085567571 0 -0.055892411866018732 0.016521297684579675 0 -0.056925839790308151 0.016015932712275829 0 -0.057527217380529627 0.015652545739982641 0 -0.056433245733334039 0.015268128706997171 0 -0.056925839790308151 0.016015932712275829 0 -0.056433245733334039 0.015268128706997171 0 -0.056247233175023593 0.015949489027941088 0 -0.058138401878119222 0.011356429160178873 0 -0.058062361342186092 0.011645400654929434 0 -0.057889627378016194 0.01124700342023373 0 -0.057787966104480108 0.014028252895059361 0 -0.057624523728808649 0.012934547139056306 0 -0.058403631082766513 0.016131791808323932 0 -0.057527217380529627 0.015652545739982641 0 -0.05779190262613302 0.014716207347323793 0 -0.056925839790308151 0.016015932712275829 0 -0.057527217380529627 0.015652545739982641 0 -0.057807020507890078 0.01608695325537382 0 -0.058403631082766513 0.016131791808323932 0 -0.058307636628552019 0.016195917849510591 0 -0.057807020507890078 0.01608695325537382 0 -0.058403631082766513 0.016131791808323932 0 -0.057527217380529627 0.015652545739982641 0 -0.057807020507890078 0.01608695325537382 0 -0.057624523728808649 0.012934547139056306 0 -0.05717290571774624 0.012740967369231613 0 -0.057543535023786313 0.012061798544743704 0 -0.057133396377959118 0.013039541268427031 0 -0.056954780918893527 0.012717778862351561 0 -0.057543535023786313 0.012061798544743704 0 -0.056954780918893527 0.012717778862351561 0 -0.057038554609404712 0.012150720753323642 0 -0.056536585514132598 0.012337709003737037 0 -0.056359226063471241 0.013037415742757245 0 -0.056050544635220398 0.012913173359025113 0 -0.056954780918893527 0.012717778862351561 0 -0.057038554609404712 0.012150720753323642 0 -0.056536585514132598 0.012337709003737037 0 -0.056954780918893527 0.012717778862351561 0 -0.056536585514132598 0.012337709003737037 0 -0.056359226063471241 0.013037415742757245 0 -0.057624523728808649 0.012934547139056306 0 -0.056230851826611444 0.014504438029366138 0 -0.057140386114800053 0.013264340539989856 0 -0.056359226063471241 0.013037415742757245 0 -0.056150723135940481 0.013753618139934734 0 -0.057527217380529627 0.015652545739982641 0 -0.05779190262613302 0.014716207347323793 0 -0.056433245733334039 0.015268128706997171 0 -0.057140386114800053 0.013264340539989856 0 -0.056954780918893527 0.012717778862351561 0 -0.056359226063471241 0.013037415742757245 0 -0.055668349749951135 0.013389861415567875 0 -0.055686003496228813 0.01367517627898239 0 -0.056150723135940481 0.013753618139934734 0 -0.056359226063471241 0.013037415742757245 0 -0.055668349749951135 0.013389861415567875 0 -0.056150723135940481 0.013753618139934734 0 -0.056359226063471241 0.013037415742757245 0 -0.055668349749951135 0.013389861415567875 0 -0.056050544635220398 0.012913173359025113 0 -0.055668349749951135 0.013389861415567875 0 -0.055446841876947831 0.013570397909005757 0 -0.055000592325753099 0.013635677212597895 0 -0.055668349749951135 0.013389861415567875 0 -0.056050544635220398 0.012913173359025113 0 -0.055000592325753099 0.013635677212597895 0 -0.054999994202826752 0.015878625822404506 0 -0.055543713463820019 0.016429794543510002 0 -0.055000001878013106 0.013639374857956315 0 -0.05546579133775837 0.015010632320071958 0 -0.055000129210661844 0.013639511732610817 0 -0.055686003496228813 0.01367517627898239 0 -0.055446841876947831 0.013570397909005757 0 -0.05549056880466078 0.014033524557420941 0 -0.054999994202826752 0.015878625822404506 0 -0.055543713463820019 0.016429794543510002 0 -0.054999989079433799 0.018117767300665034 0 -0.055668349749951135 0.013389861415567875 0 -0.055686003496228813 0.01367517627898239 0 -0.055446841876947831 0.013570397909005757 0 -0.055543713463820019 0.016429794543510002 0 -0.054999989079433799 0.018117767300665034 0 -0.055871083191914472 0.018205635185006279 0 -0.05546579133775837 0.015010632320071958 0 -0.05543431810759894 0.01607514848057422 0 -0.054999989079433799 0.018117767300665034 0 -0.055871083191914472 0.018205635185006279 0 -0.056056870701890305 0.019158497932812518 0 -0.055000864068500445 0.018118605229844521 0 -0.055531395503932893 0.018228510532173184 0 -0.05543431810759894 0.01607514848057422 0 -0.055531395503932893 0.018228510532173184 0 -0.055016023672777775 0.015832546051783906 0 -0.055733464639773814 0.015997077986215177 0 -0.055122586373229122 0.016409893030757513 0 -0.056925839790308151 0.016015932712275829 0 -0.056247233175023593 0.015949489027941088 0 -0.055892411866018732 0.016521297684579675 0 -0.055686003496228813 0.01367517627898239 0 -0.05549056880466078 0.014033524557420941 0 -0.056150723135940481 0.013753618139934734 0 -0.055016023672777775 0.015832546051783906 0 -0.056433245733334039 0.015268128706997171 0 -0.055733464639773814 0.015997077986215177 0 -0.05543431810759894 0.01607514848057422 0 -0.056230851826611444 0.014504438029366138 0 -0.056433245733334039 0.015268128706997171 0 -0.056247233175023593 0.015949489027941088 0 -0.055733464639773814 0.015997077986215177 0 -0.056247233175023593 0.015949489027941088 0 -0.055733464639773814 0.015997077986215177 0 -0.055892411866018732 0.016521297684579675 0 -0.055733464639773814 0.015997077986215177 0 -0.055892411866018732 0.016521297684579675 0 -0.055122586373229122 0.016409893030757513 0 -0.055841918942067664 0.020624874059866308 0 -0.056873904838979673 0.02024787123155564 0 -0.055495700513619572 0.01884814909697792 0 -0.056014921056729762 0.017333581455159546 0 -0.055892411866018732 0.016521297684579675 0 -0.055122586373229122 0.016409893030757513 0 -0.056522622827240326 0.020104592867957908 0 -0.055531395503932893 0.018228510532173184 0 -0.054999997570432883 0.018117840298826071 0 -0.054999994183726739 0.019924399180207112 0 -0.056086493228487772 0.019221448515834537 0 -0.056068446149941456 0.021660074393646599 0 -0.055531395503932893 0.018228510532173184 0 -0.056470011540671113 0.021192099990171374 0 -0.054999994183726739 0.019924399180207112 0 -0.056086493228487772 0.019221448515834537 0 -0.054999929081262992 0.0075739595599519545 0 -0.056616300712362219 0.0081190477464906912 0 -0.056833291764153797 0.0063042336723753917 0 -0.056616300712362219 0.0081190477464906912 0 -0.057848733942243387 0.0070582060552212191 0 -0.056833291764153797 0.0063042336723753917 0 -0.056616300712362219 0.0081190477464906912 0 -0.056525574748909908 0.010348038295511447 0 -0.057946260999820302 0.0092783604328069754 0 -0.056616300712362219 0.0081190477464906912 0 -0.054999184558845136 0.010607469994451064 0 -0.056525574748909908 0.010348038295511447 0 -0.054999929081262992 0.0075739595599519545 0 -0.056616300712362219 0.0081190477464906912 0 -0.054999184558845136 0.010607469994451064 0 -0.054999184558845136 0.010607469994451064 0 -0.055974654195207398 0.012022034496662682 0 -0.056525574748909908 0.010348038295511447 0 -0.056050544635220398 0.012913173359025113 0 -0.055000592325753099 0.013635677212597895 0 -0.055974654195207398 0.012022034496662682 0 -0.054999184558845136 0.010607469994451064 0 -0.055000592325753099 0.013635677212597895 0 -0.055974654195207398 0.012022034496662682 0 -0.056050544635220398 0.012913173359025113 0 -0.055974654195207398 0.012022034496662682 0 -0.05724938674188864 0.011667250637206904 0 -0.056124581421508245 0.012720441185505464 0 -0.056530617586981344 0.011353023563761371 0 -0.056525574748909908 0.010348038295511447 0 -0.05724938674188864 0.011667250637206904 0 -0.057946260999820302 0.0092783604328069754 0 -0.055974654195207398 0.012022034496662682 0 -0.056525574748909908 0.010348038295511447 0 -0.05724938674188864 0.011667250637206904 0 -0.05583030183866404 0.011137571095221468 0 -0.057071161095665644 0.011491214965224924 0 -0.056974660662420254 0.010342390573062321 0 -0.05583030183866404 0.011137571095221468 0 -0.056974660662420254 0.010342390573062321 0 -0.055930056016737027 0.009634584381268671 0 -0.056530617586981344 0.011353023563761371 0 -0.056905327828052493 0.0094552350044040789 0 -0.056536585514132598 0.012337709003737037 0 -0.05583030183866404 0.011137571095221468 0 -0.057071161095665644 0.011491214965224924 0 -0.056536585514132598 0.012337709003737037 0 -0.056050544635220398 0.012913173359025113 0 -0.05583030183866404 0.011137571095221468 0 -0.057543535023786313 0.012061798544743704 0 -0.057071161095665644 0.011491214965224924 0 -0.057819954505400527 0.011343702765283041 0 -0.057543535023786313 0.012061798544743704 0 -0.057038554609404712 0.012150720753323642 0 -0.057071161095665644 0.011491214965224924 0 -0.057038554609404712 0.012150720753323642 0 -0.056536585514132598 0.012337709003737037 0 -0.057071161095665644 0.011491214965224924 0 -0.057071161095665644 0.011491214965224924 0 -0.056974660662420254 0.010342390573062321 0 -0.057718283586130334 0.010690489144320147 0 -0.056974660662420254 0.010342390573062321 0 -0.057319500967414179 0.0090860058699722742 0 -0.055930056016737027 0.009634584381268671 0 -0.056974660662420254 0.010342390573062321 0 -0.057319500967414179 0.0090860058699722742 0 -0.057855543614202178 0.0099122737391136757 0 -0.057319500967414179 0.0090860058699722742 0 -0.055930056016737027 0.009634584381268671 0 -0.056182391333937855 0.0080692502146116982 0 -0.056905327828052493 0.0094552350044040789 0 -0.057004866992397672 0.0076257787555837507 0 -0.056616300712362219 0.0081190477464906912 0 -0.057946260999820302 0.0092783604328069754 0 -0.057848733942243387 0.0070582060552212191 0 -0.057319500967414179 0.0090860058699722742 0 -0.056182391333937855 0.0080692502146116982 0 -0.057188073898713693 0.0078932860261711878 0 -0.057319500967414179 0.0090860058699722742 0 -0.058116087904708666 0.0082138114698578311 0 -0.058291814552100266 0.0092205749952015276 0 -0.057319500967414179 0.0090860058699722742 0 -0.058116087904708666 0.0082138114698578311 0 -0.057188073898713693 0.0078932860261711878 0 -0.058116087904708666 0.0082138114698578311 0 -0.058291814552100266 0.0092205749952015276 0 -0.059156028522169397 0.008859142086002721 0 -0.058291814552100266 0.0092205749952015276 0 -0.058463582871427451 0.010193779271833764 0 -0.059156028522169397 0.008859142086002721 0 -0.058291814552100266 0.0092205749952015276 0 -0.057855543614202178 0.0099122737391136757 0 -0.058463582871427451 0.010193779271833764 0 -0.057319500967414179 0.0090860058699722742 0 -0.058291814552100266 0.0092205749952015276 0 -0.057855543614202178 0.0099122737391136757 0 -0.056974660662420254 0.010342390573062321 0 -0.057855543614202178 0.0099122737391136757 0 -0.057718283586130334 0.010690489144320147 0 -0.057855543614202178 0.0099122737391136757 0 -0.057718283586130334 0.010690489144320147 0 -0.058463582871427451 0.010193779271833764 0 -0.057071161095665644 0.011491214965224924 0 -0.057718283586130334 0.010690489144320147 0 -0.057819954505400527 0.011343702765283041 0 -0.057543535023786313 0.012061798544743704 0 -0.057819954505400527 0.011343702765283041 0 -0.05827545302188436 0.011469217946479034 0 -0.057718283586130334 0.010690489144320147 0 -0.057819954505400527 0.011343702765283041 0 -0.05833747467888023 0.010966023813326856 0 -0.057819954505400527 0.011343702765283041 0 -0.05827545302188436 0.011469217946479034 0 -0.05833747467888023 0.010966023813326856 0 -0.058617433633854181 0.011076224905000629 0 -0.05827545302188436 0.011469217946479034 0 -0.058587351312565296 0.011061774594935393 0 -0.05827545302188436 0.011469217946479034 0 -0.05833747467888023 0.010966023813326856 0 -0.058587351312565296 0.011061774594935393 0 -0.05833747467888023 0.010966023813326856 0 -0.058692146684558896 0.010777719493297127 0 -0.058587351312565296 0.011061774594935393 0 -0.058692146684558896 0.010777719493297127 0 -0.058463582871427451 0.010193779271833764 0 -0.059122958034087035 0.010543556162435994 0 -0.05833747467888023 0.010966023813326856 0 -0.058692146684558896 0.010777719493297127 0 -0.058463582871427451 0.010193779271833764 0 -0.057718283586130334 0.010690489144320147 0 -0.05833747467888023 0.010966023813326856 0 -0.058463582871427451 0.010193779271833764 0 -0.057172662157074679 0.0092261011016917856 0 -0.057844915991279493 0.0098248124549685494 0 -0.05834776096145549 0.0087490946367449734 0 -0.058692146684558896 0.010777719493297127 0 -0.059122958034087035 0.010543556162435994 0 -0.058736504002504214 0.010853606442278804 0 -0.05837211753181213 0.010948029308595855 0 -0.059122958034087035 0.010543556162435994 0 -0.058736504002504214 0.010853606442278804 0 -0.058351682784745035 0.010833054868889778 0 -0.058134405255036714 0.0098135734393526384 0 -0.058692146684558896 0.010777719493297127 0 -0.058736504002504214 0.010853606442278804 0 -0.058587351312565296 0.011061774594935393 0 -0.05837211753181213 0.010948029308595855 0 -0.057172662157074679 0.0092261011016917856 0 -0.057844915991279493 0.0098248124549685494 0 -0.05837211753181213 0.010948029308595855 0 -0.058736504002504214 0.010853606442278804 0 -0.058616160635869656 0.010994791289932578 0 -0.058617433633854181 0.011076224905000629 0 -0.058616160635869656 0.010994791289932578 0 -0.058587351312565296 0.011061774594935393 0 -0.058736504002504214 0.010853606442278804 0 -0.058616160635869656 0.010994791289932578 0 -0.058587351312565296 0.011061774594935393 0 -0.05837211753181213 0.010948029308595855 0 -0.057844915991279493 0.0098248124549685494 0 -0.058445218663993777 0.010284963337002838 0 -0.057844915991279493 0.0098248124549685494 0 -0.058445218663993777 0.010284963337002838 0 -0.058451965787042703 0.0098797749072849789 0 -0.057844915991279493 0.0098248124549685494 0 -0.05834776096145549 0.0087490946367449734 0 -0.0595530197162518 0.0087245063110132724 0 -0.057899520114561835 0.0098111238605390529 0 -0.059057505935410502 0.0093928751887047308 0 -0.057172662157074679 0.0092261011016917856 0 -0.05834776096145549 0.0087490946367449734 0 -0.058151297714222984 0.0073907814103450972 0 -0.05834776096145549 0.0087490946367449734 0 -0.058151297714222984 0.0073907814103450972 0 -0.0595530197162518 0.0087245063110132724 0 -0.058151297714222984 0.0073907814103450972 0 -0.0595530197162518 0.0087245063110132724 0 -0.059706600417568312 0.0070652744463930483 0 -0.057172662157074679 0.0092261011016917856 0 -0.058151297714222984 0.0073907814103450972 0 -0.056173976690279924 0.0063305403980497815 0 -0.058463582871427451 0.010193779271833764 0 -0.059122958034087035 0.010543556162435994 0 -0.059156028522169397 0.008859142086002721 0 -0.058134405255036714 0.0098135734393526384 0 -0.05766003614362486 0.0075924574375110234 0 -0.058151297714222984 0.0073907814103450972 0 -0.056173976690279924 0.0063305403980497815 0 -0.05841548612677077 0.0056139249347664623 0 -0.056173976690279924 0.0063305403980497815 0 -0.05841548612677077 0.0056139249347664623 0 -0.057218877562990336 0.0041053042576250148 0 -0.058151297714222984 0.0073907814103450972 0 -0.05841548612677077 0.0056139249347664623 0 -0.059706600417568312 0.0070652744463930483 0 -0.05841548612677077 0.0056139249347664623 0 -0.057218877562990336 0.0041053042576250148 0 -0.059169469107799237 0.0038385206241501038 0 -0.056173976690279924 0.0063305403980497815 0 -0.057218877562990336 0.0041053042576250148 0 -0.055485956667131943 0.0037115658925165381 0 -0.057218877562990336 0.0041053042576250148 0 -0.056700712097283244 0.0030945528174325292 0 -0.055485956667131943 0.0037115658925165381 0 -0.056700712097283244 0.0030945528174325292 0 -0.056406900576174909 0.0020500648006037576 0 -0.055485956667131943 0.0037115658925165381 0 -0.057218877562990336 0.0041053042576250148 0 -0.056700712097283244 0.0030945528174325292 0 -0.057649042611814257 0.0025214390884459141 0 -0.056700712097283244 0.0030945528174325292 0 -0.057649042611814257 0.0025214390884459141 0 -0.056406900576174909 0.0020500648006037576 0 -0.057649042611814257 0.0025214390884459141 0 -0.059169469107799237 0.0038385206241501038 0 -0.05912728560714612 0.0023059255032330363 0 -0.057218877562990336 0.0041053042576250148 0 -0.057649042611814257 0.0025214390884459141 0 -0.059169469107799237 0.0038385206241501038 0 -0.057649042611814257 0.0025214390884459141 0 -0.057949129730974935 0.0012306452162105378 0 -0.05912728560714612 0.0023059255032330363 0 -0.057949129730974935 0.0012306452162105378 0 -0.05912728560714612 0.0023059255032330363 0 -0.059285386551373657 0.00046940081919800167 0 -0.057949129730974935 0.0012306452162105378 0 -0.057917679342645773 -0.00039752252704213376 0 -0.059285386551373657 0.00046940081919800167 0 -0.05909264004743249 -0.00088126803522352586 0 -0.057917679342645773 -0.00039752252704213376 0 -0.059285386551373657 0.00046940081919800167 0 -0.057949129730974935 0.0012306452162105378 0 -0.057917679342645773 -0.00039752252704213376 0 -0.056956752398927571 0.00066225474298563334 0 -0.057116396979707711 -0.0015518708005895956 0 -0.057917679342645773 -0.00039752252704213376 0 -0.056511905935085843 -0.00036857219108099668 0 -0.057917679342645773 -0.00039752252704213376 0 -0.056511905935085843 -0.00036857219108099668 0 -0.056956752398927571 0.00066225474298563334 0 -0.056511905935085843 -0.00036857219108099668 0 -0.056956752398927571 0.00066225474298563334 0 -0.056013933049197884 0.00072369456117248553 0 -0.057649042611814257 0.0025214390884459141 0 -0.057949129730974935 0.0012306452162105378 0 -0.056406900576174909 0.0020500648006037576 0 -0.057949129730974935 0.0012306452162105378 0 -0.056956752398927571 0.00066225474298563334 0 -0.056406900576174909 0.0020500648006037576 0 -0.056956752398927571 0.00066225474298563334 0 -0.056406900576174909 0.0020500648006037576 0 -0.056013933049197884 0.00072369456117248553 0 -0.056406900576174909 0.0020500648006037576 0 -0.054835957687894989 0.0011155459171794521 0 -0.056013933049197884 0.00072369456117248553 0 -0.056511905935085843 -0.00036857219108099668 0 -0.056013933049197884 0.00072369456117248553 0 -0.055467563812352912 -0.00030013986510838125 0 -0.054835957687894989 0.0011155459171794521 0 -0.056013933049197884 0.00072369456117248553 0 -0.055467563812352912 -0.00030013986510838125 0 -0.055791045057184428 -0.0015916093413226094 0 -0.056511905935085843 -0.00036857219108099668 0 -0.055467563812352912 -0.00030013986510838125 0 -0.054571280072919601 -0.0011846644357647801 0 -0.055966007985028522 0.0023544304093239777 0 -0.054420597567864812 -0.001446031765692641 0 -0.054835957687894989 0.0011155459171794521 0 -0.055467563812352912 -0.00030013986510838125 0 -0.054420597567864812 -0.001446031765692641 0 -0.057141564976299179 0.0036055978892620853 0 -0.052803597538004815 0.00053670752443594507 0 -0.057386215881978973 0.0055348499755528005 0 -0.055432067537811103 0.0045908282014521804 0 -0.057141564976299179 0.0036055978892620853 0 -0.053319968712880403 0.003451110756274055 0 -0.052803597538004815 0.00053670752443594507 0 -0.057334328230860189 0.0059942269303144471 0 -0.057637391623002437 0.0055325991888596692 0 -0.057242666861252359 0.005830324158151429 0 -0.057141564976299179 0.0036055978892620853 0 -0.057637391623002437 0.0055325991888596692 0 -0.053319968712880403 0.003451110756274055 0 -0.057637391623002437 0.0055325991888596692 0 -0.058802019423648016 0.0071527244829082456 0 -0.057479808523810925 0.0069578704033946412 0 -0.057334328230860189 0.0059942269303144471 0 -0.057637391623002437 0.0055325991888596692 0 -0.057479808523810925 0.0069578704033946412 0 -0.056406900576174909 0.0020500648006037576 0 -0.054835957687894989 0.0011155459171794521 0 -0.055485956667131943 0.0037115658925165381 0 -0.055966007985028522 0.0023544304093239777 0 -0.057119988816608652 0.0054387292337247728 0 -0.057141564976299179 0.0036055978892620853 0 -0.057637391623002437 0.0055325991888596692 0 -0.058802019423648016 0.0071527244829082456 0 -0.058116087904708666 0.0082138114698578311 0 -0.059156028522169397 0.008859142086002721 0 -0.058802019423648016 0.0071527244829082456 0 -0.05766003614362486 0.0075924574375110234 0 -0.057119988816608652 0.0054387292337247728 0 -0.058116087904708666 0.0082138114698578311 0 -0.058802019423648016 0.0071527244829082456 0 -0.057479808523810925 0.0069578704033946412 0 -0.058116087904708666 0.0082138114698578311 0 -0.057479808523810925 0.0069578704033946412 0 -0.057188073898713693 0.0078932860261711878 0 -0.056182391333937855 0.0080692502146116982 0 -0.057188073898713693 0.0078932860261711878 0 -0.056988817509245976 0.006374051869313834 0 -0.057479808523810925 0.0069578704033946412 0 -0.057188073898713693 0.0078932860261711878 0 -0.056988817509245976 0.006374051869313834 0 -0.057848733942243387 0.0070582060552212191 0 -0.056948332474308701 0.0061782515851874662 0 -0.056988817509245976 0.006374051869313834 0 -0.057004866992397672 0.0076257787555837507 0 -0.057020286781386424 0.0065439322116720242 0 -0.057848733942243387 0.0070582060552212191 0 -0.056948332474308701 0.0061782515851874662 0 -0.056833291764153797 0.0063042336723753917 0 -0.056948332474308701 0.0061782515851874662 0 -0.056988817509245976 0.006374051869313834 0 -0.056995831616310132 0.0059926862763239304 0 -0.057334328230860189 0.0059942269303144471 0 -0.056988817509245976 0.006374051869313834 0 -0.056995831616310132 0.0059926862763239304 0 -0.057334328230860189 0.0059942269303144471 0 -0.057479808523810925 0.0069578704033946412 0 -0.056988817509245976 0.006374051869313834 0 -0.057242666861252359 0.005830324158151429 0 -0.056936845292845879 0.0055882758543030235 0 -0.056995831616310132 0.0059926862763239304 0 -0.057334328230860189 0.0059942269303144471 0 -0.057242666861252359 0.005830324158151429 0 -0.056995831616310132 0.0059926862763239304 0 -0.053319968712880403 0.003451110756274055 0 -0.052803597538004815 0.00053670752443594507 0 -0.050111784556158362 0.0007278844565547488 0 -0.051725483587709814 -0.0013982456314692933 0 -0.052803597538004815 0.00053670752443594507 0 -0.050111784556158362 0.0007278844565547488 0 -0.055432067537811103 0.0045908282014521804 0 -0.053213024861180652 0.0032761396028525409 0 -0.056948332474308701 0.0061782515851874662 0 -0.056995831616310132 0.0059926862763239304 0 -0.056662143451982068 0.0059100902024490816 0 -0.056936845292845879 0.0055882758543030235 0 -0.056995831616310132 0.0059926862763239304 0 -0.056662143451982068 0.0059100902024490816 0 -0.057221504389943494 -0.00055605053145903042 0 -0.057182954239129245 0.0027314795554648011 0 -0.055856472540187052 0.00013434921756708912 0 -0.054541043036048675 0.00037459196786485929 0 -0.053213024861180652 0.0032761396028525409 0 -0.056556704547506428 0.0052752137000213473 0 -0.056936845292845879 0.0055882758543030235 0 -0.056662143451982068 0.0059100902024490816 0 -0.054541043036048675 0.00037459196786485929 0 -0.057253207098555248 0.0048075389535195837 0 -0.057182954239129245 0.0027314795554648011 0 -0.055000047357070439 0.001508711993133024 0 -0.055856472540187052 0.00013434921756708912 0 -0.054999942743054128 -0.0015238154458219163 0 -0.055000047357070439 0.001508711993133024 0 -0.055856472540187052 0.00013434921756708912 0 -0.057182954239129245 0.0027314795554648011 0 -0.055000047357070439 0.001508711993133024 0 -0.054999605561546698 0.0045421246473074505 0 -0.057182954239129245 0.0027314795554648011 0 -0.054999605561546698 0.0045421246473074505 0 -0.056833291764153797 0.0063042336723753917 0 -0.057253207098555248 0.0048075389535195837 0 -0.056754158365988724 0.0059768640770804229 0 -0.056948332474308701 0.0061782515851874662 0 -0.056662143451982068 0.0059100902024490816 0 -0.056833291764153797 0.0063042336723753917 0 -0.054999929081262992 0.0075739595599519545 0 -0.054999605561546698 0.0045421246473074505 0 -0.056833291764153797 0.0063042336723753917 0 -0.060335534805886618 0.0067088740437220469 0 -0.060536903214034918 0.008636089948627388 0 -0.059549056173085479 0.0090613581691129132 0 -0.054878467128480879 0.005815556600883379 0 -0.056257122236139427 0.0056775079395664872 0 -0.05588670327388915 0.0071792865845212144 0 -0.057745315998036686 0.006092939485857117 0 -0.056735277312350223 0.0089232376679896554 0 -0.060335534805886618 0.0067088740437220469 0 -0.059256068889725316 0.0084787115111638178 0 -0.059549056173085479 0.0090613581691129132 0 -0.060335534805886618 0.0067088740437220469 0 -0.059256068889725316 0.0084787115111638178 0 -0.059677528120675699 0.0064319170325311502 0 -0.054878467128480879 0.005815556600883379 0 -0.053909386773546744 0.0044667436052735938 0 -0.05539416933354549 0.0047835606756636007 0 -0.060335534805886618 0.0067088740437220469 0 -0.059677528120675699 0.0064319170325311502 0 -0.060130211359327237 0.0045925167138897455 0 -0.057745315998036686 0.006092939485857117 0 -0.056997318133090641 0.0045319603227144678 0 -0.054878467128480879 0.005815556600883379 0 -0.056257122236139427 0.0056775079395664872 0 -0.05539416933354549 0.0047835606756636007 0 -0.051940574126465397 0.0083594038974622205 0 -0.051872991099872666 0.0083211923889918108 0 -0.051935027030444399 0.0083967995309166283 0 -0.053842897445306466 0.006849933520617261 0 -0.054384803606815628 0.0067008504978109656 0 -0.051872991099872666 0.0083211923889918108 0 -0.051525415252518053 0.0083660674180436427 0 -0.051791542591250357 0.008341934850354827 0 -0.051872991099872666 0.0083211923889918108 0 -0.052349653672947118 0.0086085035436886895 0 -0.051791542591250357 0.008341934850354827 0 -0.051940574126465397 0.0083594038974622205 0 -0.051872991099872666 0.0083211923889918108 0 -0.052349653672947118 0.0086085035436886895 0 -0.051940574126465397 0.0083594038974622205 0 -0.052349653672947118 0.0086085035436886895 0 -0.051923435959876078 0.0088333139954672336 0 -0.053842897445306466 0.006849933520617261 0 -0.056735277312350223 0.0089232376679896554 0 -0.052349653672947118 0.0086085035436886895 0 -0.052346247079263469 0.0089968430215930581 0 -0.051923435959876078 0.0088333139954672336 0 -0.052346247079263469 0.0089968430215930581 0 -0.052595662656904948 0.0094168219354174472 0 -0.051923435959876078 0.0088333139954672336 0 -0.054692661846011091 0.010109461299245436 0 -0.056735277312350223 0.0089232376679896554 0 -0.052346247079263469 0.0089968430215930581 0 -0.052595662656904948 0.0094168219354174472 0 -0.052878128020664272 0.0091949443691731504 0 -0.052349653672947118 0.0086085035436886895 0 -0.052346247079263469 0.0089968430215930581 0 -0.052878128020664272 0.0091949443691731504 0 -0.052595662656904948 0.0094168219354174472 0 -0.053352741283573889 0.0094440915919327337 0 -0.052878128020664272 0.0091949443691731504 0 -0.058457329153309638 0.0095808757929157096 0 -0.057244880889429216 0.010590102993153933 0 -0.059142359050565779 0.010124109139931293 0 -0.057244880889429216 0.010590102993153933 0 -0.059142359050565779 0.010124109139931293 0 -0.05868714186682078 0.011758525935915783 0 -0.058457329153309638 0.0095808757929157096 0 -0.059142359050565779 0.010124109139931293 0 -0.059051239353164267 0.0098721760962307056 0 -0.059142359050565779 0.010124109139931293 0 -0.060536903214034918 0.008636089948627388 0 -0.059549056173085479 0.0090613581691129132 0 -0.05946347894544924 0.010300127452092279 0 -0.056735277312350223 0.0089232376679896554 0 -0.059256068889725316 0.0084787115111638178 0 -0.059549056173085479 0.0090613581691129132 0 -0.059051239353164267 0.0098721760962307056 0 -0.059142359050565779 0.010124109139931293 0 -0.059549056173085479 0.0090613581691129132 0 -0.059051239353164267 0.0098721760962307056 0 -0.059051239353164267 0.0098721760962307056 0 -0.058455520539975783 0.009922459115672768 0 -0.058487169671735652 0.00905458805254865 0 -0.058455520539975783 0.009922459115672768 0 -0.057365615095452342 0.0088374614772853619 0 -0.058487169671735652 0.00905458805254865 0 -0.05838102241121524 0.0098529819086036752 0 -0.05787502648160231 0.0095015159292683171 0 -0.057365615095452342 0.0088374614772853619 0 -0.058487169671735652 0.00905458805254865 0 -0.057796761575357375 0.0078215151026322215 0 -0.059256068889725316 0.0084787115111638178 0 -0.059051239353164267 0.0098721760962307056 0 -0.058487169671735652 0.00905458805254865 0 -0.059256068889725316 0.0084787115111638178 0 -0.058487169671735652 0.00905458805254865 0 -0.05891795760911632 0.0073491680999271348 0 -0.058487169671735652 0.00905458805254865 0 -0.05891795760911632 0.0073491680999271348 0 -0.057796761575357375 0.0078215151026322215 0 -0.058437007332222804 0.010946245597925425 0 -0.058445218663993777 0.010284963337002838 0 -0.058514288914931704 0.010146688588138756 0 -0.058445218663993777 0.010284963337002838 0 -0.058514288914931704 0.010146688588138756 0 -0.058540901887937986 0.010000169420305297 0 -0.058455520539975783 0.009922459115672768 0 -0.058549832778663671 0.010011566311622243 0 -0.058514288914931704 0.010146688588138756 0 -0.058549832778663671 0.010011566311622243 0 -0.058514288914931704 0.010146688588138756 0 -0.058540901887937986 0.010000169420305297 0 -0.058549832778663671 0.010011566311622243 0 -0.058540901887937986 0.010000169420305297 0 -0.058568628079747324 0.0098961492040848982 0 -0.05787502648160231 0.0095015159292683171 0 -0.059053170327151738 0.0074436675000689699 0 -0.058540901887937986 0.010000169420305297 0 -0.058451965787042703 0.0098797749072849789 0 -0.058568628079747324 0.0098961492040848982 0 -0.058445218663993777 0.010284963337002838 0 -0.058540901887937986 0.010000169420305297 0 -0.058451965787042703 0.0098797749072849789 0 -0.059057505935410502 0.0093928751887047308 0 -0.059053170327151738 0.0074436675000689699 0 -0.0595530197162518 0.0087245063110132724 0 -0.059706600417568312 0.0070652744463930483 0 -0.061472798465296845 0.0075386908641782539 0 -0.059053170327151738 0.0074436675000689699 0 -0.058780246358760099 0.0055792133511684307 0 -0.059053170327151738 0.0074436675000689699 0 -0.05997697253661944 0.0050032484720144692 0 -0.059698260573516113 0.004957873153538051 0 -0.059839612935163745 0.0045116130953417842 0 -0.059955776684436406 0.0047583609892924315 0 -0.059698260573516113 0.004957873153538051 0 -0.059839612935163745 0.0045116130953417842 0 -0.059450563264034521 0.0045316919250362412 0 -0.059706600417568312 0.0070652744463930483 0 -0.061472798465296845 0.0075386908641782539 0 -0.060433740406984376 0.0057080559760964407 0 -0.05841548612677077 0.0056139249347664623 0 -0.059706600417568312 0.0070652744463930483 0 -0.060433740406984376 0.0057080559760964407 0 -0.059256068889725316 0.0084787115111638178 0 -0.05891795760911632 0.0073491680999271348 0 -0.059677528120675699 0.0064319170325311502 0 -0.057365615095452342 0.0088374614772853619 0 -0.056374160298082114 0.0072844246621454837 0 -0.057796761575357375 0.0078215151026322215 0 -0.056374160298082114 0.0072844246621454837 0 -0.057796761575357375 0.0078215151026322215 0 -0.057641548486428405 0.0064128204572597601 0 -0.05891795760911632 0.0073491680999271348 0 -0.057796761575357375 0.0078215151026322215 0 -0.057641548486428405 0.0064128204572597601 0 -0.058780246358760099 0.0055792133511684307 0 -0.059529520023013441 0.0051974857397932579 0 -0.059955776684436406 0.0047583609892924315 0 -0.059590167541598016 0.0051800582722979606 0 -0.059962786350420912 0.0045636543484660654 0 -0.059839612935163745 0.0045116130953417842 0 -0.059955776684436406 0.0047583609892924315 0 -0.060029345512351409 0.0042732316732155525 0 -0.05891795760911632 0.0073491680999271348 0 -0.059677528120675699 0.0064319170325311502 0 -0.059590167541598016 0.0051800582722979606 0 -0.05891795760911632 0.0073491680999271348 0 -0.057641548486428405 0.0064128204572597601 0 -0.059590167541598016 0.0051800582722979606 0 -0.059677528120675699 0.0064319170325311502 0 -0.059590167541598016 0.0051800582722979606 0 -0.060130211359327237 0.0045925167138897455 0 -0.060130211359327237 0.0045925167138897455 0 -0.059962786350420912 0.0045636543484660654 0 -0.06066870968767641 0.0032585895627260573 0 -0.059590167541598016 0.0051800582722979606 0 -0.060130211359327237 0.0045925167138897455 0 -0.059962786350420912 0.0045636543484660654 0 -0.059962786350420912 0.0045636543484660654 0 -0.060029345512351409 0.0042732316732155525 0 -0.06066870968767641 0.0032585895627260573 0 -0.059955776684436406 0.0047583609892924315 0 -0.059962786350420912 0.0045636543484660654 0 -0.060029345512351409 0.0042732316732155525 0 -0.060029345512351409 0.0042732316732155525 0 -0.06066870968767641 0.0032585895627260573 0 -0.059875199001580011 0.0036627766713214715 0 -0.06066870968767641 0.0032585895627260573 0 -0.059875199001580011 0.0036627766713214715 0 -0.060700740821423307 0.0013117700818257589 0 -0.053909386773546744 0.0044667436052735938 0 -0.052967627171064589 0.0031387505355514188 0 -0.054151673043183704 0.0029008306978465133 0 -0.056997318133090641 0.0045319603227144678 0 -0.056708517580521076 0.0030441021013140153 0 -0.05841548612677077 0.0056139249347664623 0 -0.060433740406984376 0.0057080559760964407 0 -0.059169469107799237 0.0038385206241501038 0 -0.059450563264034521 0.0045316919250362412 0 -0.059169469107799237 0.0038385206241501038 0 -0.059875199001580011 0.0036627766713214715 0 -0.05997697253661944 0.0050032484720144692 0 -0.059261768390082077 0.0039948204052213032 0 -0.059839612935163745 0.0045116130953417842 0 -0.059450563264034521 0.0045316919250362412 0 -0.059875199001580011 0.0036627766713214715 0 -0.059839612935163745 0.0045116130953417842 0 -0.060029345512351409 0.0042732316732155525 0 -0.059875199001580011 0.0036627766713214715 0 -0.059169469107799237 0.0038385206241501038 0 -0.059875199001580011 0.0036627766713214715 0 -0.05912728560714612 0.0023059255032330363 0 -0.05912728560714612 0.0023059255032330363 0 -0.060700740821423307 0.0013117700818257589 0 -0.059285386551373657 0.00046940081919800167 0 -0.059875199001580011 0.0036627766713214715 0 -0.05912728560714612 0.0023059255032330363 0 -0.060700740821423307 0.0013117700818257589 0 -0.054397093193741253 -0.0024287164714634347 0 -0.056644074675045925 0.0019852149170934219 0 -0.051202305563833581 0.00056924988923084312 0 -0.05206233323029251 0.00182872879990193 0 -0.052547247953363498 0.001113871917671526 0 -0.060160021128002061 -0.001079831679399865 0 -0.05909264004743249 -0.00088126803522352586 0 -0.059285386551373657 0.00046940081919800167 0 -0.060160021128002061 -0.001079831679399865 0 -0.060700740821423307 0.0013117700818257589 0 -0.059285386551373657 0.00046940081919800167 0 -0.052967627171064589 0.0031387505355514188 0 -0.053042569128415949 0.0020626997694848806 0 -0.054151673043183704 0.0029008306978465133 0 -0.053042569128415949 0.0020626997694848806 0 -0.053979001640409641 0.0016487121257457 0 -0.054151673043183704 0.0029008306978465133 0 -0.056708517580521076 0.0030441021013140153 0 -0.056644074675045925 0.0019852149170934219 0 -0.052967627171064589 0.0031387505355514188 0 -0.05206233323029251 0.00182872879990193 0 -0.053042569128415949 0.0020626997694848806 0 -0.05206233323029251 0.00182872879990193 0 -0.053042569128415949 0.0020626997694848806 0 -0.052547247953363498 0.001113871917671526 0 -0.050140266236622093 -0.0028536800964907077 0 -0.052438244340453369 -0.0020734170563559908 0 -0.053042569128415949 0.0020626997694848806 0 -0.052547247953363498 0.001113871917671526 0 -0.053979001640409641 0.0016487121257457 0 -0.051141032087647455 -0.0066507389270677409 0 -0.050537312134027762 -0.0060451422767330131 0 -0.051475500330681961 -0.0055800225254928519 0 -0.052438244340453369 -0.0020734170563559908 0 -0.053669781646733992 -0.0022496409122374538 0 -0.051141032087647455 -0.0066507389270677409 0 -0.051475500330681961 -0.0055800225254928519 0 -0.052025543116274241 -0.0063118029376327961 0 -0.055455563482448525 0.0021992427457719361 0 -0.055185579723406736 0.0036952358758388362 0 -0.056946022753385735 0.0027635742881508031 0 -0.053979001640409641 0.0016487121257457 0 -0.055455563482448525 0.0021992427457719361 0 -0.054151673043183704 0.0029008306978465133 0 -0.053909386773546744 0.0044667436052735938 0 -0.054151673043183704 0.0029008306978465133 0 -0.055185579723406736 0.0036952358758388362 0 -0.055455563482448525 0.0021992427457719361 0 -0.054151673043183704 0.0029008306978465133 0 -0.055185579723406736 0.0036952358758388362 0 -0.055185579723406736 0.0036952358758388362 0 -0.05539416933354549 0.0047835606756636007 0 -0.056600738220856782 0.0042094400885390416 0 -0.053909386773546744 0.0044667436052735938 0 -0.055185579723406736 0.0036952358758388362 0 -0.05539416933354549 0.0047835606756636007 0 -0.051872991099872666 0.0083211923889918108 0 -0.051935027030444399 0.0083967995309166283 0 -0.051525415252518053 0.0083660674180436427 0 -0.056257122236139427 0.0056775079395664872 0 -0.05539416933354549 0.0047835606756636007 0 -0.056600738220856782 0.0042094400885390416 0 -0.055185579723406736 0.0036952358758388362 0 -0.056600738220856782 0.0042094400885390416 0 -0.056946022753385735 0.0027635742881508031 0 -0.054384803606815628 0.0067008504978109656 0 -0.052790211739242782 0.0037169018873558991 0 -0.051935027030444399 0.0083967995309166283 0 -0.051454599340269427 0.0087373747035095657 0 -0.051525415252518053 0.0083660674180436427 0 -0.051935027030444399 0.0083967995309166283 0 -0.051776470383537047 0.0088246920387230893 0 -0.051454599340269427 0.0087373747035095657 0 -0.047989510014274636 0.0078122844528675595 0 -0.049026425152424592 0.0071143557345055434 0 -0.049265859854241138 0.0082414931720715696 0 -0.052790211739242782 0.0037169018873558991 0 -0.050246098198814169 0.0082168407653462651 0 -0.052790211739242782 0.0037169018873558991 0 -0.050411569807907189 0.00045113811875878293 0 -0.047989510014274636 0.0078122844528675595 0 -0.049026425152424592 0.0071143557345055434 0 -0.048237289703545662 0.0065172524565486707 0 -0.051475500330681961 -0.0055800225254928519 0 -0.052527125580842791 -0.0050890383997577518 0 -0.052689692997739734 -0.0058149958985454228 0 -0.053669781646733992 -0.0022496409122374538 0 -0.052790211739242782 0.0037169018873558991 0 -0.051475500330681961 -0.0055800225254928519 0 -0.052025543116274241 -0.0063118029376327961 0 -0.052689692997739734 -0.0058149958985454228 0 -0.0528440502400538 -0.0065241233296243397 0 -0.052025543116274241 -0.0063118029376327961 0 -0.052689692997739734 -0.0058149958985454228 0 -0.049026425152424592 0.0071143557345055434 0 -0.04868822254484137 0.0059331601027541305 0 -0.049391569261656214 0.0064044349403726874 0 -0.049026425152424592 0.0071143557345055434 0 -0.048237289703545662 0.0065172524565486707 0 -0.04868822254484137 0.0059331601027541305 0 -0.047591567603393559 -0.0040534283525386948 0 -0.050411569807907189 0.00045113811875878293 0 -0.048483609238919985 0.0050600814056051529 0 -0.048237289703545662 0.0065172524565486707 0 -0.04868822254484137 0.0059331601027541305 0 -0.048483609238919985 0.0050600814056051529 0 -0.04868822254484137 0.0059331601027541305 0 -0.049391569261656214 0.0064044349403726874 0 -0.047591567603393559 -0.0040534283525386948 0 -0.048569461856852632 -0.00085109493181762539 0 -0.048483609238919985 0.0050600814056051529 0 -0.049391569261656214 0.0064044349403726874 0 -0.050527290391752494 0.0065665703394809979 0 -0.045321087900461444 -0.0099401080759751216 0 -0.046052429901004263 -0.0098591005170541798 0 -0.046857606260962734 -0.0087755389190289287 0 -0.049391569261656214 0.0064044349403726874 0 -0.050527290391752494 0.0065665703394809979 0 -0.050041936030230716 0.0074149899462426661 0 -0.046052429901004263 -0.0098591005170541798 0 -0.046402032998859651 -0.0097598523547628938 0 -0.046857606260962734 -0.0087755389190289287 0 -0.046402032998859651 -0.0097598523547628938 0 -0.046713402919621283 -0.0097878089718772751 0 -0.046857606260962734 -0.0087755389190289287 0 -0.047088202752314179 -0.0097947945500860122 0 -0.046857606260962734 -0.0087755389190289287 0 -0.048061731555081581 -0.0091109731646588452 0 -0.046713402919621283 -0.0097878089718772751 0 -0.047088202752314179 -0.0097947945500860122 0 -0.046857606260962734 -0.0087755389190289287 0 -0.050527290391752494 0.0065665703394809979 0 -0.050787828273510568 0.0077624630488700424 0 -0.051183991399574309 0.007910672495199696 0 -0.050527290391752494 0.0065665703394809979 0 -0.050787828273510568 0.0077624630488700424 0 -0.050041936030230716 0.0074149899462426661 0 -0.050787828273510568 0.0077624630488700424 0 -0.050041936030230716 0.0074149899462426661 0 -0.050796989281856948 0.0084788350358771507 0 -0.048569461856852632 -0.00085109493181762539 0 -0.050128423363514425 -0.00018684257929485755 0 -0.049026425152424592 0.0071143557345055434 0 -0.050041936030230716 0.0074149899462426661 0 -0.049265859854241138 0.0082414931720715696 0 -0.049026425152424592 0.0071143557345055434 0 -0.049391569261656214 0.0064044349403726874 0 -0.050041936030230716 0.0074149899462426661 0 -0.049284303120282508 -0.0099237923484012131 0 -0.050227622558714539 -0.0089118943674210849 0 -0.049072823328429209 -0.0088907773109240581 0 -0.050227622558714539 -0.0089118943674210849 0 -0.049072823328429209 -0.0088907773109240581 0 -0.049667494434291762 -0.0078565182792370066 0 -0.046857606260962734 -0.0087755389190289287 0 -0.048061731555081581 -0.0091109731646588452 0 -0.048641145159736672 -0.0074634458073997174 0 -0.049072823328429209 -0.0088907773109240581 0 -0.048061731555081581 -0.0091109731646588452 0 -0.048641145159736672 -0.0074634458073997174 0 -0.048710557177815195 -0.0097114952313659565 0 -0.049072823328429209 -0.0088907773109240581 0 -0.048061731555081581 -0.0091109731646588452 0 -0.050787828273510568 0.0077624630488700424 0 -0.051183991399574309 0.007910672495199696 0 -0.051002614827763568 0.008198566752081483 0 -0.050128423363514425 -0.00018684257929485755 0 -0.048862959221908454 0.0040715473786097174 0 -0.048641145159736672 -0.0074634458073997174 0 -0.049667494434291762 -0.0078565182792370066 0 -0.050760664292385335 -0.0061193984387221947 0 -0.050227622558714539 -0.0089118943674210849 0 -0.049667494434291762 -0.0078565182792370066 0 -0.050760664292385335 -0.0061193984387221947 0 -0.049072823328429209 -0.0088907773109240581 0 -0.048641145159736672 -0.0074634458073997174 0 -0.049667494434291762 -0.0078565182792370066 0 -0.051183991399574309 0.007910672495199696 0 -0.050841611046790698 0.0082306068153758082 0 -0.050650683532979503 0.0083290540303622203 0 -0.051183991399574309 0.007910672495199696 0 -0.050841611046790698 0.0082306068153758082 0 -0.050979988987532358 0.0082004954526941846 0 -0.050841611046790698 0.0082306068153758082 0 -0.050851701875298937 0.0082163007142513258 0 -0.050670679822955922 0.0082064904405718883 0 -0.050841611046790698 0.0082306068153758082 0 -0.050670679822955922 0.0082064904405718883 0 -0.050572575948685514 0.0082789038888415965 0 -0.050841611046790698 0.0082306068153758082 0 -0.050650683532979503 0.0083290540303622203 0 -0.050572575948685514 0.0082789038888415965 0 -0.050841611046790698 0.0082306068153758082 0 -0.050979988987532358 0.0082004954526941846 0 -0.050851701875298937 0.0082163007142513258 0 -0.051183991399574309 0.007910672495199696 0 -0.050979988987532358 0.0082004954526941846 0 -0.051002614827763568 0.008198566752081483 0 -0.050979988987532358 0.0082004954526941846 0 -0.050967131949862354 0.0082653566417900618 0 -0.050851701875298937 0.0082163007142513258 0 -0.050979988987532358 0.0082004954526941846 0 -0.051002614827763568 0.008198566752081483 0 -0.050967131949862354 0.0082653566417900618 0 -0.051002614827763568 0.008198566752081483 0 -0.050967131949862354 0.0082653566417900618 0 -0.051026389004538861 0.0083540697627130373 0 -0.050967131949862354 0.0082653566417900618 0 -0.051026389004538861 0.0083540697627130373 0 -0.051044979532766745 0.0081998333393709776 0 -0.050967131949862354 0.0082653566417900618 0 -0.050860224731928361 0.0081687919518701503 0 -0.051044979532766745 0.0081998333393709776 0 -0.050967131949862354 0.0082653566417900618 0 -0.050851701875298937 0.0082163007142513258 0 -0.050860224731928361 0.0081687919518701503 0 -0.050851701875298937 0.0082163007142513258 0 -0.050860224731928361 0.0081687919518701503 0 -0.050690715440848806 0.0081602249295861708 0 -0.050860224731928361 0.0081687919518701503 0 -0.050690715440848806 0.0081602249295861708 0 -0.050621368618100092 0.0080926154508285334 0 -0.050851701875298937 0.0082163007142513258 0 -0.050690715440848806 0.0081602249295861708 0 -0.050670679822955922 0.0082064904405718883 0 -0.050041936030230716 0.0074149899462426661 0 -0.049265859854241138 0.0082414931720715696 0 -0.050796989281856948 0.0084788350358771507 0 -0.051454599340269427 0.0087373747035095657 0 -0.050796989281856948 0.0084788350358771507 0 -0.051525415252518053 0.0083660674180436427 0 -0.050246098198814169 0.0082168407653462651 0 -0.050761008053909602 0.0085127128252802716 0 -0.050787828273510568 0.0077624630488700424 0 -0.051002614827763568 0.008198566752081483 0 -0.050796989281856948 0.0084788350358771507 0 -0.051002614827763568 0.008198566752081483 0 -0.050796989281856948 0.0084788350358771507 0 -0.051026389004538861 0.0083540697627130373 0 -0.050796989281856948 0.0084788350358771507 0 -0.05128625490615233 0.0083302580401628818 0 -0.051026389004538861 0.0083540697627130373 0 -0.05128625490615233 0.0083302580401628818 0 -0.051026389004538861 0.0083540697627130373 0 -0.051044979532766745 0.0081998333393709776 0 -0.050796989281856948 0.0084788350358771507 0 -0.05128625490615233 0.0083302580401628818 0 -0.051525415252518053 0.0083660674180436427 0 -0.05128625490615233 0.0083302580401628818 0 -0.051791542591250357 0.008341934850354827 0 -0.051395053203414816 0.0080338482106818276 0 -0.05128625490615233 0.0083302580401628818 0 -0.051525415252518053 0.0083660674180436427 0 -0.051791542591250357 0.008341934850354827 0 -0.052349653672947118 0.0086085035436886895 0 -0.052929097511838094 0.0094585878330146634 0 -0.052878128020664272 0.0091949443691731504 0 -0.052349653672947118 0.0086085035436886895 0 -0.051791542591250357 0.008341934850354827 0 -0.051395053203414816 0.0080338482106818276 0 -0.052486126447682621 0.0085899969564979198 0 -0.051576297911082987 0.0088983798797614699 0 -0.05128625490615233 0.0083302580401628818 0 -0.051395053203414816 0.0080338482106818276 0 -0.051044979532766745 0.0081998333393709776 0 -0.051395053203414816 0.0080338482106818276 0 -0.051044979532766745 0.0081998333393709776 0 -0.050875937756528204 0.0079501339405382947 0 -0.050860224731928361 0.0081687919518701503 0 -0.051044979532766745 0.0081998333393709776 0 -0.050875937756528204 0.0079501339405382947 0 -0.053795795602464419 0.0082062012731859719 0 -0.041378790508645458 0.013707480989844832 0 -0.050860224731928361 0.0081687919518701503 0 -0.050621368618100092 0.0080926154508285334 0 -0.050875937756528204 0.0079501339405382947 0 -0.050621368618100092 0.0080926154508285334 0 -0.050875937756528204 0.0079501339405382947 0 -0.050428910850108651 0.0079579015633685166 0 -0.052327858778544012 0.0099906926734428473 0 -0.051764185096580172 0.0096363293557048327 0 -0.051521930664087078 0.010253969682424225 0 -0.051576297911082987 0.0088983798797614699 0 -0.053795795602464419 0.0082062012731859719 0 -0.052929097511838094 0.0094585878330146634 0 -0.052327858778544012 0.0099906926734428473 0 -0.052655872387848607 0.009471395023962487 0 -0.052327858778544012 0.0099906926734428473 0 -0.052655872387848607 0.009471395023962487 0 -0.052204068397595907 0.0095122684404839418 0 -0.052327858778544012 0.0099906926734428473 0 -0.052204068397595907 0.0095122684404839418 0 -0.051764185096580172 0.0096363293557048327 0 -0.052204068397595907 0.0095122684404839418 0 -0.052375372234531758 0.0093216194733598632 0 -0.051895702080161865 0.0092492690576105041 0 -0.052204068397595907 0.0095122684404839418 0 -0.051764185096580172 0.0096363293557048327 0 -0.051895702080161865 0.0092492690576105041 0 -0.052655872387848607 0.009471395023962487 0 -0.052204068397595907 0.0095122684404839418 0 -0.052375372234531758 0.0093216194733598632 0 -0.052655872387848607 0.009471395023962487 0 -0.052375372234531758 0.0093216194733598632 0 -0.052662831036410028 0.0093345766177844996 0 -0.052375372234531758 0.0093216194733598632 0 -0.052662831036410028 0.0093345766177844996 0 -0.052598059165747654 0.0092522929681224213 0 -0.052662831036410028 0.0093345766177844996 0 -0.052921878244609338 0.0093888087359726754 0 -0.052830257864392424 0.0092645031336936953 0 -0.052662831036410028 0.0093345766177844996 0 -0.052830257864392424 0.0092645031336936953 0 -0.052598059165747654 0.0092522929681224213 0 -0.052655872387848607 0.009471395023962487 0 -0.052662831036410028 0.0093345766177844996 0 -0.052921878244609338 0.0093888087359726754 0 -0.052921878244609338 0.0093888087359726754 0 -0.053087734498138917 0.009394200294443867 0 -0.052944673355185989 0.0093835420633689871 0 -0.052921878244609338 0.0093888087359726754 0 -0.053087734498138917 0.009394200294443867 0 -0.05312148341826374 0.0093504406918253572 0 -0.052921878244609338 0.0093888087359726754 0 -0.052830257864392424 0.0092645031336936953 0 -0.05312148341826374 0.0093504406918253572 0 -0.053352741283573889 0.0094440915919327337 0 -0.053087734498138917 0.009394200294443867 0 -0.052878128020664272 0.0091949443691731504 0 -0.053352741283573889 0.0094440915919327337 0 -0.053087734498138917 0.009394200294443867 0 -0.05312148341826374 0.0093504406918253572 0 -0.052929097511838094 0.0094585878330146634 0 -0.052878128020664272 0.0091949443691731504 0 -0.052944673355185989 0.0093835420633689871 0 -0.053087734498138917 0.009394200294443867 0 -0.052878128020664272 0.0091949443691731504 0 -0.052944673355185989 0.0093835420633689871 0 -0.052929097511838094 0.0094585878330146634 0 -0.052655872387848607 0.009471395023962487 0 -0.052944673355185989 0.0093835420633689871 0 -0.052655872387848607 0.009471395023962487 0 -0.052921878244609338 0.0093888087359726754 0 -0.052944673355185989 0.0093835420633689871 0 -0.0085179125058963585 0.029373189974618189 0 -0.008126173302540252 0.03051664479143475 0 -0.0075485524337158766 0.028854754888907066 0 -0.028007627445612682 0.018242892762088483 0 -0.028166844988281793 0.018219298616719011 0 -0.028163376533038874 0.018236977705932817 0 -0.016190147606171084 0.026614215926179234 0 -0.018011640378094902 0.023532028336185683 0 -0.0085179125058963585 0.029373189974618189 0 -0.009077257663328564 0.030205995069034826 0 -0.009264338829359179 0.029131419986796154 0 -0.0085179125058963585 0.029373189974618189 0 -0.009077257663328564 0.030205995069034826 0 -0.008126173302540252 0.03051664479143475 0 -0.009077257663328564 0.030205995069034826 0 -0.009264338829359179 0.029131419986796154 0 -0.010100277445298299 0.029915868775254529 0 -0.0080615111805049169 0.030586679322019441 0 -0.010350777186613164 0.029833479416839368 0 -0.0094778726413759663 0.030244826856462514 0 -0.0095001569267403035 0.030844322138552475 0 -0.0088502769158888082 0.030477801205550912 0 -0.0080615111805049169 0.030586679322019441 0 -0.016190147606171084 0.026614215926179234 0 -0.0095001569267403035 0.030844322138552475 0 -0.0088502769158888082 0.030477801205550912 0 -0.009168922455776829 0.031583826045018637 0 -0.0094778726413759663 0.030244826856462514 0 -0.0095001569267403035 0.030844322138552475 0 -0.010062778677071187 0.03066555611611509 0 -0.0095001569267403035 0.030844322138552475 0 -0.010062778677071187 0.03066555611611509 0 -0.0099573119939320495 0.031260808378095362 0 -0.016190147606171084 0.026614215926179234 0 -0.011993782461380935 0.03299448373613028 0 -0.015442884402820904 0.032710357575393485 0 -0.015440870659107162 0.032744742512633165 0 -0.015392571211387693 0.032827440113267888 0 -0.028007627445612682 0.018242892762088483 0 -0.028169099357686026 0.018170405982050934 0 -0.028166844988281793 0.018219298616719011 0 -0.016190147606171084 0.026614215926179234 0 -0.020139166894664121 0.025988953744194739 0 -0.040475481722128066 0.012269305728693929 0 -0.036200583114074904 0.021923517251242339 0 -0.028169099357686026 0.018170405982050934 0 -0.02829105274144407 0.018197058621632626 0 -0.028368150540757857 0.018133988012871909 0 -0.020139166894664121 0.025988953744194739 0 -0.036200583114074904 0.021923517251242339 0 -0.028169099357686026 0.018170405982050934 0 -0.02829105274144407 0.018197058621632626 0 -0.028166844988281793 0.018219298616719011 0 -0.02829105274144407 0.018197058621632626 0 -0.028166844988281793 0.018219298616719011 0 -0.028216643393211539 0.018196465919673988 0 -0.028166844988281793 0.018219298616719011 0 -0.028216643393211539 0.018196465919673988 0 -0.028163376533038874 0.018236977705932817 0 -0.028216643393211539 0.018196465919673988 0 -0.028259240250803369 0.0181424617604929 0 -0.028224701859549995 0.018125962079949574 0 -0.028216643393211539 0.018196465919673988 0 -0.028224701859549995 0.018125962079949574 0 -0.028163376533038874 0.018236977705932817 0 -0.02829105274144407 0.018197058621632626 0 -0.028216643393211539 0.018196465919673988 0 -0.028259240250803369 0.0181424617604929 0 -0.040475481722128066 0.012269305728693929 0 -0.041378790508645458 0.013707480989844832 0 -0.050621368618100092 0.0080926154508285334 0 -0.050428910850108651 0.0079579015633685166 0 -0.050370070312276305 0.0081146176410187027 0 -0.041378790508645458 0.013707480989844832 0 -0.039010492093521316 0.012156525470043209 0 -0.028224701859549995 0.018125962079949574 0 -0.02822488550806028 0.01807876977358323 0 -0.028163376533038874 0.018236977705932817 0 -0.017954608121418351 0.020568619958965903 0 -0.018011640378094902 0.023532028336185683 0 -0.027560432123048251 0.018260410270187089 0 -0.028213944214491027 0.018081174708693228 0 -0.027686950930194618 0.017164961485182102 0 -0.027560432123048251 0.018260410270187089 0 -0.028224701859549995 0.018125962079949574 0 -0.028213944214491027 0.018081174708693228 0 -0.041378790508645458 0.013707480989844832 0 -0.025154190018250304 0.018217502232670237 0 -0.028213944214491027 0.018081174708693228 0 -0.028462080548330448 0.017610913515108236 0 -0.027686950930194618 0.017164961485182102 0 -0.028224701859549995 0.018125962079949574 0 -0.028213944214491027 0.018081174708693228 0 -0.02822488550806028 0.01807876977358323 0 -0.023417697881127766 0.016587243916476854 0 -0.017954608121418351 0.020568619958965903 0 -0.0078507471172270318 0.027340317293686887 0 -0.0085772351307366376 0.028107725410820818 0 -0.0084779960414256839 0.02669142428563465 0 -0.0069515346562722645 0.027103119232643882 0 -0.0078507471172270318 0.027340317293686887 0 -0.0075485524337158766 0.028854754888907066 0 -0.0078507471172270318 0.027340317293686887 0 -0.0075485524337158766 0.028854754888907066 0 -0.0085772351307366376 0.028107725410820818 0 -0.0085179125058963585 0.029373189974618189 0 -0.0075485524337158766 0.028854754888907066 0 -0.0085772351307366376 0.028107725410820818 0 -0.0085179125058963585 0.029373189974618189 0 -0.009264338829359179 0.029131419986796154 0 -0.0085772351307366376 0.028107725410820818 0 -0.009264338829359179 0.029131419986796154 0 -0.0093876591597217597 0.028352827291231439 0 -0.010146541977260535 0.028841056315058733 0 -0.009264338829359179 0.029131419986796154 0 -0.0085772351307366376 0.028107725410820818 0 -0.0093876591597217597 0.028352827291231439 0 -0.0085772351307366376 0.028107725410820818 0 -0.0093876591597217597 0.028352827291231439 0 -0.0095697533198127842 0.027324973208027018 0 -0.0085772351307366376 0.028107725410820818 0 -0.0095697533198127842 0.027324973208027018 0 -0.0084779960414256839 0.02669142428563465 0 0.00053060161861704042 0.035299307414431505 0 -0.0011327048082202852 0.031804772280245905 0 0.0037284259414003067 0.037411695684337248 0 0.0050574772798930596 0.035380721720611408 0 0.0031731335594245703 0.035055003411156506 0 0.00053060161861704042 0.035299307414431505 0 0.0043324576376262622 0.035830801646775566 0 0.0039990799852850315 0.038165927695157524 0 0.0050574772798930596 0.035380721720611408 0 0.0070289921194579379 0.03656634162616143 0 0.0050574772798930596 0.035380721720611408 0 0.0047931175082705441 0.032636519761372149 0 0.0031731335594245703 0.035055003411156506 0 0.0050574772798930596 0.035380721720611408 0 0.0070289921194579379 0.03656634162616143 0 0.007012325318945945 0.033982591116943545 0 -0.0078507471172270318 0.027340317293686887 0 -0.0084779960414256839 0.02669142428563465 0 -0.0073801310230633844 0.0260590852340713 0 -0.0069515346562722645 0.027103119232643882 0 -0.0078507471172270318 0.027340317293686887 0 -0.0073801310230633844 0.0260590852340713 0 -0.0011327048082202852 0.031804772280245905 0 -0.0015831986087361603 0.023136769170154961 0 0.0070289921194579379 0.03656634162616143 0 0.0098888327292543932 0.034959730051840401 0 0.007012325318945945 0.033982591116943545 0 -0.0016202206595791276 0.014703291351187099 0 -0.00056066372973463327 0.013892475576606727 0 -0.0021946580129333574 0.012881639636428526 0 -0.0015831986087361603 0.023136769170154961 0 0.0038205425722519577 0.022296577796460198 0 0.0098888327292543932 0.034959730051840401 0 0.007012325318945945 0.033982591116943545 0 0.0082117434328425418 0.030614310099042315 0 0.0047931175082705441 0.032636519761372149 0 0.007012325318945945 0.033982591116943545 0 0.0082117434328425418 0.030614310099042315 0 0.0050574772798930596 0.035380721720611408 0 0.0047931175082705441 0.032636519761372149 0 0.007012325318945945 0.033982591116943545 0 -0.050370070312276305 0.0081146176410187027 0 -0.050461228206964553 0.0081809092145503672 0 -0.050169110941570859 0.00825856581480644 0 -0.050670679822955922 0.0082064904405718883 0 -0.050461228206964553 0.0081809092145503672 0 -0.050527007377613932 0.008227818582517657 0 -0.050690715440848806 0.0081602249295861708 0 -0.050670679822955922 0.0082064904405718883 0 -0.050461228206964553 0.0081809092145503672 0 -0.050690715440848806 0.0081602249295861708 0 -0.050621368618100092 0.0080926154508285334 0 -0.050461228206964553 0.0081809092145503672 0 -0.050621368618100092 0.0080926154508285334 0 -0.050370070312276305 0.0081146176410187027 0 -0.050461228206964553 0.0081809092145503672 0 -0.011753331539402612 0.01786940086740443 0 -0.012464626810683471 0.016259321829798667 0 -0.010874764182546348 0.015340093867426898 0 -0.028462080548330448 0.017610913515108236 0 -0.027686950930194618 0.017164961485182102 0 -0.027940905152751036 0.01593143867482447 0 -0.017954608121418351 0.020568619958965903 0 -0.026982538815427566 0.012314121707780521 0 -0.039010492093521316 0.012156525470043209 0 -0.026982538815427566 0.012314121707780521 0 -0.017954608121418351 0.020568619958965903 0 -0.0015831986087361603 0.023136769170154961 0 -0.0015831986087361603 0.023136769170154961 0 -0.026982538815427566 0.012314121707780521 0 -0.0016202206595791276 0.014703291351187099 0 -0.00056066372973463327 0.013892475576606727 0 -0.00054884434518610143 0.014048615417934316 0 -0.027369074016205353 0.012314548639283419 0 -0.026982538815427566 0.012314121707780521 0 -0.039317880955528746 0.011255168008556514 0 -0.039233701359627705 0.011681041294820643 0 -0.036082663718269077 0.0099455232528342478 0 -0.050461228206964553 0.0081809092145503672 0 -0.050169110941570859 0.00825856581480644 0 -0.050400387256248042 0.0082575998418257281 0 -0.050169110941570859 0.00825856581480644 0 -0.050400387256248042 0.0082575998418257281 0 -0.050540196465037004 0.0083481089076069409 0 -0.026982538815427566 0.012314121707780521 0 -0.048862959221908454 0.0040715473786097174 0 -0.050400387256248042 0.0082575998418257281 0 -0.050540196465037004 0.0083481089076069409 0 -0.050572575948685514 0.0082789038888415965 0 -0.048862959221908454 0.0040715473786097174 0 -0.049386497353587445 0.0061676648967628304 0 -0.050400387256248042 0.0082575998418257281 0 -0.050572575948685514 0.0082789038888415965 0 -0.050527007377613932 0.008227818582517657 0 -0.050461228206964553 0.0081809092145503672 0 -0.050400387256248042 0.0082575998418257281 0 -0.050527007377613932 0.008227818582517657 0 -0.050670679822955922 0.0082064904405718883 0 -0.050572575948685514 0.0082789038888415965 0 -0.050527007377613932 0.008227818582517657 0 -0.04180020254297933 -0.0030998501599814924 0 -0.048862959221908454 0.0040715473786097174 0 -0.027369074016205353 0.012314548639283419 0 -0.037733743281875225 0.0055043934006624076 0 -0.039317880955528746 0.011255168008556514 0 -0.036082663718269077 0.0099455232528342478 0 -0.037348475247162428 0.0054518572794349778 0 -0.03488332221063082 0.0040131890128365186 0 -0.036082663718269077 0.0099455232528342478 0 -0.037348475247162428 0.0054518572794349778 0 -0.036420358590083454 0.010463802398266121 0 -0.037633623809408413 0.0057196789350425631 0 -0.035167175491836997 0.0055554270124778433 0 -0.027369074016205353 0.012314548639283419 0 -0.018037806158106399 0.0088584215594591821 0 -0.00056066372973463327 0.013892475576606727 0 -0.00072294847259735139 0.011725494284293148 0 -0.0021946580129333574 0.012881639636428526 0 -0.036396938662531221 0.0025975553455051272 0 -0.037633623809408413 0.0057196789350425631 0 -0.035167175491836997 0.0055554270124778433 0 -0.019975760810352437 0.0052491230012124647 0 -0.018037806158106399 0.0088584215594591821 0 -0.034377055824573705 0.00048143555119879098 0 -0.037733743281875225 0.0055043934006624076 0 -0.035201515145378635 0.0003284879430644401 0 -0.03488332221063082 0.0040131890128365186 0 -0.037348475247162428 0.0054518572794349778 0 0.0038205425722519577 0.022296577796460198 0 0.0017478464750184904 0.017993032289299854 0 0.004920742156329377 0.029809598473075988 0 0.0082117434328425418 0.030614310099042315 0 0.0065644907094465632 0.025331060168954485 0 0.0047931175082705441 0.032636519761372149 0 0.004920742156329377 0.029809598473075988 0 0.0082117434328425418 0.030614310099042315 0 -0.00072294847259735139 0.011725494284293148 0 -0.0021946580129333574 0.012881639636428526 0 -0.002760672163194608 0.01101561161483933 0 -0.00088905237323659949 0.0096139550383723769 0 -0.00072294847259735139 0.011725494284293148 0 -0.002760672163194608 0.01101561161483933 0 0.0012903269510207576 0.023236465991072531 0 0.0065644907094465632 0.025331060168954485 0 0.0020044591943059503 0.028195476658376073 0 0.004920742156329377 0.029809598473075988 0 0.0065644907094465632 0.025331060168954485 0 0.0020044591943059503 0.028195476658376073 0 0.0020044591943059503 0.028195476658376073 0 0.0028880294847193921 0.031395575606212332 0 0.00073316204272395858 0.031883198393693267 0 0.004920742156329377 0.029809598473075988 0 0.0020044591943059503 0.028195476658376073 0 0.0028880294847193921 0.031395575606212332 0 0.0047931175082705441 0.032636519761372149 0 0.004920742156329377 0.029809598473075988 0 0.0028880294847193921 0.031395575606212332 0 -0.0010746949109415877 0.029304652277648419 0 0.00073316204272395858 0.031883198393693267 0 -0.0015018337379215268 0.0333966058746979 0 0.0020044591943059503 0.028195476658376073 0 -0.0010746949109415877 0.029304652277648419 0 0.00073316204272395858 0.031883198393693267 0 0.0020044591943059503 0.028195476658376073 0 -0.0010746949109415877 0.029304652277648419 0 -0.00077741307266313996 0.026001114900302148 0 0.0012903269510207576 0.023236465991072531 0 0.0020044591943059503 0.028195476658376073 0 -0.00077741307266313996 0.026001114900302148 0 -0.0010746949109415877 0.029304652277648419 0 -0.00077741307266313996 0.026001114900302148 0 -0.0038682323273093616 0.025903409391356592 0 -0.0029658004542241377 0.02248210928881007 0 0.0012903269510207576 0.023236465991072531 0 -0.00077741307266313996 0.026001114900302148 0 -0.0029658004542241377 0.02248210928881007 0 -0.00077741307266313996 0.026001114900302148 0 -0.0038682323273093616 0.025903409391356592 0 -0.0029658004542241377 0.02248210928881007 0 -0.0066502879157843116 0.02351274558619414 0 -0.0038682323273093616 0.025903409391356592 0 -0.0066502879157843116 0.02351274558619414 0 -0.006605705499318517 0.027500909961189663 0 -0.0038682323273093616 0.025903409391356592 0 -0.0093812118061897924 0.020667566755978105 0 -0.0066502879157843116 0.02351274558619414 0 -0.011108474552069605 0.02626991406847707 0 -0.0066502879157843116 0.02351274558619414 0 -0.006605705499318517 0.027500909961189663 0 -0.011108474552069605 0.02626991406847707 0 -0.006029616835041802 0.03049913389510955 0 -0.0027450787295172541 0.035693861686264705 0 -0.0068593389793790991 0.034953841689847102 0 -0.0087283769282168744 0.028329646643295212 0 -0.0035833574584545826 0.033972173403304856 0 -0.0035833574584545826 0.033972173403304856 0 -0.0042212046781979042 0.034846685684117452 0 -0.006605705499318517 0.027500909961189663 0 -0.011108474552069605 0.02626991406847707 0 -0.0072438516458097719 0.032533519503738041 0 -0.006605705499318517 0.027500909961189663 0 -0.0041284782648744311 0.029674454551375788 0 -0.0072438516458097719 0.032533519503738041 0 -0.0041284782648744311 0.029674454551375788 0 -0.0072438516458097719 0.032533519503738041 0 -0.0015018337379215268 0.0333966058746979 0 -0.0010746949109415877 0.029304652277648419 0 -0.0038682323273093616 0.025903409391356592 0 -0.0041284782648744311 0.029674454551375788 0 -0.006605705499318517 0.027500909961189663 0 -0.0038682323273093616 0.025903409391356592 0 -0.0041284782648744311 0.029674454551375788 0 -0.0010746949109415877 0.029304652277648419 0 -0.0041284782648744311 0.029674454551375788 0 -0.0015018337379215268 0.0333966058746979 0 -0.0035833574584545826 0.033972173403304856 0 -0.0021112384617025669 0.033504936562583132 0 -0.0014892015803294632 0.03462644935891674 0 -0.0016880398762874006 0.034350564282409644 0 -0.0015018337379215268 0.0333966058746979 0 -0.0019203231368889291 0.035036023080425076 0 -0.0035833574584545826 0.033972173403304856 0 -0.0014892015803294632 0.03462644935891674 0 -0.0014434340002036673 0.035445795696673735 0 -0.00093267274750214249 0.035328260209110514 0 -0.0014892015803294632 0.03462644935891674 0 -0.00093267274750214249 0.035328260209110514 0 -0.0015018337379215268 0.0333966058746979 0 -0.0014828709285732923 0.034776838551419526 0 -0.0016731631875796932 0.035210558121418351 0 -0.0020911404876103237 0.034660534999475932 0 -0.0014892015803294632 0.03462644935891674 0 -0.0014828709285732923 0.034776838551419526 0 -0.0016731631875796932 0.035210558121418351 0 -0.0014892015803294632 0.03462644935891674 0 -0.0016731631875796932 0.035210558121418351 0 -0.0014434340002036673 0.035445795696673735 0 -0.0016731631875796932 0.035210558121418351 0 -0.0016502958726522026 0.036333213460296734 0 -0.0024290450260031223 0.035686086162893219 0 -0.0014434340002036673 0.035445795696673735 0 -0.0016502958726522026 0.036333213460296734 0 -0.0011210351989619904 0.036242550632104291 0 -0.0016731631875796932 0.035210558121418351 0 -0.0014434340002036673 0.035445795696673735 0 -0.0016502958726522026 0.036333213460296734 0 -0.0016502958726522026 0.036333213460296734 0 -0.0011210351989619904 0.036242550632104291 0 -0.0012523808772415233 0.036944267996128086 0 -0.0016502958726522026 0.036333213460296734 0 -0.0020301055767065813 0.037010785185819711 0 -0.0014094554973219564 0.037667550183282897 0 -0.0014434340002036673 0.035445795696673735 0 -0.00093267274750214249 0.035328260209110514 0 -0.0011210351989619904 0.036242550632104291 0 -0.00093267274750214249 0.035328260209110514 0 -0.0011210351989619904 0.036242550632104291 0 -0.00047068019907676897 0.036746032053920116 0 -0.00093267274750214249 0.035328260209110514 0 -8.0580207480034043e-06 0.036040848438795112 0 -0.00047068019907676897 0.036746032053920116 0 -8.0580207480034043e-06 0.036040848438795112 0 0.00070734253347240429 0.036915958338330876 0 -0.00047068019907676897 0.036746032053920116 0 -0.00093267274750214249 0.035328260209110514 0 -8.0580207480034043e-06 0.036040848438795112 0 5.0709465279619871e-05 0.034573982728956974 0 0.0017822259640415238 0.036177460585876807 0 0.0019417171723822967 0.033903289395381696 0 5.0709465279619871e-05 0.034573982728956974 0 -8.0580207480034043e-06 0.036040848438795112 0 0.0017822259640415238 0.036177460585876807 0 5.0709465279619871e-05 0.034573982728956974 0 -8.0580207480034043e-06 0.036040848438795112 0 0.0017822259640415238 0.036177460585876807 0 0.00070734253347240429 0.036915958338330876 0 0.0037284259414003067 0.037411695684337248 0 0.0017822259640415238 0.036177460585876807 0 0.0031731335594245703 0.035055003411156506 0 0.0017822259640415238 0.036177460585876807 0 0.0031731335594245703 0.035055003411156506 0 0.0019417171723822967 0.033903289395381696 0 0.0047931175082705441 0.032636519761372149 0 0.0031731335594245703 0.035055003411156506 0 0.0019417171723822967 0.033903289395381696 0 0.0047931175082705441 0.032636519761372149 0 0.0028880294847193921 0.031395575606212332 0 0.0019417171723822967 0.033903289395381696 0 0.0028880294847193921 0.031395575606212332 0 0.0019417171723822967 0.033903289395381696 0 0.00073316204272395858 0.031883198393693267 0 0.00073316204272395858 0.031883198393693267 0 -0.0015018337379215268 0.0333966058746979 0 5.0709465279619871e-05 0.034573982728956974 0 -0.00093267274750214249 0.035328260209110514 0 -0.0015018337379215268 0.0333966058746979 0 5.0709465279619871e-05 0.034573982728956974 0 0.0019417171723822967 0.033903289395381696 0 0.00073316204272395858 0.031883198393693267 0 5.0709465279619871e-05 0.034573982728956974 0 0.0060730975895436131 0.045562914466768009 0 0.0069815335753088958 0.045340967429601725 0 0.0058331889646519482 0.046341542105793755 0 0.00097931737685869589 0.04291432810743994 0 0.0045514612519611366 0.047897113336909693 0 0.001268411903014388 0.050286915942374506 0 0.0014695445899591338 0.049960438656132714 0 0.0029882492471591062 0.048414074871745115 0 0.0055652711200582326 0.045819236272016353 0 0.0060730975895436131 0.045562914466768009 0 0.0058331889646519482 0.046341542105793755 0 0.0014695445899591338 0.049960438656132714 0 0.0015268978652661592 0.048607360698976712 0 0.0029882492471591062 0.048414074871745115 0 0.0060730975895436131 0.045562914466768009 0 0.0061457724367995079 0.0446226916097546 0 0.0069815335753088958 0.045340967429601725 0 0.0055652711200582326 0.045819236272016353 0 0.0060730975895436131 0.045562914466768009 0 0.0061457724367995079 0.0446226916097546 0 0.006896489264691546 0.043857211594039658 0 0.00097931737685869589 0.04291432810743994 0 0.0058421837469555043 0.043273800275647117 0 0.0054142510599758933 0.042704637866313101 0 0.0049782293103165474 0.041036276362259497 0 0.0057576082012587727 0.043640761075532733 0 0.0066147847619683316 0.039688571516760571 0 0.0058421837469555043 0.043273800275647117 0 0.0061457724367995079 0.0446226916097546 0 0.0069815335753088958 0.045340967429601725 0 0.0058421837469555043 0.043273800275647117 0 0.0059880440725214061 0.043098538077172344 0 0.0043756685221136597 0.043888895958688015 0 0.0058421837469555043 0.043273800275647117 0 0.0050885031620091989 0.044086092118723878 0 0.0061457724367995079 0.0446226916097546 0 0.0056911659056042554 0.043032307777142502 0 0.0054512801313986708 0.043038723327655709 0 0.0054142510599758933 0.042704637866313101 0 0.0056911659056042554 0.043032307777142502 0 0.0058421837469555043 0.043273800275647117 0 0.0054142510599758933 0.042704637866313101 0 0.0054142510599758933 0.042704637866313101 0 0.0049537669513482485 0.042362447143999678 0 0.0049782293103165474 0.041036276362259497 0 -0.011814850917062048 0.032058856723430805 0 -0.01202892959116794 0.032661886743187284 0 -0.012572904510646328 0.032965270866739511 0 0.0031578305381278022 0.043072920249971183 0 0.0043110151547359546 0.042802964066318915 0 0.0049782293103165474 0.041036276362259497 0 0.0049537669513482485 0.042362447143999678 0 0.0043110151547359546 0.042802964066318915 0 0.0049782293103165474 0.041036276362259497 0 -0.0071751146269457616 0.030520487952540414 0 0.00097931737685869589 0.04291432810743994 0 0.0049537669513482485 0.042362447143999678 0 0.0049737679605762917 0.042792573648761559 0 0.0043110151547359546 0.042802964066318915 0 0.0054512801313986708 0.043038723327655709 0 0.0054142510599758933 0.042704637866313101 0 0.0049737679605762917 0.042792573648761559 0 0.0054142510599758933 0.042704637866313101 0 0.0049537669513482485 0.042362447143999678 0 0.0049737679605762917 0.042792573648761559 0 -0.01202892959116794 0.032661886743187284 0 -0.012264145546140926 0.032930753429607044 0 -0.011954729523838428 0.033000477198048446 0 -0.01202892959116794 0.032661886743187284 0 -0.012264145546140926 0.032930753429607044 0 -0.012572904510646328 0.032965270866739511 0 -0.012264145546140926 0.032930753429607044 0 -0.012511526851825001 0.033130865492705303 0 -0.011954729523838428 0.033000477198048446 0 -0.012264145546140926 0.032930753429607044 0 -0.012572904510646328 0.032965270866739511 0 -0.012511526851825001 0.033130865492705303 0 0.001268411903014388 0.050286915942374506 0 0.0014695445899591338 0.049960438656132714 0 0.0010173133185400237 0.049853305523936443 0 -0.0011351300820335905 0.043872630524816825 0 -0.0035172875589883886 0.042563582815278736 0 0.00097931737685869589 0.04291432810743994 0 -0.0035172875589883886 0.042563582815278736 0 0.0014695445899591338 0.049960438656132714 0 0.0010493361505224904 0.049891939388749862 0 0.0015268978652661592 0.048607360698976712 0 -0.012511526851825001 0.033130865492705303 0 -0.011279548720891493 0.033458739148173405 0 -0.011954729523838428 0.033000477198048446 0 -0.0035172875589883886 0.042563582815278736 0 -0.0073401450778836355 0.035110320991859414 0 -0.0073401450778836355 0.035110320991859414 0 -0.0077985614590948488 0.034756264205501007 0 -0.011638022851971415 0.033058608929677977 0 -0.011140050870418505 0.032207952744102153 0 -0.011865393238740061 0.030833638140888103 0 -0.011279548720891493 0.033458739148173405 0 -0.011638022851971415 0.033058608929677977 0 -0.011954729523838428 0.033000477198048446 0 -0.011279548720891493 0.033458739148173405 0 -0.011638022851971415 0.033058608929677977 0 -0.010793476680845435 0.033191181395835816 0 -0.011638022851971415 0.033058608929677977 0 -0.010793476680845435 0.033191181395835816 0 -0.011140050870418505 0.032207952744102153 0 -0.010793476680845435 0.033191181395835816 0 -0.011140050870418505 0.032207952744102153 0 -0.010382545912544889 0.031536125902343198 0 -0.01202892959116794 0.032661886743187284 0 -0.011638022851971415 0.033058608929677977 0 -0.011954729523838428 0.033000477198048446 0 -0.011814850917062048 0.032058856723430805 0 -0.01202892959116794 0.032661886743187284 0 -0.011638022851971415 0.033058608929677977 0 -0.013998928091740267 0.027179032200820772 0 -0.011638022851971415 0.033058608929677977 0 -0.011865393238740061 0.030833638140888103 0 -0.0071751146269457616 0.030520487952540414 0 -0.012898201689818487 0.032115135910277717 0 -0.013998928091740267 0.027179032200820772 0 -0.012341685235559348 0.029260847245984371 0 -0.011865393238740061 0.030833638140888103 0 -0.013998928091740267 0.027179032200820772 0 -0.013524999431388835 0.027638218631786428 0 -0.012341685235559348 0.029260847245984371 0 -0.012786850173354479 0.028358382522626003 0 -0.013524999431388835 0.027638218631786428 0 -0.012341685235559348 0.029260847245984371 0 -0.012904680123782857 0.027365376129445212 0 -0.012786850173354479 0.028358382522626003 0 -0.013524999431388835 0.027638218631786428 0 -0.011807579719755957 0.027325259827402679 0 -0.010582292611967836 0.027074316173790289 0 -0.011312154588112329 0.028328983663666842 0 -0.011807579719755957 0.027325259827402679 0 -0.012786850173354479 0.028358382522626003 0 -0.011312154588112329 0.028328983663666842 0 -0.012904680123782857 0.027365376129445212 0 -0.011807579719755957 0.027325259827402679 0 -0.012786850173354479 0.028358382522626003 0 -0.012786850173354479 0.028358382522626003 0 -0.011312154588112329 0.028328983663666842 0 -0.012341685235559348 0.029260847245984371 0 -0.011312154588112329 0.028328983663666842 0 -0.012341685235559348 0.029260847245984371 0 -0.010919039712659923 0.029402464748410063 0 -0.011312154588112329 0.028328983663666842 0 -0.010919039712659923 0.029402464748410063 0 -0.0093975524999011118 0.028893020514026875 0 -0.010919039712659923 0.029402464748410063 0 -0.011233729825753757 0.030251370554821726 0 -0.010313632459426909 0.030242680650409953 0 -0.012341685235559348 0.029260847245984371 0 -0.010919039712659923 0.029402464748410063 0 -0.011233729825753757 0.030251370554821726 0 -0.012341685235559348 0.029260847245984371 0 -0.011233729825753757 0.030251370554821726 0 -0.011865393238740061 0.030833638140888103 0 -0.011233729825753757 0.030251370554821726 0 -0.010382545912544889 0.031536125902343198 0 -0.010313632459426909 0.030242680650409953 0 -0.011233729825753757 0.030251370554821726 0 -0.011865393238740061 0.030833638140888103 0 -0.010382545912544889 0.031536125902343198 0 -0.011140050870418505 0.032207952744102153 0 -0.011865393238740061 0.030833638140888103 0 -0.010382545912544889 0.031536125902343198 0 -0.010382545912544889 0.031536125902343198 0 -0.0089731715669036909 0.030779031076091774 0 -0.010313632459426909 0.030242680650409953 0 -0.0093012623829087371 0.024772422787655329 0 -0.006029616835041802 0.03049913389510955 0 -0.0093975524999011118 0.028893020514026875 0 -0.011863238682713084 0.02258001869790708 0 -0.0087283769282168744 0.028329646643295212 0 -0.0089731715669036909 0.030779031076091774 0 -0.010313632459426909 0.030242680650409953 0 -0.0093975524999011118 0.028893020514026875 0 -0.010919039712659923 0.029402464748410063 0 -0.010313632459426909 0.030242680650409953 0 -0.0093975524999011118 0.028893020514026875 0 -0.010582292611967836 0.027074316173790289 0 -0.011312154588112329 0.028328983663666842 0 -0.0093975524999011118 0.028893020514026875 0 -0.006029616835041802 0.03049913389510955 0 -0.0089731715669036909 0.030779031076091774 0 -0.0090209796182832841 0.032520162021887428 0 -0.006029616835041802 0.03049913389510955 0 -0.0089731715669036909 0.030779031076091774 0 -0.0093975524999011118 0.028893020514026875 0 -0.011151774964401708 0.034152853076569456 0 -0.0068593389793790991 0.034953841689847102 0 -0.0090209796182832841 0.032520162021887428 0 -0.0031436663877198946 0.034424040378142479 0 -0.0020911404876103237 0.034660534999475932 0 -0.0028304074283280315 0.035146898664582649 0 -0.0073401450778836355 0.035110320991859414 0 -0.0042212046781979042 0.034846685684117452 0 -0.006029616835041802 0.03049913389510955 0 -0.0068593389793790991 0.034953841689847102 0 -0.0090209796182832841 0.032520162021887428 0 -0.011151774964401708 0.034152853076569456 0 -0.010793476680845435 0.033191181395835816 0 -0.0090209796182832841 0.032520162021887428 0 -0.010793476680845435 0.033191181395835816 0 -0.010382545912544889 0.031536125902343198 0 -0.0090209796182832841 0.032520162021887428 0 -0.010382545912544889 0.031536125902343198 0 -0.0089731715669036909 0.030779031076091774 0 -0.0090209796182832841 0.032520162021887428 0 -0.0020911404876103237 0.034660534999475932 0 -0.0028304074283280315 0.035146898664582649 0 -0.0024290450260031223 0.035686086162893219 0 -0.0016731631875796932 0.035210558121418351 0 -0.0020911404876103237 0.034660534999475932 0 -0.0024290450260031223 0.035686086162893219 0 -0.0016502958726522026 0.036333213460296734 0 -0.0024290450260031223 0.035686086162893219 0 -0.0020301055767065813 0.037010785185819711 0 -0.0024290450260031223 0.035686086162893219 0 -0.0020301055767065813 0.037010785185819711 0 -0.0031652029607488869 0.03698909195172978 0 -0.0012308749122750713 0.039764645910288589 0 -0.00089187354663011471 0.040378392394905142 0 -0.00053343167966390123 0.039506790943297093 0 -0.0024509682205212575 0.037926645511736572 0 -0.0017155185876367978 0.041592628733028533 0 -0.0024290450260031223 0.035686086162893219 0 -0.0031652029607488869 0.03698909195172978 0 -0.0037693040480847604 0.035880371913737497 0 -0.0017155185876367978 0.041592628733028533 0 -0.00016469031815683695 0.042467882877477263 0 -0.0031436663877198946 0.034424040378142479 0 -0.0028304074283280315 0.035146898664582649 0 -0.0037693040480847604 0.035880371913737497 0 -0.0073401450778836355 0.035110320991859414 0 -0.0017155185876367978 0.041592628733028533 0 -0.0028304074283280315 0.035146898664582649 0 -0.0024290450260031223 0.035686086162893219 0 -0.0037693040480847604 0.035880371913737497 0 -0.0039365264946380814 0.040057333257375462 0 -0.004214054844174607 0.039982962830527685 0 -0.0040964280456983575 0.039763864223715258 0 -0.0035172875589883886 0.042563582815278736 0 -0.0017155185876367978 0.041592628733028533 0 -0.00065110959113608797 0.047032663633414594 0 0.0015268978652661592 0.048607360698976712 0 0.0015880128757557496 0.046607647616077982 0 0.0010493361505224904 0.049891939388749862 0 -0.00065110959113608797 0.047032663633414594 0 0.0015268978652661592 0.048607360698976712 0 0.0015880128757557496 0.046607647616077982 0 0.0020177283011373992 0.044706673704911881 0 0.000230132171301085 0.044727278493166087 0 -0.00065110959113608797 0.047032663633414594 0 0.0015880128757557496 0.046607647616077982 0 0.000230132171301085 0.044727278493166087 0 0.0015880128757557496 0.046607647616077982 0 0.0031888787790785144 0.045909164347522187 0 0.0020177283011373992 0.044706673704911881 0 0.0015880128757557496 0.046607647616077982 0 0.0031888787790785144 0.045909164347522187 0 0.0029882492471591062 0.048414074871745115 0 0.0050470381624213292 0.046293799204296132 0 0.0031888787790785144 0.045909164347522187 0 0.0029882492471591062 0.048414074871745115 0 0.0015268978652661592 0.048607360698976712 0 0.0015880128757557496 0.046607647616077982 0 0.0029882492471591062 0.048414074871745115 0 0.0042060052001109986 0.043681288437031139 0 0.0037727107966146261 0.041135093539723874 0 0.00088842972713556827 0.042329394234543134 0 0.0042060052001109986 0.043681288437031139 0 0.0020177283011373992 0.044706673704911881 0 0.00088842972713556827 0.042329394234543134 0 0.0042060052001109986 0.043681288437031139 0 0.0031888787790785144 0.045909164347522187 0 0.0020177283011373992 0.044706673704911881 0 -0.00016469031815683695 0.042467882877477263 0 0.00052189424510340238 0.040722560145997087 0 0.0020177283011373992 0.044706673704911881 0 0.000230132171301085 0.044727278493166087 0 0.00088842972713556827 0.042329394234543134 0 -0.00053343167966390123 0.039506790943297093 0 -5.9418392051263923e-05 0.039436383075758905 0 -0.00081312083732613548 0.039195603621190886 0 -5.9418392051263923e-05 0.039436383075758905 0 -0.00080249045658084886 0.039110053381049427 0 -0.00021724568899274185 0.039272878250013001 0 -5.9418392051263923e-05 0.039436383075758905 0 -0.00080249045658084886 0.039110053381049427 0 -0.00081312083732613548 0.039195603621190886 0 -0.00080249045658084886 0.039110053381049427 0 -0.00081312083732613548 0.039195603621190886 0 -0.0017817244685885117 0.038624118103989372 0 -0.0012308749122750713 0.039764645910288589 0 -0.00053343167966390123 0.039506790943297093 0 -0.00081312083732613548 0.039195603621190886 0 -0.0012308749122750713 0.039764645910288589 0 -0.00081312083732613548 0.039195603621190886 0 -0.0017817244685885117 0.038624118103989372 0 -0.0017817244685885117 0.038624118103989372 0 -0.0014094554973219564 0.037667550183282897 0 -0.0011048451971355424 0.038650424512597786 0 -0.0020301055767065813 0.037010785185819711 0 -0.0031652029607488869 0.03698909195172978 0 -0.0017817244685885117 0.038624118103989372 0 -0.0024509682205212575 0.037926645511736572 0 -0.0018240063607183009 0.038729846651638776 0 -0.0020301055767065813 0.037010785185819711 0 -0.0017817244685885117 0.038624118103989372 0 -0.0014094554973219564 0.037667550183282897 0 -0.00080249045658084886 0.039110053381049427 0 -0.0017817244685885117 0.038624118103989372 0 -0.0012446223613428232 0.038925402432589268 0 -0.0017817244685885117 0.038624118103989372 0 -0.0012446223613428232 0.038925402432589268 0 -0.0011048451971355424 0.038650424512597786 0 -0.0012446223613428232 0.038925402432589268 0 -0.0010316505639436924 0.039071925328948223 0 -0.0011048451971355424 0.038650424512597786 0 -0.0010316505639436924 0.039071925328948223 0 -0.00086142828372848615 0.039253507691040766 0 -0.00089574440567416675 0.039097274308501684 0 -0.0012446223613428232 0.038925402432589268 0 -0.0010316505639436924 0.039071925328948223 0 -0.00089574440567416675 0.039097274308501684 0 -0.00086142828372848615 0.039253507691040766 0 -0.00082166437487446746 0.039002448542503031 0 -0.00068376575842437075 0.03984372661763623 0 -0.00086142828372848615 0.039253507691040766 0 -0.00082166437487446746 0.039002448542503031 0 -0.00089574440567416675 0.039097274308501684 0 -0.00082166437487446746 0.039002448542503031 0 -0.00089574440567416675 0.039097274308501684 0 -0.00011184692639012351 0.038745508044389761 0 -0.00080249045658084886 0.039110053381049427 0 -0.0012446223613428232 0.038925402432589268 0 -0.00089574440567416675 0.039097274308501684 0 -0.00080249045658084886 0.039110053381049427 0 -0.00089574440567416675 0.039097274308501684 0 -0.00021724568899274185 0.039272878250013001 0 -0.00089574440567416675 0.039097274308501684 0 -0.00021724568899274185 0.039272878250013001 0 -0.00011184692639012351 0.038745508044389761 0 -5.9418392051263923e-05 0.039436383075758905 0 -0.00021724568899274185 0.039272878250013001 0 0.0013919301852890627 0.039517820495840218 0 -0.00021724568899274185 0.039272878250013001 0 -0.00011184692639012351 0.038745508044389761 0 0.0013919301852890627 0.039517820495840218 0 -0.00011184692639012351 0.038745508044389761 0 0.0018365759595911784 0.038041010615367493 0 0.0013919301852890627 0.039517820495840218 0 0.0043929928402348037 0.038432907632035322 0 0.0018365759595911784 0.038041010615367493 0 0.0013919301852890627 0.039517820495840218 0 0.00052189424510340238 0.040722560145997087 0 0.0012850597951104908 0.039514009969278487 0 0.0037727107966146261 0.041135093539723874 0 0.00088842972713556827 0.042329394234543134 0 0.0013919301852890627 0.039517820495840218 0 0.0009505411783124727 0.038395766238299149 0 0.0002252082283289538 0.038605991378182991 0 0.0001980284217150558 0.037710570271004829 0 0.0009505411783124727 0.038395766238299149 0 0.0002252082283289538 0.038605991378182991 0 0.00076578842022399373 0.038850204184973348 0 0.0009505411783124727 0.038395766238299149 0 0.00076578842022399373 0.038850204184973348 0 0.0015866191514867678 0.03851073054545235 0 -0.0093876591597217597 0.028352827291231439 0 -0.0095697533198127842 0.027324973208027018 0 -0.010146541977260535 0.028841056315058733 0 0.0009505411783124727 0.038395766238299149 0 0.0015866191514867678 0.03851073054545235 0 0.0015268607079411565 0.037934873755545453 0 0.00053060161861704042 0.035299307414431505 0 -0.004540843412479045 0.033354346314734676 0 0.0020224211460370669 0.037636111317956689 0 0.0015866191514867678 0.03851073054545235 0 0.0015268607079411565 0.037934873755545453 0 0.0037284259414003067 0.037411695684337248 0 0.0017822259640415238 0.036177460585876807 0 0.0015268607079411565 0.037934873755545453 0 0.00053060161861704042 0.035299307414431505 0 0.0018996821835647786 0.037460684893290234 0 0.0015268607079411565 0.037934873755545453 0 0.00070734253347240429 0.036915958338330876 0 0.0001980284217150558 0.037710570271004829 0 0.0017822259640415238 0.036177460585876807 0 0.0015268607079411565 0.037934873755545453 0 0.00070734253347240429 0.036915958338330876 0 0.0009505411783124727 0.038395766238299149 0 0.0015268607079411565 0.037934873755545453 0 0.0001980284217150558 0.037710570271004829 0 0.00070734253347240429 0.036915958338330876 0 0.0001980284217150558 0.037710570271004829 0 -0.00047068019907676897 0.036746032053920116 0 0.0001980284217150558 0.037710570271004829 0 -0.00047068019907676897 0.036746032053920116 0 -0.0008443897190259053 0.037531075486240864 0 0.0001980284217150558 0.037710570271004829 0 -0.0008443897190259053 0.037531075486240864 0 -0.00049920110656758636 0.038494517417969179 0 -0.0011210351989619904 0.036242550632104291 0 -0.00047068019907676897 0.036746032053920116 0 -0.0008443897190259053 0.037531075486240864 0 -0.0008443897190259053 0.037531075486240864 0 -0.0014094554973219564 0.037667550183282897 0 -0.0011048451971355424 0.038650424512597786 0 -0.0016502958726522026 0.036333213460296734 0 -0.0014094554973219564 0.037667550183282897 0 -0.0012523808772415233 0.036944267996128086 0 -0.0011210351989619904 0.036242550632104291 0 -0.0008443897190259053 0.037531075486240864 0 -0.0012523808772415233 0.036944267996128086 0 -0.0008443897190259053 0.037531075486240864 0 -0.0014094554973219564 0.037667550183282897 0 -0.0012523808772415233 0.036944267996128086 0 -0.0011048451971355424 0.038650424512597786 0 -0.00049920110656758636 0.038494517417969179 0 -0.00067317236390884521 0.039255335914456992 0 -0.0008443897190259053 0.037531075486240864 0 -0.0011048451971355424 0.038650424512597786 0 -0.00049920110656758636 0.038494517417969179 0 0.0002252082283289538 0.038605991378182991 0 0.0001980284217150558 0.037710570271004829 0 -0.00049920110656758636 0.038494517417969179 0 0.0002252082283289538 0.038605991378182991 0 -0.00049920110656758636 0.038494517417969179 0 0.00010611086494323448 0.039163152925028429 0 -0.00049920110656758636 0.038494517417969179 0 0.00010611086494323448 0.039163152925028429 0 -0.00067317236390884521 0.039255335914456992 0 0.00010611086494323448 0.039163152925028429 0 -0.00067317236390884521 0.039255335914456992 0 -3.6047541741446125e-05 0.039923205811027304 0 -0.0010316505639436924 0.039071925328948223 0 -0.00086142828372848615 0.039253507691040766 0 -0.00067317236390884521 0.039255335914456992 0 -0.0010316505639436924 0.039071925328948223 0 -0.0011048451971355424 0.038650424512597786 0 -0.00067317236390884521 0.039255335914456992 0 -0.00086142828372848615 0.039253507691040766 0 -0.00067317236390884521 0.039255335914456992 0 -0.00067099705029857119 0.039598294390144173 0 -0.00067317236390884521 0.039255335914456992 0 -0.00051796151520543652 0.039464375836162559 0 -0.00067099705029857119 0.039598294390144173 0 -0.00092580627394107625 0.039037171465485368 0 0.00060614030146170826 0.040536649244643848 0 -0.00051796151520543652 0.039464375836162559 0 -0.00056578514395862157 0.039668596453040043 0 -0.00067099705029857119 0.039598294390144173 0 0.00060614030146170826 0.040536649244643848 0 -0.0063330033416175513 0.036396085521587927 0 -0.0046737889107627403 0.034780305451766795 0 -0.0063330033416175513 0.036396085521587927 0 -3.6047541741446125e-05 0.039923205811027304 0 0.00097423627162754756 0.039527860009889622 0 0.00052819350272322941 0.04045299823345732 0 0.00010611086494323448 0.039163152925028429 0 -3.6047541741446125e-05 0.039923205811027304 0 0.00097423627162754756 0.039527860009889622 0 0.00076578842022399373 0.038850204184973348 0 0.00010611086494323448 0.039163152925028429 0 0.00097423627162754756 0.039527860009889622 0 0.0002252082283289538 0.038605991378182991 0 0.00076578842022399373 0.038850204184973348 0 0.00010611086494323448 0.039163152925028429 0 -0.004540843412479045 0.033354346314734676 0 -0.0046737889107627403 0.034780305451766795 0 0.00076578842022399373 0.038850204184973348 0 0.0015866191514867678 0.03851073054545235 0 0.00097423627162754756 0.039527860009889622 0 -0.010146541977260535 0.028841056315058733 0 -0.010602408582351081 0.030262140070450586 0 -0.010100277445298299 0.029915868775254529 0 -0.009264338829359179 0.029131419986796154 0 -0.010146541977260535 0.028841056315058733 0 -0.010100277445298299 0.029915868775254529 0 -0.010602408582351081 0.030262140070450586 0 -0.010100277445298299 0.029915868775254529 0 -0.010062778677071187 0.03066555611611509 0 -0.0094778726413759663 0.030244826856462514 0 -0.010100277445298299 0.029915868775254529 0 -0.010062778677071187 0.03066555611611509 0 -0.010062778677071187 0.03066555611611509 0 -0.0099573119939320495 0.031260808378095362 0 -0.010932801889770961 0.031304763877142525 0 -0.010602408582351081 0.030262140070450586 0 -0.010062778677071187 0.03066555611611509 0 -0.010932801889770961 0.031304763877142525 0 -0.0099573119939320495 0.031260808378095362 0 -0.010219756151482004 0.031965864636750503 0 -0.010932801889770961 0.031304763877142525 0 -0.012962943385968869 0.032971811491323111 0 -0.0063330033416175513 0.036396085521587927 0 -0.014079587977901801 0.035200374561427231 0 -0.014190780639914939 0.033866578508741786 0 -0.0151894963473771 0.034065894356632133 0 -0.014079587977901801 0.035200374561427231 0 -0.013316779602428077 0.034274875532267546 0 -0.014190780639914939 0.033866578508741786 0 -0.014079587977901801 0.035200374561427231 0 -0.013316779602428077 0.034274875532267546 0 -0.012513134304635506 0.035246664020001837 0 -0.013316779602428077 0.034274875532267546 0 -0.012513134304635506 0.035246664020001837 0 -0.012141260699580691 0.034184428500891373 0 -0.006428725491275389 0.037642834240891085 0 -0.004432148117619817 0.039054333257486355 0 -0.006428725491275389 0.037642834240891085 0 -0.0063330033416175513 0.036396085521587927 0 -0.014079587977901801 0.035200374561427231 0 -0.012513134304635506 0.035246664020001837 0 -0.012871544098822534 0.036332621347305138 0 -0.00046950703830180279 0.039849504750057128 0 -0.00039675647483255908 0.039614777434638496 0 -0.00056578514395862157 0.039668596453040043 0 -0.00051796151520543652 0.039464375836162559 0 -0.00039675647483255908 0.039614777434638496 0 -0.00056578514395862157 0.039668596453040043 0 -0.00056578514395862157 0.039668596453040043 0 -0.00067099705029857119 0.039598294390144173 0 -0.00079273413674367597 0.039897325117753991 0 -0.00046950703830180279 0.039849504750057128 0 -0.00056578514395862157 0.039668596453040043 0 -0.00079273413674367597 0.039897325117753991 0 -0.00067099705029857119 0.039598294390144173 0 -0.00079273413674367597 0.039897325117753991 0 -0.00068376575842437075 0.03984372661763623 0 -0.00086142828372848615 0.039253507691040766 0 -0.00067099705029857119 0.039598294390144173 0 -0.00068376575842437075 0.03984372661763623 0 -0.00079273413674367597 0.039897325117753991 0 -0.00056019143255495239 0.03988322385688764 0 -0.0011184479153509399 0.039851274680742906 0 -0.00079273413674367597 0.039897325117753991 0 -0.00056019143255495239 0.03988322385688764 0 -0.00068376575842437075 0.03984372661763623 0 -0.00046950703830180279 0.039849504750057128 0 -0.00079273413674367597 0.039897325117753991 0 -0.00057892299692132755 0.040085477861927191 0 -0.00079273413674367597 0.039897325117753991 0 -0.001148754349319592 0.039871504066160107 0 -0.0011184479153509399 0.039851274680742906 0 0.00015674007110859302 0.040611097305350667 0 -0.004432148117619817 0.039054333257486355 0 -0.004432148117619817 0.039054333257486355 0 -0.0016565716648109874 0.041172784404334722 0 -0.001148754349319592 0.039871504066160107 0 -0.0011184479153509399 0.039851274680742906 0 -0.0020464321598076879 0.039888903016126784 0 -0.00056019143255495239 0.03988322385688764 0 -0.0011184479153509399 0.039851274680742906 0 -0.00089383249570023976 0.039479057999758739 0 -0.0011184479153509399 0.039851274680742906 0 -0.00089383249570023976 0.039479057999758739 0 -0.0020464321598076879 0.039888903016126784 0 -0.0039479351257388226 0.044665936480875454 0 -0.0020464321598076879 0.039888903016126784 0 -0.00497582961742438 0.040299068689144436 0 -0.00497582961742438 0.040299068689144436 0 -0.0069268252719092887 0.04182459373240615 0 -0.0073168769780683762 0.039642188484415433 0 -0.0039479351257388226 0.044665936480875454 0 -0.00497582961742438 0.040299068689144436 0 -0.0069268252719092887 0.04182459373240615 0 -0.010849401279618049 0.037327501209708867 0 -0.011272043230517685 0.036234189528440736 0 -0.0069268252719092887 0.04182459373240615 0 -0.0073168769780683762 0.039642188484415433 0 -0.0084995673842667725 0.04012903228245826 0 -0.014525129765415331 0.033042145008712366 0 -0.013652151307527369 0.032995855885423496 0 -0.014777469105647844 0.032555886084315817 0 -0.013316779602428077 0.034274875532267546 0 -0.013652151307527369 0.032995855885423496 0 -0.014190780639914939 0.033866578508741786 0 -0.014525129765415331 0.033042145008712366 0 -0.014190780639914939 0.033866578508741786 0 -0.01494161817850561 0.033316031170171186 0 -0.014525129765415331 0.033042145008712366 0 -0.013652151307527369 0.032995855885423496 0 -0.014190780639914939 0.033866578508741786 0 -0.004432148117619817 0.039054333257486355 0 -0.010849401279618049 0.037327501209708867 0 -0.013316779602428077 0.034274875532267546 0 -0.012141260699580691 0.034184428500891373 0 -0.013652151307527369 0.032995855885423496 0 0.0045984299839762479 0.038860766514306679 0 0.0046002014858456128 0.039376143732048376 0 0.004752303230641043 0.041066544805300177 0 0.0028864890991883163 0.041165455818834441 0 0.0041440375817462152 0.039680444157399831 0 0.0027967007328131466 0.036573088660260634 0 0.0018365759595911784 0.038041010615367493 0 0.00073117315691320086 0.037257452473311158 0 0.0045984299839762479 0.038860766514306679 0 0.0017110750092930228 0.039225268784064675 0 -0.00011184692639012351 0.038745508044389761 0 0.0018365759595911784 0.038041010615367493 0 0.00073117315691320086 0.037257452473311158 0 0.0017110750092930228 0.039225268784064675 0 0.00031588633932887314 0.039623889903057471 0 -0.00011184692639012351 0.038745508044389761 0 0.00073117315691320086 0.037257452473311158 0 -0.00063704018392494197 0.038366812161182991 0 0.0028864890991883163 0.041165455818834441 0 0.002007169725283464 0.039593509270220872 0 0.0041440375817462152 0.039680444157399831 0 0.0028864890991883163 0.041165455818834441 0 0.00091542738790320892 0.040958917392321527 0 0.002007169725283464 0.039593509270220872 0 0.00091542738790320892 0.040958917392321527 0 0.00043682721619388521 0.04000443863057563 0 0.002007169725283464 0.039593509270220872 0 -0.00082166437487446746 0.039002448542503031 0 -0.00011184692639012351 0.038745508044389761 0 -0.00063704018392494197 0.038366812161182991 0 -0.00082166437487446746 0.039002448542503031 0 -0.00063704018392494197 0.038366812161182991 0 -0.00068376575842437075 0.03984372661763623 0 0.00031588633932887314 0.039623889903057471 0 -0.00046429860345815495 0.039799503673865803 0 -0.00056019143255495239 0.03988322385688764 0 -0.00068376575842437075 0.03984372661763623 0 0.00043682721619388521 0.04000443863057563 0 0.00091542738790320892 0.040958917392321527 0 -0.00068376575842437075 0.03984372661763623 0 0.00043682721619388521 0.04000443863057563 0 -0.00056019143255495239 0.03988322385688764 0 -0.00089383249570023976 0.039479057999758739 0 0.00039366610127410996 0.038886123519131358 0 -0.00056019143255495239 0.03988322385688764 0 0.00043682721619388521 0.04000443863057563 0 0.00039366610127410996 0.038886123519131358 0 -0.00089383249570023976 0.039479057999758739 0 0.00039366610127410996 0.038886123519131358 0 -0.00086175215576764805 0.037891372969792635 0 0.00039366610127410996 0.038886123519131358 0 0.0023654763293354045 0.03792297839357394 0 0.0021788225482552801 0.036460598024582562 0 0.00039366610127410996 0.038886123519131358 0 0.0023654763293354045 0.03792297839357394 0 0.002007169725283464 0.039593509270220872 0 0.00043682721619388521 0.04000443863057563 0 0.00039366610127410996 0.038886123519131358 0 0.002007169725283464 0.039593509270220872 0 0.002007169725283464 0.039593509270220872 0 0.0038038879245012934 0.038207404231182608 0 0.0041440375817462152 0.039680444157399831 0 0.0023654763293354045 0.03792297839357394 0 0.0038038879245012934 0.038207404231182608 0 0.004282932145302047 0.036535920621025703 0 0.0023654763293354045 0.03792297839357394 0 0.002007169725283464 0.039593509270220872 0 0.0038038879245012934 0.038207404231182608 0 0.0053329477013119696 0.037325362112852596 0 0.0054457001951626052 0.038054850486498072 0 0.0038038879245012934 0.038207404231182608 0 0.0053329477013119696 0.037325362112852596 0 0.0038038879245012934 0.038207404231182608 0 0.004282932145302047 0.036535920621025703 0 0.0038410691525186474 0.038118479601331384 0 0.0046002014858456128 0.039376143732048376 0 0.0054457001951626052 0.038054850486498072 0 0.0038038879245012934 0.038207404231182608 0 0.0049104942221549113 0.03866844273835051 0 0.0057019702165062303 0.035953903993217219 0 0.0047144312260973022 0.035856776930471075 0 0.004282932145302047 0.036535920621025703 0 0.0047144312260973022 0.035856776930471075 0 0.004282932145302047 0.036535920621025703 0 0.0035500458910559143 0.035400953459284297 0 0.0023654763293354045 0.03792297839357394 0 0.004282932145302047 0.036535920621025703 0 0.0021788225482552801 0.036460598024582562 0 0.0015803339857076608 0.037328809268477509 0 0.0028200367768776765 0.036170631935825384 0 0.004282932145302047 0.036535920621025703 0 0.0021788225482552801 0.036460598024582562 0 0.0035500458910559143 0.035400953459284297 0 0.0010018972558018611 0.038070793050031727 0 0.00039763894428993993 0.036946471060984427 0 0.0020762309664049778 0.036988316679069592 0 0.00049045076579490136 0.038810793594451207 0 0.0015803339857076608 0.037328809268477509 0 0.00039366610127410996 0.038886123519131358 0 0.0010018972558018611 0.038070793050031727 0 -0.00086175215576764805 0.037891372969792635 0 0.00039763894428993993 0.036946471060984427 0 -0.00086175215576764805 0.037891372969792635 0 -0.00072123654306134968 0.036800070000391982 0 0.0010018972558018611 0.038070793050031727 0 0.00039763894428993993 0.036946471060984427 0 -0.00086175215576764805 0.037891372969792635 0 -0.00012419433255927482 0.036247224395114241 0 0.00039763894428993993 0.036946471060984427 0 0.00091494510280270603 0.035913701980052379 0 -0.00012419433255927482 0.036247224395114241 0 0.00039763894428993993 0.036946471060984427 0 -0.00072123654306134968 0.036800070000391982 0 -0.00012419433255927482 0.036247224395114241 0 -9.1035118544080346e-06 0.035443794366735067 0 -0.0013664298665316767 0.036095110428464992 0 -0.00012419433255927482 0.036247224395114241 0 -9.1035118544080346e-06 0.035443794366735067 0 0.00091494510280270603 0.035913701980052379 0 0.00077870305883003563 0.034715644328485382 0 -9.1035118544080346e-06 0.035443794366735067 0 0.00091494510280270603 0.035913701980052379 0 0.00039763894428993993 0.036946471060984427 0 0.00091494510280270603 0.035913701980052379 0 0.0020762309664049778 0.036988316679069592 0 0.0028200367768776765 0.036170631935825384 0 0.0037169379787212859 0.035274101393420854 0 0.00091494510280270603 0.035913701980052379 0 0.0020762309664049778 0.036988316679069592 0 0.003807467506894723 0.035276992664378316 0 0.00077870305883003563 0.034715644328485382 0 0.00091494510280270603 0.035913701980052379 0 0.003807467506894723 0.035276992664378316 0 0.0052855767693215936 0.0350867532138626 0 0.0049243009658374364 0.035430324823543947 0 0.003807467506894723 0.035276992664378316 0 0.0052855767693215936 0.0350867532138626 0 0.0055453760645521114 0.034246841187083842 0 0.003807467506894723 0.035276992664378316 0 0.0049243009658374364 0.035430324823543947 0 0.0035500458910559143 0.035400953459284297 0 0.003807467506894723 0.035276992664378316 0 0.0049243009658374364 0.035430324823543947 0 0.0047144312260973022 0.035856776930471075 0 0.0035500458910559143 0.035400953459284297 0 -0.0080833864996699405 0.04048158654602322 0 -0.0081963620984678489 0.04053716383857537 0 -0.0080587323850569315 0.040466833982924298 0 -0.0080833864996699405 0.04048158654602322 0 -0.0073168769780683762 0.039642188484415433 0 -0.0081963620984678489 0.04053716383857537 0 -0.0072237771209077307 0.039623010178453488 0 -0.0058527990765058673 0.038817740224433302 0 -0.0080833864996699405 0.04048158654602322 0 -0.0073168769780683762 0.039642188484415433 0 -0.0084745555202140905 0.040286482179235056 0 -0.0080833864996699405 0.04048158654602322 0 -0.0091149913103773204 0.040955298994915623 0 -0.0084745555202140905 0.040286482179235056 0 -0.0073168769780683762 0.039642188484415433 0 -0.0084745555202140905 0.040286482179235056 0 -0.0084995673842667725 0.04012903228245826 0 -0.00497582961742438 0.040299068689144436 0 -0.0073168769780683762 0.039642188484415433 0 -0.0035087542422337914 0.036943930828625064 0 -0.0020464321598076879 0.039888903016126784 0 -0.00497582961742438 0.040299068689144436 0 -0.0035087542422337914 0.036943930828625064 0 -0.0020464321598076879 0.039888903016126784 0 -0.00086175215576764805 0.037891372969792635 0 -0.0035087542422337914 0.036943930828625064 0 -0.00089383249570023976 0.039479057999758739 0 -0.0020464321598076879 0.039888903016126784 0 -0.00086175215576764805 0.037891372969792635 0 -0.00086175215576764805 0.037891372969792635 0 -0.0019075128427064724 0.036943510945941289 0 -0.00072123654306134968 0.036800070000391982 0 -0.0019075128427064724 0.036943510945941289 0 -0.0035087542422337914 0.036943930828625064 0 -0.0013664298665316767 0.036095110428464992 0 -0.00086175215576764805 0.037891372969792635 0 -0.0019075128427064724 0.036943510945941289 0 -0.0035087542422337914 0.036943930828625064 0 -0.0081963620984678489 0.04053716383857537 0 -0.0080872125102947803 0.04065852564791185 0 -0.0071953964200338894 0.04106248956790768 0 -0.0081963620984678489 0.04053716383857537 0 -0.0080872125102947803 0.04065852564791185 0 -0.0080587323850569315 0.040466833982924298 0 -0.0058527990765058673 0.038817740224433302 0 -0.0042450580842453896 0.03851085351545179 0 -0.00012419433255927482 0.036247224395114241 0 -0.00072123654306134968 0.036800070000391982 0 -0.0013664298665316767 0.036095110428464992 0 -0.0019075128427064724 0.036943510945941289 0 -0.00072123654306134968 0.036800070000391982 0 -0.0013664298665316767 0.036095110428464992 0 -0.001649400237292346 0.036963429824028157 0 -0.0042450580842453896 0.03851085351545179 0 -0.0032657282199286012 0.038658217129176886 0 -0.0071953964200338894 0.04106248956790768 0 -0.0068889665992892743 0.039226816580423735 0 -0.0060362223759622214 0.03743809246963551 0 -0.0032657282199286012 0.038658217129176886 0 -0.0068889665992892743 0.039226816580423735 0 -0.0080872125102947803 0.04065852564791185 0 -0.0071953964200338894 0.04106248956790768 0 -0.0068889665992892743 0.039226816580423735 0 -0.0077708332989938579 0.037811907946894673 0 -0.0060362223759622214 0.03743809246963551 0 -0.0068889665992892743 0.039226816580423735 0 -0.0080872125102947803 0.04065852564791185 0 -0.0087811044532259009 0.039109972580070394 0 -0.010829842887404717 0.039498344868140307 0 -0.0080872125102947803 0.04065852564791185 0 -0.0068889665992892743 0.039226816580423735 0 -0.0087811044532259009 0.039109972580070394 0 -0.0077708332989938579 0.037811907946894673 0 -0.0068889665992892743 0.039226816580423735 0 -0.0087811044532259009 0.039109972580070394 0 -0.010933334339484985 0.036575959057247691 0 -0.0087811044532259009 0.039109972580070394 0 -0.010829842887404717 0.039498344868140307 0 -0.010829842887404717 0.039498344868140307 0 -0.013788641007922754 0.041024786914936801 0 -0.014716069643622213 0.03977939229624812 0 -0.010933334339484985 0.036575959057247691 0 -0.010829842887404717 0.039498344868140307 0 -0.014716069643622213 0.03977939229624812 0 -0.0083306459411168227 0.040694602314287877 0 -0.010880086830085667 0.040498415476847315 0 -0.0080872125102947803 0.04065852564791185 0 -0.010829842887404717 0.039498344868140307 0 -0.013788641007922754 0.041024786914936801 0 -0.0080872125102947803 0.04065852564791185 0 -0.0079763886643496422 0.040168169449317975 0 -0.0080587323850569315 0.040466833982924298 0 -0.0080833864996699405 0.04048158654602322 0 -0.0079763886643496422 0.040168169449317975 0 -0.0080587323850569315 0.040466833982924298 0 -0.0080833864996699405 0.04048158654602322 0 -0.0086803897397534947 0.040369198835199023 0 -0.0091149913103773204 0.040955298994915623 0 -0.0080833864996699405 0.04048158654602322 0 -0.0079763886643496422 0.040168169449317975 0 -0.0086803897397534947 0.040369198835199023 0 -0.013788641007922754 0.041024786914936801 0 -0.015533133554858183 0.03998419673964141 0 -0.016343033324729136 0.04042553462867518 0 -0.013788641007922754 0.041024786914936801 0 -0.014716069643622213 0.03977939229624812 0 -0.015533133554858183 0.03998419673964141 0 -0.010880086830085667 0.040498415476847315 0 -0.013298556743162328 0.039841118631145235 0 -0.0079763886643496422 0.040168169449317975 0 -0.0086803897397534947 0.040369198835199023 0 -0.010210661237854754 0.039011996617862921 0 -0.015080061966021137 0.039640109286193909 0 -0.014716069643622213 0.03977939229624812 0 -0.015533133554858183 0.03998419673964141 0 -0.016411398844023806 0.040261665257428539 0 -0.015533133554858183 0.03998419673964141 0 -0.016343033324729136 0.04042553462867518 0 -0.013298556743162328 0.039841118631145235 0 -0.015563333456261388 0.039848791812123016 0 -0.016411398844023806 0.040261665257428539 0 -0.0167305894783473 0.040445924840044604 0 -0.015845329798723131 0.039933449083691251 0 -0.016411398844023806 0.040261665257428539 0 -0.016343033324729136 0.04042553462867518 0 -0.015845329798723131 0.039933449083691251 0 -0.010210661237854754 0.039011996617862921 0 -0.012668895326023607 0.04097427494642443 0 -0.015845329798723131 0.039933449083691251 0 -0.012668895326023607 0.04097427494642443 0 -0.012510089746863393 0.044281211326437864 0 -0.015274302938900364 0.041531317229167149 0 -0.012668895326023607 0.04097427494642443 0 -0.0091149913103773204 0.040955298994915623 0 -0.012510089746863393 0.044281211326437864 0 -0.010210661237854754 0.039011996617862921 0 -0.012668895326023607 0.04097427494642443 0 -0.0091149913103773204 0.040955298994915623 0 -0.0086803897397534947 0.040369198835199023 0 -0.010210661237854754 0.039011996617862921 0 -0.0091149913103773204 0.040955298994915623 0 -0.0091149913103773204 0.040955298994915623 0 -0.0084745555202140905 0.040286482179235056 0 -0.0083445949031867358 0.040357736157857919 0 -0.0088370085791330318 0.04158185305375188 0 -0.013778374888855957 0.038370560497010354 0 -0.013778374888855957 0.038370560497010354 0 -0.016637795199385391 0.040040000167175557 0 -0.015101266138707539 0.032702220318810538 0 -0.01539604765635727 0.032716686924006595 0 -0.015377872527856077 0.032900981728875234 0 -0.013778374888855957 0.038370560497010354 0 -0.016825293985451423 0.033878833937457151 0 -0.015157531822814922 0.032457373651214226 0 -0.015101266138707539 0.032702220318810538 0 -0.01539604765635727 0.032716686924006595 0 -0.013778374888855957 0.038370560497010354 0 -0.011272043230517685 0.036234189528440736 0 -0.0084745555202140905 0.040286482179235056 0 -0.0083445949031867358 0.040357736157857919 0 -0.0084995673842667725 0.04012903228245826 0 -0.015157531822814922 0.032457373651214226 0 -0.015101266138707539 0.032702220318810538 0 -0.014777469105647844 0.032555886084315817 0 -0.015729370155249091 0.03576572400857253 0 -0.01777129515332751 0.035531743268550985 0 -0.017212264320508097 0.036944132654733057 0 -0.015729370155249091 0.03576572400857253 0 -0.01777129515332751 0.035531743268550985 0 -0.016287477540361851 0.034211419179569956 0 -0.019275184813450093 0.036910564345366888 0 -0.01777129515332751 0.035531743268550985 0 -0.017212264320508097 0.036944132654733057 0 -0.019275184813450093 0.036910564345366888 0 -0.017212264320508097 0.036944132654733057 0 -0.017941185250873699 0.038270673425765248 0 -0.017212264320508097 0.036944132654733057 0 -0.01641744214458828 0.038273793896053232 0 -0.017941185250873699 0.038270673425765248 0 -0.015729370155249091 0.03576572400857253 0 -0.017212264320508097 0.036944132654733057 0 -0.015537746191663879 0.037405112459053515 0 -0.017212264320508097 0.036944132654733057 0 -0.015537746191663879 0.037405112459053515 0 -0.01641744214458828 0.038273793896053232 0 -0.015537746191663879 0.037405112459053515 0 -0.01641744214458828 0.038273793896053232 0 -0.014830633151816593 0.039089367526085286 0 -0.01641744214458828 0.038273793896053232 0 -0.016498222425758761 0.03972647535877271 0 -0.014830633151816593 0.039089367526085286 0 -0.01641744214458828 0.038273793896053232 0 -0.017941185250873699 0.038270673425765248 0 -0.016498222425758761 0.03972647535877271 0 -0.015274302938900364 0.041531317229167149 0 -0.015845329798723131 0.039933449083691251 0 -0.015744892127177088 0.0402048785900634 0 -0.012668895326023607 0.04097427494642443 0 -0.015274302938900364 0.041531317229167149 0 -0.015845329798723131 0.039933449083691251 0 -0.016637795199385391 0.040040000167175557 0 -0.016059376790264347 0.040053358434475481 0 -0.015657295726298825 0.040939413455153645 0 -0.0167305894783473 0.040445924840044604 0 -0.015845329798723131 0.039933449083691251 0 -0.015657295726298825 0.040939413455153645 0 -0.015845329798723131 0.039933449083691251 0 -0.015744892127177088 0.0402048785900634 0 -0.014728346121315202 0.041193804706460911 0 -0.016498222425758761 0.03972647535877271 0 -0.014830633151816593 0.039089367526085286 0 -0.014728346121315202 0.041193804706460911 0 -0.015657295726298825 0.040939413455153645 0 -0.015744892127177088 0.0402048785900634 0 -0.014891726046799629 0.041064308937711722 0 -0.016059376790264347 0.040053358434475481 0 -0.014728346121315202 0.041193804706460911 0 -0.012983721776098293 0.039638773311842804 0 -0.014830633151816593 0.039089367526085286 0 -0.027959168453496882 0.038269152114789103 0 -0.028508689327700974 0.036177921500327746 0 -0.028508689327700974 0.036177921500327746 0 -0.029069766004813681 0.03442492182012212 0 -0.012983721776098293 0.039638773311842804 0 -0.014830633151816593 0.039089367526085286 0 -0.013698962911576015 0.036832210856558613 0 -0.043024610921664527 0.033604341820990459 0 -0.043365446821815853 0.033252912171483941 0 -0.043117598123306781 0.032580523536824432 0 -0.043985863464488746 0.032949367266780036 0 -0.043365446821815853 0.033252912171483941 0 -0.043117598123306781 0.032580523536824432 0 -0.043361848119652657 0.033761217611802251 0 -0.043985863464488746 0.032949367266780036 0 -0.043365446821815853 0.033252912171483941 0 -0.043985863464488746 0.032949367266780036 0 -0.043117598123306781 0.032580523536824432 0 -0.043577294227027198 0.031763601619308281 0 -0.042818993135815248 0.031697991044238746 0 -0.043117598123306781 0.032580523536824432 0 -0.043577294227027198 0.031763601619308281 0 -0.042818993135815248 0.031697991044238746 0 -0.043577294227027198 0.031763601619308281 0 -0.043146965730064719 0.031104899315253232 0 -0.043577294227027198 0.031763601619308281 0 -0.044496144620968243 0.031784632335617499 0 -0.043767181844506987 0.030552065088000846 0 -0.043577294227027198 0.031763601619308281 0 -0.043146965730064719 0.031104899315253232 0 -0.043767181844506987 0.030552065088000846 0 -0.042646259313245317 0.030870517208086385 0 -0.043146965730064719 0.031104899315253232 0 -0.043075509882574699 0.030413016925782875 0 -0.015537746191663879 0.037405112459053515 0 -0.014830633151816593 0.039089367526085286 0 -0.013698962911576015 0.036832210856558613 0 -0.015729370155249091 0.03576572400857253 0 -0.015537746191663879 0.037405112459053515 0 -0.013698962911576015 0.036832210856558613 0 -0.043985863464488746 0.032949367266780036 0 -0.043577294227027198 0.031763601619308281 0 -0.044496144620968243 0.031784632335617499 0 -0.044496144620968243 0.031784632335617499 0 -0.045006245246987986 0.030361259829169075 0 -0.043767181844506987 0.030552065088000846 0 -0.029069766004813681 0.03442492182012212 0 -0.029959770834960372 0.031865378914209361 0 -0.015729370155249091 0.03576572400857253 0 -0.013698962911576015 0.036832210856558613 0 -0.014591010758787935 0.034216591436469816 0 -0.015729370155249091 0.03576572400857253 0 -0.014591010758787935 0.034216591436469816 0 -0.016287477540361851 0.034211419179569956 0 -0.014591010758787935 0.034216591436469816 0 -0.01512303678212088 0.033267052691018283 0 -0.016287477540361851 0.034211419179569956 0 -0.045006245246987986 0.030361259829169075 0 -0.044285164825231246 0.029272002316699165 0 -0.043767181844506987 0.030552065088000846 0 -0.045006245246987986 0.030361259829169075 0 -0.044285164825231246 0.029272002316699165 0 -0.045492173096348995 0.02838074294283937 0 -0.044285164825231246 0.029272002316699165 0 -0.045492173096348995 0.02838074294283937 0 -0.044669975714051707 0.028330162299714554 0 -0.044285164825231246 0.029272002316699165 0 -0.044669975714051707 0.028330162299714554 0 -0.044079823462891125 0.028503117747924859 0 -0.014591010758787935 0.034216591436469816 0 -0.01512303678212088 0.033267052691018283 0 -0.015290149798090659 0.032671640962431768 0 -0.029959770834960372 0.031865378914209361 0 -0.029423066734830867 0.032411659360772449 0 -0.01512303678212088 0.033267052691018283 0 -0.015290149798090659 0.032671640962431768 0 -0.015399901308273461 0.03298000789888194 0 -0.043146965730064719 0.031104899315253232 0 -0.043075509882574699 0.030413016925782875 0 -0.043767181844506987 0.030552065088000846 0 -0.042710420577967798 0.030225705351794349 0 -0.043075509882574699 0.030413016925782875 0 -0.042915283820756447 0.029878072584943387 0 -0.043075509882574699 0.030413016925782875 0 -0.043449313847447588 0.029804842958600416 0 -0.042915283820756447 0.029878072584943387 0 -0.044285164825231246 0.029272002316699165 0 -0.043767181844506987 0.030552065088000846 0 -0.043449313847447588 0.029804842958600416 0 -0.043075509882574699 0.030413016925782875 0 -0.043767181844506987 0.030552065088000846 0 -0.043449313847447588 0.029804842958600416 0 -0.044285164825231246 0.029272002316699165 0 -0.043626318857142063 0.029082604317707168 0 -0.043449313847447588 0.029804842958600416 0 -0.044285164825231246 0.029272002316699165 0 -0.043626318857142063 0.029082604317707168 0 -0.044079823462891125 0.028503117747924859 0 -0.043626318857142063 0.029082604317707168 0 -0.043148297141773845 0.02937948279291127 0 -0.043141385950346819 0.028626484594576455 0 -0.043626318857142063 0.029082604317707168 0 -0.043449313847447588 0.029804842958600416 0 -0.043148297141773845 0.02937948279291127 0 -0.043449313847447588 0.029804842958600416 0 -0.043148297141773845 0.02937948279291127 0 -0.042915283820756447 0.029878072584943387 0 -0.042668177882821803 0.029536343902476257 0 -0.043148297141773845 0.02937948279291127 0 -0.043141385950346819 0.028626484594576455 0 -0.042668177882821803 0.029536343902476257 0 -0.043148297141773845 0.02937948279291127 0 -0.042915283820756447 0.029878072584943387 0 -0.042668177882821803 0.029536343902476257 0 -0.042645257010467674 0.02985206411670218 0 -0.042915283820756447 0.029878072584943387 0 -0.049999789693315817 0.019975313032755768 0 -0.047088066066820131 0.024009004010176516 0 -0.046382122635627972 0.023805496903591305 0 -0.046382122635627972 0.023805496903591305 0 -0.044627488044348219 0.027244331734140668 0 -0.044767245246156606 0.027071665629346646 0 -0.049579833157958539 0.016640425951422257 0 -0.051453485573499387 0.017044988714115306 0 -0.044916812519864742 0.02619616585653009 0 -0.044742935966954112 0.02704798317906382 0 -0.043141385950346819 0.028626484594576455 0 -0.044079823462891125 0.028503117747924859 0 -0.044627488044348219 0.027244331734140668 0 -0.043626318857142063 0.029082604317707168 0 -0.043141385950346819 0.028626484594576455 0 -0.044079823462891125 0.028503117747924859 0 -0.047088066066820131 0.024009004010176516 0 -0.046382122635627972 0.023805496903591305 0 -0.044767245246156606 0.027071665629346646 0 -0.053481792988297257 0.0087111444460047042 0 -0.053068618009163189 0.0091741261776722878 0 -0.052529700745101701 0.0090767827842301863 0 -0.052830257864392424 0.0092645031336936953 0 -0.053068618009163189 0.0091741261776722878 0 -0.052529700745101701 0.0090767827842301863 0 -0.052830257864392424 0.0092645031336936953 0 -0.05312148341826374 0.0093504406918253572 0 -0.053068618009163189 0.0091741261776722878 0 -0.054299694137192975 0.0094147045153555493 0 -0.053352741283573889 0.0094440915919327337 0 -0.053473399706234021 0.009343080819320608 0 -0.053481792988297257 0.0087111444460047042 0 -0.053068618009163189 0.0091741261776722878 0 -0.053473399706234021 0.009343080819320608 0 -0.053352741283573889 0.0094440915919327337 0 -0.05312148341826374 0.0093504406918253572 0 -0.053473399706234021 0.009343080819320608 0 -0.05312148341826374 0.0093504406918253572 0 -0.053068618009163189 0.0091741261776722878 0 -0.053473399706234021 0.009343080819320608 0 -0.054299694137192975 0.0094147045153555493 0 -0.053481792988297257 0.0087111444460047042 0 -0.053473399706234021 0.009343080819320608 0 -0.015290149798090659 0.032671640962431768 0 -0.015549963590920883 0.032693161521674008 0 -0.015422707679365145 0.032751606502764846 0 -0.045492173096348995 0.02838074294283937 0 -0.044669975714051707 0.028330162299714554 0 -0.044627488044348219 0.027244331734140668 0 -0.044669975714051707 0.028330162299714554 0 -0.044079823462891125 0.028503117747924859 0 -0.044627488044348219 0.027244331734140668 0 -0.052375372234531758 0.0093216194733598632 0 -0.052529700745101701 0.0090767827842301863 0 -0.051895702080161865 0.0092492690576105041 0 -0.044627488044348219 0.027244331734140668 0 -0.044767245246156606 0.027071665629346646 0 -0.045414192832450608 0.026650816966874796 0 -0.052830257864392424 0.0092645031336936953 0 -0.052529700745101701 0.0090767827842301863 0 -0.052598059165747654 0.0092522929681224213 0 -0.052375372234531758 0.0093216194733598632 0 -0.052529700745101701 0.0090767827842301863 0 -0.052598059165747654 0.0092522929681224213 0 -0.045492173096348995 0.02838074294283937 0 -0.044627488044348219 0.027244331734140668 0 -0.045414192832450608 0.026650816966874796 0 -0.051453485573499387 0.017044988714115306 0 -0.036200583114074904 0.021923517251242339 0 -0.029423066734830867 0.032411659360772449 0 -0.036200583114074904 0.021923517251242339 0 -0.015549963590920883 0.032693161521674008 0 -0.015434167404306346 0.032761452390551893 0 -0.015422707679365145 0.032751606502764846 0 -0.015440870659107162 0.032744742512633165 0 -0.015549963590920883 0.032693161521674008 0 -0.015434167404306346 0.032761452390551893 0 -0.015434167404306346 0.032761452390551893 0 -0.015422707679365145 0.032751606502764846 0 -0.015408384515648464 0.032841408546335382 0 -0.015422707679365145 0.032751606502764846 0 -0.015419231924526688 0.032859381256842637 0 -0.015408384515648464 0.032841408546335382 0 -0.015422707679365145 0.032751606502764846 0 -0.015419231924526688 0.032859381256842637 0 -0.015389056695875957 0.032805498156700232 0 -0.015290149798090659 0.032671640962431768 0 -0.015422707679365145 0.032751606502764846 0 -0.015389056695875957 0.032805498156700232 0 -0.015290149798090659 0.032671640962431768 0 -0.015389056695875957 0.032805498156700232 0 -0.015399901308273461 0.03298000789888194 0 -0.015419231924526688 0.032859381256842637 0 -0.015389056695875957 0.032805498156700232 0 -0.015399901308273461 0.03298000789888194 0 -0.015357037279042243 0.032953530921574867 0 -0.015408384515648464 0.032841408546335382 0 -0.015392571211387693 0.032827440113267888 0 -0.015357037279042243 0.032953530921574867 0 -0.015398166239995596 0.03292282368351801 0 -0.015375422937929109 0.032989866182164707 0 -0.015357037279042243 0.032953530921574867 0 -0.015398166239995596 0.03292282368351801 0 -0.015408384515648464 0.032841408546335382 0 -0.015419231924526688 0.032859381256842637 0 -0.015398166239995596 0.03292282368351801 0 -0.015408384515648464 0.032841408546335382 0 -0.015440870659107162 0.032744742512633165 0 -0.015434167404306346 0.032761452390551893 0 -0.015392571211387693 0.032827440113267888 0 -0.015434167404306346 0.032761452390551893 0 -0.015408384515648464 0.032841408546335382 0 -0.015392571211387693 0.032827440113267888 0 -0.015392571211387693 0.032827440113267888 0 -0.015407240077167506 0.032847764688740413 0 -0.015330999628176838 0.032962849175395971 0 -0.015442884402820904 0.032710357575393485 0 -0.015392571211387693 0.032827440113267888 0 -0.015407240077167506 0.032847764688740413 0 -0.0095001569267403035 0.030844322138552475 0 -0.0099573119939320495 0.031260808378095362 0 -0.009168922455776829 0.031583826045018637 0 -0.0099573119939320495 0.031260808378095362 0 -0.010219756151482004 0.031965864636750503 0 -0.009168922455776829 0.031583826045018637 0 -0.011993782461380935 0.03299448373613028 0 -0.012792235664686121 0.033038341540285766 0 -0.015407240077167506 0.032847764688740413 0 -0.015330999628176838 0.032962849175395971 0 -0.01526950016692526 0.033099192699320233 0 -0.010219756151482004 0.031965864636750503 0 -0.009168922455776829 0.031583826045018637 0 -0.0095222739697704267 0.032654974733848693 0 -0.012962943385968869 0.032971811491323111 0 -0.012792235664686121 0.033038341540285766 0 -0.015357037279042243 0.032953530921574867 0 -0.015392571211387693 0.032827440113267888 0 -0.015330999628176838 0.032962849175395971 0 -0.015330999628176838 0.032962849175395971 0 -0.01526732078347987 0.03306103177432558 0 -0.01526950016692526 0.033099192699320233 0 -0.015357037279042243 0.032953530921574867 0 -0.015330999628176838 0.032962849175395971 0 -0.01526732078347987 0.03306103177432558 0 -0.015357037279042243 0.032953530921574867 0 -0.01526732078347987 0.03306103177432558 0 -0.015303579094555764 0.033037309075517156 0 -0.01526732078347987 0.03306103177432558 0 -0.015303579094555764 0.033037309075517156 0 -0.01521883460793765 0.033113104923243208 0 -0.01526732078347987 0.03306103177432558 0 -0.01521883460793765 0.033113104923243208 0 -0.0151898734712584 0.033171603976307286 0 -0.015303579094555764 0.033037309075517156 0 -0.01521883460793765 0.033113104923243208 0 -0.015259697131560255 0.033038350399550304 0 -0.01521883460793765 0.033113104923243208 0 -0.015168298279991147 0.033051819756534352 0 -0.015259697131560255 0.033038350399550304 0 -0.015303579094555764 0.033037309075517156 0 -0.015259697131560255 0.033038350399550304 0 -0.015334083913572244 0.032995208920139192 0 -0.012792235664686121 0.033038341540285766 0 -0.014242518053221537 0.033711905472214095 0 -0.014190780639914939 0.033866578508741786 0 -0.0151894963473771 0.034065894356632133 0 -0.01494161817850561 0.033316031170171186 0 -0.01526732078347987 0.03306103177432558 0 -0.0151898734712584 0.033171603976307286 0 -0.01526950016692526 0.033099192699320233 0 -0.0151898734712584 0.033171603976307286 0 -0.015167150130212734 0.033189367985887237 0 -0.01494161817850561 0.033316031170171186 0 -0.013543286557756558 0.032695437498177438 0 -0.012792235664686121 0.033038341540285766 0 -0.01521883460793765 0.033113104923243208 0 -0.0151898734712584 0.033171603976307286 0 -0.015105341871446286 0.033178493086110789 0 -0.015105341871446286 0.033178493086110789 0 -0.01494161817850561 0.033316031170171186 0 -0.01492961751288845 0.032917418877784564 0 -0.01521883460793765 0.033113104923243208 0 -0.015168298279991147 0.033051819756534352 0 -0.015105341871446286 0.033178493086110789 0 -0.0151898734712584 0.033171603976307286 0 -0.015105341871446286 0.033178493086110789 0 -0.01494161817850561 0.033316031170171186 0 -0.014525129765415331 0.033042145008712366 0 -0.014777469105647844 0.032555886084315817 0 -0.01492961751288845 0.032917418877784564 0 -0.014525129765415331 0.033042145008712366 0 -0.01494161817850561 0.033316031170171186 0 -0.01492961751288845 0.032917418877784564 0 -0.015168298279991147 0.033051819756534352 0 -0.015105341871446286 0.033178493086110789 0 -0.01492961751288845 0.032917418877784564 0 -0.015168298279991147 0.033051819756534352 0 -0.01492961751288845 0.032917418877784564 0 -0.015112642513608335 0.032903649389305817 0 -0.015101266138707539 0.032702220318810538 0 -0.014777469105647844 0.032555886084315817 0 -0.01492961751288845 0.032917418877784564 0 -0.015101266138707539 0.032702220318810538 0 -0.01492961751288845 0.032917418877784564 0 -0.015112642513608335 0.032903649389305817 0 -0.015101266138707539 0.032702220318810538 0 -0.015244098183620209 0.032934016787030743 0 -0.015377872527856077 0.032900981728875234 0 -0.015259697131560255 0.033038350399550304 0 -0.015334083913572244 0.032995208920139192 0 -0.015244098183620209 0.032934016787030743 0 -0.015334083913572244 0.032995208920139192 0 -0.015244098183620209 0.032934016787030743 0 -0.015377872527856077 0.032900981728875234 0 -0.015168298279991147 0.033051819756534352 0 -0.015244098183620209 0.032934016787030743 0 -0.015112642513608335 0.032903649389305817 0 -0.015168298279991147 0.033051819756534352 0 -0.015259697131560255 0.033038350399550304 0 -0.015244098183620209 0.032934016787030743 0 -0.015101266138707539 0.032702220318810538 0 -0.015244098183620209 0.032934016787030743 0 -0.015112642513608335 0.032903649389305817 0 -0.016825293985451423 0.033878833937457151 0 -0.015821662140295671 0.033634047942074731 0 -0.01539604765635727 0.032716686924006595 0 -0.015377872527856077 0.032900981728875234 0 -0.01546091692641866 0.033029044168808051 0 -0.015377872527856077 0.032900981728875234 0 -0.01546091692641866 0.033029044168808051 0 -0.015403743343573303 0.03298371311570962 0 -0.015334083913572244 0.032995208920139192 0 -0.015377872527856077 0.032900981728875234 0 -0.015403743343573303 0.03298371311570962 0 -0.015197485224865696 0.033248899107816997 0 -0.015821662140295671 0.033634047942074731 0 -0.01546091692641866 0.033029044168808051 0 -0.015399901308273461 0.03298000789888194 0 -0.015416362177996431 0.032976306244086852 0 -0.01546091692641866 0.033029044168808051 0 -0.015416362177996431 0.032976306244086852 0 -0.015403743343573303 0.03298371311570962 0 -0.01512303678212088 0.033267052691018283 0 -0.01546091692641866 0.033029044168808051 0 -0.015399901308273461 0.03298000789888194 0 -0.015419231924526688 0.032859381256842637 0 -0.015399901308273461 0.03298000789888194 0 -0.015416362177996431 0.032976306244086852 0 -0.015398166239995596 0.03292282368351801 0 -0.015416362177996431 0.032976306244086852 0 -0.015375422937929109 0.032989866182164707 0 -0.015419231924526688 0.032859381256842637 0 -0.015398166239995596 0.03292282368351801 0 -0.015416362177996431 0.032976306244086852 0 -0.015357037279042243 0.032953530921574867 0 -0.015303579094555764 0.033037309075517156 0 -0.015375422937929109 0.032989866182164707 0 -0.015303579094555764 0.033037309075517156 0 -0.015334083913572244 0.032995208920139192 0 -0.015375422937929109 0.032989866182164707 0 -0.015334083913572244 0.032995208920139192 0 -0.015375422937929109 0.032989866182164707 0 -0.015403743343573303 0.03298371311570962 0 -0.015416362177996431 0.032976306244086852 0 -0.015375422937929109 0.032989866182164707 0 -0.015403743343573303 0.03298371311570962 0 
</DataArray>
</PointData>
<CellData Scalars="region_id,cross_section_updated," Vectors="" Tensors="stress,">
<DataArray type="Float64" Name="region_id" format="ascii">
5 5 5 5 5 5 5 5 5 5 5 5 5 5 5 5 5 5 5 5 5 5 5 5 5 5 5 5 5 6 5 5 6 6 5 5 5 5 5 5 5 5 5 5 5 5 5 5 5 6 5 5 5 5 6 5 5 5 5 5 5 5 5 5 6 5 5 5 6 5 5 5 5 5 5 5 5 5 5 5 5 5 5 5 6 5 5 6 5 5 6 5 6 6 5 5 5 5 5 5 5 6 5 6 5 5 5 6 5 5 5 5 5 5 5 5 5 5 5 5 5 5 5 5 5 5 5 5 5 5 6 6 5 5 5 5 5 5 5 5 5 5 5 5 5 6 5 5 5 5 5 5 5 5 5 5 6 5 5 5 6 5 6 6 5 5 5 6 5 5 5 5 6 5 5 5 5 5 5 5 5 5 5 5 6 5 5 6 5 5 5 5 5 5 5 5 5 5 5 6 5 5 5 5 5 5 6 5 5 5 5 6 5 5 5 5 5 5 5 5 5 5 5 5 5 5 5 5 5 5 5 6 5 5 5 5 5 5 5 5 5 5 5 5 5 5 5 5 5 5 5 5 5 5 5 5 5 5 5 5 5 5 5 5 5 5 5 5 5 5 5 5 5 5 5 6 5 5 6 5 6 5 5 5 5 5 5 5 5 5 5 5 5 6 5 5 5 5 5 5 5 5 5 5 5 5 5 5 5 5 5 5 5 5 5 5 5 5 6 6 5 5 5 5 6 5 5 5 5 5 5 6 5 5 6 5 5 5 5 6 5 6 5 5 5 5 6 5 5 6 5 5 5 5 5 6 6 5 6 5 5 5 5 5 5 5 5 5 5 5 5 5 5 5 5 5 5 5 6 5 6 5 6 5 5 5 6 5 5 5 5 6 5 5 5 6 5 6 6 5 6 5 5 5 6 5 6 6 5 5 5 5 5 5 5 5 5 5 5 5 5 5 5 6 5 6 5 5 5 5 6 5 6 5 6 5 5 5 6 5 5 5 5 5 5 5 5 5 5 5 5 5 5 5 5 5 5 5 5 5 5 5 5 5 5 5 5 5 5 5 5 5 5 6 5 5 5 5 5 5 5 5 5 5 5 5 5 5 5 5 5 5 5 5 5 5 5 5 5 5 5 5 5 6 5 5 5 5 5 5 5 5 5 6 5 6 5 5 5 6 5 5 5 5 5 5 6 5 6 5 5 5 5 5 5 5 5 5 5 5 5 5 5 5 5 5 5 5 5 5 5 5 6 5 5 5 6 5 5 6 5 5 5 5 5 5 5 5 5 5 5 5 5 5 5 5 5 5 5 5 5 5 5 5 5 5 6 5 6 5 5 5 5 5 6 5 5 5 5 5 5 6 5 6 5 5 6 5 5 6 5 5 5 5 5 5 5 5 6 5 6 6 5 5 5 5 5 5 5 5 5 5 5 5 5 5 6 6 5 5 6 5 5 6 5 5 5 6 5 5 6 5 5 6 5 6 5 6 5 5 5 5 5 5 5 5 5 5 5 5 5 5 5 5 5 5 5 5 5 5 5 5 5 5 5 5 5 5 5 5 5 5 5 5 5 5 5 5 5 6 5 5 5 5 5 6 5 6 5 5 6 5 5 5 6 5 5 5 5 5 5 5 5 5 5 5 5 5 5 5 5 5 5 5 5 5 5 5 5 5 5 5 5 5 5 5 5 5 5 5 5 5 5 5 5 5 5 5 5 5 5 5 5 5 5 5 5 5 5 5 5 5 5 6 5 5 5 5 5 5 5 5 5 5 5 5 5 5 5 5 5 5 5 5 5 5 5 5 6 5 5 5 5 6 5 5 5 5 5 6 5 5 5 5 6 6 5 5 6 5 5 5 6 5 5 6 5 6 5 5 5 5 5 5 5 5 5 5 5 5 5 5 5 5 5 5 5 5 5 5 5 6 5 5 5 6 5 5 5 5 5 5 5 5 5 5 5 5 5 5 5 5 5 5 5 5 5 5 5 5 6 5 5 5 5 5 5 5 5 5 5 5 5 5 5 5 5 5 5 5 5 5 5 6 5 5 5 6 5 5 5 5 5 5 5 5 5 5 5 5 5 5 5 5 5 5 5 5 5 5 5 5 5 5 5 6 6 5 5 5 5 5 6 5 6 5 5 6 6 5 5 5 5 5 5 6 5 5 5 5 5 5 5 6 6 5 5 5 5 5 5 5 5 5 5 5 5 5 5 5 5 5 6 5 5 5 5 5 5 5 5 5 5 5 6 5 5 5 5 5 5 5 5 5 5 5 5 5 5 5 5 5 5 5 5 5 5 5 6 5 5 5 5 5 5 5 5 5 5 5 5 5 5 5 5 5 5 5 5 5 5 5 5 5 6 5 5 5 6 5 5 5 6 5 5 5 6 5 5 6 5 5 5 5 5 5 5 5 5 6 5 5 5 6 5 5 5 6 6 5 5 5 5 5 5 5 5 5 6 5 5 6 5 6 5 5 5 5 5 5 5 5 6 6 5 5 5 5 5 5 5 5 5 5 5 5 5 5 5 5 5 5 5 5 5 5 6 5 5 5 5 5 5 5 5 6 5 5 5 5 6 5 5 5 5 6 6 5 5 5 5 5 6 5 5 5 6 5 5 5 5 5 5 5 5 5 5 6 5 6 5 5 6 5 5 5 5 5 6 5 5 5 5 5 5 5 6 5 5 5 5 5 5 5 6 5 5 5 6 5 5 5 5 5 6 5 5 5 5 5 5 5 6 5 5 5 6 5 6 5 6 5 5 6 5 5 5 6 5 5 5 5 5 6 5 5 5 5 5 5 5 6 5 5 6 5 5 6 5 5 6 5 5 6 6 6 5 5 5 6 5 5 6 6 5 6 5 5 5 6 5 5 5 5 5 6 5 5 5 5 5 5 5 5 6 5 5 5 5 5 5 6 5 5 6 5 5 5 5 5 5 5 5 5 5 5 5 5 5 5 5 5 5 5 5 5 5 5 5 6 5 5 5 6 5 5 5 5 5 6 5 5 5 6 5 5 5 5 5 5 5 5 5 5 5 5 5 5 5 5 5 5 5 5 5 6 5 5 6 5 5 5 5 5 5 5 5 5 5 5 5 5 5 5 5 6 5 5 5 6 5 5 5 5 5 5 5 5 6 5 6 5 5 6 5 5 5 5 5 5 6 5 5 5 5 5 5 6 5 5 5 5 5 5 5 5 5 6 5 6 5 5 5 5 5 5 5 5 5 6 5 5 5 5 6 5 5 5 5 5 5 5 5 5 5 5 5 5 5 5 5 5 6 5 5 5 6 5 6 5 5 5 5 5 5 5 5 5 5 5 5 5 5 5 5 6 5 6 5 5 5 6 5 5 5 5 5 5 5 5 5 6 5 6 5 5 5 5 5 5 5 5 5 5 5 5 6 5 5 5 5 5 5 5 5 5 5 6 5 5 6 5 5 5 5 5 5 5 5 5 6 5 5 5 5 5 5 5 5 5 5 6 5 5 6 5 5 5 6 5 5 5 5 5 5 5 5 5 5 5 5 5 5 5 5 5 5 5 5 5 6 5 5 5 5 5 6 6 5 6 5 5 5 5 5 5 5 5 5 5 5 5 5 5 5 5 5 5 5 5 5 6 5 5 5 5 5 5 5 5 5 5 5 5 5 5 5 5 5 5 5 5 5 5 5 5 5 5 5 5 5 5 5 5 5 5 5 5 5 5 5 5 5 6 5 5 5 5 6 6 5 5 5 6 5 5 5 5 5 5 5 5 5 5 5 5 5 5 5 5 5 5 6 5 5 5 5 5 5 5 6 5 6 6 5 5 5 5 6 5 5 5 5 5 6 5 6 5 5 5 5 5 5 5 5 5 5 5 5 6 5 5 6 6 6 6 5 5 5 6 5 6 5 5 6 5 5 6 5 5 5 5 5 5 5 6 5 5 6 5 5 5 5 5 6 5 6 6 5 5 6 5 6 5 5 5 5 6 5 5 5 5 6 5 5 5 5 6 5 5 5 5 5 5 6 5 5 6 5 6 5 5 5 6 5 5 6 5 5 5 6 5 5 5 5 5 5 5 5 6 5 5 5 6 5 5 6 5 5 5 5 5 5 5 6 5 5 5 5 5 5 5 5 5 6 5 5 6 5 5 5 6 5 5 5 6 5 6 5 5 5 5 5 5 5 5 5 5 5 5 5 6 5 5 5 5 5 6 6 5 5 5 5 5 5 5 5 5 5 6 6 5 5 5 5 6 6 5 6 5 6 5 6 5 6 5 6 5 6 5 5 5 5 6 6 5 6 6 5 5 6 5 6 5 5 5 6 5 5 5 5 5 5 6 6 5 5 5 6 6 5 6 5 5 5 5 5 5 6 5 6 5 5 6 5 5 5 5 5 5 5 6 5 5 5 5 5 5 5 5 6 5 5 5 5 5 5 5 6 5 5 6 5 5 5 5 5 5 5 6 5 6 5 5 5 6 5 5 5 5 5 5 5 5 5 6 5 5 5 5 5 5 5 5 6 5 5 5 5 5 5 5 5 5 5 5 5 6 5 6 5 5 5 5 5 5 5 5 6 6 5 5 5 5 5 6 6 5 5 5 5 5 5 5 5 5 5 5 5 5 5 5 6 6 6 5 5 6 5 5 5 5 6 5 5 5 5 6 5 5 5 6 5 5 5 5 5 5 5 5 5 5 5 5 5 5 5 5 5 6 5 5 5 5 5 6 5 5 5 5 5 6 5 5 6 5 5 5 5 5 5 6 5 5 5 5 5 5 5 5 5 5 5 6 5 6 5 5 6 5 5 5 5 5 5 5 6 5 5 6 6 5 5 5 6 5 5 6 6 5 6 5 5 5 6 5 5 5 6 5 5 5 5 5 6 5 5 5 5 6 5 5 5 5 5 6 5 5 5 5 6 6 5 5 5 5 5 5 5 6 5 5 5 5 6 5 6 5 5 5 5 5 5 5 5 5 5 5 5 5 5 5 6 5 5 5 5 6 5 5 6 5 5 5 5 5 5 6 5 5 5 5 5 5 5 5 5 5 5 5 5 5 5 5 5 5 6 6 5 5 5 5 5 5 5 5 5 5 5 5 5 5 5 5 5 5 5 5 5 5 5 5 6 5 5 5 6 5 5 5 5 6 5 5 5 5 6 5 5 5 5 5 5 5 5 5 5 5 5 5 5 5 5 5 5 5 5 5 5 5 5 5 5 5 5 5 5 5 5 5 5 5 5 5 5 5 5 6 5 5 5 5 5 5 5 5 5 5 5 5 5 5 5 5 5 5 5 5 5 5 5 5 5 5 6 5 5 5 5 5 5 6 5 5 5 5 5 5 5 5 5 5 6 5 5 5 5 5 5 5 5 5 5 5 5 5 5 5 5 5 5 5 5 5 5 5 5 6 5 5 5 5 5 5 5 5 5 5 6 5 5 5 5 5 5 5 6 5 5 5 5 5 5 6 5 5 5 6 5 5 5 5 5 5 5 5 5 5 5 6 6 5 5 5 5 6 6 5 6 5 5 5 5 5 6 5 5 6 5 5 6 5 6 5 5 5 6 5 5 5 5 6 5 5 5 5 5 5 5 5 5 5 5 5 5 5 5 5 5 6 5 5 5 5 5 5 5 6 5 5 5 5 5 5 5 5 5 5 5 5 5 5 6 5 5 5 6 5 6 5 6 5 5 6 5 5 5 5 5 5 5 5 5 5 5 5 5 5 5 6 5 5 5 6 6 5 6 5 6 5 5 5 5 5 6 5 6 5 5 6 5 5 5 6 5 5 6 6 5 5 6 5 5 5 6 5 5 5 5 5 5 5 5 5 5 5 5 6 6 5 5 5 5 5 5 5 5 5 6 5 5 5 5 6 5 5 5 5 5 5 5 5 5 5 5 5 5 5 5 5 5 5 5 5 5 5 5 5 5 6 6 5 5 6 5 6 5 5 5 5 6 5 6 5 6 5 5 6 5 5 5 5 6 5 5 5 6 5 5 6 5 5 5 5 5 5 5 5 5 6 6 5 5 5 6 5 5 5 5 5 6 5 5 6 5 5 5 5 5 5 5 5 5 5 6 6 5 5 6 5 5 5 5 5 5 5 5 5 5 6 6 5 5 5 5 5 6 5 5 5 5 5 5 6 6 5 5 5 5 5 5 5 5 5 5 5 5 5 5 5 6 5 5 5 6 5 5 6 5 6 5 5 6 5 5 5 5 5 5 5 6 5 5 5 6 5 5 5 5 5 5 5 5 5 5 5 6 5 5 5 5 5 5 6 5 5 5 6 5 6 5 5 5 5 5 5 5 5 6 5 5 5 5 5 5 5 5 6 5 5 5 5 5 6 5 5 5 5 5 5 5 5 6 5 5 5 5 5 5 5 5 5 5 6 5 5 6 5 5 6 5 5 6 5 5 5 5 5 6 5 5 5 5 5 5 5 5 5 6 5 5 5 5 5 5 5 5 6 5 5 5 5 5 5 5 6 5 5 5 6 5 5 5 5 5 5 5 5 5 5 5 5 5 5 5 5 5 5 5 5 5 5 5 5 5 5 5 5 5 5 5 5 5 5 5 5 6 5 5 5 5 5 5 5 5 6 5 5 5 5 6 5 5 6 5 5 5 5 5 5 5 5 5 5 5 5 5 5 5 5 5 5 5 5 5 5 5 5 6 5 6 5 5 5 5 5 6 6 5 6 5 6 5 6 5 5 5 5 5 5 5 5 6 5 6 5 5 6 6 5 5 5 6 5 5 5 5 6 5 5 5 5 5 5 5 6 5 5 5 5 5 6 5 5 6 5 5 5 5 5 5 6 5 5 5 5 5 5 5 5 5 5 6 5 5 5 5 5 5 5 6 5 5 5 5 5 6 6 5 5 5 5 6 5 5 6 5 5 6 5 5 5 5 5 5 5 5 5 6 5 6 5 6 5 6 5 5 5 5 5 5 6 5 6 5 5 5 5 5 5 5 6 5 5 5 5 5 5 5 5 5 5 5 5 6 5 5 5 5 5 5 5 5 5 5 5 5 5 5 5 5 6 6 5 5 5 5 5 5 5 6 5 5 5 5 5 5 5 5 5 5 6 5 5 5 5 5 6 5 5 5 5 5 5 5 5 5 5 5 5 5 5 5 5 5 5 5 5 5 5 5 5 5 5 5 5 5 5 6 5 5 5 5 5 5 5 5 5 6 5 5 5 5 5 5 5 5 6 5 5 5 5 5 5 5 5 5 5 5 5 5 5 5 5 5 5 5 5 5 5 5 5 5 5 5 5 5 5 5 5 5 5 5 5 5 5 6 5 5 5 6 5 6 5 5 5 5 6 5 5 5 5 5 5 5 5 5 5 5 5 5 5 5 5 5 5 5 5 6 5 5 5 5 5 6 5 5 5 6 5 5 6 6 5 5 5 5 5 5 6 5 5 6 5 5 6 5 6 5 6 6 5 6 6 5 6 5 5 5 6 5 5 6 5 6 5 5 5 5 6 6 5 5 6 5 5 5 5 5 5 6 5 5 6 5 6 6 5 5 5 5 6 5 5 5 5 5 5 5 5 6 5 5 5 5 5 5 5 5 5 5 5 5 5 5 5 5 5 5 5 5 5 5 5 6 5 5 5 5 5 5 5 5 6 5 5 5 6 5 5 5 6 6 6 5 5 5 5 5 5 6 5 5 5 5 5 5 5 5 6 6 5 5 5 5 5 5 5 5 5 5 5 5 5 5 5 5 5 5 5 5 5 5 5 5 5 5 5 5 5 5 5 5 6 5 5 6 5 5 5 5 5 5 5 5 5 5 5 5 6 5 5 5 5 5 5 5 5 5 5 5 5 5 5 5 5 5 6 5 5 5 6 6 5 5 5 5 5 5 5 5 5 5 5 5 5 5 5 5 5 5 5 6 5 5 5 5 5 5 5 5 5 5 6 5 5 5 5 5 5 5 6 5 5 5 6 5 5 5 5 5 5 5 6 5 5 5 5 5 5 5 6 5 5 5 6 5 5 5 5 5 5 5 5 6 5 5 5 5 6 5 5 5 5 5 5 5 6 5 6 5 5 5 5 5 5 6 5 5 5 5 5 5 5 6 5 5 5 5 5 5 5 5 5 5 5 5 6 5 5 6 6 5 5 5 5 5 5 6 5 5 6 5 5 5 5 5 5 6 5 5 5 5 5 5 5 5 5 5 6 5 5 5 5 5 5 5 5 5 5 6 5 5 5 6 5 5 5 5 5 5 5 5 5 6 5 5 5 6 5 5 5 5 6 5 5 6 5 6 6 5 5 5 5 5 5 5 5 5 5 5 5 5 6 5 5 5 5 5 5 5 5 5 5 5 5 5 5 5 5 5 5 5 5 5 5 5 5 6 5 5 5 5 5 6 5 5 5 5 6 6 5 5 5 5 5 5 5 5 5 5 6 5 5 5 5 5 5 5 5 5 5 5 5 5 5 5 5 5 5 5 5 5 5 5 5 5 5 5 5 5 5 5 6 5 5 5 5 5 6 5 5 5 5 5 5 5 5 5 5 5 5 5 5 5 5 5 5 5 5 5 5 5 5 5 5 5 5 5 5 5 5 5 5 6 5 5 5 5 5 5 5 6 5 5 5 5 5 5 5 5 6 5 5 5 5 5 5 5 5 5 5 5 5 5 5 5 5 5 5 5 5 5 5 5 5 5 5 5 5 5 5 5 5 5 5 5 5 5 5 5 5 5 5 5 5 5 5 5 5 5 5 5 5 5 5 5 5 5 5 5 5 5 5 5 5 5 5 5 5 5 5 5 5 5 5 6 5 5 5 5 5 5 5 5 5 5 6 6 5 6 5 5 5 5 5 5 5 5 5 5 5 6 5 6 5 5 5 5 5 5 5 5 5 5 5 5 5 5 5 5 5 5 5 5 5 5 5 5 5 5 5 5 5 5 5 5 5 6 5 6 5 5 5 5 5 5 5 5 5 5 5 5 5 5 5 5 5 5 5 5 5 5 5 5 5 5 5 5 5 5 5 5 5 5 5 5 5 5 5 6 5 5 5 5 5 5 5 5 5 5 5 5 5 5 5 5 5 5 5 5 5 5 5 5 5 5 5 5 5 5 5 5 5 5 6 5 5 5 6 5 5 5 5 5 5 5 5 5 5 5 5 5 5 5 5 5 6 5 6 5 5 5 6 5 5 5 5 5 5 5 5 5 5 5 5 5 5 5 5 5 5 5 5 5 5 5 5 5 5 5 5 5 5 5 5 5 6 6 5 5 5 5 5 5 5 5 6 5 5 5 5 5 5 5 5 5 5 5 5 6 5 5 5 5 6 5 6 5 6 5 5 5 5 5 5 6 5 6 5 5 5 5 5 5 5 5 5 5 5 5 6 5 5 6 5 5 6 5 5 5 5 5 5 5 5 5 5 5 5 5 5 5 5 5 6 5 5 5 5 5 5 6 5 5 5 5 5 6 5 6 5 6 5 5 5 6 5 6 5 5 5 6 5 5 5 5 5 5 5 6 5 5 5 5 6 5 5 5 5 6 5 5 5 6 5 5 5 5 5 5 5 5 6 6 5 5 6 5 5 6 6 5 5 6 6 5 5 5 6 5 5 5 5 6 5 6 5 5 5 6 5 5 5 5 5 5 5 5 5 6 5 6 5 6 5 5 5 5 5 6 5 6 5 5 5 5 5 5 5 5 5 5 5 5 5 5 5 5 5 6 5 5 5 5 5 5 5 6 5 6 5 5 6 5 5 6 6 5 5 6 5 5 5 5 5 6 6 5 5 5 5 5 5 5 5 6 5 5 5 6 5 5 5 5 5 5 5 5 5 5 5 5 5 6 5 5 6 5 5 6 5 5 5 6 5 5 5 5 5 5 5 5 5 6 5 5 5 5 5 5 6 5 5 5 5 5 6 5 6 5 5 5 5 6 5 5 6 5 5 5 6 5 5 5 5 5 5 6 6 5 6 5 5 5 5 5 5 5 5 6 6 5 5 5 5 5 5 6 5 5 5 5 5 5 5 5 5 6 5 5 5 5 5 5 5 5 5 5 5 5 5 5 5 5 5 5 5 5 5 6 5 5 5 5 5 5 5 6 5 5 5 5 5 5 5 5 5 5 5 5 5 5 5 5 5 5 5 5 6 5 5 6 5 5 5 5 6 5 5 6 5 6 5 5 6 5 6 5 5 5 5 6 5 5 5 5 6 5 5 5 6 5 5 5 5 5 5 5 5 5 5 5 5 5 5 6 5 6 6 5 5 5 5 5 5 5 5 6 5 5 5 5 5 5 5 5 5 5 5 5 5 5 5 5 5 5 6 5 5 5 5 6 5 5 6 5 5 5 5 5 5 5 5 5 5 5 5 5 5 5 5 5 5 5 5 5 5 5 5 5 5 5 5 6 5 5 5 5 5 5 5 5 5 5 5 5 5 5 5 5 5 5 5 5 5 5 5 5 5 5 5 5 5 5 5 5 5 5 5 5 5 5 5 5 5 5 6 5 5 6 5 5 5 5 5 5 5 5 5 5 5 5 5 5 5 5 5 5 5 5 5 5 5 5 6 5 6 5 5 5 6 5 5 5 5 5 5 5 6 6 5 5 5 6 5 5 6 5 5 5 5 5 5 5 5 5 5 5 6 5 5 5 6 5 5 5 5 6 5 5 5 5 5 5 5 5 5 5 5 5 5 5 5 5 5 5 5 5 6 5 5 5 5 5 6 5 6 5 5 6 5 5 5 5 5 5 5 5 5 5 5 5 5 6 5 5 5 5 5 5 6 5 5 5 5 5 5 5 5 6 5 5 5 5 5 5 5 5 5 5 5 5 6 5 5 5 5 6 5 6 6 5 6 5 5 5 5 5 5 5 5 5 5 5 5 5 5 6 5 5 6 5 5 6 5 6 6 5 6 5 5 5 6 5 5 6 5 5 6 5 6 5 5 5 5 5 5 5 6 5 5 5 6 5 5 5 6 6 5 6 5 5 5 5 5 5 5 5 5 5 5 5 5 5 5 5 5 5 5 5 5 5 5 5 6 5 5 5 6 5 5 5 6 5 5 6 5 5 5 5 5 5 5 5 5 5 5 6 5 5 5 5 6 5 5 5 5 6 5 5 6 6 5 5 5 5 5 5 5 6 6 5 5 5 5 5 5 5 6 5 5 6 5 6 5 6 6 6 5 5 5 5 5 5 5 6 5 5 5 5 6 5 5 5 5 5 5 6 5 5 5 5 5 5 5 5 5 5 5 5 5 5 6 5 5 6 6 5 5 5 6 5 5 5 6 5 5 5 5 5 5 5 5 5 5 5 5 5 5 5 5 5 5 5 5 5 5 5 5 5 5 6 5 5 6 5 6 5 5 5 5 5 6 5 5 5 5 5 5 5 5 5 6 6 5 5 6 5 5 5 5 5 5 5 5 5 5 5 5 5 5 5 5 5 5 5 5 5 5 5 5 5 5 5 5 5 5 5 5 5 5 5 5 5 5 5 5 5 5 5 5 5 5 5 5 5 5 5 5 5 5 5 5 5 5 5 5 5 5 5 5 6 5 5 5 5 5 6 5 5 5 5 5 5 5 5 5 5 5 5 5 5 5 6 5 6 5 5 5 5 5 5 5 5 5 5 5 5 5 5 5 5 5 5 5 5 5 5 5 5 5 5 5 5 5 5 5 5 5 5 5 5 5 5 5 5 5 5 5 5 5 5 5 5 5 5 5 5 5 5 5 5 5 5 5 5 5 5 5 5 5 5 5 5 5 5 5 5 5 5 5 5 5 5 5 5 5 5 5 5 5 5 5 5 5 5 5 5 5 5 5 5 5 5 5 5 5 5 5 5 5 5 5 5 5 5 5 5 5 5 5 5 5 5 5 5 6 5 5 5 5 5 5 5 5 5 5 5 6 5 5 5 6 5 5 5 5 5 5 5 5 5 5 5 5 5 6 5 5 5 5 5 5 5 5 5 5 5 5 5 5 6 5 5 5 5 5 5 6 5 6 6 5 5 5 6 5 6 5 5 5 5 5 5 5 5 5 5 5 5 5 5 6 5 5 5 5 5 5 5 5 5 5 5 5 5 5 5 5 5 5 5 5 5 5 5 5 5 5 5 5 5 5 5 5 5 5 5 5 6 6 6 5 5 6 6 5 6 5 5 5 5 5 5 5 6 5 6 5 5 5 5 5 5 5 5 5 6 6 5 5 5 5 5 5 6 5 5 6 5 6 5 5 6 5 5 5 6 6 6 6 6 5 5 5 5 6 5 6 5 5 6 6 6 5 5 6 6 5 5 6 6 5 6 5 5 5 6 6 5 5 6 5 6 5 5 5 6 6 5 6 5 5 5 5 5 5 5 5 5 5 5 5 5 5 5 5 5 5 6 5 5 5 6 5 5 5 6 6 5 6 5 5 6 5 5 5 5 5 5 5 5 6 5 5 5 5 5 5 5 6 5 5 6 5 5 5 5 5 5 5 5 5 5 5 5 5 5 6 5 5 6 5 5 5 5 6 5 5 5 5 5 5 5 6 5 5 5 5 5 5 5 6 5 5 6 5 5 5 5 5 5 6 5 5 6 5 5 5 5 5 5 5 5 5 5 5 6 5 5 6 5 5 5 5 5 6 6 5 5 5 5 5 5 5 5 5 5 6 5 5 5 5 5 5 5 5 6 5 5 5 6 5 5 5 5 5 5 5 5 5 5 5 5 5 5 5 5 5 5 5 5 5 5 5 5 5 5 5 5 5 5 5 5 5 6 5 5 5 6 5 6 5 6 6 5 5 5 6 5 5 6 5 5 5 5 5 5 5 5 5 5 5 5 5 5 5 5 5 5 5 5 5 5 6 5 5 5 6 5 5 5 6 5 5 5 6 5 6 5 5 5 5 6 5 6 6 5 5 6 5 5 5 5 5 5 5 5 5 5 5 6 5 5 5 5 5 5 5 5 5 5 6 5 5 5 5 5 5 5 5 5 5 5 5 5 5 5 6 5 5 5 5 5 6 5 6 5 5 5 6 6 5 5 5 5 6 5 5 5 5 5 5 5 5 6 5 5 5 5 5 5 5 5 5 5 5 5 5 5 5 5 5 5 5 5 6 5 5 5 5 5 5 5 5 5 5 5 5 5 5 5 6 5 5 5 5 5 6 5 5 5 5 5 5 5 6 5 5 5 5 6 5 5 5 5 5 5 5 5 5 5 5 6 5 5 5 6 5 5 5 5 5 5 5 5 5 5 5 5 5 5 5 5 5 5 5 5 5 5 5 5 5 5 5 5 5 5 5 5 5 5 5 5 5 5 6 5 5 5 5 5 6 5 5 5 5 5 5 5 5 5 5 5 5 5 5 5 5 5 5 5 5 5 5 5 5 5 5 5 5 5 5 5 5 5 5 6 6 5 6 5 6 5 5 5 5 6 5 6 6 5 5 5 5 5 5 5 5 5 5 5 5 5 5 5 5 5 5 5 5 5 5 5 5 5 5 5 5 5 5 5 5 5 5 5 5 5 5 5 5 5 5 5 5 5 6 5 5 5 5 5 5 5 5 5 5 6 5 6 5 5 5 5 6 5 5 5 5 5 5 5 5 5 5 5 5 6 5 5 5 5 5 5 5 5 5 5 5 5 5 5 6 5 5 5 6 5 5 5 5 5 5 5 5 5 5 6 5 6 5 5 5 5 5 5 5 5 6 5 5 6 6 5 5 5 5 5 5 5 5 5 5 5 5 5 6 5 5 6 5 5 6 5 5 5 5 6 6 5 6 5 5 5 6 5 5 5 5 5 5 5 5 5 5 6 5 5 6 5 5 5 5 5 5 5 6 5 5 5 5 5 5 5 5 5 5 5 5 5 5 5 5 6 5 5 6 5 5 5 5 5 5 5 5 5 5 5 5 6 5 5 6 5 5 5 5 5 5 5 5 5 6 5 5 5 5 5 5 6 5 6 5 5 5 5 5 5 6 5 6 5 5 5 5 5 5 5 5 5 5 5 5 5 5 5 5 5 5 5 5 5 5 5 5 5 5 5 5 5 5 6 5 5 5 5 5 5 5 5 5 5 5 5 5 5 5 5 5 5 5 5 5 5 6 5 5 5 5 5 5 5 5 5 5 5 5 5 5 5 5 5 5 5 5 5 5 5 5 5 5 6 6 5 5 5 5 5 5 5 5 6 5 5 5 5 5 6 5 5 5 5 5 5 5 5 6 6 5 5 5 5 5 5 5 5 5 6 5 6 6 5 5 5 6 5 5 5 5 5 5 5 5 6 5 5 5 5 5 5 5 5 5 5 5 5 5 5 5 5 5 5 5 5 5 6 5 5 5 5 5 5 5 5 5 6 5 5 6 5 5 5 5 5 5 6 5 5 5 5 5 5 5 5 5 5 5 5 5 5 5 5 5 6 5 5 5 5 5 5 5 5 5 5 6 5 5 5 5 5 5 5 5 5 5 5 6 6 6 5 5 5 5 5 5 6 5 5 5 5 6 5 5 5 5 5 5 5 5 5 5 5 5 5 5 5 5 5 6 5 5 5 5 5 5 5 5 5 5 5 5 5 5 5 5 5 5 5 5 5 5 5 5 5 5 5 5 6 5 5 6 5 5 5 5 5 5 5 5 5 6 5 5 5 6 5 5 5 5 5 5 5 5 6 5 5 5 5 5 5 5 5 5 5 5 5 5 5 5 5 5 5 5 5 5 5 5 5 6 6 5 5 5 5 5 5 6 5 5 5 5 5 5 5 5 5 5 5 5 6 5 5 5 5 5 5 5 5 5 5 5 5 5 5 5 5 5 5 5 5 5 5 5 5 5 5 5 5 5 5 6 5 5 5 5 5 5 5 5 5 5 5 6 5 5 5 5 6 5 5 5 5 5 5 6 5 5 5 5 5 5 5 5 6 5 5 5 6 5 6 5 5 6 5 5 5 5 5 5 5 5 5 5 5 5 5 5 5 5 5 5 5 5 5 5 6 6 5 6 5 5 5 5 5 5 6 5 5 5 5 5 5 5 5 5 5 5 5 5 5 5 6 5 6 5 5 5 5 6 5 5 5 5 5 5 5 5 6 5 5 5 5 5 5 5 5 5 5 5 5 5 6 5 5 6 5 6 5 5 5 5 5 5 5 5 5 5 5 5 6 5 5 5 5 6 5 6 5 5 5 6 5 6 5 6 5 5 5 5 6 5 5 5 6 5 5 5 5 5 6 5 5 6 5 6 5 5 5 5 6 5 5 5 5 6 5 5 6 5 5 5 5 5 5 5 5 5 5 5 5 5 5 5 5 5 5 5 5 5 5 5 5 6 5 5 5 5 6 5 5 5 5 5 5 5 5 5 5 5 5 5 6 5 6 5 5 5 5 5 5 6 5 5 5 5 6 5 6 5 5 5 5 5 5 5 5 5 5 5 5 5 5 5 5 5 5 5 5 5 5 5 5 5 6 5 5 5 6 5 5 5 5 5 5 5 5 6 5 5 5 5 5 5 5 5 5 5 5 5 5 5 5 6 5 5 6 5 5 5 5 5 5 5 5 5 5 5 6 5 5 5 6 5 5 5 5 5 5 5 5 5 5 5 5 6 6 5 5 5 5 5 5 6 5 5 5 5 5 5 5 5 5 5 5 5 5 5 5 6 5 5 5 5 5 5 5 5 5 5 6 5 5 5 5 5 5 5 5 5 6 5 6 5 5 5 6 5 5 6 5 5 5 5 5 5 5 5 5 6 5 5 5 5 5 6 5 5 6 5 5 5 5 5 6 5 6 5 6 6 5 5 5 5 6 5 5 5 5 5 5 6 5 5 5 5 5 5 5 5 5 5 5 5 5 5 5 5 5 5 5 6 5 5 5 5 5 5 5 5 5 5 6 5 5 5 5 6 5 5 5 5 5 6 5 5 5 5 5 5 5 5 5 6 5 6 5 6 6 6 5 5 5 5 6 5 6 6 5 6 5 5 6 6 5 6 5 5 5 5 5 5 6 5 5 6 5 5 6 5 5 5 6 5 5 5 6 5 5 5 5 5 5 5 5 5 5 5 5 5 5 5 5 6 6 5 6 5 5 6 5 5 5 6 6 5 5 5 5 5 5 5 5 5 5 6 5 5 6 5 5 5 6 5 5 5 6 6 5 6 5 5 5 6 5 5 6 5 5 5 5 5 5 6 5 5 5 5 5 5 6 5 5 5 5 5 5 5 6 5 5 5 6 5 5 5 6 5 5 6 5 5 6 5 6 5 6 5 6 5 6 5 5 5 6 5 5 5 5 6 6 6 5 6 5 5 5 5 5 5 6 6 5 5 5 5 5 6 5 5 5 5 5 5 5 5 5 5 5 5 5 5 6 5 5 6 5 5 5 6 5 5 5 5 5 6 5 5 5 5 6 5 5 5 5 5 5 5 5 5 5 5 5 5 5 5 5 5 5 6 5 5 6 5 5 5 5 6 5 5 6 5 5 5 5 5 5 6 5 5 5 5 5 5 6 5 5 5 5 5 5 6 5 5 5 5 5 5 5 5 5 5 5 5 5 5 5 5 5 5 5 5 5 5 5 5 5 5 5 6 5 5 5 6 5 5 5 5 6 5 5 5 5 5 6 6 5 5 5 5 5 5 5 6 5 5 5 5 5 5 5 5 5 5 5 5 5 5 5 6 5 6 5 5 6 5 5 5 5 5 5 5 5 5 5 6 5 5 5 5 5 5 5 5 5 6 5 5 5 5 5 5 5 5 5 5 5 5 5 5 5 5 5 5 5 5 5 5 5 5 5 5 5 5 5 5 5 5 5 5 5 5 5 5 5 5 5 5 5 5 5 5 5 5 5 5 5 5 5 5 5 5 5 6 5 5 5 5 5 5 5 6 5 5 5 5 5 5 6 5 5 6 5 5 5 5 5 5 5 5 5 5 5 5 5 5 5 5 5 5 5 5 5 5 5 5 6 5 5 5 5 5 5 6 5 5 5 5 5 5 5 5 5 5 5 5 5 5 5 5 5 5 6 5 5 5 5 6 5 5 5 5 6 5 5 5 5 5 5 5 5 5 5 5 6 5 5 5 5 5 5 5 5 5 5 5 6 5 5 5 5 5 5 5 5 5 5 5 5 5 5 5 5 5 5 5 5 5 5 5 5 5 5 5 5 5 5 5 5 5 5 5 5 5 5 5 5 5 5 5 5 5 5 5 5 5 5 5 5 5 5 5 5 5 5 5 5 6 6 5 5 5 5 5 5 5 5 6 5 5 5 5 5 5 5 5 5 5 5 5 5 5 6 6 5 5 5 6 5 6 5 5 5 6 5 5 5 5 5 6 6 6 5 5 5 6 5 5 5 5 5 5 5 5 5 5 5 5 5 6 5 5 6 5 5 5 5 5 5 5 5 5 5 5 5 5 5 5 5 5 5 5 5 5 5 5 5 5 5 5 5 5 5 6 5 5 5 5 6 5 5 5 5 5 5 5 5 5 5 5 5 5 5 5 5 5 5 5 5 5 5 5 5 5 5 5 5 5 5 6 5 5 5 5 5 6 5 5 5 5 5 5 5 5 5 5 5 5 5 5 5 5 5 5 5 5 5 5 5 5 5 5 5 5 5 5 6 5 5 5 5 5 5 5 5 5 5 5 5 5 5 5 5 5 5 5 5 5 5 5 5 5 5 5 5 5 6 5 5 5 5 5 5 5 5 5 5 6 5 5 6 5 5 5 6 5 5 5 5 5 5 5 5 5 5 6 5 6 5 5 5 5 5 6 5 5 5 6 5 5 5 5 6 5 6 5 5 5 5 6 5 5 5 6 5 6 5 5 5 6 5 5 5 5 5 6 5 5 6 5 5 5 5 5 5 5 5 5 5 5 5 5 5 5 6 5 5 5 5 5 5 6 6 5 6 5 5 6 5 5 5 5 6 5 5 5 5 5 5 6 5 5 5 5 6 5 5 5 5 5 6 6 5 5 5 6 5 5 6 5 5 5 5 5 6 5 5 5 5 5 5 5 5 5 5 5 5 5 5 5 5 5 5 5 5 5 6 5 5 5 5 5 5 5 5 5 5 5 5 6 5 5 5 5 5 6 5 5 5 6 5 5 5 5 6 5 6 6 5 6 5 5 5 5 5 5 5 5 5 5 5 5 6 5 5 5 5 5 6 5 6 5 5 5 5 5 5 5 5 5 5 5 5 5 5 5 5 5 5 5 5 6 5 5 5 5 5 5 5 5 5 5 5 6 5 5 6 5 5 5 5 5 5 5 5 5 5 5 5 5 5 5 5 5 5 5 5 5 5 5 5 5 5 5 5 5 5 5 5 5 5 5 6 5 5 5 5 5 5 5 6 6 5 5 5 5 6 5 5 6 5 5 5 5 6 6 5 6 5 5 6 5 6 6 5 5 5 5 5 5 5 5 5 5 5 5 5 5 6 5 5 5 6 5 6 5 5 5 5 5 5 5 5 5 5 5 5 6 5 5 6 5 5 6 5 5 5 5 5 5 5 5 5 5 5 5 5 5 5 5 6 5 6 5 6 5 5 5 5 5 5 5 5 6 5 5 5 5 5 5 5 5 5 5 5 5 5 5 5 5 5 6 5 5 5 5 5 5 5 5 5 5 5 5 5 5 5 6 6 5 5 5 5 6 5 6 5 5 6 5 5 5 5 5 6 5 6 5 6 5 5 5 5 6 5 5 5 5 5 6 5 5 5 5 5 5 5 5 5 5 5 5 5 5 5 5 5 5 5 5 5 5 5 5 5 5 5 5 5 5 5 5 6 5 6 6 5 5 5 5 5 6 5 5 5 5 6 5 5 6 5 6 5 5 5 5 6 5 5 5 5 5 5 5 5 5 5 6 5 5 5 5 5 5 5 5 5 5 5 5 5 5 5 5 5 5 5 5 5 6 5 5 5 5 6 5 5 5 5 5 5 6 5 6 5 5 5 5 6 5 5 5 5 5 5 5 5 5 5 5 5 5 5 5 5 6 5 5 5 6 5 5 6 5 5 5 5 6 5 5 5 5 6 6 5 5 5 5 5 5 5 5 5 5 5 5 5 5 5 5 5 5 5 5 5 5 5 5 5 5 5 5 6 5 5 5 5 5 5 5 5 5 5 5 5 6 5 5 5 5 5 5 5 5 5 5 5 6 5 5 6 5 6 5 5 5 6 5 5 5 5 5 6 5 5 5 6 5 5 5 5 5 5 5 5 5 5 5 5 5 5 5 5 5 5 5 5 5 5 5 5 5 5 5 5 5 5 5 5 5 5 5 5 5 5 5 5 5 5 5 5 5 5 5 5 5 5 5 5 5 5 5 5 5 5 5 5 5 5 5 5 5 5 5 5 5 5 5 5 5 5 5 5 5 5 5 6 5 5 5 5 5 5 5 5 5 5 5 5 5 5 5 5 5 5 5 5 5 5 5 5 5 5 5 5 5 5 5 5 5 5 5 5 5 5 5 5 5 5 5 6 6 6 5 5 5 6 5 5 5 5 5 5 5 5 6 5 5 5 6 5 5 5 6 5 5 6 5 6 5 5 5 5 5 5 5 5 5 5 5 5 5 5 5 5 5 5 6 5 5 5 5 5 6 5 5 5 5 6 5 5 5 5 5 5 5 5 5 5 6 5 5 5 6 5 6 5 5 5 6 5 5 5 5 5 6 5 5 6 5 5 5 5 5 5 5 5 5 6 5 5 5 5 5 5 5 5 5 5 5 5 5 6 5 5 5 5 5 5 5 5 5 5 5 5 5 6 5 5 5 5 5 6 5 5 5 5 5 5 5 5 5 5 5 5 5 5 6 5 5 5 5 5 5 5 5 6 5 5 5 5 5 5 5 6 5 5 5 5 5 5 5 5 5 5 6 5 5 5 5 5 5 5 5 5 5 5 5 5 5 5 5 6 5 5 6 5 6 5 5 5 5 5 5 5 5 5 5 5 5 5 5 5 5 5 5 5 5 5 5 5 5 5 5 5 5 5 5 5 5 5 5 5 5 5 5 5 5 5 5 5 5 5 5 5 5 5 5 5 5 5 5 5 5 5 5 6 6 5 5 5 5 5 5 5 5 5 5 5 5 5 5 5 5 5 5 5 5 5 5 5 5 5 5 5 5 5 5 5 5 5 5 5 5 5 5 5 5 5 5 5 5 5 5 5 5 5 5 5 5 5 5 5 5 5 5 5 5 5 5 6 6 5 5 5 5 5 5 5 5 5 5 5 5 5 6 5 5 5 5 5 5 5 5 5 5 5 5 5 5 5 5 5 5 5 5 5 5 5 5 5 5 5 5 5 5 5 5 5 5 5 5 5 5 5 6 5 5 5 6 5 5 5 5 6 5 5 5 5 5 5 5 5 5 5 5 6 5 5 5 5 5 5 5 5 5 6 6 5 5 5 5 5 5 6 5 5 5 5 5 5 5 5 5 5 5 5 5 5 5 5 5 5 5 5 5 6 5 5 5 5 5 5 5 5 5 5 5 5 5 5 6 5 5 6 5 5 5 5 5 5 5 6 6 5 5 5 5 5 6 5 5 5 5 6 5 5 5 5 5 5 6 5 5 5 5 5 5 5 5 5 6 5 5 5 5 6 5 6 5 5 6 5 5 5 6 5 5 5 5 5 6 5 5 5 5 5 6 6 5 5 6 5 5 5 5 5 5 5 5 6 5 5 6 5 6 5 5 5 5 5 5 5 5 6 5 5 5 5 5 5 5 5 5 5 5 5 5 5 5 5 5 5 5 5 6 5 5 5 6 6 5 5 5 5 5 6 5 5 6 5 5 5 5 5 5 5 5 5 5 5 5 5 5 5 5 5 5 5 6 5 5 6 5 5 5 5 5 5 5 5 6 5 5 6 5 5 5 5 5 6 6 5 6 5 5 5 5 5 5 5 5 6 5 5 5 5 6 5 5 5 5 5 6 5 5 5 5 5 5 5 6 5 5 5 5 5 5 6 5 5 6 5 5 5 6 6 5 5 6 5 5 5 5 5 5 5 5 6 5 6 6 5 5 5 5 5 5 5 5 5 5 5 5 6 5 5 5 5 6 5 5 5 5 5 5 5 5 5 5 5 5 5 5 5 5 6 6 5 5 5 5 5 5 5 5 5 5 5 5 5 5 6 6 5 5 5 5 5 5 5 5 5 5 6 5 5 5 5 5 5 5 6 5 5 5 5 5 6 5 6 6 5 5 5 5 5 5 5 5 5 5 6 5 5 5 5 5 5 5 5 5 5 5 5 5 6 5 5 5 6 5 5 5 5 5 5 5 5 5 5 5 5 5 5 5 5 5 5 5 5 5 5 5 5 5 5 5 5 5 5 5 5 5 5 5 5 5 5 5 5 5 5 5 5 6 5 5 6 5 5 5 5 5 5 5 6 5 5 5 5 6 5 5 5 5 5 5 5 5 5 5 6 5 5 5 5 6 5 5 6 5 5 5 5 5 5 5 5 5 5 5 5 5 5 5 5 5 6 6 5 5 5 5 5 5 5 5 5 6 6 6 5 5 6 5 5 5 5 5 5 5 5 5 5 5 6 5 6 5 5 5 5 5 5 6 5 5 5 5 5 5 5 5 5 5 5 5 6 5 5 5 5 5 6 6 5 5 5 5 5 5 5 5 5 6 5 5 5 5 6 5 5 5 5 5 5 5 5 5 5 5 5 5 5 5 5 5 5 5 5 5 5 5 5 5 5 5 5 5 5 6 5 5 5 5 5 5 5 6 5 5 5 5 5 5 5 5 5 5 5 5 5 5 5 5 5 5 5 5 5 5 6 5 5 5 5 5 6 5 5 5 5 5 6 5 6 5 5 6 5 5 5 5 5 5 5 5 5 5 5 5 5 5 5 5 5 5 6 5 5 5 5 5 5 6 5 5 5 5 5 6 5 5 5 6 5 5 5 5 6 5 6 6 5 5 5 6 6 5 5 6 5 6 5 6 5 5 6 6 5 5 6 5 5 6 5 5 6 6 5 5 6 5 5 5 6 5 5 6 6 5 6 5 5 5 5 6 5 5 5 5 6 5 5 6 5 5 6 5 5 5 5 5 5 5 6 5 5 6 5 5 5 5 6 5 5 5 6 5 5 5 5 5 6 5 5 5 5 5 5 5 5 5 5 6 6 5 5 5 6 5 5 6 5 5 5 5 5 6 5 6 6 5 5 6 5 5 5 6 5 6 6 5 6 6 5 5 5 6 5 6 5 6 5 6 5 6 5 6 6 5 5 5 5 5 5 6 6 5 6 6 5 5 5 5 6 5 5 5 5 6 5 5 5 5 5 6 5 5 5 5 5 5 5 5 5 6 5 5 5 5 6 5 6 6 5 5 5 5 6 5 5 5 5 5 6 5 6 5 5 5 5 5 5 5 5 5 5 6 5 5 5 5 6 5 5 5 5 5 5 5 5 5 6 5 5 5 5 5 5 5 5 5 5 5 5 5 5 5 5 5 5 5 5 5 5 5 6 5 5 5 5 5 5 5 5 6 5 5 5 5 5 6 5 5 5 5 5 5 5 5 5 5 5 5 5 5 5 5 5 5 5 5 5 5 5 5 5 5 6 5 5 6 5 5 5 5 5 5 6 5 5 6 5 5 5 5 5 6 5 5 5 5 5 5 5 5 6 5 5 5 6 5 6 5 5 5 5 6 5 5 5 5 6 5 5 5 5 6 5 5 6 5 5 5 5 6 5 5 6 5 5 5 5 5 5 5 6 5 5 5 5 6 5 5 5 5 5 5 5 5 5 6 5 5 6 5 6 6 5 5 5 5 5 5 5 5 6 5 5 5 5 5 5 5 5 5 5 5 5 6 5 5 6 5 5 5 5 5 6 5 5 5 5 5 6 5 5 6 5 5 6 5 5 5 5 5 5 5 5 5 5 6 5 5 5 6 6 5 5 6 5 5 5 5 6 5 5 6 5 5 5 5 5 5 5 5 5 5 6 5 5 5 5 5 5 5 5 6 5 5 5 5 5 5 5 5 5 5 5 5 5 5 5 5 5 5 5 5 5 6 5 5 5 5 5 5 5 5 5 6 5 5 5 6 5 5 5 6 5 5 5 5 5 5 5 5 5 5 5 5 5 5 5 5 5 5 5 5 5 5 6 5 5 5 6 5 6 5 5 5 6 5 5 6 6 5 6 5 5 5 5 5 5 6 5 6 5 6 5 5 6 5 5 6 5 5 5 5 5 5 5 5 5 6 5 6 5 5 5 5 5 6 5 5 6 5 5 5 5 5 5 5 5 5 5 6 6 6 6 5 6 5 5 5 6 5 6 5 5 5 6 6 5 5 5 6 5 5 6 6 5 6 5 5 5 5 5 5 5 5 5 5 5 5 5 5 5 5 5 5 5 5 5 6 6 5 5 5 5 5 5 6 5 6 5 5 5 5 5 5 5 5 5 5 5 5 5 5 5 5 5 5 5 5 5 5 5 5 5 5 5 6 5 5 5 5 5 6 5 6 5 5 5 5 5 5 5 5 5 6 5 5 5 5 5 5 5 5 6 6 5 5 6 6 5 5 5 5 5 5 5 5 6 5 5 5 5 5 5 5 5 5 5 5 5 5 5 5 5 5 5 6 5 5 5 5 5 5 5 6 5 5 5 5 5 5 5 5 5 6 5 6 5 6 5 5 6 5 5 5 5 5 5 5 5 5 5 5 6 5 5 5 5 5 5 5 5 5 6 5 5 5 5 5 5 5 5 5 5 5 5 5 5 5 5 6 5 5 5 5 5 5 6 5 5 6 5 5 5 5 5 5 5 5 5 5 5 5 5 5 5 5 5 5 5 5 5 6 5 6 6 5 5 5 5 6 5 5 5 5 5 5 5 5 6 5 5 5 5 6 6 5 5 5 5 5 5 5 5 5 5 5 6 6 5 5 5 5 5 5 6 5 5 5 5 5 6 5 6 5 5 6 5 6 5 5 5 5 5 5 6 5 5 5 5 5 5 5 5 5 5 5 5 5 6 5 5 5 5 6 5 5 6 5 5 5 5 5 5 5 5 5 6 5 5 5 5 5 5 5 5 6 5 5 5 5 5 5 5 5 5 5 5 5 6 5 5 6 5 5 5 5 5 5 5 5 5 5 6 5 5 5 5 5 5 5 6 5 5 5 6 5 5 5 5 5 5 5 5 6 6 5 6 5 6 5 5 5 5 5 5 5 5 5 5 5 5 5 5 6 5 5 5 5 6 5 6 6 5 5 5 5 5 5 5 5 5 5 5 5 5 5 6 5 5 5 5 5 5 5 5 6 5 5 5 5 5 5 5 5 5 5 5 5 5 5 5 5 6 6 5 5 5 5 5 5 5 5 5 5 5 5 5 5 5 5 5 5 5 6 6 5 5 5 5 5 5 5 5 5 5 5 5 5 5 5 5 5 5 6 5 5 6 5 5 5 5 5 5 5 5 5 6 5 5 5 6 5 5 5 5 5 5 5 5 5 5 5 5 5 5 5 5 6 5 5 5 6 5 5 5 5 5 5 5 5 5 5 
</DataArray>
<DataArray type="Float64" Name="stress" NumberOfComponents="9" format="ascii">
-1788.9824416431657 4586.0585259325671 0 4586.0585259325671 -910.899414611471 0 0 0 0 1.0400426578053157 3631.7454831149953 0 3631.7454831149953 -3310.149725071271 0 0 0 0 -1476.9651232053293 2312.3168224719702 0 2312.3168224719702 -4358.0303383962455 0 0 0 0 -1441.8984216970093 2173.2804926982371 0 2173.2804926982371 -6990.822940187616 0 0 0 0 -1815.7968541527807 4554.5583543516659 0 4554.5583543516659 -5008.4522044581827 0 0 0 0 -4791.7397674166423 2689.6928063050073 0 2689.6928063050073 -2232.9447641367242 0 0 0 0 -2132.1690035824431 3620.6401360878081 0 3620.6401360878081 -2463.3011517708583 0 0 0 0 -2904.0512988454211 4009.8964706626393 0 4009.8964706626393 -912.77375416341238 0 0 0 0 -2228.4063532300715 4079.6897394458028 0 4079.6897394458028 -977.0801255015831 0 0 0 0 -2580.9043822100211 4088.2794103187844 0 4088.2794103187844 2.6447580737871226 0 0 0 0 -2078.1456970718282 3742.0807736205825 0 3742.0807736205825 -238.18874827059335 0 0 0 0 -1734.287277967589 3429.2860443527716 0 3429.2860443527716 -0.8375215634223423 0 0 0 0 -2572.196135108592 3269.9563130988463 0 3269.9563130988463 161.55470768400482 0 0 0 0 -951.31984614553221 2478.4084981996275 0 2478.4084981996275 342.21027011058686 0 0 0 0 -1971.7728782202466 1938.8092082150615 0 1938.8092082150615 1258.8528101002739 0 0 0 0 -512.10520207055379 1233.3314568980131 0 1233.3314568980131 1129.2917824071737 0 0 0 0 -1077.5483361566585 2503.1001303752491 0 2503.1001303752491 491.30659101341735 0 0 0 0 -267.53197339073813 1716.7541088014405 0 1716.7541088014405 -150.32167832748382 0 0 0 0 -625.09049769528792 1670.7128562079815 0 1670.7128562079815 323.60450839875557 0 0 0 0 -683.61163412798487 1074.4027839948067 0 1074.4027839948067 1809.6308219452621 0 0 0 0 -1340.1128381683229 3694.2001567767438 0 3694.2001567767438 -2426.0451761675504 0 0 0 0 -924.6581210237382 3017.9066635871577 0 3017.9066635871577 -897.52190420760598 0 0 0 0 -1031.9293096336478 2822.9802399249602 0 2822.9802399249602 -626.01796238005045 0 0 0 0 -252.46263371271198 1716.3526790278702 0 1716.3526790278702 -1066.6184023246205 0 0 0 0 -490.27171217523573 2383.1084294257234 0 2383.1084294257234 -1909.3987359158746 0 0 0 0 430.71001000639808 264.6671409511473 0 264.6671409511473 -2252.3538499088718 0 0 0 0 -746.19278295514232 2269.3961280708536 0 2269.3961280708536 -1678.1744098542986 0 0 0 0 -229.857449552459 269.74658951172387 0 269.74658951172387 -41.423678916486097 0 0 0 0 -292.52631311595906 48.850210363641963 0 48.850210363641963 285.98936103938468 0 0 0 0 -34.507226571533579 91.93874641852284 0 91.93874641852284 52.029343360944807 0 0 0 0 -292.47682672177325 1064.5636297586898 0 1064.5636297586898 1751.7406132136093 0 0 0 0 -266.80818272816396 11.222819249080203 0 11.222819249080203 212.30813873474835 0 0 0 0 -0.1421216183888987 1.7553412476455321 0 1.7553412476455321 32.200769941380884 0 0 0 0 -55.691389140196861 91.505337795343394 0 91.505337795343394 41.375786645034978 0 0 0 0 -3.1916323331388412 329.06001774829929 0 329.06001774829929 -320.6753306098326 0 0 0 0 -424.96109129815886 355.75487098555095 0 355.75487098555095 88.603552387423406 0 0 0 0 -267.0197787542711 262.76662856851181 0 262.76662856851181 -387.73812583406107 0 0 0 0 -76.334408310547587 409.36858699158984 0 409.36858699158984 -275.02998523160204 0 0 0 0 -583.10454835504061 875.92208546007168 0 875.92208546007168 -855.20281239370524 0 0 0 0 -467.34129606248462 622.78192158868478 0 622.78192158868478 -406.15305795128734 0 0 0 0 -209.80495789815177 555.94969324165868 0 555.94969324165868 -1257.4112927229726 0 0 0 0 -16.301352323513129 -54.366773962836305 0 -54.366773962836305 133.14291042328114 0 0 0 0 3.6432919524959289 100.90371589951246 0 100.90371589951246 -119.14956317769247 0 0 0 0 -434.68440860728151 259.84223455078609 0 259.84223455078609 -24.284095859300578 0 0 0 0 -528.28949157134048 170.86561284626077 0 170.86561284626077 -99.739372803262086 0 0 0 0 101.28970819557435 130.27640273659199 0 130.27640273659199 -22.281275436103897 0 0 0 0 -50.746201706744614 1.1469234298274387 0 1.1469234298274387 -76.502177311587729 0 0 0 0 97.435274935472989 -13.297793611862289 0 -13.297793611862289 -43.670833438867703 0 0 0 0 433.76879073763848 333.36606024227149 0 333.36606024227149 -229.41094079599134 0 0 0 0 -14.485648571853744 40.178150892575474 0 40.178150892575474 49.850724191962684 0 0 0 0 -1.7686288806871744 -7.9250335244214511 0 -7.9250335244214511 221.01538152390276 0 0 0 0 135.78030206439144 67.036386703497556 0 67.036386703497556 96.512897695371066 0 0 0 0 -3071.4316372523317 516.34201103093801 0 516.34201103093801 -554.93198499646678 0 0 0 0 -372.71956320732716 -77.636865807551658 0 -77.636865807551658 580.74582896300126 0 0 0 0 8.1589663024108177 12.064989527697207 0 12.064989527697207 -10.94654171070124 0 0 0 0 -1624.1105307777179 632.80882472470694 0 632.80882472470694 177.47833630903915 0 0 0 0 -708.54337819365901 -25.677260346681578 0 -25.677260346681578 -4.7504789825761691 0 0 0 0 -85.721332539222203 374.36750200630922 0 374.36750200630922 -47.914356947570923 0 0 0 0 7.4302241105178837 -297.35276622173842 0 -297.35276622173842 -155.36787851278496 0 0 0 0 -2.47007632839086 762.88067913751001 0 762.88067913751001 -1130.6749796629156 0 0 0 0 -1471.4498062154162 793.32988609246968 0 793.32988609246968 -298.32694778878067 0 0 0 0 -1372.022452129655 1153.8827435410203 0 1153.8827435410203 -1598.031148966722 0 0 0 0 -1079.9607710273704 782.40335053374292 0 782.40335053374292 -480.96424284024397 0 0 0 0 -2068.0601152551681 981.30732439467829 0 981.30732439467829 -400.54438688176742 0 0 0 0 5.1051830543697179 8.0392073281122975 0 8.0392073281122975 1.3120999499013237 0 0 0 0 -1265.8920990797924 1984.5417940121843 0 1984.5417940121843 -2301.044745195657 0 0 0 0 -1631.3392898906022 2245.3388906722539 0 2245.3388906722539 -2266.7693834986549 0 0 0 0 -2582.7380939213326 2104.9854206568125 0 2104.9854206568125 -293.22037361598632 0 0 0 0 10.813120561694973 17.556787223975505 0 17.556787223975505 5.9778159015979782 0 0 0 0 -1254.59063460991 1702.0559607548869 0 1702.0559607548869 -2107.5101204120438 0 0 0 0 -3091.0446565098828 1168.9535548980057 0 1168.9535548980057 1528.0709961053217 0 0 0 0 -2169.5590942873387 1460.9258689724375 0 1460.9258689724375 -298.33607725589172 0 0 0 0 -1581.0291627528495 1912.4662126033218 0 1912.4662126033218 -1943.6066455237233 0 0 0 0 -376.6946484450018 653.64380984610034 0 653.64380984610034 -3276.7249573424051 0 0 0 0 -493.41545920551289 3097.5495133057993 0 3097.5495133057993 -4915.9997456363053 0 0 0 0 -2.7781859839766243 2249.5681022129556 0 2249.5681022129556 -3938.589522487222 0 0 0 0 -3087.6166872446411 3542.1791163356556 0 3542.1791163356556 -3039.9202108113968 0 0 0 0 -2832.6538026906674 2598.5154647988838 0 2598.5154647988838 -2316.3993075172766 0 0 0 0 -923.27576663752552 2426.4431944001408 0 2426.4431944001408 -3427.2903623428429 0 0 0 0 -721.77935896810959 3403.4050266953564 0 3403.4050266953564 -5318.8808553657436 0 0 0 0 -2335.1310761635177 3592.486638446946 0 3592.486638446946 -3057.712987396837 0 0 0 0 -2265.2006216068112 3592.9174460263312 0 3592.9174460263312 -4413.7355900254188 0 0 0 0 -3487.0687748549099 6027.2719150718476 0 6027.2719150718476 -6321.4195383915285 0 0 0 0 399.28765782630944 -235.69791814951896 0 -235.69791814951896 -3832.0904874986591 0 0 0 0 -2.5415240534679242 106.25515508271505 0 106.25515508271505 42.721478647262103 0 0 0 0 -526.43199026686489 184.16063952662444 0 184.16063952662444 -15.86849265442288 0 0 0 0 -6016.615083565659 3181.59040958072 0 3181.59040958072 -314.62301362602739 0 0 0 0 8.4186517513231252 13.519679152908623 0 13.519679152908623 -2.1612807629429653 0 0 0 0 -3271.6677079533401 1961.6160563619924 0 1961.6160563619924 -1675.8282489871781 0 0 0 0 -3570.7690889474179 1276.1565417992097 0 1276.1565417992097 -858.61107173001074 0 0 0 0 -0.30596953180570097 37.16078703856428 0 37.16078703856428 -61.677264984782255 0 0 0 0 -2431.5256199782016 2887.4751817512442 0 2887.4751817512442 2968.7725421506329 0 0 0 0 -66.513743228580779 44.965839284962769 0 44.965839284962769 -21.840104489947976 0 0 0 0 -9.3316185203084103 -2.9546703032978883 0 -2.9546703032978883 33.8882187041213 0 0 0 0 765.14803689756081 689.81331563543063 0 689.81331563543063 1869.1339201552632 0 0 0 0 1761.0774846819622 2226.4463839789496 0 2226.4463839789496 1979.5859039972129 0 0 0 0 -138.05883071768039 1660.2531261959521 0 1660.2531261959521 2713.7919996177079 0 0 0 0 306.46433181024622 1553.1733472933847 0 1553.1733472933847 2082.6166824481024 0 0 0 0 24.527958509417658 878.4541968595513 0 878.4541968595513 1882.985231796687 0 0 0 0 184.88421423273394 1271.8216128413333 0 1271.8216128413333 1869.9352963629699 0 0 0 0 -209.90089057237492 75.988930595296551 0 75.988930595296551 38.005860047505848 0 0 0 0 -32.365303567552985 20.672899418281418 0 20.672899418281418 4.1749508918534843 0 0 0 0 492.8301371124835 981.94604133884422 0 981.94604133884422 2142.7176210079633 0 0 0 0 -17.426539458573728 13.914226472487684 0 13.914226472487684 -1.6351400897561916 0 0 0 0 64.724473889506044 216.11838649938727 0 216.11838649938727 116.94984712896985 0 0 0 0 -520.80317874820321 -168.57202647671511 0 -168.57202647671511 179.83774497767445 0 0 0 0 351.51084375330538 556.21431954026048 0 556.21431954026048 -0.72190764306228961 0 0 0 0 0.035630940053465565 1.1696174581688652 0 1.1696174581688652 -7.5912456600293581 0 0 0 0 -1909.6377769709434 944.58122198314959 0 944.58122198314959 386.89590374252293 0 0 0 0 -2129.22441298179 40.128064238037041 0 40.128064238037041 27.146040465042461 0 0 0 0 -567.93209774648494 814.14050112024051 0 814.14050112024051 -643.80081135215005 0 0 0 0 -329.03072969325149 -28.447546928768134 0 -28.447546928768134 29.254931756440783 0 0 0 0 -509.47000352095347 1647.5363356822927 0 1647.5363356822927 -535.55769548524404 0 0 0 0 -480.05795737820154 1315.7428765867953 0 1315.7428765867953 50.12264497455908 0 0 0 0 -869.8051044860913 1025.8594250548631 0 1025.8594250548631 5.2494067796651507 0 0 0 0 -878.21605390537297 1040.207671320517 0 1040.207671320517 43.575883171608439 0 0 0 0 -866.80042553655221 1379.1821123688133 0 1379.1821123688133 -0.18776244412583765 0 0 0 0 112.56499007921957 799.74931302602636 0 799.74931302602636 -10.286930561473127 0 0 0 0 994.56785181329906 1243.2337780720554 0 1243.2337780720554 0.1870929656579392 0 0 0 0 115.4917731078076 765.76539898985538 0 765.76539898985538 357.40193750511389 0 0 0 0 879.20548903962117 1796.7029273684821 0 1796.7029273684821 752.84733239928028 0 0 0 0 209.41809699648002 783.01037733061821 0 783.01037733061821 51.881545769923832 0 0 0 0 656.52175191391143 1298.5533469246002 0 1298.5533469246002 180.67377682966617 0 0 0 0 -569.85147562183556 1439.4379241055285 0 1439.4379241055285 312.56615628269356 0 0 0 0 853.29190317497705 431.59321672978695 0 431.59321672978695 -564.90467817289755 0 0 0 0 897.80345339304768 -255.68418051485787 0 -255.68418051485787 430.72031817765674 0 0 0 0 -246.91955224680714 435.32824138103751 0 435.32824138103751 2582.0859952299215 0 0 0 0 -831.28370574679866 279.53746555584075 0 279.53746555584075 2381.062655142101 0 0 0 0 -357.72754463073215 1019.8451989544992 0 1019.8451989544992 894.41903273368371 0 0 0 0 1816.7572877091734 82.276326139995945 0 82.276326139995945 314.46177559852367 0 0 0 0 -11.563728773556818 7.7567486033026967 0 7.7567486033026967 0.14423134606684584 0 0 0 0 -69.70546428918783 47.845681168894444 0 47.845681168894444 -25.963011129474353 0 0 0 0 -905.02146762888879 2077.2084319082205 0 2077.2084319082205 3782.4873565981397 0 0 0 0 -282.72091897716746 1090.0764804075152 0 1090.0764804075152 -1514.8021986562817 0 0 0 0 170.25370362023841 1256.3654149311078 0 1256.3654149311078 4399.9327926271944 0 0 0 0 -282.01866685645655 207.81756875332212 0 207.81756875332212 1442.3699862663343 0 0 0 0 -732.90493452758528 157.4664012726862 0 157.4664012726862 2229.7409667298198 0 0 0 0 -508.74703700488317 345.46585753248655 0 345.46585753248655 2025.376092251041 0 0 0 0 -478.18361000801087 1089.2993895502004 0 1089.2993895502004 2041.3034565393173 0 0 0 0 -541.74318723141914 1060.8483196152665 0 1060.8483196152665 2718.0056681023998 0 0 0 0 -298.40374648227589 1989.8363004274142 0 1989.8363004274142 3686.6038585115311 0 0 0 0 -220.47551578009734 0.76733893180789892 0 0.76733893180789892 3551.9687282136956 0 0 0 0 617.44486257260724 593.96292792128224 0 593.96292792128224 2333.9777285474702 0 0 0 0 -451.31184539060632 551.5806291213521 0 551.5806291213521 2337.7077016035328 0 0 0 0 1062.1790742326993 593.82206923500053 0 593.82206923500053 8166.4056955998385 0 0 0 0 12.022442954723601 15.462253923090145 0 15.462253923090145 9.0922760710191 0 0 0 0 -502.1151835976998 2219.0432392045441 0 2219.0432392045441 7311.6484735334234 0 0 0 0 -350.41394961858168 -1445.3490710603364 0 -1445.3490710603364 5669.1883843547548 0 0 0 0 -263.85763053047413 -236.12024873811606 0 -236.12024873811606 4063.9549538970605 0 0 0 0 -77.650782477721805 622.83298111753538 0 622.83298111753538 2610.489990590926 0 0 0 0 207.85219435277395 1739.5620773930568 0 1739.5620773930568 6978.2336870807412 0 0 0 0 250.04855678063177 1365.5250317583414 0 1365.5250317583414 3033.1814528476971 0 0 0 0 1738.6275383598404 795.01930364652799 0 795.01930364652799 74.661161712137982 0 0 0 0 277.27026389734237 424.74468383993371 0 424.74468383993371 471.43545921450277 0 0 0 0 174.00640148975071 50.008068660812569 0 50.008068660812569 -599.25766100223609 0 0 0 0 -1006.1854152621236 581.43671641206311 0 581.43671641206311 5.7378458386665443 0 0 0 0 -0.049534359071097711 0.87477237025865406 0 0.87477237025865406 20.776255180064595 0 0 0 0 3179.8482906494173 2981.1591446853272 0 2981.1591446853272 2786.8071823685896 0 0 0 0 517.34044999774778 680.55783343693474 0 680.55783343693474 -2.5772065905330237 0 0 0 0 -1112.2047186789569 -1166.4631348476687 0 -1166.4631348476687 2507.0592646294681 0 0 0 0 -58.438715982984718 56.453156818368385 0 56.453156818368385 -31.572704853937637 0 0 0 0 813.94710111731547 975.18083951411973 0 975.18083951411973 830.92747919322574 0 0 0 0 -23.134539285245332 19.198431635789746 0 19.198431635789746 49.414020100109155 0 0 0 0 -11.304294015300524 3.9710035411793001 0 3.9710035411793001 5.2825289303850695 0 0 0 0 1891.0912501014682 810.83717031217384 0 810.83717031217384 52.100150581012713 0 0 0 0 -1.8529964878980536 56.553288268376491 0 56.553288268376491 -0.0139406070811674 0 0 0 0 -120.96823391461839 70.632124688405838 0 70.632124688405838 54.666441127716098 0 0 0 0 -45.466200649050791 30.889667272328126 0 30.889667272328126 -9.7242610144677428 0 0 0 0 450.57800035933906 320.30102185484429 0 320.30102185484429 255.21825748890114 0 0 0 0 205.27390650613233 763.36152665739064 0 763.36152665739064 513.71539699925052 0 0 0 0 -2108.2482421711538 -459.59544913102582 0 -459.59544913102582 450.4864271069091 0 0 0 0 -1.8661628028480663 56.824787860621427 0 56.824787860621427 0.1025365031673573 0 0 0 0 -17.914796721113532 9.3201318176682548 0 9.3201318176682548 -6.1827053050747622 0 0 0 0 -3803.7345148302993 1599.0855199451544 0 1599.0855199451544 1248.4317141476149 0 0 0 0 -1037.2328232824511 1182.7617804254987 0 1182.7617804254987 1144.5163813051513 0 0 0 0 -1079.3457307291101 1274.3458349569337 0 1274.3458349569337 1602.4796733053809 0 0 0 0 -588.47144157430739 448.9519212446321 0 448.9519212446321 1103.5695821577247 0 0 0 0 155.74935396065121 979.06024975443142 0 979.06024975443142 1461.6502213640342 0 0 0 0 -546.11631938390201 635.45034497228335 0 635.45034497228335 1659.9187613204076 0 0 0 0 -96.107582743134117 -31.531209869775921 0 -31.531209869775921 2384.4843614764832 0 0 0 0 -717.93793011415983 707.55929794705298 0 707.55929794705298 3039.6419272721687 0 0 0 0 -960.94049494249339 954.91604290560645 0 954.91604290560645 2036.3822690181551 0 0 0 0 115.06168503938534 376.11919701697479 0 376.11919701697479 1998.7820154327028 0 0 0 0 -287.6841933220494 81.118129883645452 0 81.118129883645452 2411.2010421529703 0 0 0 0 10.110968314990487 51.83025694223403 0 51.83025694223403 16.974255370972571 0 0 0 0 -99.189959886619874 9.9572856096193618 0 9.9572856096193618 -637.4924255394435 0 0 0 0 -94.790265381991048 1221.9751000555989 0 1221.9751000555989 -559.68432657600351 0 0 0 0 -59.781588754613097 60.614498403349288 0 60.614498403349288 -11.329014017567459 0 0 0 0 -467.27077297306096 430.83755067305901 0 430.83755067305901 -17.260727052002039 0 0 0 0 -416.75443113387155 274.77812158451707 0 274.77812158451707 -148.01707832240209 0 0 0 0 -326.79107749712421 328.00902807739476 0 328.00902807739476 -741.30750389014429 0 0 0 0 -440.56727269435942 458.05948657491535 0 458.05948657491535 -184.93548445116903 0 0 0 0 -316.80037575500319 539.65333915076189 0 539.65333915076189 -795.08810965833982 0 0 0 0 -474.10998402384575 213.99480657255481 0 213.99480657255481 -272.86847100044542 0 0 0 0 -467.9934134973355 314.9445335272635 0 314.9445335272635 -35.0909707568062 0 0 0 0 34.473685935445246 -75.215006433892995 0 -75.215006433892995 -1017.7315896033251 0 0 0 0 -355.11792651825817 273.94291786639951 0 273.94291786639951 -1063.9591290482967 0 0 0 0 -6.6645894273679005 1023.4122067489807 0 1023.4122067489807 -2971.6051755486988 0 0 0 0 -346.80154076874169 600.56318462944728 0 600.56318462944728 -545.8512175323558 0 0 0 0 -49.272242836355531 41.217302652850691 0 41.217302652850691 -28.566509589280145 0 0 0 0 188.05830538802547 984.58857885014731 0 984.58857885014731 1554.8169871775754 0 0 0 0 358.32057484447432 275.21013206106727 0 275.21013206106727 160.86181221340667 0 0 0 0 -295.29600008948182 431.87784075293894 0 431.87784075293894 174.00171651379787 0 0 0 0 -421.33159117435571 1089.3485064200067 0 1089.3485064200067 -370.89321198087418 0 0 0 0 -208.11295627427171 118.34235038579209 0 118.34235038579209 1143.3027146896929 0 0 0 0 -363.66710812867677 1420.4727867307811 0 1420.4727867307811 1109.3850124187884 0 0 0 0 -58.397724914252819 53.17708077103056 0 53.17708077103056 -41.902321700045093 0 0 0 0 415.69819154276047 510.22552076608554 0 510.22552076608554 -21.839666995452717 0 0 0 0 117.22473244325374 -494.40945281143649 0 -494.40945281143649 3219.8567684708396 0 0 0 0 31.292587728719809 1314.2705232231965 0 1314.2705232231965 -2394.8507209953095 0 0 0 0 -1030.0436678662809 680.77209609477723 0 680.77209609477723 -596.49461002572207 0 0 0 0 22.188922058716173 35.912857949882209 0 35.912857949882209 18.384808009806818 0 0 0 0 632.42278061067918 1569.1182885932794 0 1569.1182885932794 -3761.9862795854351 0 0 0 0 -627.12432943002204 30.475328117114259 0 30.475328117114259 -1209.349229122221 0 0 0 0 152.98292426179978 433.93160846478713 0 433.93160846478713 -1096.6806748539675 0 0 0 0 396.27746754705731 776.83397205288202 0 776.83397205288202 610.18533523834776 0 0 0 0 244.23973344935803 360.72299701857264 0 360.72299701857264 -513.09124667135256 0 0 0 0 382.92552703019464 2370.9142973140697 0 2370.9142973140697 100.86970472455141 0 0 0 0 -361.77415165996354 1506.4448037084949 0 1506.4448037084949 1573.6025159134297 0 0 0 0 -403.36357691712328 877.1120811621804 0 877.1120811621804 1833.9374873374763 0 0 0 0 -210.80980641982751 1062.9182659427861 0 1062.9182659427861 1444.9739584380295 0 0 0 0 -271.8058511398267 890.59579410031438 0 890.59579410031438 1181.6544982172927 0 0 0 0 -433.17152843240183 653.88046646409202 0 653.88046646409202 1060.2507091047737 0 0 0 0 -603.96288333729899 814.24370470688882 0 814.24370470688882 964.93861781674786 0 0 0 0 -861.73603676041239 622.89511988054437 0 622.89511988054437 824.5457660605025 0 0 0 0 -176.13054815984651 279.39527756027383 0 279.39527756027383 732.01651995451539 0 0 0 0 -120.8084816452465 239.54196224064799 0 239.54196224064799 437.45776730772923 0 0 0 0 -2.2667375735472888 99.507302948244615 0 99.507302948244615 592.68584465778054 0 0 0 0 605.32360629737377 480.40536105501815 0 480.40536105501815 590.87445330490868 0 0 0 0 -20.056754167453619 -113.82910515530966 0 -113.82910515530966 560.45171639035107 0 0 0 0 274.48122973083809 -589.3085414094021 0 -589.3085414094021 -1911.5164152131692 0 0 0 0 -19.508641199642398 16.056628128954983 0 16.056628128954983 -13.137585063062744 0 0 0 0 -445.78041048112209 902.64803477009991 0 902.64803477009991 -4900.124934827094 0 0 0 0 -2282.4463886199956 2281.8187965325415 0 2281.8187965325415 -647.86102526125615 0 0 0 0 -1797.3490986579855 737.06176932735252 0 737.06176932735252 1262.5062180937675 0 0 0 0 -1590.7067126790935 457.43521716118266 0 457.43521716118266 -4009.328925675356 0 0 0 0 -2576.2985269841156 2381.6498428347841 0 2381.6498428347841 -3207.9768467947288 0 0 0 0 -1242.903721626586 2532.9866672759599 0 2532.9866672759599 -3123.586907556426 0 0 0 0 -1616.4786984401871 959.21832758992969 0 959.21832758992969 761.22657064649684 0 0 0 0 -1026.3518690953497 333.74910213708063 0 333.74910213708063 781.13371232338977 0 0 0 0 -807.41979310836177 848.10699867100266 0 848.10699867100266 429.33473007392604 0 0 0 0 -947.17361173617246 1214.7058264233638 0 1214.7058264233638 334.99893774955126 0 0 0 0 -507.54553729962208 1852.993111463642 0 1852.993111463642 -594.50283904997923 0 0 0 0 -1326.972072231667 1948.2602793251554 0 1948.2602793251554 -687.19242302473867 0 0 0 0 -1188.6206682323245 1686.7545916531526 0 1686.7545916531526 -899.96345913957339 0 0 0 0 -761.97994703950098 2221.8625205233147 0 2221.8625205233147 -1894.3702952612075 0 0 0 0 -860.26061218114046 1368.2186351789933 0 1368.2186351789933 -2342.7154265216086 0 0 0 0 -1039.4947894769575 1525.5990218313818 0 1525.5990218313818 -2441.5101468483044 0 0 0 0 -81.943655193623272 1806.9636276231977 0 1806.9636276231977 -2065.0205457122065 0 0 0 0 -342.37010928906966 1902.0196588387189 0 1902.0196588387189 -2212.6410858790623 0 0 0 0 -285.06342962267809 1723.3526399658367 0 1723.3526399658367 -1768.2789694205858 0 0 0 0 -288.65151442702336 1952.2300033011634 0 1952.2300033011634 -1021.3724668156356 0 0 0 0 -33.82679027953418 1938.1221436478372 0 1938.1221436478372 -1724.1859311516018 0 0 0 0 -519.09179351430794 1558.2508543766453 0 1558.2508543766453 -824.76263273846416 0 0 0 0 -58.146773437456432 1879.5992788852345 0 1879.5992788852345 58.650518955633743 0 0 0 0 -482.95898018326261 1494.7156622932234 0 1494.7156622932234 793.4125296799466 0 0 0 0 163.80620404097135 1000.5202557110169 0 1000.5202557110169 1022.6885581276438 0 0 0 0 -209.38507000647587 1141.6807356857626 0 1141.6807356857626 206.50379843020346 0 0 0 0 -777.54983208919293 1331.618556378744 0 1331.618556378744 407.2561071224336 0 0 0 0 -413.06331589311594 840.69990461057751 0 840.69990461057751 863.2777524110279 0 0 0 0 -474.35918833207688 1192.8217194861645 0 1192.8217194861645 1246.330138469566 0 0 0 0 -365.9966227755649 1320.4110860050423 0 1320.4110860050423 1684.1082418954466 0 0 0 0 -276.80024383222917 874.85996873564727 0 874.85996873564727 1533.2336544046848 0 0 0 0 -307.06433959036076 1229.1744341606609 0 1229.1744341606609 1906.3575324055273 0 0 0 0 -95.459998210310005 1452.5754181543234 0 1452.5754181543234 2211.8918892223737 0 0 0 0 -348.36800499923993 1125.715936427383 0 1125.715936427383 2108.1797875489083 0 0 0 0 -117.04008161247475 1077.6655541874643 0 1077.6655541874643 2787.7887045340613 0 0 0 0 103.01442863995908 880.42857765656663 0 880.42857765656663 2014.0474230720647 0 0 0 0 804.12593642924912 720.93170897237724 0 720.93170897237724 2269.3854091656976 0 0 0 0 332.39656985970214 1854.7086013076514 0 1854.7086013076514 1316.5048616829736 0 0 0 0 -8.6115827294997871 1057.8299008870235 0 1057.8299008870235 1592.479346084292 0 0 0 0 1095.4473510958342 1599.6679954248793 0 1599.6679954248793 1395.0260429986811 0 0 0 0 16.379190504376311 1381.7380044919264 0 1381.7380044919264 1724.8200980658876 0 0 0 0 13.38392508335528 214.95487034136022 0 214.95487034136022 106.17139977405895 0 0 0 0 11.97596518053615 239.45142107164247 0 239.45142107164247 561.43771701410878 0 0 0 0 -5.0039837658152635 20.517237601710121 0 20.517237601710121 -24.411951600485793 0 0 0 0 -1103.6059130506765 -176.52844054604793 0 -176.52844054604793 114.91507620219636 0 0 0 0 -2183.1699739013129 368.20441542752815 0 368.20441542752815 -45.171486203049426 0 0 0 0 -4.9001059053860843 8.4940295490370659 0 8.4940295490370659 -18.921419928560283 0 0 0 0 -22.630342230717361 -102.04115620088032 0 -102.04115620088032 -417.43195722336532 0 0 0 0 -2.6544124236968116 5.4749213839695372 0 5.4749213839695372 -10.833008935826172 0 0 0 0 603.50410846911836 382.91432493976026 0 382.91432493976026 96.298406945556053 0 0 0 0 33.148445984377759 573.65207783937512 0 573.65207783937512 171.20447532096296 0 0 0 0 145.68062761871988 363.46872783097569 0 363.46872783097569 -258.94932203856297 0 0 0 0 827.65004396127188 191.20013836255384 0 191.20013836255384 -2005.7975500843168 0 0 0 0 190.18883464233295 1308.156004045341 0 1308.156004045341 -2632.4686958402308 0 0 0 0 -183.9041016871488 478.68387605866883 0 478.68387605866883 -275.03207531862427 0 0 0 0 -494.94810763033456 1732.4883059317472 0 1732.4883059317472 -2174.1730671348341 0 0 0 0 -120.93107125730603 1419.9486327580307 0 1419.9486327580307 -2194.7554509312613 0 0 0 0 -1102.2558558118617 861.71252014991478 0 861.71252014991478 -2920.6215684687922 0 0 0 0 -1107.9034679696051 1221.7355282078133 0 1221.7355282078133 -2309.8406109538773 0 0 0 0 -1799.2689070481138 1115.546570502258 0 1115.546570502258 -2406.2276296442433 0 0 0 0 1087.4195207695448 -440.05983740041847 0 -440.05983740041847 -817.61944380470959 0 0 0 0 -0.48751900454695374 1.6735025413446465 0 1.6735025413446465 -10.589842302934528 0 0 0 0 -2266.9961973341851 1625.3847652803306 0 1625.3847652803306 -2549.7483843418486 0 0 0 0 -2279.1915673500935 2126.7884476986901 0 2126.7884476986901 -1384.227271061769 0 0 0 0 -2135.6393201766477 1158.0268005664548 0 1158.0268005664548 -1774.7117914492701 0 0 0 0 -1370.4683912192704 1315.5101603704461 0 1315.5101603704461 -2381.2345160903933 0 0 0 0 -2067.960170288774 1227.9967580993762 0 1227.9967580993762 -2332.0614861804061 0 0 0 0 -1879.2986740181368 1038.0984817144345 0 1038.0984817144345 -2381.1878049670195 0 0 0 0 -3315.2165126953332 888.51299046471831 0 888.51299046471831 -2396.750295336009 0 0 0 0 -783.88128581688943 1005.2311346536208 0 1005.2311346536208 -2316.42513112296 0 0 0 0 -675.55845193940331 1447.3954298762983 0 1447.3954298762983 -2904.5784537891013 0 0 0 0 -732.48601246795442 1276.5943456939349 0 1276.5943456939349 -2376.0258211115433 0 0 0 0 -1156.8598854601441 1004.9502042872846 0 1004.9502042872846 -2017.6991427746834 0 0 0 0 -1122.5074953570438 1274.5199353405915 0 1274.5199353405915 -1977.264715243411 0 0 0 0 -1017.9088430798802 992.48072838322696 0 992.48072838322696 -1295.6221336233575 0 0 0 0 -1442.3518611426043 875.91875297960723 0 875.91875297960723 -1716.0318270509015 0 0 0 0 -1793.3114477406634 1365.1534892370182 0 1365.1534892370182 -1234.7951102326842 0 0 0 0 -1239.7907872407814 651.07009518981067 0 651.07009518981067 -414.78406933293445 0 0 0 0 -1416.2959938569838 732.12197075693257 0 732.12197075693257 -151.26343522741809 0 0 0 0 -1295.6002982287646 983.65320413417248 0 983.65320413417248 -465.97104800425586 0 0 0 0 -199.46858190016064 950.27190853253705 0 950.27190853253705 -1513.2854255343336 0 0 0 0 -342.8653277448102 1194.5570660254234 0 1194.5570660254234 -832.24243947970535 0 0 0 0 -727.87121375114657 999.45623763086769 0 999.45623763086769 -1298.6757468279393 0 0 0 0 -631.02067159848957 720.09181450489268 0 720.09181450489268 -522.40759570605587 0 0 0 0 -480.44570371224836 976.52838900991628 0 976.52838900991628 -1494.5299104668593 0 0 0 0 -478.41898265999771 1034.1894777810048 0 1034.1894777810048 -2147.816336131742 0 0 0 0 2.3428328912607412 5.0141463249390199 0 5.0141463249390199 -2.0333330109818633 0 0 0 0 7.2789162942339658 6.6594146942080101 0 6.6594146942080101 -1.5804799606640358 0 0 0 0 -255.68757185447612 1042.6267894643206 0 1042.6267894643206 -2135.5059895382874 0 0 0 0 -231.84353442895008 413.81595848670622 0 413.81595848670622 -1060.6887242315279 0 0 0 0 -134.69443746765319 599.15318185631622 0 599.15318185631622 -1897.6865611662361 0 0 0 0 -20.373539421307214 498.97875396010932 0 498.97875396010932 -1825.3854081606696 0 0 0 0 2.6739649536983165 4.6357887703923097 0 4.6357887703923097 -0.39905334926552882 0 0 0 0 -340.71000350721141 1120.3621086526543 0 1120.3621086526543 -1206.9578250387567 0 0 0 0 -344.12963794638927 796.06301926315791 0 796.06301926315791 -1580.4126749727584 0 0 0 0 -273.961216215881 947.89865845731038 0 947.89865845731038 -1014.4936164162573 0 0 0 0 -397.7878184346846 820.47983844810005 0 820.47983844810005 -905.32020896751783 0 0 0 0 -412.11819341605587 880.26517030717514 0 880.26517030717514 -1025.1619658350392 0 0 0 0 -435.62143434246627 707.61658542593932 0 707.61658542593932 8.5372900295478757 0 0 0 0 0.17477560936583814 5.4983122266226019 0 5.4983122266226019 2.1252348564640897 0 0 0 0 -334.08255121381808 287.11857325392702 0 287.11857325392702 -498.47384156564658 0 0 0 0 -659.45680218263442 645.82592668487996 0 645.82592668487996 -309.13937561036437 0 0 0 0 0.39865835586880394 9.4938686249614079 0 9.4938686249614079 4.7090432497378458 0 0 0 0 -395.88947151996399 911.55877680602862 0 911.55877680602862 -994.84189060555946 0 0 0 0 -290.15421418764163 560.65210806336108 0 560.65210806336108 -407.95688482973492 0 0 0 0 -292.60171783938131 480.83268229157693 0 480.83268229157693 -564.61908205098007 0 0 0 0 -310.75853433484735 503.55720150168781 0 503.55720150168781 -342.48147167568095 0 0 0 0 4.6211271166685606 27.301134902919983 0 27.301134902919983 12.186463526103495 0 0 0 0 -8.5896658721612766 46.496630782385182 0 46.496630782385182 224.02182174208428 0 0 0 0 9.6953933246511497 29.33056412156904 0 29.33056412156904 36.695441998136019 0 0 0 0 -69.967365120523027 191.74792481751865 0 191.74792481751865 -316.73669128707843 0 0 0 0 -321.1876718623098 70.080445260951819 0 70.080445260951819 273.52829942604876 0 0 0 0 -78.166957170731621 519.18967969197547 0 519.18967969197547 -325.5230446811911 0 0 0 0 -293.63977736432571 501.91161161236232 0 501.91161161236232 778.98646991958958 0 0 0 0 22.191283331565586 23.778236349790291 0 23.778236349790291 -34.599435596260662 0 0 0 0 417.82278423398384 -296.31267316090816 0 -296.31267316090816 464.51884631066059 0 0 0 0 -1553.3371715771791 -616.01105908915997 0 -616.01105908915997 598.10853435854369 0 0 0 0 -9.7624065290163458 74.618687133309038 0 74.618687133309038 143.45118785424586 0 0 0 0 -261.23568916079239 96.682775121502345 0 96.682775121502345 279.1050838160445 0 0 0 0 -1712.0002419450902 2684.0882988812155 0 2684.0882988812155 -1705.0860847836266 0 0 0 0 -1171.4251723259731 2346.4578082596163 0 2346.4578082596163 -3161.3367929397064 0 0 0 0 -1551.7495805179933 -393.06364493716683 0 -393.06364493716683 2354.7857859043143 0 0 0 0 117.9825506661582 -261.27357848587872 0 -261.27357848587872 483.1388779663539 0 0 0 0 -12.837951844704492 10.267974317133621 0 10.267974317133621 -22.867927486236198 0 0 0 0 20.555570503794456 113.90551879514706 0 113.90551879514706 68.314814356475921 0 0 0 0 95.185125373187475 -21.011957649621763 0 -21.011957649621763 293.5775213734014 0 0 0 0 -4.0282312329512138 11.719007247448801 0 11.719007247448801 46.292997816467704 0 0 0 0 16.464215361600509 445.97645085449039 0 445.97645085449039 966.59614232790773 0 0 0 0 524.90936105465516 380.80303055749391 0 380.80303055749391 -173.99554814462317 0 0 0 0 -157.6156763707404 -16.243529033468803 0 -16.243529033468803 915.26831170510013 0 0 0 0 -343.64488783561683 373.74136991729029 0 373.74136991729029 114.15964368244749 0 0 0 0 -1816.6869496421714 227.52204768218508 0 227.52204768218508 1557.8985841369431 0 0 0 0 -246.3634208332187 197.4763754056803 0 197.4763754056803 62.656607864948455 0 0 0 0 -1003.6476706808753 541.43716346992733 0 541.43716346992733 -37.879344540284364 0 0 0 0 -117.31250277885192 736.09615460568239 0 736.09615460568239 -283.84635067937779 0 0 0 0 -195.87697966210544 670.70769286421273 0 670.70769286421273 -333.25241578877467 0 0 0 0 -112.98605077326647 1222.033690005439 0 1222.033690005439 -1582.5293362103694 0 0 0 0 -885.61996934750641 841.87248191148683 0 841.87248191148683 -323.27421969260467 0 0 0 0 -285.74009328456305 714.10444157948223 0 714.10444157948223 -297.17608588033181 0 0 0 0 -759.91959109259187 700.48070661303063 0 700.48070661303063 -396.5564420076189 0 0 0 0 -1124.0534353147959 666.99925734886347 0 666.99925734886347 -60.899320291908225 0 0 0 0 -1079.3486824231659 401.46613408379108 0 401.46613408379108 94.636134585744003 0 0 0 0 -615.08144619088853 375.98459057206492 0 375.98459057206492 -118.82100743126648 0 0 0 0 -1006.5279007773206 571.06384320195502 0 571.06384320195502 -15.512640370543522 0 0 0 0 -865.89440895109146 580.11234895297093 0 580.11234895297093 -189.15857756980404 0 0 0 0 -1532.4853812787042 1230.6556919356372 0 1230.6556919356372 -204.39811315025736 0 0 0 0 37.461059334451932 72.204764470588714 0 72.204764470588714 35.514288915752559 0 0 0 0 -1464.1815614825755 845.06102637950244 0 845.06102637950244 -275.16623613587581 0 0 0 0 29.893331278033543 117.19051814188663 0 117.19051814188663 -22.976796999498134 0 0 0 0 294.8850433384614 498.37493429780238 0 498.37493429780238 324.27045255899429 0 0 0 0 -29.640271554879746 57.332297720955772 0 57.332297720955772 -44.319251014617237 0 0 0 0 -28.300235514470842 0.61492288728913991 0 0.61492288728913991 48.994632001609716 0 0 0 0 -31.751015483037918 185.60930732908309 0 185.60930732908309 -10.44483872706769 0 0 0 0 90.982811984598811 43.38516538739168 0 43.38516538739168 -44.793145335221197 0 0 0 0 -9.770390989306577 7.9288375465096124 0 7.9288375465096124 -2.5398734162339736 0 0 0 0 -88.092080068730866 55.145700647030026 0 55.145700647030026 147.2130209104289 0 0 0 0 84.088630891783396 151.303619003309 0 151.303619003309 12.668553111070651 0 0 0 0 140.22255395703542 117.75657605434753 0 117.75657605434753 -68.267233933351235 0 0 0 0 -399.55501265381463 378.33751279310673 0 378.33751279310673 233.3551823974849 0 0 0 0 -3.1422049182025589 53.125970060255895 0 53.125970060255895 15.304774893063666 0 0 0 0 -304.81406351941405 268.58224649003023 0 268.58224649003023 -95.319379085543915 0 0 0 0 -75.299551222051377 147.90962426549231 0 147.90962426549231 -32.422335667120933 0 0 0 0 -7.7925729126618535 68.13886238798159 0 68.13886238798159 -34.798445898879436 0 0 0 0 22.560673565168543 49.802155316490655 0 49.802155316490655 8.6525123270346285 0 0 0 0 -2.6039318493567407 114.31887338451634 0 114.31887338451634 -81.194593365275068 0 0 0 0 3.2864569637693819 50.669816003373967 0 50.669816003373967 -33.453430402078368 0 0 0 0 4.3622035867575732 38.524176661028946 0 38.524176661028946 50.637405324485002 0 0 0 0 -712.44707506487975 63.406257446154996 0 63.406257446154996 39.289020432595862 0 0 0 0 -5.401012771651807 22.279249063868917 0 22.279249063868917 -2.3391415654105003 0 0 0 0 1.2386031408968847 163.57326992328308 0 163.57326992328308 -141.1391763593565 0 0 0 0 -2.2832674321252853 50.426370989393035 0 50.426370989393035 -22.062249681373942 0 0 0 0 3.96105283779616 27.927110421744146 0 27.927110421744146 -22.011498508451041 0 0 0 0 -0.65128522834174873 8.1808517011480149 0 8.1808517011480149 -8.1340188637564665 0 0 0 0 -11.982948610908352 55.07151301993872 0 55.07151301993872 -57.977901652975561 0 0 0 0 -7.9739296097113481 44.574970072081882 0 44.574970072081882 -37.547924898980455 0 0 0 0 4.9181246420391744 34.417996171898494 0 34.417996171898494 -21.420401108222279 0 0 0 0 291.79734712067875 947.64701734679693 0 947.64701734679693 -592.28282849060633 0 0 0 0 -1117.5500402852776 1672.5278381591706 0 1672.5278381591706 -865.5114358341234 0 0 0 0 247.13520491457894 1554.5801865391768 0 1554.5801865391768 -1217.3126469884737 0 0 0 0 -246.71043832227588 2472.8958640945675 0 2472.8958640945675 -2161.1512854296452 0 0 0 0 1101.9944133974204 1586.7972741659833 0 1586.7972741659833 -3709.1937538099883 0 0 0 0 -366.02609274769929 463.67904350404024 0 463.67904350404024 -2625.5649075048859 0 0 0 0 1.2749167827278143 1625.6823570164015 0 1625.6823570164015 -2287.4356055815151 0 0 0 0 -168.73259849303577 497.98788689734647 0 497.98788689734647 -410.98858417131851 0 0 0 0 -223.3009842041065 1600.3127040725594 0 1600.3127040725594 -434.46600008949463 0 0 0 0 228.52479106884857 308.92794335135113 0 308.92794335135113 908.03162024154153 0 0 0 0 -3.6440127243549796 2313.1719189801443 0 2313.1719189801443 1292.1161713369656 0 0 0 0 -323.39250899906619 1601.5384629886685 0 1601.5384629886685 930.24917169330001 0 0 0 0 -1969.6790452957066 1434.1447182155534 0 1434.1447182155534 1466.9171759176534 0 0 0 0 -865.91714947478613 973.91185294541719 0 973.91185294541719 3861.8016391783895 0 0 0 0 -1246.8322709451022 1097.1088917135567 0 1097.1088917135567 -647.51770036938251 0 0 0 0 -2.7175838182321286 3.873900671643753 0 3.873900671643753 2.1116860898544623 0 0 0 0 113.89739991593524 552.68548974250734 0 552.68548974250734 -961.1042188509673 0 0 0 0 9.7662322054721926 16.4097910736279 0 16.4097910736279 0.47185673669419614 0 0 0 0 -123.81343499397917 880.2137321120681 0 880.2137321120681 1853.949299229731 0 0 0 0 -35.44919233897599 1507.7936482580271 0 1507.7936482580271 597.4081145071832 0 0 0 0 -109.63961928157369 1759.7230267099949 0 1759.7230267099949 -141.25700327500817 0 0 0 0 1215.8997650436941 1041.1155898443467 0 1041.1155898443467 43.634369033774419 0 0 0 0 -0.82284642526211371 6.1217557196214045 0 6.1217557196214045 4.4108464261059908 0 0 0 0 141.73477150176768 -78.029696584482735 0 -78.029696584482735 136.71651878757984 0 0 0 0 -15.56842174415894 28.313276950908943 0 28.313276950908943 26.139380253535819 0 0 0 0 89.09769656995195 111.68236644097851 0 111.68236644097851 12.303582344815368 0 0 0 0 -27.685153582271653 16.800273595092676 0 16.800273595092676 5.7195280173483134 0 0 0 0 147.98482830513967 199.59866594956111 0 199.59866594956111 -91.826230091683101 0 0 0 0 31.964721380689298 173.8348829521201 0 173.8348829521201 235.56580878376553 0 0 0 0 -643.49159091120237 24.306397685701086 0 24.306397685701086 626.2498536631756 0 0 0 0 -10.800676471245708 4.1987222411753748 0 4.1987222411753748 -1.4160720654848689 0 0 0 0 -1662.6409569321695 1111.4415799329799 0 1111.4415799329799 -329.59163215459557 0 0 0 0 -1303.8158196912555 870.15620786309955 0 870.15620786309955 -1125.2082640031149 0 0 0 0 -884.64196493060444 1668.7027926860828 0 1668.7027926860828 -1384.7216324194742 0 0 0 0 -111.16068354574963 1090.1857345352182 0 1090.1857345352182 -2876.1311797657818 0 0 0 0 -680.96343550235179 643.79578127945206 0 643.79578127945206 -558.36743714204931 0 0 0 0 -88.538220536487643 758.38944297245325 0 758.38944297245325 -968.96177696870291 0 0 0 0 10.386900053854333 687.72818104217731 0 687.72818104217731 -1250.7163233235033 0 0 0 0 -464.09816937564756 842.68125287376461 0 842.68125287376461 -856.93594462528335 0 0 0 0 -590.26406443273299 1253.6967824505264 0 1253.6967824505264 -2053.0117206626164 0 0 0 0 -443.25262582140567 935.5588974673301 0 935.5588974673301 -1196.7893862548081 0 0 0 0 -696.43385400032275 471.5643256261028 0 471.5643256261028 -1704.0192123447196 0 0 0 0 -44.663708332169335 885.14794919699852 0 885.14794919699852 -1602.3058739288826 0 0 0 0 -580.70810013476876 617.06113098993956 0 617.06113098993956 -1089.4107286214676 0 0 0 0 -531.09362558504472 1016.2222282717294 0 1016.2222282717294 -1238.0737132236827 0 0 0 0 -237.63971894385759 704.95891904458404 0 704.95891904458404 -1144.4824340028499 0 0 0 0 -380.06299060014135 779.62998418002826 0 779.62998418002826 -1104.3169410756964 0 0 0 0 -177.1962804374416 844.57828058150335 0 844.57828058150335 -1081.334282570926 0 0 0 0 -221.12114324091817 1305.7206888162837 0 1305.7206888162837 -1388.607205694585 0 0 0 0 159.52408787114837 1783.6815943034599 0 1783.6815943034599 -1019.2059419817447 0 0 0 0 -192.22062198634376 845.285030262894 0 845.285030262894 -1153.352090679422 0 0 0 0 -122.3000667474771 1175.3141311451354 0 1175.3141311451354 -1536.473966068661 0 0 0 0 759.03974496055162 776.50062961191725 0 776.50062961191725 -1434.7696796022501 0 0 0 0 4.743123440868203 711.39576610756137 0 711.39576610756137 -1404.5668027120701 0 0 0 0 9.9317672523920919 550.909353765898 0 550.909353765898 -1078.2388642832375 0 0 0 0 -410.77161490121216 934.67382713402185 0 934.67382713402185 -907.22357955339612 0 0 0 0 -298.29424948129599 787.45758609625409 0 787.45758609625409 -457.75954976709909 0 0 0 0 399.56757640020805 210.58224778091972 0 210.58224778091972 -916.60030055298557 0 0 0 0 -428.03246568777831 751.23183586821688 0 751.23183586821688 -1063.4708220992488 0 0 0 0 -368.17535473564931 667.60430476096735 0 667.60430476096735 -1150.9218492978689 0 0 0 0 -311.56330046869698 726.90905860478961 0 726.90905860478961 -1103.8989280836877 0 0 0 0 -344.71375588909723 1021.9061892113968 0 1021.9061892113968 -1542.679612152795 0 0 0 0 -343.64679504020751 530.92144355914934 0 530.92144355914934 -434.26923552560038 0 0 0 0 -340.11630142663489 980.43979961640434 0 980.43979961640434 -333.20917098483187 0 0 0 0 -477.67116094075027 501.11019917590238 0 501.11019917590238 175.3551583369117 0 0 0 0 -1.3652456205830958 5.697232215477527 0 5.697232215477527 2.9664586457529083 0 0 0 0 -150.31138890239527 831.28036784090364 0 831.28036784090364 -1437.5056358313159 0 0 0 0 -161.56622737094585 531.57427640226524 0 531.57427640226524 -1169.135092225566 0 0 0 0 -233.07466382684652 538.11199341456813 0 538.11199341456813 -435.44393309504994 0 0 0 0 235.45148876763415 620.58525274827844 0 620.58525274827844 -589.82363013313443 0 0 0 0 -363.71755199535983 656.75517300078354 0 656.75517300078354 -444.24005999538349 0 0 0 0 -316.8388187790988 745.21781053158338 0 745.21781053158338 -551.83521625507274 0 0 0 0 -471.2758229560277 787.83843404630898 0 787.83843404630898 -549.65457015705078 0 0 0 0 -223.27879024506547 862.6830744360559 0 862.6830744360559 -1078.350927520456 0 0 0 0 -534.12731815921143 635.83008079903084 0 635.83008079903084 -1112.9442573450215 0 0 0 0 -237.82479221181711 841.55050311198283 0 841.55050311198283 -1383.6703535165434 0 0 0 0 -282.96473239175975 1026.1406188779656 0 1026.1406188779656 -1250.1664398418943 0 0 0 0 -264.55192153611279 688.69251906120189 0 688.69251906120189 -1001.3078828850703 0 0 0 0 -112.75217034040543 1020.22170506353 0 1020.22170506353 -863.12114323688729 0 0 0 0 -377.66546830657171 998.01270145102171 0 998.01270145102171 -1316.4604012460304 0 0 0 0 -141.3848331040499 819.7385227738414 0 819.7385227738414 -1319.6002121503989 0 0 0 0 -225.63102560606785 984.45981529139681 0 984.45981529139681 -1163.7734649454214 0 0 0 0 33.223793695229688 642.81480118315085 0 642.81480118315085 -457.20136362839548 0 0 0 0 178.86101439566119 583.71614783989207 0 583.71614783989207 -1058.8052120213397 0 0 0 0 767.83455914293882 388.10304811783135 0 388.10304811783135 -230.74575374937558 0 0 0 0 39.630200324005273 323.59762605034848 0 323.59762605034848 -1084.0246102743258 0 0 0 0 930.39481078527751 362.75129854683473 0 362.75129854683473 -1158.7662388533936 0 0 0 0 859.74209489704299 -368.20881612441281 0 -368.20881612441281 313.54195806469943 0 0 0 0 2950.8675627374032 -622.76782242418994 0 -622.76782242418994 -236.15930860959634 0 0 0 0 144.87628558865981 426.60624310898856 0 426.60624310898856 89.16170025212341 0 0 0 0 1117.5175456579564 452.06397893268331 0 452.06397893268331 -607.03512042274815 0 0 0 0 396.17435455298983 212.29031099701388 0 212.29031099701388 -233.07144219138718 0 0 0 0 1306.0140335141768 71.561350927921012 0 71.561350927921012 -548.47559159502271 0 0 0 0 1246.3907187218429 -3.6987857771309791 0 -3.6987857771309791 585.38858854415594 0 0 0 0 3599.3776312111295 -1765.9086276376838 0 -1765.9086276376838 -746.96139809717715 0 0 0 0 3.9925874103267915 1.1159123927482142 0 1.1159123927482142 -33.14484834602132 0 0 0 0 2598.112839077512 -194.80014315655353 0 -194.80014315655353 -2720.2643326180842 0 0 0 0 -456.03807936642261 1378.3180077407305 0 1378.3180077407305 -2409.548123849796 0 0 0 0 -4040.7857826361869 3080.0705785441041 0 3080.0705785441041 -1847.976143379783 0 0 0 0 -44.44596138819179 2391.8500107560576 0 2391.8500107560576 -4382.1924339674042 0 0 0 0 -1264.8018701986293 1608.7282084155995 0 1608.7282084155995 -1353.8704124569158 0 0 0 0 -969.89971995320229 1319.3953723378545 0 1319.3953723378545 -1475.0579752165213 0 0 0 0 -0.33604377301526256 1240.7473021579535 0 1240.7473021579535 -2584.9782247648909 0 0 0 0 -1.3334462008060655 318.41705333046411 0 318.41705333046411 -1180.3908650634257 0 0 0 0 -411.92247660178691 544.45001289892389 0 544.45001289892389 -897.01008862849994 0 0 0 0 12.374041195954419 1.9457232434626803 0 1.9457232434626803 -83.831866009227781 0 0 0 0 -890.89014191855676 417.12595571341808 0 417.12595571341808 -902.72607759312086 0 0 0 0 16.633791428835281 2.8601606565615043 0 2.8601606565615043 -108.73606031605652 0 0 0 0 2005.8743312160732 -546.10848932088629 0 -546.10848932088629 -915.07564245518006 0 0 0 0 -534.61294234529487 83.592596104783297 0 83.592596104783297 -1222.1720434971066 0 0 0 0 -0.3195886409400579 -263.17630525175275 0 -263.17630525175275 -1634.1587202334777 0 0 0 0 21.652441222221228 9.9210046855028509 0 9.9210046855028509 -121.84462232507579 0 0 0 0 -273.67372477814206 -16.329540978229488 0 -16.329540978229488 -1187.1507824754299 0 0 0 0 880.587825593655 -291.73566499229491 0 -291.73566499229491 -2232.2763708613929 0 0 0 0 102.71216735508642 95.904899583940278 0 95.904899583940278 -825.87786479652277 0 0 0 0 161.22092736230115 460.80351614275423 0 460.80351614275423 -1327.3647871868452 0 0 0 0 330.26620809466112 710.42500921068131 0 710.42500921068131 -2280.4417348849529 0 0 0 0 -359.68848780839471 428.03542193561589 0 428.03542193561589 4776.9219978062565 0 0 0 0 -36.254996873050914 71.469575955608065 0 71.469575955608065 17.513046627965586 0 0 0 0 -268.63520111507387 83.763927362095274 0 83.763927362095274 5946.2548863862285 0 0 0 0 2.5800127962316992 14.869364065242564 0 14.869364065242564 -46.759611170365716 0 0 0 0 -35.673666961607523 488.22136577326455 0 488.22136577326455 -3050.2693233719328 0 0 0 0 -719.19104849419091 -159.87949956161901 0 -159.87949956161901 -1522.830448399036 0 0 0 0 -542.21569268219173 850.85180415364448 0 850.85180415364448 -2001.4851579899841 0 0 0 0 -545.63640405731712 849.0567768156543 0 849.0567768156543 -1074.0301983348327 0 0 0 0 -458.82541561004473 802.35742222002591 0 802.35742222002591 -1900.7501730061485 0 0 0 0 -367.55567645010888 970.65253522142302 0 970.65253522142302 -1931.4107106848387 0 0 0 0 -432.39048457960598 927.99861668553785 0 927.99861668553785 -1811.0913686131826 0 0 0 0 -192.96297964936821 807.36528356326744 0 807.36528356326744 -1502.1655586124398 0 0 0 0 -303.25891410629265 1058.4947046795714 0 1058.4947046795714 -1710.4843105000909 0 0 0 0 -130.02404465607833 870.93129479044001 0 870.93129479044001 -1893.3440001357922 0 0 0 0 -258.64779754111078 777.81033457171725 0 777.81033457171725 -1588.320043388987 0 0 0 0 233.80497648281744 832.21761844857247 0 832.21761844857247 -1582.422255597543 0 0 0 0 -88.737872981640976 957.13190786962514 0 957.13190786962514 -2003.3280517203384 0 0 0 0 -162.3939372768582 458.91163567732838 0 458.91163567732838 -1704.2788177910843 0 0 0 0 -130.570844103524 696.67960954931914 0 696.67960954931914 -2230.0661530323559 0 0 0 0 -381.86984954256332 1146.7855359536479 0 1146.7855359536479 -2377.0303214495725 0 0 0 0 -147.44602744327858 155.87833492190111 0 155.87833492190111 -2250.6766858849878 0 0 0 0 -834.48158790211892 556.20365368216881 0 556.20365368216881 -1959.1453580053203 0 0 0 0 126.37390380806755 158.36044203516576 0 158.36044203516576 -2256.5489807513077 0 0 0 0 -79.609568287502043 734.33629979236866 0 734.33629979236866 -1924.0462267301627 0 0 0 0 15.328772315842798 765.12749614114 0 765.12749614114 -1363.5360709655943 0 0 0 0 677.04178724257508 516.56771235499764 0 516.56771235499764 -2027.895251949667 0 0 0 0 588.1357944625488 46.272959378125961 0 46.272959378125961 -1411.2360262103321 0 0 0 0 -26.539337699657835 86.17852240676217 0 86.17852240676217 20.185608595267507 0 0 0 0 -187.38794577513181 373.631098543181 0 373.631098543181 2903.6273114192973 0 0 0 0 -144.01132812281139 1105.5407088208012 0 1105.5407088208012 -2341.8550278191105 0 0 0 0 518.97053751099156 583.13038970751222 0 583.13038970751222 -2577.9972263850068 0 0 0 0 -4.35455128258684 -2.1241341878869662 0 -2.1241341878869662 37.976015312681241 0 0 0 0 -266.4243460301368 27.584833010805596 0 27.584833010805596 2586.4365511286451 0 0 0 0 -103.1754511280451 -577.75278201769106 0 -577.75278201769106 -1804.9896261536924 0 0 0 0 -18.740196700975275 101.37932701898816 0 101.37932701898816 -1.8480622831326912 0 0 0 0 121.1268410770208 528.03246854566169 0 528.03246854566169 1194.1748445661433 0 0 0 0 -348.62515799334506 167.87430701440462 0 167.87430701440462 940.13500565607501 0 0 0 0 372.71692662202986 1269.7144956149968 0 1269.7144956149968 862.34432983740408 0 0 0 0 -35.518709022828261 1582.9242579726197 0 1582.9242579726197 230.60982900223462 0 0 0 0 1.2493773176829563 1628.0812351841851 0 1628.0812351841851 2849.3393026979829 0 0 0 0 105.40203905939416 403.55711435629928 0 403.55711435629928 2059.3922653105255 0 0 0 0 178.31791517534293 1619.6765906740256 0 1619.6765906740256 1458.2943029175185 0 0 0 0 352.48988159315195 886.58407843269015 0 886.58407843269015 2034.8156601775481 0 0 0 0 0.086118908201469752 1828.0774670464252 0 1828.0774670464252 996.77818174200365 0 0 0 0 289.74284644422005 1370.2292647609829 0 1370.2292647609829 331.95905326017237 0 0 0 0 0.28817637963220477 2011.8491076451119 0 2011.8491076451119 -385.63404150057249 0 0 0 0 353.6723838663529 1932.20778536833 0 1932.20778536833 -151.51786420477583 0 0 0 0 397.41595925714137 1368.0936888550414 0 1368.0936888550414 -63.193328656707308 0 0 0 0 -78.449115443901974 1171.6004237057423 0 1171.6004237057423 -109.48282470089543 0 0 0 0 690.6288027292353 1471.4084526524616 0 1471.4084526524616 -361.83983971427369 0 0 0 0 701.68951799233037 1703.7231559810571 0 1703.7231559810571 -464.0649659548144 0 0 0 0 1692.1262982225307 1347.498878845845 0 1347.498878845845 -801.86359994017766 0 0 0 0 845.41574381210376 1272.4158452315824 0 1272.4158452315824 -48.44777734202944 0 0 0 0 825.89496476104614 1066.090505039544 0 1066.090505039544 -1773.1442388523574 0 0 0 0 448.29957700410159 1297.7406352051694 0 1297.7406352051694 -1883.6978856225833 0 0 0 0 389.59330518512797 813.34598804862344 0 813.34598804862344 -3823.2260103845038 0 0 0 0 -577.48700856725918 1672.1940034203417 0 1672.1940034203417 -1508.4286794583713 0 0 0 0 -278.07661216522683 286.71313717318844 0 286.71313717318844 -2783.0644536536201 0 0 0 0 -2.1282512620527996 1745.2547685153986 0 1745.2547685153986 -3484.8962238478125 0 0 0 0 196.65444239178214 1340.8986142873975 0 1340.8986142873975 -1366.8859164754758 0 0 0 0 131.5902748866647 1990.2164009602093 0 1990.2164009602093 -604.23292315137951 0 0 0 0 50.559048815978315 21.256664644218745 0 21.256664644218745 -4.183894407409106 0 0 0 0 -1393.0304280676501 1376.3210781420494 0 1376.3210781420494 -906.39632417035318 0 0 0 0 3.7377900084008502 16.860585544340893 0 16.860585544340893 -12.729217133259965 0 0 0 0 131.55195256635488 315.09100285476597 0 315.09100285476597 -2704.4508373556855 0 0 0 0 -17.806921082446934 221.26740440298818 0 221.26740440298818 -882.28724985996814 0 0 0 0 59.377652606395714 281.85185274378068 0 281.85185274378068 -1119.3288268320175 0 0 0 0 123.51354464123142 705.28570045235756 0 705.28570045235756 -37.535550252474422 0 0 0 0 1470.8786119808356 1189.4130746807332 0 1189.4130746807332 -799.76305199854687 0 0 0 0 19.602318486630793 5.1270665178517447 0 5.1270665178517447 2.2614914718570915 0 0 0 0 755.12841673988441 -51.761573279578442 0 -51.761573279578442 -353.54269674533498 0 0 0 0 -37.975926022656495 244.31118702015374 0 244.31118702015374 107.28656071245496 0 0 0 0 -77.01627416710835 148.52065553010834 0 148.52065553010834 -67.823696749563169 0 0 0 0 -414.91391295486392 1427.7617583164447 0 1427.7617583164447 210.8253729126227 0 0 0 0 -1024.9623670878354 70.108395906117948 0 70.108395906117948 114.23050509965105 0 0 0 0 555.6738484386151 1031.7491715204087 0 1031.7491715204087 526.69720223759941 0 0 0 0 -10.817642465044287 8.2009732918685927 0 8.2009732918685927 -6.1878440394915231 0 0 0 0 648.76495947904186 1325.7401528153096 0 1325.7401528153096 1313.9300378861808 0 0 0 0 -16.122822641405321 30.721137051609077 0 30.721137051609077 -20.890935244383911 0 0 0 0 246.2246419111907 30.399897915907786 0 30.399897915907786 929.16889267641091 0 0 0 0 628.39046583707386 1182.7590163216496 0 1182.7590163216496 1696.3175212690185 0 0 0 0 17.42094946145329 15.453553138743899 0 15.453553138743899 -3.6783764498092637 0 0 0 0 -1719.8253762722306 913.20282352580034 0 913.20282352580034 958.34719062130171 0 0 0 0 2442.1231916172692 957.3196641406139 0 957.3196641406139 109.07538373699208 0 0 0 0 4.9088714538299882 8.2242053081280915 0 8.2242053081280915 10.520706400114221 0 0 0 0 919.020683260027 479.97066214855931 0 479.97066214855931 -37.960433258573175 0 0 0 0 173.95537497283658 371.95377685735366 0 371.95377685735366 235.30796962953718 0 0 0 0 522.57759568725305 1503.6115446778472 0 1503.6115446778472 376.4265528270189 0 0 0 0 -808.21952247347508 1290.2233076924276 0 1290.2233076924276 856.50299206654017 0 0 0 0 -495.5096525827903 514.74756717178388 0 514.74756717178388 1981.9110302263362 0 0 0 0 -88.439990805432899 576.50186379450315 0 576.50186379450315 1023.2907821091085 0 0 0 0 167.14298956173297 514.53108076016179 0 514.53108076016179 716.90141851791122 0 0 0 0 383.97189082851401 -433.48213409620803 0 -433.48213409620803 1172.6553827368771 0 0 0 0 -32.885914799908051 102.05359378786194 0 102.05359378786194 31.788523248291256 0 0 0 0 -212.70957481834921 530.05736893186258 0 530.05736893186258 -2476.0407447015459 0 0 0 0 0.86879437472498466 9.7683122414522359 0 9.7683122414522359 4.318604279512428 0 0 0 0 -26.388147914613228 101.97012061824412 0 101.97012061824412 49.198991766144403 0 0 0 0 -359.94785704225069 -140.46479471163184 0 -140.46479471163184 1928.9616377631901 0 0 0 0 122.5277837109752 887.87733131984714 0 887.87733131984714 1868.6796025724616 0 0 0 0 39.93115974101238 1303.5741834126093 0 1303.5741834126093 -2596.6749137963307 0 0 0 0 -164.92704360419884 851.76971162168775 0 851.76971162168775 -1974.6599471023655 0 0 0 0 -160.93501860223478 1272.8183593057329 0 1272.8183593057329 -2285.0958278320322 0 0 0 0 -147.38123431470012 1076.5007294232782 0 1076.5007294232782 -1761.0756144997431 0 0 0 0 -346.08042920485605 1055.0327878982644 0 1055.0327878982644 -1732.5930685624189 0 0 0 0 -318.71644075587392 1151.5580475401366 0 1151.5580475401366 -1859.6209680415923 0 0 0 0 -401.73430339572951 1515.97377891207 0 1515.97377891207 -2139.0689889303467 0 0 0 0 -816.81702356750611 1263.2206911369576 0 1263.2206911369576 -1700.3509979055671 0 0 0 0 -708.63462377258111 -527.67364417604404 0 -527.67364417604404 202.00881851068698 0 0 0 0 115.48364216454502 193.99000253945087 0 193.99000253945087 168.5317073189799 0 0 0 0 41.277006472606445 242.18868201631631 0 242.18868201631631 160.2635615751733 0 0 0 0 -209.03955889231293 -38.145751388612553 0 -38.145751388612553 982.61332179671444 0 0 0 0 2.6916212909517299 21.992186820203301 0 21.992186820203301 11.497416823649786 0 0 0 0 -25.646858563562375 67.284646275027285 0 67.284646275027285 -6.3443422643923384 0 0 0 0 200.05229483165022 -93.350855328455509 0 -93.350855328455509 456.61644978143158 0 0 0 0 -84.488366180565208 -12.450652546511265 0 -12.450652546511265 357.25389547381928 0 0 0 0 -18.752419641144343 39.22637412684665 0 39.22637412684665 26.665901178478293 0 0 0 0 -102.01338554176618 -15.183004565362353 0 -15.183004565362353 475.92968241372728 0 0 0 0 47.168372281681513 56.216483152762521 0 56.216483152762521 248.63854112447007 0 0 0 0 -36.126024190766316 43.913881789407384 0 43.913881789407384 16.676482120802305 0 0 0 0 -17.639387995557627 37.039294448160945 0 37.039294448160945 31.654533098801039 0 0 0 0 -64.038601470092544 79.013450220358209 0 79.013450220358209 25.366037224026513 0 0 0 0 -818.3595089094888 907.97522413610568 0 907.97522413610568 -579.62024848230067 0 0 0 0 18.52679415920295 30.867397386707466 0 30.867397386707466 14.888873965332323 0 0 0 0 -830.82328955526464 867.74872474611038 0 867.74872474611038 -630.57856434889982 0 0 0 0 -701.95621343328094 676.76202325247505 0 676.76202325247505 -754.51430960246944 0 0 0 0 -22.771504216543349 60.741354054673252 0 60.741354054673252 55.481675372927938 0 0 0 0 -23.20776298106648 14.772194489050889 0 14.772194489050889 251.29682443358979 0 0 0 0 47.465230991627323 -0.2705796709524293 0 -0.2705796709524293 262.29717420277302 0 0 0 0 -0.96934884512569397 11.086867771377726 0 11.086867771377726 16.804864489642647 0 0 0 0 -320.92649561530561 -216.20717746113223 0 -216.20717746113223 -100.25950005254708 0 0 0 0 -26.978907963749066 71.670409028368738 0 71.670409028368738 37.904618715888631 0 0 0 0 -1656.1887278037611 1246.9445291684824 0 1246.9445291684824 1663.6416132721934 0 0 0 0 -12.107139620505393 5.1516954373793595 0 5.1516954373793595 37.593662560088049 0 0 0 0 -707.50166261359118 1482.7352324235471 0 1482.7352324235471 -2049.375376342392 0 0 0 0 -13.848047168576159 417.11100676696515 0 417.11100676696515 -1614.3154884592077 0 0 0 0 -2102.1912028414081 1779.9807236911874 0 1779.9807236911874 -1041.6184720425372 0 0 0 0 -1186.912298873387 1125.2687851215087 0 1125.2687851215087 -769.91520558582852 0 0 0 0 -1261.072323281609 1185.6089710443666 0 1185.6089710443666 -663.24027130959439 0 0 0 0 -837.67606315025478 1348.4593452432346 0 1348.4593452432346 -1396.7453623874171 0 0 0 0 -518.76314226904651 943.97713646377815 0 943.97713646377815 -886.55708507588133 0 0 0 0 -866.2108705479186 -119.59686244124896 0 -119.59686244124896 616.10926810755336 0 0 0 0 -1315.5744088006322 72.795418747584336 0 72.795418747584336 534.84494397138042 0 0 0 0 -2289.6477273141354 1085.5217533519281 0 1085.5217533519281 -219.62261654349277 0 0 0 0 -1977.8392574401514 671.59136543100976 0 671.59136543100976 23.783585567289265 0 0 0 0 -729.51555833639577 495.25109610328218 0 495.25109610328218 -286.84166919437848 0 0 0 0 -467.27341339921986 449.17701554860469 0 449.17701554860469 -422.35869474173523 0 0 0 0 -842.4182837844055 293.151984245329 0 293.151984245329 -240.67635112318385 0 0 0 0 -409.88962293586519 226.1450643180724 0 226.1450643180724 -342.40074160311633 0 0 0 0 -701.41858642338775 575.79838711607954 0 575.79838711607954 -364.04495522403158 0 0 0 0 -445.84031683023204 397.54300684086047 0 397.54300684086047 -345.91289635833891 0 0 0 0 -774.18790812272346 481.73029666585353 0 481.73029666585353 -331.54033858173352 0 0 0 0 -951.84054679539986 1018.7309988341149 0 1018.7309988341149 -639.08022757130675 0 0 0 0 -824.48677531663452 831.05289488221433 0 831.05289488221433 -528.38509783516929 0 0 0 0 -892.88633735378971 920.49980842148943 0 920.49980842148943 -577.8393741473883 0 0 0 0 -1291.5261864603672 675.03220105003129 0 675.03220105003129 -300.46054455520061 0 0 0 0 -871.69844474023557 586.84338288148138 0 586.84338288148138 -311.4558760739601 0 0 0 0 -842.79581927513937 861.08494028008136 0 861.08494028008136 -490.55142791658 0 0 0 0 -812.69047352680354 747.33175533148096 0 747.33175533148096 -403.45899145500516 0 0 0 0 -616.89593976869946 468.4295586411863 0 468.4295586411863 -333.2787834243718 0 0 0 0 -648.2046625414805 746.53471543955993 0 746.53471543955993 -453.02390218967776 0 0 0 0 -682.86077945863508 526.15634802432305 0 526.15634802432305 -258.09962526365416 0 0 0 0 -491.20616517093731 508.37019531110855 0 508.37019531110855 -294.45167167955879 0 0 0 0 -171.27692835294874 441.56522050621425 0 441.56522050621425 -367.33690415064484 0 0 0 0 -427.87234731427452 418.88029457487937 0 418.88029457487937 -358.38020189371309 0 0 0 0 -590.18311281385832 608.08295343427744 0 608.08295343427744 -356.3570511770813 0 0 0 0 -469.5376498287078 578.18956013900242 0 578.18956013900242 -106.13661285937269 0 0 0 0 -250.61639228135755 782.54607778412719 0 782.54607778412719 165.18275322709087 0 0 0 0 -496.65519324646448 520.15848086800543 0 520.15848086800543 -114.04342822535091 0 0 0 0 -690.97906932764454 553.64412033101689 0 553.64412033101689 -7.0393858500101487 0 0 0 0 -540.81318367575295 649.49724337519001 0 649.49724337519001 26.485795596965545 0 0 0 0 -814.94182119093603 931.34041164439623 0 931.34041164439623 -509.42149475132464 0 0 0 0 -394.39214805449592 286.4484791503055 0 286.4484791503055 -320.06686931803961 0 0 0 0 -1370.8500004918169 935.45611870580251 0 935.45611870580251 -390.66523325190792 0 0 0 0 303.95689764489362 209.62280396795904 0 209.62280396795904 -0.46913529388757524 0 0 0 0 15.995966170576594 20.066514751031264 0 20.066514751031264 20.682193412859732 0 0 0 0 -743.63789051168715 803.7218220522409 0 803.7218220522409 -612.3612783702556 0 0 0 0 -2532.5731148739578 -546.78004871628218 0 -546.78004871628218 -124.35271128305249 0 0 0 0 -70.970949701029895 1382.7957678561052 0 1382.7957678561052 -3099.7423419289989 0 0 0 0 219.54164856098942 313.5263160323957 0 313.5263160323957 -971.39502928133152 0 0 0 0 643.23170249603572 165.61512994352461 0 165.61512994352461 -1354.6667032649129 0 0 0 0 -0.052291515560416002 15.670311471060842 0 15.670311471060842 4.1390365758547318 0 0 0 0 -106.1123170164974 -446.54322231072069 0 -446.54322231072069 -2272.4391728923583 0 0 0 0 -13.635425921874173 22.666592398221933 0 22.666592398221933 -6.3020805044689325 0 0 0 0 -1522.793127423327 366.21447602780609 0 366.21447602780609 272.79464201751398 0 0 0 0 -395.38594210184237 -117.53548244161721 0 -117.53548244161721 -112.92539203848719 0 0 0 0 -12.080591259132127 56.196163153593204 0 56.196163153593204 18.132056537145132 0 0 0 0 231.57843350853364 420.36223426755532 0 420.36223426755532 -140.81147048459025 0 0 0 0 71.412525101943174 73.58219064927107 0 73.58219064927107 -67.950374515181835 0 0 0 0 24.237176751586958 99.204213834342227 0 99.204213834342227 -25.538089379664598 0 0 0 0 9.8821403083604764 26.367078658834018 0 26.367078658834018 -40.437596651672607 0 0 0 0 174.24103832893888 51.746724810838714 0 51.746724810838714 -330.07031633596489 0 0 0 0 225.55406091740588 446.24796825206431 0 446.24796825206431 -874.88414028248371 0 0 0 0 278.70252170380263 297.1112132473354 0 297.1112132473354 -629.93897239512444 0 0 0 0 119.7937326192623 365.01552728092065 0 365.01552728092065 -435.69440284672601 0 0 0 0 296.58997038279267 175.36248652260019 0 175.36248652260019 -284.29688993307354 0 0 0 0 -41.06801468229969 21.045659021488973 0 21.045659021488973 -74.018292799453775 0 0 0 0 7.2969800763821695 190.74917162777274 0 190.74917162777274 334.67632477732286 0 0 0 0 -32.740125512238592 482.15969496739126 0 482.15969496739126 -242.19865175299492 0 0 0 0 -141.41821659801644 342.97060243677697 0 342.97060243677697 -440.34725772710226 0 0 0 0 -160.75145862690988 398.14657558429826 0 398.14657558429826 -451.94504468781088 0 0 0 0 162.21315476405834 141.13082494472746 0 141.13082494472746 -322.52548654847487 0 0 0 0 -156.40618918729888 461.03729737748108 0 461.03729737748108 -383.68069484854641 0 0 0 0 111.59706599600031 339.4969894773094 0 339.4969894773094 -474.37322459201096 0 0 0 0 -143.91369565782952 575.90551974056871 0 575.90551974056871 -222.46471654273046 0 0 0 0 14.217441209388198 608.94577121463226 0 608.94577121463226 -273.96208468647819 0 0 0 0 7.1208472903272195 562.34607427493938 0 562.34607427493938 -427.98856247356161 0 0 0 0 131.80485112676979 726.55043244233457 0 726.55043244233457 -304.21947176883623 0 0 0 0 139.21659403142985 616.59685837945653 0 616.59685837945653 -478.34515099549753 0 0 0 0 87.974313906408497 556.00174538610736 0 556.00174538610736 -471.8745082886453 0 0 0 0 104.48222034989158 582.25710714309389 0 582.25710714309389 -557.30940719689534 0 0 0 0 184.41941537390085 445.85793166782241 0 445.85793166782241 -597.42126306727005 0 0 0 0 190.69785218314792 491.29141571456057 0 491.29141571456057 -792.69433014055539 0 0 0 0 87.017801667956519 611.97468425193802 0 611.97468425193802 -580.62990517365688 0 0 0 0 42.54723902256228 791.45131706581014 0 791.45131706581014 -985.88438545605459 0 0 0 0 108.87556724940441 873.29337769136146 0 873.29337769136146 -1613.0202108142694 0 0 0 0 188.27160281958641 488.64653591842944 0 488.64653591842944 -770.86660607781232 0 0 0 0 -134.58363893695059 573.55387875346059 0 573.55387875346059 -146.85393202977866 0 0 0 0 -582.82689135996043 881.66511072672438 0 881.66511072672438 -350.05034174786124 0 0 0 0 -231.91774937651644 731.58531509712702 0 731.58531509712702 -494.15629966245615 0 0 0 0 -677.74285410496304 573.59610018072362 0 573.59610018072362 56.145669198274845 0 0 0 0 -788.84160077749402 628.51301923109713 0 628.51301923109713 101.05624337010158 0 0 0 0 -1343.4774565647531 1083.2663055123194 0 1083.2663055123194 -321.86432590830373 0 0 0 0 -2275.0882939164294 2113.1920857231125 0 2113.1920857231125 -1385.2334441162529 0 0 0 0 -692.59136329495232 1163.7405170606289 0 1163.7405170606289 -883.90967293095309 0 0 0 0 -765.95801127830055 961.64906485743995 0 961.64906485743995 -537.29121516356099 0 0 0 0 -662.24665110134811 310.08158994504993 0 310.08158994504993 683.99396454967064 0 0 0 0 -535.80038919295475 207.50722865212447 0 207.50722865212447 760.98205653773039 0 0 0 0 -742.84817095242761 209.93934075047582 0 209.93934075047582 660.99390758649679 0 0 0 0 -1060.8928635871634 278.93256888386168 0 278.93256888386168 469.30727698125702 0 0 0 0 -672.67924784737988 461.16603067755568 0 461.16603067755568 341.59165078261867 0 0 0 0 -528.6076075301753 451.39043891377878 0 451.39043891377878 342.04261192874401 0 0 0 0 -175.94746794547973 634.27615820097435 0 634.27615820097435 -53.604342628452287 0 0 0 0 235.8663628257782 511.79609559149503 0 511.79609559149503 -26.2315934283979 0 0 0 0 -368.41941523598507 397.77261959793032 0 397.77261959793032 651.82697017902956 0 0 0 0 -329.97616086475318 192.64389500640027 0 192.64389500640027 671.94719339687435 0 0 0 0 85.479815520455304 -153.12872233549206 0 -153.12872233549206 1270.2630230284776 0 0 0 0 1107.5934111530951 518.39695453609966 0 518.39695453609966 222.38803385101892 0 0 0 0 412.69175848549639 1186.5073751175805 0 1186.5073751175805 685.34022641529373 0 0 0 0 69.629093016206753 575.1062235849713 0 575.1062235849713 220.65634301952377 0 0 0 0 291.17319246614352 856.15904886924727 0 856.15904886924727 14.111772400792688 0 0 0 0 -71.229352650945657 691.76645230024587 0 691.76645230024587 -37.797455634041398 0 0 0 0 -229.06287531170528 785.7802506553744 0 785.7802506553744 435.34662038294482 0 0 0 0 -220.24560930089137 364.71716602052584 0 364.71716602052584 76.185601485776715 0 0 0 0 -232.46682683594554 351.73144135043594 0 351.73144135043594 1378.3135576972054 0 0 0 0 33.661630078742746 98.46886018598525 0 98.46886018598525 -156.91157791247861 0 0 0 0 6.1540405199921224 179.55748151948137 0 179.55748151948137 -196.84909047825204 0 0 0 0 358.11026690867902 79.359192294291688 0 79.359192294291688 -365.4917806064841 0 0 0 0 792.2488085742807 27.871273313936399 0 27.871273313936399 -154.77481040518796 0 0 0 0 9.0988918154295106 7.8181689022721912 0 7.8181689022721912 7.1479552886230522 0 0 0 0 618.24864872543185 1120.5586903151031 0 1120.5586903151031 947.630425192845 0 0 0 0 -241.97513669801992 263.04641056117907 0 263.04641056117907 104.79859644165117 0 0 0 0 334.29675424918241 566.84916206248454 0 566.84916206248454 -112.23754016783641 0 0 0 0 -571.65742465398216 305.77752640794279 0 305.77752640794279 77.691502361558378 0 0 0 0 -703.80420416820562 343.71083789798286 0 343.71083789798286 889.95262040740636 0 0 0 0 -296.77108059376951 670.96209443968473 0 670.96209443968473 482.52845833946049 0 0 0 0 -1030.4984161240282 596.18027176659234 0 596.18027176659234 1384.2313070578675 0 0 0 0 22.149255003052531 1749.7515277230996 0 1749.7515277230996 1187.0802448262621 0 0 0 0 -853.88012188510038 670.33390708866136 0 670.33390708866136 469.26128615702328 0 0 0 0 -293.13324044986075 301.35057909530087 0 301.35057909530087 622.2696076823122 0 0 0 0 -798.37450429922683 473.32063329514813 0 473.32063329514813 274.9510627431082 0 0 0 0 -619.25034741523268 761.38525446934 0 761.38525446934 517.8974547698017 0 0 0 0 -617.93685254183947 685.0918234237688 0 685.0918234237688 242.36488395225751 0 0 0 0 -466.88918309321161 625.76617600093596 0 625.76617600093596 602.34063473829883 0 0 0 0 -241.90035536330561 926.88529696427759 0 926.88529696427759 394.32566884299013 0 0 0 0 -547.07293021751684 975.64661302863533 0 975.64661302863533 446.66692670760676 0 0 0 0 -1047.5566246465314 898.80820133811721 0 898.80820133811721 505.7960942556092 0 0 0 0 86.655266978797954 840.74668648814259 0 840.74668648814259 -1535.7642764765478 0 0 0 0 -830.55955462693237 1771.6580884249888 0 1771.6580884249888 -643.80750616046134 0 0 0 0 16.849071280739736 563.18047647930507 0 563.18047647930507 -269.04258551187377 0 0 0 0 -578.91412379808753 868.21739632103345 0 868.21739632103345 86.353116884827614 0 0 0 0 -145.34260468772845 420.09240842371219 0 420.09240842371219 -97.581415631284472 0 0 0 0 -100.62913096568082 529.63062464014365 0 529.63062464014365 -124.65675968030337 0 0 0 0 -3.6384192144032568 201.20882935942791 0 201.20882935942791 -68.12623124802758 0 0 0 0 25.000458776180494 22.40079554587814 0 22.40079554587814 19.367378982695598 0 0 0 0 12.181998532352736 241.21063336944644 0 241.21063336944644 -497.55654428002526 0 0 0 0 267.2961295441055 39.873863699442154 0 39.873863699442154 -1087.0335142835829 0 0 0 0 -124.38215100248635 182.52626995713945 0 182.52626995713945 -170.83750222146045 0 0 0 0 358.09280270745512 -301.90953138063196 0 -301.90953138063196 -297.09608372874209 0 0 0 0 -2.8708431829882102 -4.6175195144193708 0 -4.6175195144193708 -12.04685725948093 0 0 0 0 -520.33566449399223 2074.43038174721 0 2074.43038174721 -2076.1733975575498 0 0 0 0 -1306.3662215616205 1658.2785265664133 0 1658.2785265664133 1117.1574899029301 0 0 0 0 263.96761399120442 103.5760784905433 0 103.5760784905433 -321.34459171215349 0 0 0 0 279.91785657030414 1884.899425058662 0 1884.899425058662 -2031.2894262230839 0 0 0 0 184.369691710599 1373.8022238443627 0 1373.8022238443627 -2641.4209088817915 0 0 0 0 8.9800479548499084 -4.4249540897422435 0 -4.4249540897422435 -37.474907715647817 0 0 0 0 -1228.0261532519653 -143.54983603901928 0 -143.54983603901928 -852.82029699499981 0 0 0 0 185.09450106883014 239.33540705748965 0 239.33540705748965 -761.36592429448501 0 0 0 0 -28.730227535532322 80.699405972429304 0 80.699405972429304 65.006561449561559 0 0 0 0 -1066.8668737277039 298.11813531045846 0 298.11813531045846 -117.33359140584798 0 0 0 0 41.307134780513707 47.436369053325564 0 47.436369053325564 10.749450149389645 0 0 0 0 -11.535753261104389 12.059919360785472 0 12.059919360785472 0.28079202105773504 0 0 0 0 26.200578417629004 30.993327524720371 0 30.993327524720371 -29.123766887496458 0 0 0 0 11.969831177062588 38.933149866901658 0 38.933149866901658 37.226479316937912 0 0 0 0 68.773394477333511 44.061372641399018 0 44.061372641399018 10.542672446790959 0 0 0 0 175.23893677804153 86.701050217357988 0 86.701050217357988 -25.465468064714514 0 0 0 0 -126.02907252899604 184.19498704053694 0 184.19498704053694 28.816067305284378 0 0 0 0 98.31461907090852 112.3724189748973 0 112.3724189748973 -76.638526340357203 0 0 0 0 11.002530756001249 -1.3164992303557881 0 -1.3164992303557881 -12.039760079745122 0 0 0 0 197.1108463626224 92.971842836192081 0 92.971842836192081 -83.984199861442903 0 0 0 0 12.722826763754711 180.48826611686673 0 180.48826611686673 -102.12509586158376 0 0 0 0 45.950763305790417 33.907702351754409 0 33.907702351754409 23.271907934444258 0 0 0 0 -0.31582614239414397 33.265136839530442 0 33.265136839530442 -137.59027924694965 0 0 0 0 -2.5300213547125168 3.3008194597710059 0 3.3008194597710059 6.49748958959416 0 0 0 0 -77.74003509368049 263.5866797048584 0 263.5866797048584 -207.60024053120287 0 0 0 0 -87.775903233297868 95.921730839909287 0 95.921730839909287 177.34090946162905 0 0 0 0 -94.627545841649408 336.42450422375259 0 336.42450422375259 -396.51506387138579 0 0 0 0 -128.25925672623271 373.70999890778694 0 373.70999890778694 -213.31653657731658 0 0 0 0 -127.8111255447875 354.69962603570821 0 354.69962603570821 -217.69982056616573 0 0 0 0 -122.41434963162465 200.50224868905934 0 200.50224868905934 -191.04265965828745 0 0 0 0 -246.90981488730176 320.15655734363099 0 320.15655734363099 -39.706516998776351 0 0 0 0 -296.70976380896172 354.40067475913747 0 354.40067475913747 -62.637750529313053 0 0 0 0 -143.52136694983346 370.50039858655509 0 370.50039858655509 -130.62621179714188 0 0 0 0 -227.51620228364482 371.91866110044884 0 371.91866110044884 -110.33106762717944 0 0 0 0 -52.812822229345329 351.24870442305473 0 351.24870442305473 -267.84631066666043 0 0 0 0 -259.64487702801125 482.00614376947851 0 482.00614376947851 -235.21501550790708 0 0 0 0 -11.289560543693369 373.3676615379627 0 373.3676615379627 -292.77754231850486 0 0 0 0 -706.3567176759534 639.1649971950028 0 639.1649971950028 -176.00056109619618 0 0 0 0 -279.99826993318857 387.03430684490741 0 387.03430684490741 -26.941740617141477 0 0 0 0 -135.94066543120425 571.55263025809836 0 571.55263025809836 -467.33640008837392 0 0 0 0 -530.24333527522685 203.31829227959861 0 203.31829227959861 138.54523162740225 0 0 0 0 -1079.918980747927 574.88256962105515 0 574.88256962105515 -4.2981574959376303 0 0 0 0 -216.41046228419873 -24.871080464370607 0 -24.871080464370607 35.296513112265529 0 0 0 0 -384.36246564993053 214.95550711441683 0 214.95550711441683 -8.8366193436959293 0 0 0 0 -26.850801903783577 108.14683298381715 0 108.14683298381715 -16.297487078729318 0 0 0 0 33.627516887092497 -36.009845285749179 0 -36.009845285749179 12.104445397653762 0 0 0 0 137.12413725833176 111.59452171494922 0 111.59452171494922 -50.228549867119 0 0 0 0 -43.726537828113521 40.120384659910066 0 40.120384659910066 -6.0288152829571118 0 0 0 0 8.335306978879089 101.71153898893135 0 101.71153898893135 15.923142556333914 0 0 0 0 -4537.3378774130251 1714.8407156378089 0 1714.8407156378089 -4099.8244074911636 0 0 0 0 54.403180116474687 179.28604812644153 0 179.28604812644153 88.213361074442219 0 0 0 0 26.645129339800292 57.890940116414185 0 57.890940116414185 22.66517489824065 0 0 0 0 3684.3327452721423 1349.5596201013032 0 1349.5596201013032 -5488.109182697488 0 0 0 0 27.144907584093744 85.828464354141033 0 85.828464354141033 -2.7767635237614741 0 0 0 0 -131.44615496578626 180.57122328451078 0 180.57122328451078 -59.43098128182919 0 0 0 0 -226.83068843924775 137.78349998882186 0 137.78349998882186 17.612723212208948 0 0 0 0 4.8711714545934228 49.928722058350104 0 49.928722058350104 -54.914298144547502 0 0 0 0 -855.56730756090474 -44.479643861668592 0 -44.479643861668592 169.41546687374648 0 0 0 0 -1004.6011888049252 646.72725468553062 0 646.72725468553062 -321.58045228872652 0 0 0 0 -1077.6390257687162 580.41817459825688 0 580.41817459825688 -20.989475278387545 0 0 0 0 -263.79986649460625 12.66495785994266 0 12.66495785994266 -722.15424470037397 0 0 0 0 36.305166631493194 535.196446697395 0 535.196446697395 -529.09103589940787 0 0 0 0 -219.48079906695784 144.33635510208296 0 144.33635510208296 -434.40444033910899 0 0 0 0 -19.457986997265834 359.62794458795543 0 359.62794458795543 -980.19091208369719 0 0 0 0 278.5247117743711 363.96050099169588 0 363.96050099169588 -534.6183525684537 0 0 0 0 273.62910701769215 361.5820063467545 0 361.5820063467545 -410.68795243387285 0 0 0 0 137.57172527213697 266.57853779631841 0 266.57853779631841 -475.79339755902765 0 0 0 0 142.64176634608884 238.43606020326843 0 238.43606020326843 -320.42881118402511 0 0 0 0 -90.665715842245845 288.43313316910553 0 288.43313316910553 -312.81480540862685 0 0 0 0 61.318355274677742 375.698087655579 0 375.698087655579 -262.73273166700892 0 0 0 0 73.03802014257235 424.644413521768 0 424.644413521768 -343.3905875194323 0 0 0 0 -140.41864328118754 345.92600434371434 0 345.92600434371434 -86.963082281741663 0 0 0 0 -86.249143229520996 429.65752293364858 0 429.65752293364858 -109.86794521522825 0 0 0 0 -31.916472486365819 326.79068414179528 0 326.79068414179528 -239.63685029946646 0 0 0 0 -32.164286852974328 301.31111355908615 0 301.31111355908615 163.60600049774621 0 0 0 0 260.93119195873646 402.48771807928631 0 402.48771807928631 -354.45948209896233 0 0 0 0 8.8309924902761736 2.4525875532441717 0 2.4525875532441717 2.1045109262016553 0 0 0 0 187.04747941947426 621.08430735718866 0 621.08430735718866 -102.05350464888397 0 0 0 0 23.08180062759493 62.57275951552765 0 62.57275951552765 -91.201724044920411 0 0 0 0 312.02875058191421 580.99389737963065 0 580.99389737963065 -451.23833052823738 0 0 0 0 252.97764855813875 631.30315025660093 0 631.30315025660093 -124.27515326160938 0 0 0 0 -172.98881122982129 511.66836853351924 0 511.66836853351924 319.96460169176135 0 0 0 0 -186.89059431921123 386.53210276361779 0 386.53210276361779 -351.78454681126459 0 0 0 0 -438.43465419752465 512.04669785163787 0 512.04669785163787 9.1041897034629073 0 0 0 0 -165.26767262801877 277.89242118057882 0 277.89242118057882 -173.85074567942866 0 0 0 0 -646.8187476589228 157.31551071944341 0 157.31551071944341 7.8763416165820672 0 0 0 0 60.196314179891488 247.67825772645119 0 247.67825772645119 26.884321611294581 0 0 0 0 -186.72807351822848 329.29746576789694 0 329.29746576789694 5.940323279472068 0 0 0 0 -26.58248965725943 393.43473855392949 0 393.43473855392949 -27.698714080874197 0 0 0 0 -36.716402390011353 464.82561118994636 0 464.82561118994636 -203.9101884081465 0 0 0 0 91.585661274613813 309.88763160441886 0 309.88763160441886 -45.657464776384586 0 0 0 0 -17.042082690779353 335.84004512182582 0 335.84004512182582 23.603976894481093 0 0 0 0 -202.72676723785798 372.41772197010977 0 372.41772197010977 -155.71116723144223 0 0 0 0 -192.49453214174719 159.25348402418058 0 159.25348402418058 -6.8157341818405257 0 0 0 0 77.557251716929386 226.95708280264375 0 226.95708280264375 -355.23694164037079 0 0 0 0 -168.56149996391468 213.91550186359291 0 213.91550186359291 64.128460475523752 0 0 0 0 8.6066420252027456 149.45194834911854 0 149.45194834911854 87.523698259326011 0 0 0 0 -61.663282444380457 92.21340055739438 0 92.21340055739438 95.406720422019134 0 0 0 0 -15.14012703273329 325.66520999529166 0 325.66520999529166 132.91850779911874 0 0 0 0 -76.668529696313897 36.091396685910667 0 36.091396685910667 -19.234251965126369 0 0 0 0 -99.382746134775516 52.86002817177382 0 52.86002817177382 61.31294106714995 0 0 0 0 23.88670210377677 171.55388831635969 0 171.55388831635969 147.24380233767442 0 0 0 0 -51.284850603638915 60.431138513560654 0 60.431138513560654 88.405449707985099 0 0 0 0 -67.874018618370258 41.11938616638659 0 41.11938616638659 1.026585418295177 0 0 0 0 -142.02588002957054 240.93733700055964 0 240.93733700055964 323.87901868942936 0 0 0 0 5.7391910893493332 411.02889002580923 0 411.02889002580923 253.62758526006655 0 0 0 0 -54.707927316485438 347.38657997269911 0 347.38657997269911 276.88551769730111 0 0 0 0 -129.31706093458342 397.76239285894917 0 397.76239285894917 303.82885427626752 0 0 0 0 -74.955113160493056 245.57881431050555 0 245.57881431050555 281.70840794080141 0 0 0 0 -75.832772600755561 246.5072651483606 0 246.5072651483606 323.42794095108457 0 0 0 0 413.69994091484114 438.14934248038844 0 438.14934248038844 146.69493745994077 0 0 0 0 -308.84546183847851 230.57950265213981 0 230.57950265213981 388.56556259998615 0 0 0 0 -303.64403206330735 308.85652154997729 0 308.85652154997729 146.09412723030255 0 0 0 0 492.15713588328799 179.92082984676745 0 179.92082984676745 104.42935567066525 0 0 0 0 -687.0975690819032 471.49328878154483 0 471.49328878154483 282.79436627847724 0 0 0 0 -417.61983821279136 250.19035840849028 0 250.19035840849028 284.66691122058575 0 0 0 0 -320.81700894331152 614.96863298607786 0 614.96863298607786 201.59283285738638 0 0 0 0 -622.06105220038444 589.76343432974318 0 589.76343432974318 421.3209216187679 0 0 0 0 -601.61298367555719 613.01129185208265 0 613.01129185208265 240.5851097474515 0 0 0 0 -924.80452267093642 525.36955152127848 0 525.36955152127848 453.28637536999304 0 0 0 0 -1017.6934704429004 353.20358342069449 0 353.20358342069449 399.19340777350362 0 0 0 0 -420.647497015103 1313.7666680449329 0 1313.7666680449329 -265.03469259307894 0 0 0 0 -1178.745905276679 772.98453061358668 0 772.98453061358668 361.03991993637101 0 0 0 0 -2303.934426327156 3154.0807715033443 0 3154.0807715033443 -746.49406872568943 0 0 0 0 -2429.6183415556734 914.3223068373627 0 914.3223068373627 353.66854946799867 0 0 0 0 -133.71931090700673 1483.8997590888321 0 1483.8997590888321 -377.61297428890248 0 0 0 0 -1709.3556591345696 338.32818823271373 0 338.32818823271373 378.42045803648944 0 0 0 0 402.92751272476744 -1416.9266758206213 0 -1416.9266758206213 -3033.0223386397483 0 0 0 0 2398.1024755965336 -1294.8720582309979 0 -1294.8720582309979 -4715.8009787583433 0 0 0 0 -603.44784840353532 71.560386000433937 0 71.560386000433937 284.67414470972653 0 0 0 0 -1213.5872022810217 143.13255577785458 0 143.13255577785458 297.01507428057812 0 0 0 0 -16.786472259510447 9.85063171379411 0 9.85063171379411 -8.1753340783432833 0 0 0 0 -26.121667041526337 18.697038257379766 0 18.697038257379766 -16.060842922141376 0 0 0 0 -799.4552642700728 296.06192968315736 0 296.06192968315736 294.76570783820353 0 0 0 0 -451.87386690989661 -117.31181016809933 0 -117.31181016809933 348.52535442999215 0 0 0 0 -2828.6102957026887 1006.9290576751991 0 1006.9290576751991 445.50586821314209 0 0 0 0 301.90130527660949 160.43871027247224 0 160.43871027247224 -1179.7860126929645 0 0 0 0 -604.86200743410882 1055.9868010986756 0 1055.9868010986756 -859.3113743993672 0 0 0 0 2.5668419829062827 20.9566852357421 0 20.9566852357421 1.0623272424712695 0 0 0 0 319.8863329004671 -246.39325009116874 0 -246.39325009116874 -289.8677772853589 0 0 0 0 -79.571664913335098 41.467442625868202 0 41.467442625868202 -16.39333747981982 0 0 0 0 425.81766078059445 290.58476524603975 0 290.58476524603975 30.969595818562084 0 0 0 0 533.51489138434408 249.4415875254308 0 249.4415875254308 30.143841374407089 0 0 0 0 -62.511163559687873 44.826859015714682 0 44.826859015714682 -23.48275993690963 0 0 0 0 -11.874218418967416 17.091399529949484 0 17.091399529949484 -10.820515726201918 0 0 0 0 395.36648543179035 464.44700547489083 0 464.44700547489083 -165.88943019145518 0 0 0 0 -230.8761521645938 402.56964783739113 0 402.56964783739113 336.14665406845961 0 0 0 0 -183.20288911493844 170.56087070426292 0 170.56087070426292 12.948643237557008 0 0 0 0 -13.099627914445591 208.22385747151384 0 208.22385747151384 -71.242032673217182 0 0 0 0 -22.909860793530243 155.90124924886004 0 155.90124924886004 -174.21427649494808 0 0 0 0 -440.72211061653798 379.49973033426613 0 379.49973033426613 -279.93334422543739 0 0 0 0 -20.342178333787842 46.327426322552874 0 46.327426322552874 -25.924350895660741 0 0 0 0 201.1197394830233 17.933219431924954 0 17.933219431924954 -690.26581199556676 0 0 0 0 65.796581350979977 -31.616621233153182 0 -31.616621233153182 15.744594947569567 0 0 0 0 -281.59979250002652 456.34946786137334 0 456.34946786137334 310.75526893653841 0 0 0 0 -511.60747456929857 -16.456647867681795 0 -16.456647867681795 -160.76144306998685 0 0 0 0 -387.83266554586589 392.17100924103761 0 392.17100924103761 -305.72398744513703 0 0 0 0 661.97609410926816 1521.4981050778415 0 1521.4981050778415 1682.8251550526736 0 0 0 0 1195.6950972528139 807.76986072156251 0 807.76986072156251 -1824.1414844557257 0 0 0 0 -73.683404904035967 62.361653752984978 0 62.361653752984978 -20.228743821239341 0 0 0 0 8.2547213781629125 18.798596860066127 0 18.798596860066127 -4.7573219414925507 0 0 0 0 1066.0994867884438 1351.5624365669682 0 1351.5624365669682 230.42992021121245 0 0 0 0 522.41934074138408 879.01219005787971 0 879.01219005787971 757.2398326030617 0 0 0 0 870.46756112182629 877.2536843529324 0 877.2536843529324 -540.22012309012098 0 0 0 0 316.06733115963289 375.72794791985041 0 375.72794791985041 -35.40372228224912 0 0 0 0 473.85348539549159 651.88451036105221 0 651.88451036105221 40.675532365159711 0 0 0 0 805.48852528003044 775.82593256642031 0 775.82593256642031 62.812432258744821 0 0 0 0 259.72730441039312 676.46933077101494 0 676.46933077101494 -54.77465191268584 0 0 0 0 553.62676442721568 479.15838038884203 0 479.15838038884203 -88.827314380328971 0 0 0 0 429.81271220865892 673.44620404396028 0 673.44620404396028 -75.39552155259662 0 0 0 0 946.80541814246681 391.5006266133696 0 391.5006266133696 -92.303221913025482 0 0 0 0 536.91785075113876 777.26531637146763 0 777.26531637146763 -44.098110997706954 0 0 0 0 1493.6935789847885 444.04220863256546 0 444.04220863256546 -156.48152655413287 0 0 0 0 523.68359382249764 599.32613803183176 0 599.32613803183176 523.34611900128766 0 0 0 0 1208.2061015808722 946.69919767110696 0 946.69919767110696 86.48875048545051 0 0 0 0 960.82830300327623 459.75226932255828 0 459.75226932255828 -301.28271017856423 0 0 0 0 1665.4575520135695 1686.0268666883567 0 1686.0268666883567 612.76087440907486 0 0 0 0 619.28262961673317 967.9440615047306 0 967.9440615047306 842.38062952906148 0 0 0 0 -76.654376275620848 61.392691254397022 0 61.392691254397022 -19.979803466946692 0 0 0 0 2755.797359429067 1916.9610392031991 0 1916.9610392031991 -99.520804817570024 0 0 0 0 -326.7188357627092 631.92693633569979 0 631.92693633569979 222.93997521811252 0 0 0 0 -402.52929902763572 794.41601631275807 0 794.41601631275807 122.11032805060677 0 0 0 0 -64.304702566558262 455.07002500100316 0 455.07002500100316 308.6073370197264 0 0 0 0 408.98522547370521 251.64470780018746 0 251.64470780018746 97.012939094187459 0 0 0 0 423.25357782765059 552.82387857517097 0 552.82387857517097 -1381.8954331864616 0 0 0 0 393.77511769242119 838.48033147211027 0 838.48033147211027 0.56526766118622618 0 0 0 0 401.22297398431692 556.04136835537065 0 556.04136835537065 -403.68719246717228 0 0 0 0 422.08027371529715 1205.7607155585356 0 1205.7607155585356 -791.97575505519126 0 0 0 0 2564.7312539123741 -78.031687943028601 0 -78.031687943028601 -211.20905121922988 0 0 0 0 544.37807077699108 337.18749029174796 0 337.18749029174796 27.000217220804188 0 0 0 0 -77.448224066230864 52.117798853224912 0 52.117798853224912 7.523963284735558 0 0 0 0 1568.0943736697664 2740.2452698147754 0 2740.2452698147754 2013.3701961424431 0 0 0 0 361.67473954707384 235.46369606679946 0 235.46369606679946 212.21531322795636 0 0 0 0 310.47532805561787 140.00742602657556 0 140.00742602657556 253.82238383785443 0 0 0 0 524.9139886504272 150.27688416378078 0 150.27688416378078 5.7026938230474116 0 0 0 0 236.68199632316828 -25.939987540084985 0 -25.939987540084985 37.784845852364015 0 0 0 0 507.4461730516341 -188.17263543686931 0 -188.17263543686931 73.898561493246234 0 0 0 0 554.62618276046123 155.98406793803952 0 155.98406793803952 -140.07041605679842 0 0 0 0 651.90883648628369 152.78337037323945 0 152.78337037323945 -332.76390812815362 0 0 0 0 590.57262162357802 -178.84458738746616 0 -178.84458738746616 -346.9929659641416 0 0 0 0 2999.7362835145323 -446.23850970105559 0 -446.23850970105559 -2142.7290275115738 0 0 0 0 350.09113152959617 2154.5061217311304 0 2154.5061217311304 -2158.9926513197315 0 0 0 0 1105.5861220348161 904.49404090522148 0 904.49404090522148 -979.50315077659616 0 0 0 0 2735.8741348935291 671.87592931911058 0 671.87592931911058 -3213.5574813963613 0 0 0 0 843.95370677363826 318.20743548187056 0 318.20743548187056 -311.98857170216797 0 0 0 0 588.41183824971085 956.03347484206461 0 956.03347484206461 -867.88193770607177 0 0 0 0 -118.88514061734895 782.5458136212419 0 782.5458136212419 -36.973088534199633 0 0 0 0 69.533707765396684 667.11374090381287 0 667.11374090381287 33.698900852963561 0 0 0 0 31.716595379577484 577.55635873650317 0 577.55635873650317 -169.76094434395782 0 0 0 0 554.24639995637699 274.48638505945928 0 274.48638505945928 -161.94868378541287 0 0 0 0 561.84725898050237 417.38455287370743 0 417.38455287370743 -337.34308565757965 0 0 0 0 517.33660507883178 265.80884841370425 0 265.80884841370425 -125.45246233369107 0 0 0 0 -59.067445383567247 147.94283106694638 0 147.94283106694638 -197.07268295824178 0 0 0 0 -117.54931456023769 19.976226447372028 0 19.976226447372028 37.74450934077322 0 0 0 0 -10.07746756535289 10.533786600314556 0 10.533786600314556 -4.9734943484130056 0 0 0 0 1616.2706828285518 2587.1030474238796 0 2587.1030474238796 2500.1261882839608 0 0 0 0 59.683457015489694 -100.52318642611317 0 -100.52318642611317 -1143.0798191786052 0 0 0 0 -52.504384148356621 -58.162909890400442 0 -58.162909890400442 -337.79336024893928 0 0 0 0 -105.88473446201533 372.64055059541533 0 372.64055059541533 -580.6471370045565 0 0 0 0 -17.989580563589698 454.31060965970391 0 454.31060965970391 -510.77071183090084 0 0 0 0 35.318422849406488 688.21295839483355 0 688.21295839483355 -516.73845714844333 0 0 0 0 -370.28817902962328 439.54875482476291 0 439.54875482476291 -206.58000041803257 0 0 0 0 -34.369267572328681 188.23980515796666 0 188.23980515796666 -141.77929016643975 0 0 0 0 -125.06806000479264 210.28874072946337 0 210.28874072946337 -42.435269241912465 0 0 0 0 -296.7909402223595 706.50223865859448 0 706.50223865859448 -199.1990344102378 0 0 0 0 22.069204556115437 780.46227590430135 0 780.46227590430135 -230.47946851923371 0 0 0 0 45.619482561160112 768.36615107150737 0 768.36615107150737 -219.05160902503849 0 0 0 0 287.87175881315488 503.79439805689435 0 503.79439805689435 -190.0743818641173 0 0 0 0 -396.95038150697656 1016.5322061440058 0 1016.5322061440058 -314.85937542316697 0 0 0 0 139.966451354936 554.04670782296171 0 554.04670782296171 -131.68654368275043 0 0 0 0 338.60954024971579 564.49879165119341 0 564.49879165119341 -332.28095997482006 0 0 0 0 -1283.5191138578011 190.71224899200979 0 190.71224899200979 -37.658595292120481 0 0 0 0 -83.433159255451756 183.31409078100569 0 183.31409078100569 -175.53240133786585 0 0 0 0 -252.57616024219897 -133.72490575309803 0 -133.72490575309803 -567.11965365855531 0 0 0 0 -440.14693493963568 590.24666206000074 0 590.24666206000074 -661.86599863861147 0 0 0 0 407.09720408290741 118.88984408655938 0 118.88984408655938 -336.18290312317208 0 0 0 0 321.89695689536165 364.74183430664755 0 364.74183430664755 168.09080871306503 0 0 0 0 150.25346272945171 -65.303071981998983 0 -65.303071981998983 -284.65560056403001 0 0 0 0 4.2265826452057809 74.792958512299805 0 74.792958512299805 -13.832134278731626 0 0 0 0 4.2075088757555932 32.56155720974175 0 32.56155720974175 32.985472956798503 0 0 0 0 6.4283893004265451 7.4062831085871892 0 7.4062831085871892 6.9439235197898608 0 0 0 0 31.942725681365118 63.441714621658321 0 63.441714621658321 -32.712394896885598 0 0 0 0 129.94220929325093 108.03549815060705 0 108.03549815060705 21.954575553734685 0 0 0 0 355.14949363122287 152.81644890210464 0 152.81644890210464 -174.58382179948421 0 0 0 0 -9.2778593937299565 55.966403540098014 0 55.966403540098014 -8.2384558000503887 0 0 0 0 0.11984596685215365 55.029707674916608 0 55.029707674916608 -1.7540091784276228 0 0 0 0 0.060071030879043974 56.547176378994209 0 56.547176378994209 -11.695395018646934 0 0 0 0 5.8158123924513347 58.246329516208789 0 58.246329516208789 -7.5642865317622636 0 0 0 0 0.98516247270950585 51.1540099337453 0 51.1540099337453 -11.789208802155592 0 0 0 0 366.57271613817034 -48.627110477601924 0 -48.627110477601924 -94.774342652945052 0 0 0 0 -0.01263546128757298 52.979843035904196 0 52.979843035904196 -11.770013067922264 0 0 0 0 -51.738041569493362 265.33320833123707 0 265.33320833123707 -99.213244071117515 0 0 0 0 -3.682971343660256 3.5660699337279311 0 3.5660699337279311 3.2104117484763535 0 0 0 0 -195.15761315863347 -164.98112593862425 0 -164.98112593862425 -29.731448718399406 0 0 0 0 128.25800711099873 92.651205095228761 0 92.651205095228761 -58.384875270814518 0 0 0 0 -4.1925380110764934 3.0886270864780272 0 3.0886270864780272 2.2400771437865643 0 0 0 0 242.5325020908931 114.35561049971329 0 114.35561049971329 -38.987857260057353 0 0 0 0 26.109487558540422 -85.149671558085174 0 -85.149671558085174 28.263570596884165 0 0 0 0 -37.690445529355202 56.780312792381665 0 56.780312792381665 101.31712480701572 0 0 0 0 153.96313509566244 -7.4489316709223203 0 -7.4489316709223203 2.6017301720876276 0 0 0 0 109.69061138157849 114.71563871760009 0 114.71563871760009 16.756777005335607 0 0 0 0 -69.452662489406066 23.184951441269732 0 23.184951441269732 47.265557726612315 0 0 0 0 67.084764918719884 -75.543233200580289 0 -75.543233200580289 7.1319307068549733 0 0 0 0 1656.7105505438813 1770.9954943584889 0 1770.9954943584889 42.601967691698519 0 0 0 0 2383.7983998979907 910.8586999340223 0 910.8586999340223 -1707.4622638013097 0 0 0 0 14.224749490340287 19.549868698461594 0 19.549868698461594 -37.534605778159644 0 0 0 0 508.65208889122005 774.91620069158671 0 774.91620069158671 -558.3280241397988 0 0 0 0 -3.1051260699605336 55.319097507306651 0 55.319097507306651 -13.539443825533453 0 0 0 0 242.23699561644753 83.089016039055423 0 83.089016039055423 -75.299524581474543 0 0 0 0 0.81830252760441291 50.752920991006022 0 50.752920991006022 -12.570833645867751 0 0 0 0 110.77933560361271 -35.706981220027956 0 -35.706981220027956 -14.101625139203861 0 0 0 0 -17.769410371824051 61.409268477735168 0 61.409268477735168 -10.39505141718837 0 0 0 0 209.28935749941593 133.98151089985549 0 133.98151089985549 -90.399868764201528 0 0 0 0 6.3172053063671569 3.2412954922519361 0 3.2412954922519361 0.78180069230128879 0 0 0 0 -9.1099481947705101 51.129104693851815 0 51.129104693851815 -11.600787919195938 0 0 0 0 -0.010090878902701661 59.12149534072887 0 59.12149534072887 -16.371362868547294 0 0 0 0 -7.0387002525967546 54.078089484417433 0 54.078089484417433 -13.879438638918145 0 0 0 0 0.032757251072325744 60.86618334351806 0 60.86618334351806 -5.5540309763418918 0 0 0 0 1.6176500808796845 55.393170252922573 0 55.393170252922573 -14.700047901551443 0 0 0 0 -4.2438722948281793 64.572044713262585 0 64.572044713262585 -19.207442907973018 0 0 0 0 -8.9627233579449239 66.601220626278518 0 66.601220626278518 -16.10279584104137 0 0 0 0 -7.2461210571345873 58.794967499983613 0 58.794967499983613 -13.928419617346663 0 0 0 0 3.3723591765738092 54.610740951495245 0 54.610740951495245 -15.887941429771672 0 0 0 0 116.26737423834857 21.487151504174108 0 21.487151504174108 45.890619565936504 0 0 0 0 46.909397612364671 0.52304784952316652 0 0.52304784952316652 -30.172009207990484 0 0 0 0 174.1575340871932 -0.19432885033893399 0 -0.19432885033893399 47.74732983551803 0 0 0 0 719.23053587265895 -201.73085889563299 0 -201.73085889563299 -1119.5400743207792 0 0 0 0 -7.8618979002245055 55.409515086354759 0 55.409515086354759 -4.179253157090173 0 0 0 0 9.505951175211294 92.264405878561433 0 92.264405878561433 41.449776711757295 0 0 0 0 -7.0119610530366314 3.7674725114737555 0 3.7674725114737555 0.013212123837064382 0 0 0 0 636.8821577137569 -207.93764165474568 0 -207.93764165474568 -2163.2524478241867 0 0 0 0 -9.9731333967065439 -483.58625285833114 0 -483.58625285833114 -1117.4547051826157 0 0 0 0 74.477572815027088 351.46093902314169 0 351.46093902314169 -2656.2369892083516 0 0 0 0 -18.343695390911307 -149.36468267064811 0 -149.36468267064811 -4159.8839930100366 0 0 0 0 -695.27826288202778 -1600.1502664903892 0 -1600.1502664903892 -2438.5990544659044 0 0 0 0 -945.81721216530423 -2260.8210596886711 0 -2260.8210596886711 -4037.5186925330199 0 0 0 0 -4.0291790608753217 61.860067746067216 0 61.860067746067216 8.4683825706524658 0 0 0 0 -937.9399045361788 -2173.9872887370839 0 -2173.9872887370839 -4908.7693797537358 0 0 0 0 0.31513549598543023 11.291921750364466 0 11.291921750364466 -13.311729616636043 0 0 0 0 8.3429215038435132 8.2704421178916334 0 8.2704421178916334 3.9038302257933424 0 0 0 0 161.37893938422349 -423.22859202491236 0 -423.22859202491236 -6708.8974750636844 0 0 0 0 1311.4596998068009 91.767023819814767 0 91.767023819814767 -1101.0126836892596 0 0 0 0 1254.3457759929006 375.84209809016102 0 375.84209809016102 -64.676066215376977 0 0 0 0 799.35809389134374 -378.42366978683185 0 -378.42366978683185 -1196.859792004223 0 0 0 0 1139.5748999477364 -88.979630402900511 0 -88.979630402900511 -2363.2162195358178 0 0 0 0 1169.2152658186769 182.63528578773685 0 182.63528578773685 -1254.7172641986544 0 0 0 0 2120.3181754454708 732.20564947044022 0 732.20564947044022 -1324.9618757272547 0 0 0 0 1898.3446379492816 -85.903549143113196 0 -85.903549143113196 -1433.5272187600185 0 0 0 0 497.30649264079693 1010.9296374882269 0 1010.9296374882269 -818.3506896551844 0 0 0 0 1380.5017211427039 418.97978977528692 0 418.97978977528692 -1350.554411397221 0 0 0 0 852.18265051202616 460.79778482485563 0 460.79778482485563 -1348.8337380025823 0 0 0 0 349.53523350690375 906.77452397798697 0 906.77452397798697 -1299.9568596540485 0 0 0 0 350.82914152380545 430.41497588207494 0 430.41497588207494 -898.52265395330323 0 0 0 0 43.240882035926916 836.50692965328199 0 836.50692965328199 -1196.1488051295164 0 0 0 0 -14.803848170893616 944.42259591757829 0 944.42259591757829 -955.87724725962471 0 0 0 0 -103.90364369322197 771.39814367888903 0 771.39814367888903 -1208.6014902708112 0 0 0 0 -428.77989555444947 1043.8685152743201 0 1043.8685152743201 -984.63681531022303 0 0 0 0 -6.7791532466726494 1060.8571142644578 0 1060.8571142644578 -1252.6950172560828 0 0 0 0 310.51157603520551 715.73707964183996 0 715.73707964183996 -1150.1042957596364 0 0 0 0 -166.08568734666915 824.58079589404224 0 824.58079589404224 -974.10953138510376 0 0 0 0 -1281.122566539183 1521.970605931343 0 1521.970605931343 -1268.9782946124578 0 0 0 0 -148.67829175881343 127.21155420564173 0 127.21155420564173 550.17969916893344 0 0 0 0 -4.5157902058522268 2.6559570331237126 0 2.6559570331237126 0.65414116615237106 0 0 0 0 -331.77766954205435 1134.1878061021707 0 1134.1878061021707 -1520.0290288907127 0 0 0 0 -218.62935149908299 468.90296049151948 0 468.90296049151948 178.44165398077894 0 0 0 0 117.25074402388418 72.700084241470904 0 72.700084241470904 -327.96475421904324 0 0 0 0 113.62929497812002 96.310675967913994 0 96.310675967913994 -21.137063219925039 0 0 0 0 52.915350388298975 71.013210490844358 0 71.013210490844358 81.177517200980219 0 0 0 0 27.728213938418776 97.67945213470739 0 97.67945213470739 18.982876024270809 0 0 0 0 52.853819056763314 73.348076676971687 0 73.348076676971687 -5.5745000815732055 0 0 0 0 393.58375006855931 -141.89232210642149 0 -141.89232210642149 -67.951374344060241 0 0 0 0 46.611436130712832 35.243850722811935 0 35.243850722811935 -23.674254652083846 0 0 0 0 66.443281020008726 73.176431494419376 0 73.176431494419376 -32.26626561395824 0 0 0 0 -771.56698772893287 332.32446782007173 0 332.32446782007173 425.03075817978151 0 0 0 0 1293.9590754660894 -981.0231263638052 0 -981.0231263638052 550.42784222896444 0 0 0 0 6085.6606779302238 -3463.8973213910358 0 -3463.8973213910358 1476.3083261562715 0 0 0 0 9.9994254886403269 20.015186949509967 0 20.015186949509967 -13.241813049188053 0 0 0 0 139.15865661003772 201.52486884480913 0 201.52486884480913 1.0413787348115875 0 0 0 0 199.47227231221041 -161.84208301018225 0 -161.84208301018225 85.873176504974253 0 0 0 0 -58.312819401035085 67.031370940250781 0 67.031370940250781 239.38336722290114 0 0 0 0 723.234879924712 478.21311496368435 0 478.21311496368435 1873.2655273714117 0 0 0 0 -65.326042959944516 37.318164808029593 0 37.318164808029593 39.59773043804573 0 0 0 0 65.791064014496271 30.624865865227697 0 30.624865865227697 -19.610835953931598 0 0 0 0 2036.1399807975104 497.96831068822212 0 497.96831068822212 1508.3110293808277 0 0 0 0 841.71287244817358 1774.2023628973766 0 1774.2023628973766 1829.1410442271736 0 0 0 0 2208.6319430810217 2058.0255733270519 0 2058.0255733270519 1782.1103295230569 0 0 0 0 1005.7882051192573 2835.9101846127742 0 2835.9101846127742 2821.9921814618865 0 0 0 0 -65.23420649045147 5.3398468319574022 0 5.3398468319574022 34.549246015285462 0 0 0 0 -7.1788829058870078 25.43415011450567 0 25.43415011450567 -28.780450984081796 0 0 0 0 -395.2232448529976 1246.7092414843137 0 1246.7092414843137 3600.44879643694 0 0 0 0 496.1270577890391 1941.3489350412783 0 1941.3489350412783 2176.9539561952261 0 0 0 0 521.28275322090485 954.63187044743245 0 954.63187044743245 1439.3719475646758 0 0 0 0 -5.2197561011131484 16.435497732816877 0 16.435497732816877 8.5397622427467184 0 0 0 0 30.729672024026513 58.654100157742505 0 58.654100157742505 -2528.2524268838315 0 0 0 0 972.79974054166814 1334.8467355946486 0 1334.8467355946486 448.49360069776594 0 0 0 0 458.28262702384382 1022.0940128071579 0 1022.0940128071579 -1739.1046108746959 0 0 0 0 -107.68044122128049 567.80141918099253 0 567.80141918099253 -1541.1033777651683 0 0 0 0 529.04989510338055 691.99749788302142 0 691.99749788302142 -2526.5320472921885 0 0 0 0 14.841719547926914 854.49565494026319 0 854.49565494026319 -1161.4369130208797 0 0 0 0 -24.272587944418774 156.85363135542866 0 156.85363135542866 -290.31190471191803 0 0 0 0 -268.01334660242719 760.99086992009052 0 760.99086992009052 -815.03481375779666 0 0 0 0 -3.711768431647215 98.684646698908182 0 98.684646698908182 -336.53112471311761 0 0 0 0 354.8775416604476 85.818884739877831 0 85.818884739877831 -1877.7983926660672 0 0 0 0 3.0754362537834368 9.8260845373638119 0 9.8260845373638119 12.143150593344899 0 0 0 0 684.6829981120818 269.66093608459209 0 269.66093608459209 -465.12649323335063 0 0 0 0 -5.6547120801949902 11.821011384279132 0 11.821011384279132 4.8696354618114803 0 0 0 0 203.05401315057679 143.72316736627863 0 143.72316736627863 309.07155772834994 0 0 0 0 833.84525526842117 373.28338327396341 0 373.28338327396341 -58.148650710925722 0 0 0 0 -6.8036974851243528 7.6548866116571617 0 7.6548866116571617 -1.0274615268924521 0 0 0 0 819.56128691635604 -18.221891563785903 0 -18.221891563785903 -399.65104224551214 0 0 0 0 762.80245927917713 -306.07654335119378 0 -306.07654335119378 1923.1454941060729 0 0 0 0 192.13726910833066 -899.85392787103865 0 -899.85392787103865 327.42480417103434 0 0 0 0 2176.421967948183 1439.2362334877789 0 1439.2362334877789 -79.144916318113246 0 0 0 0 2365.3730616153061 -767.89274687854049 0 -767.89274687854049 145.69667967101122 0 0 0 0 6.811363081562833 16.991313740546715 0 16.991313740546715 19.425402775897101 0 0 0 0 -1027.0191135471912 1231.2211141827547 0 1231.2211141827547 1191.8782397944669 0 0 0 0 -328.23951936973481 126.23147879827684 0 126.23147879827684 -349.01497788655251 0 0 0 0 1274.3063495454353 505.5182934751997 0 505.5182934751997 -663.05096772094703 0 0 0 0 1274.8789876320989 492.42385828556053 0 492.42385828556053 -419.97447758148473 0 0 0 0 561.80218169972431 290.52540704485637 0 290.52540704485637 -180.29332049575328 0 0 0 0 -881.77956238345814 222.79511867371139 0 222.79511867371139 417.60294233029288 0 0 0 0 1476.6510073412046 680.52680510090511 0 680.52680510090511 -516.30703760476717 0 0 0 0 6.1474580742337288 10.975697864024895 0 10.975697864024895 8.1096656149694688 0 0 0 0 432.73809952738884 773.716103699428 0 773.716103699428 245.26673272240259 0 0 0 0 -561.05612134063722 346.11710936927648 0 346.11710936927648 428.48577379773474 0 0 0 0 1092.1147591797965 290.56901237365287 0 290.56901237365287 -68.05954497548737 0 0 0 0 862.15711252891742 971.11690894147921 0 971.11690894147921 744.55276039267574 0 0 0 0 1020.4710551937569 -80.567809336422215 0 -80.567809336422215 53.536454576881624 0 0 0 0 185.72383571500905 167.26200165906812 0 167.26200165906812 618.52967153742429 0 0 0 0 370.96881987411871 149.03448262872735 0 149.03448262872735 -668.99292994122516 0 0 0 0 -5.0511503460540368 13.182139727196791 0 13.182139727196791 -17.235011378651485 0 0 0 0 777.26293912240362 607.56293611971523 0 607.56293611971523 -72.920171473677328 0 0 0 0 714.27891089741888 181.52267971511367 0 181.52267971511367 -83.511218737436138 0 0 0 0 433.77272773178993 1.887845298445427 0 1.887845298445427 -185.94570038769962 0 0 0 0 -4.2637144377069767 9.0028089349827738 0 9.0028089349827738 3.8597780680629441 0 0 0 0 68.574908439913997 -54.221508651000477 0 -54.221508651000477 185.61174561044754 0 0 0 0 141.40209860973846 -44.666622828033724 0 -44.666622828033724 -31.756397410765885 0 0 0 0 73.542398070516356 -221.45006490871356 0 -221.45006490871356 -70.136626177602011 0 0 0 0 -190.88074009677132 -26.543533268681131 0 -26.543533268681131 341.0691941638288 0 0 0 0 -466.99260367812167 -108.62351543520265 0 -108.62351543520265 29.709396048915551 0 0 0 0 -81.685525205549311 91.252995043199931 0 91.252995043199931 -13.924543091586429 0 0 0 0 263.36809129366623 466.40122653238382 0 466.40122653238382 -385.31856588631604 0 0 0 0 300.24049153425585 264.11229438123655 0 264.11229438123655 -146.33842800629282 0 0 0 0 -134.25358475792746 227.42641034074859 0 227.42641034074859 129.94143238927927 0 0 0 0 -363.22339001977525 170.02004153275993 0 170.02004153275993 185.99332056009735 0 0 0 0 -352.89163431240377 174.3398642909915 0 174.3398642909915 62.071156070913275 0 0 0 0 -54.662007976508903 191.21423808886448 0 191.21423808886448 40.940128670934428 0 0 0 0 71.088992159842746 386.31758386294632 0 386.31758386294632 78.672704699740279 0 0 0 0 -93.783202333879828 121.4998546173878 0 121.4998546173878 9.9937384663155626 0 0 0 0 -389.32907478747074 142.63906781549304 0 142.63906781549304 52.0274744602998 0 0 0 0 -278.82498572814075 330.24847432357114 0 330.24847432357114 -228.03501893075554 0 0 0 0 -256.94624007090897 352.06964342956007 0 352.06964342956007 -325.23604932208696 0 0 0 0 -52.85972863765258 14.846152025568074 0 14.846152025568074 -6.3997665626888391 0 0 0 0 -185.25215403347102 62.63916780117961 0 62.63916780117961 -34.037949917214064 0 0 0 0 -82.059024688009472 131.75034748496583 0 131.75034748496583 -4.3984818000894101 0 0 0 0 -200.43647493938261 31.69413456957011 0 31.69413456957011 229.43887523516605 0 0 0 0 -61.839341082805511 95.978805408870969 0 95.978805408870969 1.6104251434760997 0 0 0 0 -387.06957263053118 -149.11713228677081 0 -149.11713228677081 -693.28312942585035 0 0 0 0 -4.117892710135493 384.24832032271661 0 384.24832032271661 -267.0455755987623 0 0 0 0 -54.811469245171274 105.56988325806275 0 105.56988325806275 -16.622999075068613 0 0 0 0 -111.91532415887923 52.479348013082927 0 52.479348013082927 -33.859255262642364 0 0 0 0 -68.571634995303612 144.17510809629312 0 144.17510809629312 -18.990657707548962 0 0 0 0 -131.38675447303103 55.738559809600829 0 55.738559809600829 -28.86722125512901 0 0 0 0 -33.159495240640489 78.882970717300353 0 78.882970717300353 -39.175120211068155 0 0 0 0 -109.71400320914836 72.192144477112322 0 72.192144477112322 -40.908207736766116 0 0 0 0 29.473629151885689 -21.078898891443714 0 -21.078898891443714 -180.57487575303685 0 0 0 0 -192.08934385739121 291.25757521603828 0 291.25757521603828 -15.627516632032439 0 0 0 0 351.2831979937655 167.52051372307051 0 167.52051372307051 139.24546641580127 0 0 0 0 -467.84338232768459 396.03100281806655 0 396.03100281806655 -12.080878703847702 0 0 0 0 -5.5868324556548679 10.668377117466719 0 10.668377117466719 5.2875937810455866 0 0 0 0 -371.30252103231578 998.52839327523179 0 998.52839327523179 742.08776709613448 0 0 0 0 -524.08616458309552 547.14855836726565 0 547.14855836726565 252.62395555774856 0 0 0 0 -853.16214848043455 524.28087037650039 0 524.28087037650039 495.87274733461709 0 0 0 0 -730.8918312067035 136.14666477683568 0 136.14666477683568 -21.297804473892029 0 0 0 0 -478.60573797997313 306.44904276203351 0 306.44904276203351 292.58639459835831 0 0 0 0 -101.54399207329698 568.30175007965227 0 568.30175007965227 39.436219561306643 0 0 0 0 -515.09682074211742 434.44054235504518 0 434.44054235504518 331.73644038044222 0 0 0 0 -62.16384758831191 47.557427321769225 0 47.557427321769225 11.661778280155907 0 0 0 0 129.19945238367654 111.49865088482329 0 111.49865088482329 31.470627308211988 0 0 0 0 -99.173680714724469 37.818350357889585 0 37.818350357889585 -59.07703221749216 0 0 0 0 -32.108172873025666 55.705731329979919 0 55.705731329979919 -29.129523757198712 0 0 0 0 58.369355216811527 80.427741186740604 0 80.427741186740604 -58.191150935577753 0 0 0 0 -126.17857050355087 41.217819248180348 0 41.217819248180348 -44.077591089563711 0 0 0 0 -51.92385404706021 77.701500133008324 0 77.701500133008324 -40.971984682054597 0 0 0 0 -52.240547818233608 73.547800225504034 0 73.547800225504034 -46.618478768967179 0 0 0 0 66.216729759504233 143.8169725450889 0 143.8169725450889 -37.399468751933455 0 0 0 0 5.2463365940247186 45.186277113683353 0 45.186277113683353 -26.615472807306588 0 0 0 0 -83.063641410428431 141.00736778197461 0 141.00736778197461 50.124366390387877 0 0 0 0 1944.2933895429451 1057.1790277790533 0 1057.1790277790533 -1064.4359137401843 0 0 0 0 60.820745468111966 98.828525804384498 0 98.828525804384498 -44.422864840980004 0 0 0 0 19.340176332791771 13.924840036354979 0 13.924840036354979 -2.7282332320926628 0 0 0 0 36.166243292804729 116.70691722115367 0 116.70691722115367 14.326465839814858 0 0 0 0 1165.7803295468111 1446.6060069539162 0 1446.6060069539162 1586.1001887939201 0 0 0 0 643.55935429548754 -1245.1588269412428 0 -1245.1588269412428 -151.8315103159257 0 0 0 0 14.530795188157299 240.53037589380801 0 240.53037589380801 38.979474203821155 0 0 0 0 -55.177634744703631 64.890748189629846 0 64.890748189629846 -9.1558529691717467 0 0 0 0 -2.4941651110639214 66.81669692225114 0 66.81669692225114 61.324706299390527 0 0 0 0 77.579584364995753 135.56553618265025 0 135.56553618265025 -32.66147189468029 0 0 0 0 88.966021722068476 59.095899068278335 0 59.095899068278335 -84.931883661147296 0 0 0 0 -35.712820947563742 72.121209266823882 0 72.121209266823882 1.1464915815901975 0 0 0 0 180.93458531633769 174.54716532611928 0 174.54716532611928 -36.160462755520712 0 0 0 0 61.242754313063031 110.51680899693383 0 110.51680899693383 -11.803561981712647 0 0 0 0 95.273261420235031 86.067542901546403 0 86.067542901546403 -37.037509181747737 0 0 0 0 -134.12575975258278 139.42388352288253 0 139.42388352288253 19.561330726915912 0 0 0 0 37.560094763474012 173.77633990057529 0 173.77633990057529 -71.659904073836515 0 0 0 0 23.624843751738258 114.14590793019084 0 114.14590793019084 62.006041355898873 0 0 0 0 8.6354712242609821 384.03555095082265 0 384.03555095082265 53.247286219891976 0 0 0 0 -125.63968605949412 358.15542871311482 0 358.15542871311482 94.843578134081326 0 0 0 0 -174.35953883214825 248.88696574007918 0 248.88696574007918 -149.93498878850369 0 0 0 0 297.12026779006192 127.90052360195841 0 127.90052360195841 -585.52948824049963 0 0 0 0 31.234695239032817 142.9892320369413 0 142.9892320369413 61.897914716515515 0 0 0 0 107.51616845712329 106.57527373362237 0 106.57527373362237 6.4230406978853836 0 0 0 0 -384.01891902510761 1043.8236452980709 0 1043.8236452980709 -1529.698141899542 0 0 0 0 -2963.1036408430518 2200.0441119246534 0 2200.0441119246534 169.49384255561745 0 0 0 0 -5501.7918213466182 910.45243564579869 0 910.45243564579869 3226.4966365896544 0 0 0 0 -728.57084052550636 361.61292305966344 0 361.61292305966344 -152.83356601417472 0 0 0 0 -79.07719766999071 519.04005557589153 0 519.04005557589153 -326.75977424719895 0 0 0 0 -441.34031964173482 383.57820526617434 0 383.57820526617434 -37.140156644840317 0 0 0 0 739.3585155496985 190.84472704086511 0 190.84472704086511 -104.30543000521129 0 0 0 0 -771.59202003308746 815.63339864204681 0 815.63339864204681 -258.81889547106402 0 0 0 0 35.15403521716064 32.5697822447557 0 32.5697822447557 12.767297328249356 0 0 0 0 1060.3587820697321 684.875987735526 0 684.875987735526 9.6001816485077143 0 0 0 0 -402.85101577485511 501.65125218926369 0 501.65125218926369 -559.89894854254817 0 0 0 0 235.68391570145468 16.384265593325836 0 16.384265593325836 79.261327489482937 0 0 0 0 2186.0458655723123 -579.55107787139605 0 -579.55107787139605 -1185.4630117445195 0 0 0 0 1188.7300938762492 191.85311604849994 0 191.85311604849994 572.84182510143 0 0 0 0 1260.6316993804066 -247.79676507611293 0 -247.79676507611293 711.01488970662467 0 0 0 0 -16.035221358180934 31.723780548197766 0 31.723780548197766 22.122836740685315 0 0 0 0 90.192301443261385 -724.97563427078421 0 -724.97563427078421 -135.7361204468325 0 0 0 0 1944.2161038210616 850.30080751878268 0 850.30080751878268 -20.048167675297009 0 0 0 0 29.210698453071288 20.625983628490943 0 20.625983628490943 25.232991313242906 0 0 0 0 1296.9004566977674 282.95757741582929 0 282.95757741582929 322.35824646090623 0 0 0 0 1377.4643751105268 -101.10978401683678 0 -101.10978401683678 57.560348303988576 0 0 0 0 -532.50874212639974 -275.40672137856745 0 -275.40672137856745 504.442706464004 0 0 0 0 -177.72052023373544 546.28403031065682 0 546.28403031065682 -381.07977775325708 0 0 0 0 -137.44506238493341 373.38339628365793 0 373.38339628365793 -495.60258786218765 0 0 0 0 -185.34361791974879 524.63315589271224 0 524.63315589271224 -318.12711027491969 0 0 0 0 -141.78806630546296 341.72010026256748 0 341.72010026256748 -205.77874304074794 0 0 0 0 864.69142707970241 364.68442020488146 0 364.68442020488146 -546.85800547121471 0 0 0 0 924.73650919572719 255.98114021481888 0 255.98114021481888 -593.49215392844053 0 0 0 0 1232.9091240812065 235.85150080820131 0 235.85150080820131 -482.37766288649436 0 0 0 0 891.64496673241956 504.31246099698546 0 504.31246099698546 -378.59195005064976 0 0 0 0 540.62692641885587 296.47774549465248 0 296.47774549465248 -409.13451804306533 0 0 0 0 454.48922656585273 486.30019724512022 0 486.30019724512022 -398.90001408510579 0 0 0 0 -93.558244895329608 463.97852354667202 0 463.97852354667202 -79.733389890963736 0 0 0 0 468.64042896930914 734.93278237398317 0 734.93278237398317 269.46033642972907 0 0 0 0 201.20121369873232 329.46785246872969 0 329.46785246872969 -139.45722741294867 0 0 0 0 1411.3453707817498 430.56136892549694 0 430.56136892549694 -368.96925497604298 0 0 0 0 816.07446916963818 412.31217445194306 0 412.31217445194306 221.74870375003457 0 0 0 0 1260.1874415166471 1253.2273014030552 0 1253.2273014030552 1039.3656311749473 0 0 0 0 -46.359513799641718 274.96913240443064 0 274.96913240443064 196.17449814054271 0 0 0 0 -143.00504848454875 495.63923266848496 0 495.63923266848496 686.86802008899394 0 0 0 0 -271.47018564066775 165.24556986261382 0 165.24556986261382 -712.94663357099125 0 0 0 0 3283.2183652208009 73.916604756252127 0 73.916604756252127 -53.722716641525039 0 0 0 0 -303.77276315741074 149.56539609488846 0 149.56539609488846 1505.5553219754056 0 0 0 0 15.811267651798159 17.839904718690882 0 17.839904718690882 15.538856988313867 0 0 0 0 1139.9914889977824 69.403599448341993 0 69.403599448341993 3.5913213745225221 0 0 0 0 -817.29702262378987 348.60119430056329 0 348.60119430056329 551.65212224295101 0 0 0 0 1093.7257616759528 177.71864130968788 0 177.71864130968788 -315.17239089134819 0 0 0 0 30.846744592445205 45.88052465548941 0 45.88052465548941 59.074396648208833 0 0 0 0 983.72842961049173 295.7028601258462 0 295.7028601258462 -197.33143181545529 0 0 0 0 1087.5355178450609 381.56501277332427 0 381.56501277332427 -534.16256004996467 0 0 0 0 1001.59943613717 484.60504629215939 0 484.60504629215939 -619.33584048434568 0 0 0 0 -287.39521227206569 839.86313447650537 0 839.86313447650537 -245.93946022719319 0 0 0 0 676.06342408252112 179.86295546381734 0 179.86295546381734 -305.30652958075734 0 0 0 0 40.99476978741955 69.333557537320857 0 69.333557537320857 101.98062370295307 0 0 0 0 -525.14983243954612 604.91798777091935 0 604.91798777091935 -153.50271348797287 0 0 0 0 -38.327570099800141 508.45786362911895 0 508.45786362911895 -218.87939280968294 0 0 0 0 -949.51557662495998 217.54001810480258 0 217.54001810480258 832.83294872693477 0 0 0 0 84.863754540734035 204.01889228075285 0 204.01889228075285 91.008051505789808 0 0 0 0 -14.145967112635645 118.32018679350688 0 118.32018679350688 -118.63331444258802 0 0 0 0 -353.77863690685808 254.45006999714315 0 254.45006999714315 -103.53104647627583 0 0 0 0 273.69924311270006 196.93350133746389 0 196.93350133746389 118.35487618462321 0 0 0 0 362.24812199859298 174.09447408191039 0 174.09447408191039 51.399542006998786 0 0 0 0 361.72118725320615 176.76271461456224 0 176.76271461456224 166.52066763488369 0 0 0 0 449.51332359666412 210.53600691024258 0 210.53600691024258 72.513593340465377 0 0 0 0 355.18346445556381 106.37386552508542 0 106.37386552508542 122.84710745538678 0 0 0 0 452.40628140266926 178.69808744408056 0 178.69808744408056 137.37331319813893 0 0 0 0 266.55184528128302 114.0777502578635 0 114.0777502578635 147.36916394328227 0 0 0 0 325.37443432082728 161.59323853105832 0 161.59323853105832 181.26886843986176 0 0 0 0 270.74703272493025 104.05695046553654 0 104.05695046553654 150.56962299532097 0 0 0 0 292.03600104273937 198.70225089849964 0 198.70225089849964 242.67745708511939 0 0 0 0 121.93224467922118 80.81849184839848 0 80.81849184839848 164.77769997136238 0 0 0 0 112.35944640498747 197.52341640780787 0 197.52341640780787 36.594221783350804 0 0 0 0 184.93460997883813 159.85649104808726 0 159.85649104808726 67.499904908579992 0 0 0 0 20.679751874529757 188.73556020577598 0 188.73556020577598 74.747130116844346 0 0 0 0 33.254826653777855 127.78195591143231 0 127.78195591143231 110.57483522414623 0 0 0 0 332.27977116662078 114.8983296221827 0 114.8983296221827 129.99283872732212 0 0 0 0 219.8800349231642 55.631875586809201 0 55.631875586809201 129.02013384763268 0 0 0 0 252.88334118382772 146.95505135251733 0 146.95505135251733 76.430384752500686 0 0 0 0 428.22811513857596 33.037941584455439 0 33.037941584455439 101.24432629250441 0 0 0 0 88.541231204129787 210.74077544415491 0 210.74077544415491 105.30047181233145 0 0 0 0 -90.946235008630993 460.71624748324575 0 460.71624748324575 -129.17544042807913 0 0 0 0 -1202.4112372051945 106.73933367541395 0 106.73933367541395 431.65685361366741 0 0 0 0 3.9412117720417292 9.09151532598381 0 9.09151532598381 8.8785533746383862 0 0 0 0 496.93403350235576 609.52691129584082 0 609.52691129584082 -290.20521818465932 0 0 0 0 214.34301529117511 181.78127773572487 0 181.78127773572487 144.31556237772384 0 0 0 0 473.94362151459791 268.50789572626127 0 268.50789572626127 104.99882873927709 0 0 0 0 123.99814487580443 297.12781812971298 0 297.12781812971298 278.66171740587743 0 0 0 0 148.00848161472823 402.78649766365925 0 402.78649766365925 232.473471120873 0 0 0 0 121.91985305424896 388.26461618212124 0 388.26461618212124 233.10889009923267 0 0 0 0 114.9814928965643 398.05891010619962 0 398.05891010619962 235.57234315530513 0 0 0 0 245.02421198190859 544.13823925650013 0 544.13823925650013 161.26419457682641 0 0 0 0 208.60438767890446 401.93759589470574 0 401.93759589470574 203.52711716921476 0 0 0 0 182.3701144696679 421.92729442978452 0 421.92729442978452 219.24935668979015 0 0 0 0 170.32293601945275 384.41546767580439 0 384.41546767580439 229.00419358161162 0 0 0 0 651.91949562092486 571.99871913741845 0 571.99871913741845 52.465601481308113 0 0 0 0 -1233.040147128544 847.14605661146743 0 847.14605661146743 459.41594944331882 0 0 0 0 102.05271505110431 684.70859412439313 0 684.70859412439313 162.27821129989752 0 0 0 0 79.972878806642257 154.47084269231345 0 154.47084269231345 -102.65605718847291 0 0 0 0 -1535.7632864138286 372.90127571409357 0 372.90127571409357 234.78479371687718 0 0 0 0 -3.4304527063342647 9.1404485663384776 0 9.1404485663384776 -5.1996860198450463 0 0 0 0 -949.50092502377356 85.232476962836699 0 85.232476962836699 266.88441209385928 0 0 0 0 -1014.8679660483031 552.99977862497326 0 552.99977862497326 -69.638648229054525 0 0 0 0 183.07295605278341 -217.57227646561842 0 -217.57227646561842 154.96762847484206 0 0 0 0 4.7838045232625461 6.0785031384496904 0 6.0785031384496904 3.1528716944139461 0 0 0 0 -927.90770775909186 436.32708439029739 0 436.32708439029739 -232.0184651965028 0 0 0 0 74.448937774635851 362.40376784852197 0 362.40376784852197 385.03598180247718 0 0 0 0 -132.369818747713 206.25883538758353 0 206.25883538758353 471.71969696056112 0 0 0 0 -178.15817407390568 12.065440909031167 0 12.065440909031167 781.46287787976325 0 0 0 0 -175.48755410236481 -29.966273260475646 0 -29.966273260475646 272.62695237153093 0 0 0 0 -389.1131790298241 164.48662243604304 0 164.48662243604304 270.60763109941036 0 0 0 0 -524.53528578131954 -24.879465358736525 0 -24.879465358736525 380.65724758306533 0 0 0 0 -799.13123997284856 -121.23388977012473 0 -121.23388977012473 -606.33901137718749 0 0 0 0 -29.307596187179612 71.353260973521174 0 71.353260973521174 114.7978878966654 0 0 0 0 -1321.7300453210628 -424.70149618329833 0 -424.70149618329833 512.46051058391458 0 0 0 0 -5.7683532311364019 9.1660797952206963 0 9.1660797952206963 6.1176290977586909 0 0 0 0 102.03406338369678 33.473248815730585 0 33.473248815730585 -152.35568958397198 0 0 0 0 540.69244335898111 511.54764196158339 0 511.54764196158339 300.12701735793598 0 0 0 0 -16.976532121257804 85.100615580862808 0 85.100615580862808 88.436615859496968 0 0 0 0 -1318.5787151135626 411.65182924580841 0 411.65182924580841 234.43705394317658 0 0 0 0 -265.26740868807246 -98.382407360408251 0 -98.382407360408251 62.546210560269174 0 0 0 0 -261.57591234901338 247.53170064213919 0 247.53170064213919 313.18847633079281 0 0 0 0 -690.24750655067328 -156.68146165748658 0 -156.68146165748658 120.45802633608764 0 0 0 0 -144.01379080377774 49.803201360651656 0 49.803201360651656 -7.2090600308511057 0 0 0 0 -90.416948798985686 128.10000673534159 0 128.10000673534159 71.67510492214933 0 0 0 0 35.566473574196948 99.19069465229893 0 99.19069465229893 87.4455188131993 0 0 0 0 -594.18887158548023 342.44422864257103 0 342.44422864257103 -13.360714646492852 0 0 0 0 -160.42042479792144 179.1821652368053 0 179.1821652368053 125.08130629496372 0 0 0 0 -97.253438532134169 135.20332943096673 0 135.20332943096673 93.304834705340909 0 0 0 0 -546.16995509338449 310.63835396222566 0 310.63835396222566 123.20649701409275 0 0 0 0 -710.01225477813568 245.8811827921636 0 245.8811827921636 183.06348196358886 0 0 0 0 -560.12079901457764 255.03870451882176 0 255.03870451882176 -260.43958598269091 0 0 0 0 4.2725407863346874 11.967377349984275 0 11.967377349984275 3.9613198971322277 0 0 0 0 -994.48527458666649 146.20311723823215 0 146.20311723823215 -183.92413014413614 0 0 0 0 -721.30170781590277 51.874100655692018 0 51.874100655692018 30.70679530921916 0 0 0 0 -731.28245389857329 39.54642875287027 0 39.54642875287027 110.31011016413686 0 0 0 0 -720.38524666540616 -422.49315536321592 0 -422.49315536321592 554.07177336495079 0 0 0 0 -147.22220209118677 -67.99430971822585 0 -67.99430971822585 4.3379759904055391 0 0 0 0 -1086.6045686382713 -179.25534322931344 0 -179.25534322931344 407.96018867705425 0 0 0 0 -1049.745912831946 403.1683531553972 0 403.1683531553972 35.459977532707853 0 0 0 0 -1082.8993537449933 260.52903077731116 0 260.52903077731116 131.86920409754384 0 0 0 0 -978.24791063093289 97.648494350309193 0 97.648494350309193 176.37650669332652 0 0 0 0 -19.529871018060362 2.9344340376375442 0 2.9344340376375442 23.515493574586955 0 0 0 0 -289.3372083696886 -130.47000819944515 0 -130.47000819944515 108.16956703640608 0 0 0 0 -3.6112763891735113 13.322843155145961 0 13.322843155145961 -15.928304193928682 0 0 0 0 -721.65702747795149 369.00049787719036 0 369.00049787719036 272.56379869816737 0 0 0 0 -1444.3537478227227 281.57017039752827 0 281.57017039752827 314.9033709370251 0 0 0 0 531.91212855763297 726.16581803888221 0 726.16581803888221 -337.42685259487189 0 0 0 0 -504.92905880309263 1129.8102196142099 0 1129.8102196142099 3.8439940413081786 0 0 0 0 -42.456937442475464 156.89095098050166 0 156.89095098050166 -9.3525432616661419 0 0 0 0 -47.519716865645023 175.49877379900136 0 175.49877379900136 144.16647702663181 0 0 0 0 7.2211405379930511 209.8959464650452 0 209.8959464650452 47.010901760873821 0 0 0 0 -649.30545610318723 96.24957723977343 0 96.24957723977343 -37.320108099476784 0 0 0 0 -399.31242300593294 -482.37089124979684 0 -482.37089124979684 -1461.9928056357894 0 0 0 0 2.3892350723247091 -0.96191227328228024 0 -0.96191227328228024 -4.0855945182303799 0 0 0 0 938.00066431630694 25.486661320153871 0 25.486661320153871 -913.8206955898786 0 0 0 0 1027.2895094580017 196.98661688658467 0 196.98661688658467 -1148.9995684366731 0 0 0 0 1170.9156575468951 1046.8873340795835 0 1046.8873340795835 -991.24460329211433 0 0 0 0 787.22915327566443 1088.7157122476201 0 1088.7157122476201 172.75204561222927 0 0 0 0 -1.6356807235175808 6.2832944444277814 0 6.2832944444277814 -9.9212791976932806 0 0 0 0 -419.65478793152261 107.1264093731877 0 107.1264093731877 -11.302397246952751 0 0 0 0 -725.05748897478043 240.83706263886415 0 240.83706263886415 12.313315540421172 0 0 0 0 898.79432223101321 -95.876320924369793 0 -95.876320924369793 -824.92063450282149 0 0 0 0 150.5420373560919 -639.44137269525527 0 -639.44137269525527 -615.19865331322217 0 0 0 0 -1485.2306968595658 -359.60445754083776 0 -359.60445754083776 315.42945665186016 0 0 0 0 -716.64552312936576 568.23751840906334 0 568.23751840906334 -510.82706626114668 0 0 0 0 -1.418118662229972 -136.52646027006995 0 -136.52646027006995 -594.72637569240032 0 0 0 0 619.59944916621316 305.22980458020902 0 305.22980458020902 -441.39560812179116 0 0 0 0 628.28760858078385 370.69231971879253 0 370.69231971879253 -189.69518754555611 0 0 0 0 -188.57641263062396 319.49534474077882 0 319.49534474077882 -168.4210510867124 0 0 0 0 -734.31639065750642 456.80424970015883 0 456.80424970015883 -279.58908067564403 0 0 0 0 -955.13463355376734 685.21832144369546 0 685.21832144369546 -733.91583985046964 0 0 0 0 -520.17553885508096 603.18634556247343 0 603.18634556247343 -817.86688074281847 0 0 0 0 -303.91579541582905 133.25772448068165 0 133.25772448068165 -468.72065556420421 0 0 0 0 -1045.1097163899103 368.31641143961315 0 368.31641143961315 -554.8082455676049 0 0 0 0 -2044.6265916052143 1293.7295581970484 0 1293.7295581970484 -654.64742651644337 0 0 0 0 -1479.6305255471525 1734.3124897151465 0 1734.3124897151465 -1423.2743505035469 0 0 0 0 -5.3679339636165651 -4.702421165701935 0 -4.702421165701935 -6.1789772105748142 0 0 0 0 -78.922512063581962 -721.4340966152522 0 -721.4340966152522 435.80633081440465 0 0 0 0 -810.55198911202024 945.04975942699639 0 945.04975942699639 -1502.0362268368626 0 0 0 0 -89.769103598679067 173.07418453241917 0 173.07418453241917 76.657311241942807 0 0 0 0 63.621102251608917 94.5861875937143 0 94.5861875937143 68.70312167108672 0 0 0 0 -380.37792265854659 -40.504204068256513 0 -40.504204068256513 381.92564758796289 0 0 0 0 -43.842570304027277 -5.0038464510918743 0 -5.0038464510918743 9.9461843283062876 0 0 0 0 283.24062885820604 272.7073372398736 0 272.7073372398736 -54.253495282697259 0 0 0 0 -804.72902876231819 881.63084101908316 0 881.63084101908316 -1038.6742924305227 0 0 0 0 -944.64650805296424 990.06304373052149 0 990.06304373052149 -894.03308613566332 0 0 0 0 -810.05878954858053 1068.7350078805393 0 1068.7350078805393 -1050.2256500807998 0 0 0 0 -585.75911161268596 731.2938364408983 0 731.2938364408983 -866.49822410363231 0 0 0 0 -680.38144547604315 734.27726095735488 0 734.27726095735488 -670.02068899232836 0 0 0 0 -330.14750170573825 316.54993321583606 0 316.54993321583606 -547.60054542220496 0 0 0 0 -656.16015165593126 959.6616641928922 0 959.6616641928922 -1047.0306199209008 0 0 0 0 -573.69549054866366 831.50287726512397 0 831.50287726512397 -1145.0562272255484 0 0 0 0 -638.46283656408195 594.0907105610604 0 594.0907105610604 -800.63560327751475 0 0 0 0 -1278.4940314802807 1261.4195926539251 0 1261.4195926539251 -1151.6550579275354 0 0 0 0 23.17620400650776 181.2008138482488 0 181.2008138482488 -540.00505136317406 0 0 0 0 -300.06127456453396 -115.41525924927009 0 -115.41525924927009 66.590485751294182 0 0 0 0 -236.33080473852897 706.00151111697414 0 706.00151111697414 -930.19728697350365 0 0 0 0 -541.31012680969434 691.14214059129881 0 691.14214059129881 -703.86205267008336 0 0 0 0 426.4960550985852 96.64188676185222 0 96.64188676185222 -92.494550032584812 0 0 0 0 -28.715550902409632 5.9489647178305347 0 5.9489647178305347 3.0824314846481338 0 0 0 0 -20.870035851097782 93.107720741016237 0 93.107720741016237 142.88096467520882 0 0 0 0 -0.89816839145328231 10.414515369796788 0 10.414515369796788 4.860020444664201 0 0 0 0 -355.6690095802187 54.358125779101101 0 54.358125779101101 298.81582181356498 0 0 0 0 -483.76132771291304 376.90755129282479 0 376.90755129282479 -225.61072360631078 0 0 0 0 -205.1276303686609 79.48424438235088 0 79.48424438235088 -284.19282872085768 0 0 0 0 -2.5157492153027192 5.9906232513055215 0 5.9906232513055215 1.787335314174527 0 0 0 0 100.91000197925314 -370.16887185952692 0 -370.16887185952692 500.33572872720833 0 0 0 0 29.575014764617663 64.695953132348222 0 64.695953132348222 18.089714728985655 0 0 0 0 -317.75182427263644 87.729973441866605 0 87.729973441866605 118.01266472024145 0 0 0 0 50.046212916699005 84.878257356962422 0 84.878257356962422 -199.81199202929838 0 0 0 0 146.4485892400553 278.48469256408862 0 278.48469256408862 987.44595406884036 0 0 0 0 82.317945995368063 -85.642581766434887 0 -85.642581766434887 84.521870294352993 0 0 0 0 350.95616199527285 -107.15868423090433 0 -107.15868423090433 34.972223529439361 0 0 0 0 -151.54872921999777 175.5064147472367 0 175.5064147472367 -107.79684601299232 0 0 0 0 -168.80707357304345 316.48233785821867 0 316.48233785821867 -459.82090609586157 0 0 0 0 -24.313534471682374 2.8068620254743735 0 2.8068620254743735 2.8599427167142295 0 0 0 0 -419.1707556595793 824.50794840139861 0 824.50794840139861 -1376.3844194631683 0 0 0 0 -8.4846443887086593 -0.39471514001503749 0 -0.39471514001503749 -0.7401266107412674 0 0 0 0 -225.98462376304087 333.21606057368808 0 333.21606057368808 -257.82982733809331 0 0 0 0 -395.26633555575972 122.49749942903873 0 122.49749942903873 -35.684258610977849 0 0 0 0 -427.94840876734816 -167.81466640697181 0 -167.81466640697181 77.687540528537284 0 0 0 0 37.57541131117614 -19.608873225595744 0 -19.608873225595744 -124.59217547097796 0 0 0 0 610.79524671891704 61.118683496002632 0 61.118683496002632 -248.01488629354208 0 0 0 0 514.74607926100725 151.58624562436125 0 151.58624562436125 -175.42380642843727 0 0 0 0 -601.207093099747 -78.647154081208328 0 -78.647154081208328 133.15490470519364 0 0 0 0 -132.52746502689843 509.33139911266244 0 509.33139911266244 -234.8340587104758 0 0 0 0 148.76466036085344 133.91305854802818 0 133.91305854802818 -147.14053654603049 0 0 0 0 -714.10101313014729 527.9735228876425 0 527.9735228876425 128.12559376144054 0 0 0 0 -496.7110861555218 114.9169402804182 0 114.9169402804182 241.15190539115974 0 0 0 0 394.47935065023194 215.79024831397783 0 215.79024831397783 82.746631935315236 0 0 0 0 89.926754831489916 214.93528883727501 0 214.93528883727501 119.95584360863577 0 0 0 0 281.74699530852376 71.521057783784272 0 71.521057783784272 179.2733760561714 0 0 0 0 150.67320912328432 85.613723190785095 0 85.613723190785095 73.399234072589024 0 0 0 0 126.66650839154318 188.81803930169553 0 188.81803930169553 72.05091085889876 0 0 0 0 -12.419743636826752 178.80649581801845 0 178.80649581801845 52.197974233404238 0 0 0 0 -7.7693966197839472 136.81359288259773 0 136.81359288259773 88.909078744814906 0 0 0 0 89.281840306968661 181.08011814287238 0 181.08011814287238 74.82634369365951 0 0 0 0 106.408495280426 139.39178740937496 0 139.39178740937496 -40.87569357794564 0 0 0 0 -35.323275214264868 106.14366120050363 0 106.14366120050363 -3.0233831792575074 0 0 0 0 52.477682000724599 187.5998966472398 0 187.5998966472398 60.587618763926002 0 0 0 0 -260.61889290234103 609.18836343363546 0 609.18836343363546 -971.62630744171474 0 0 0 0 58.318121658417169 49.734569258368651 0 49.734569258368651 30.777607735603638 0 0 0 0 105.44388651658664 189.3377919607301 0 189.3377919607301 -28.568406891331506 0 0 0 0 67.624461191473529 119.79132179603766 0 119.79132179603766 -46.71849098153325 0 0 0 0 15.687844243496158 12.436473052343985 0 12.436473052343985 -11.797073359684333 0 0 0 0 267.70658418284438 78.394723157603948 0 78.394723157603948 -8.8481709488041815 0 0 0 0 19.382253349933308 98.212701605323673 0 98.212701605323673 -4.7499215007874227 0 0 0 0 407.42034810967743 -163.38359956592467 0 -163.38359956592467 -1.0626865069789346 0 0 0 0 -739.74974464887055 991.2935431939004 0 991.2935431939004 -754.46207314451385 0 0 0 0 -553.10764956565981 49.954418558831094 0 49.954418558831094 -55.194071485151653 0 0 0 0 -632.53072366275592 805.55674030084629 0 805.55674030084629 -648.29441422576201 0 0 0 0 -624.06270894204499 789.26352577567013 0 789.26352577567013 -652.17072178750345 0 0 0 0 -659.62806356565852 781.02817184671585 0 781.02817184671585 -651.97561797466187 0 0 0 0 -621.78346722037531 813.76744099103234 0 813.76744099103234 -646.34684594185637 0 0 0 0 -11.324645785323526 3.5038296360011572 0 3.5038296360011572 -0.21464447900369343 0 0 0 0 -229.48137715968187 393.84950725954695 0 393.84950725954695 894.01369657626583 0 0 0 0 -399.12529626025935 899.49288643713226 0 899.49288643713226 -1107.1506703771011 0 0 0 0 -731.8898441329784 666.44407413493889 0 666.44407413493889 802.87971783311514 0 0 0 0 -760.32866923983966 1119.6548022462885 0 1119.6548022462885 524.9257880527075 0 0 0 0 -155.67351499537472 1038.5733554965118 0 1038.5733554965118 -211.56426300129169 0 0 0 0 -388.08255644224118 364.77923232339162 0 364.77923232339162 545.39366826636251 0 0 0 0 -84.835169053985737 1326.8099574857624 0 1326.8099574857624 813.35655937290903 0 0 0 0 1360.1943496722586 1213.2630233791213 0 1213.2630233791213 122.19324825292279 0 0 0 0 685.79106296959799 -258.9721305297644 0 -258.9721305297644 12.342836117568368 0 0 0 0 864.60992950984655 -89.384017667184708 0 -89.384017667184708 -158.77237424552732 0 0 0 0 26.98920101220898 13.12364820355802 0 13.12364820355802 5.9814652990307593 0 0 0 0 212.55426279221865 1995.6462999979922 0 1995.6462999979922 932.57319893012755 0 0 0 0 -218.01362943604363 87.438348552591833 0 87.438348552591833 164.62321868217077 0 0 0 0 89.220023904321366 219.09869429672895 0 219.09869429672895 141.25565024620681 0 0 0 0 1371.0801968083251 -1381.3881266832541 0 -1381.3881266832541 -506.96802106474934 0 0 0 0 -832.69930375279364 -45.599091094675714 0 -45.599091094675714 291.06959560100222 0 0 0 0 -312.72342555860996 562.82286325813175 0 562.82286325813175 339.46746040774451 0 0 0 0 89.115216412824196 213.63391855819808 0 213.63391855819808 144.11836495830849 0 0 0 0 -18.018191672730609 187.93997895333086 0 187.93997895333086 -8.8304373858882172 0 0 0 0 -123.36150384193752 107.13588501454797 0 107.13588501454797 77.341689730397775 0 0 0 0 -107.3948584903992 399.66469427560514 0 399.66469427560514 217.99713756354322 0 0 0 0 -541.89166600065073 172.66046338442175 0 172.66046338442175 123.95726052219834 0 0 0 0 -166.16289157277788 623.24050079334484 0 623.24050079334484 -83.105935611572932 0 0 0 0 -157.24669041172592 884.68836115883789 0 884.68836115883789 569.88838755413599 0 0 0 0 -59.268435512127326 556.07667668193153 0 556.07667668193153 617.33648456275114 0 0 0 0 -59.698931515857112 551.37351719252547 0 551.37351719252547 570.513696288348 0 0 0 0 13.64726004899785 617.93071190075443 0 617.93071190075443 249.73145864185062 0 0 0 0 21.198235671472503 645.09826024328504 0 645.09826024328504 264.87959589022284 0 0 0 0 -425.52670106961159 616.84148870982972 0 616.84148870982972 341.72620891233964 0 0 0 0 -405.15910558389442 742.71630776651 0 742.71630776651 483.80234352577827 0 0 0 0 -457.74079365066063 564.63425783127332 0 564.63425783127332 450.44098090552143 0 0 0 0 -1155.056948838348 170.1914564791623 0 170.1914564791623 230.60681463613582 0 0 0 0 -858.26834542724464 943.96081153793421 0 943.96081153793421 380.2336864566023 0 0 0 0 254.06347387470305 1104.5077221819956 0 1104.5077221819956 54.829345381243911 0 0 0 0 782.08273125559208 452.98443480667265 0 452.98443480667265 9.6779816889611538 0 0 0 0 523.23144154023612 569.37656438996055 0 569.37656438996055 -39.678238488762872 0 0 0 0 1085.3725615569856 824.93430342280772 0 824.93430342280772 148.41829485382914 0 0 0 0 992.45324847876327 916.74401160724665 0 916.74401160724665 424.24726667128562 0 0 0 0 1029.4421039635781 232.54181290320412 0 232.54181290320412 431.15285102197959 0 0 0 0 -8.9345954783186698 6.7187703292266576 0 6.7187703292266576 -4.3840884597271099 0 0 0 0 -2656.6377808567049 -434.78320186275232 0 -434.78320186275232 362.8601153940981 0 0 0 0 -1522.1299288075679 629.01292943022781 0 629.01292943022781 -16.867645455669845 0 0 0 0 -369.00596032211615 7.5848942751144932 0 7.5848942751144932 175.98244341404643 0 0 0 0 289.36238523707289 603.26372101762536 0 603.26372101762536 35.73222943971632 0 0 0 0 389.9291448664444 647.29017197812209 0 647.29017197812209 319.28542537646354 0 0 0 0 16.848630128494278 91.938942730274704 0 91.938942730274704 -30.620212592903385 0 0 0 0 79.752983101775143 42.437685430315497 0 42.437685430315497 21.353415060805901 0 0 0 0 357.53537496217177 239.06559974911215 0 239.06559974911215 -258.14041793224169 0 0 0 0 71.531039945792557 219.4570734786295 0 219.4570734786295 116.8528784013594 0 0 0 0 42.790758602466667 281.69715466440175 0 281.69715466440175 -104.18575606944796 0 0 0 0 -1.972124188709131 141.30065009276132 0 141.30065009276132 -1.858480140712345 0 0 0 0 -38.00677654692845 276.39080513402951 0 276.39080513402951 177.30152221363096 0 0 0 0 -217.31397022490273 29.634154415012745 0 29.634154415012745 -90.017711449443595 0 0 0 0 -597.47185280548001 -88.239273661667539 0 -88.239273661667539 -317.76388893800322 0 0 0 0 -277.79377643149928 231.10999815072864 0 231.10999815072864 0.31248943300306564 0 0 0 0 -412.52700642976561 350.32202237303136 0 350.32202237303136 -535.49798670643941 0 0 0 0 -374.82515292067546 110.7233458185292 0 110.7233458185292 -54.111491864554409 0 0 0 0 -578.40788864323986 349.94881159853685 0 349.94881159853685 530.0518110591147 0 0 0 0 -708.91325042668177 385.43239428872948 0 385.43239428872948 662.63198419001128 0 0 0 0 -381.98019480006769 527.16442417378857 0 527.16442417378857 -301.08880409385711 0 0 0 0 -707.16521816268505 601.38947510447906 0 601.38947510447906 314.82078434449795 0 0 0 0 -220.55962272293982 323.97760836720408 0 323.97760836720408 -106.20600776414386 0 0 0 0 -289.53834562604607 284.49903664211888 0 284.49903664211888 242.08974323832808 0 0 0 0 -391.57515075413539 278.95866703347383 0 278.95866703347383 491.73209896646586 0 0 0 0 -526.0839160903779 450.59699940598512 0 450.59699940598512 315.97375107256812 0 0 0 0 -118.62353295162029 491.2087881513944 0 491.2087881513944 387.88662797135476 0 0 0 0 14.587240393302636 358.32350983430115 0 358.32350983430115 300.76075760713138 0 0 0 0 471.37593849832774 661.4126281642566 0 661.4126281642566 399.15727059993515 0 0 0 0 -203.1582239883337 357.29915186925666 0 357.29915186925666 752.81961845650221 0 0 0 0 -195.97249727064627 111.07692493655122 0 111.07692493655122 267.62521916457627 0 0 0 0 2.91117966929761 2.5246522397575006 0 2.5246522397575006 1.9821855282700938 0 0 0 0 287.93004607730836 504.64339390867644 0 504.64339390867644 560.73700506122259 0 0 0 0 380.57398278205073 347.27563611288497 0 347.27563611288497 446.22584921722591 0 0 0 0 582.77187034048984 403.5167596242909 0 403.5167596242909 144.80845700320788 0 0 0 0 538.69184789562132 401.06486738344393 0 401.06486738344393 146.24701483347235 0 0 0 0 401.18315248852014 327.4116396055615 0 327.4116396055615 128.00949254746956 0 0 0 0 637.43908907563309 318.15274839166159 0 318.15274839166159 127.19501982338261 0 0 0 0 618.67554148243653 312.68387912651087 0 312.68387912651087 192.42763497692067 0 0 0 0 1060.6802314558299 322.54311784362653 0 322.54311784362653 176.63648743380327 0 0 0 0 857.52182659626123 470.99850188803248 0 470.99850188803248 475.20287878392992 0 0 0 0 235.15348611671652 209.92901581639671 0 209.92901581639671 367.60028328030057 0 0 0 0 434.21486216172343 75.906363719921501 0 75.906363719921501 270.69938934123275 0 0 0 0 -20.604147974383523 226.28604800615062 0 226.28604800615062 317.90028976874601 0 0 0 0 378.87144071905641 347.51423224184691 0 347.51423224184691 285.89560880350473 0 0 0 0 -26.464018767592279 170.29325874029701 0 170.29325874029701 387.58441639342345 0 0 0 0 -583.94055009212752 203.79708981726071 0 203.79708981726071 578.16939261857624 0 0 0 0 -305.24468670460919 74.343480304898549 0 74.343480304898549 470.57939836651349 0 0 0 0 -319.39268603271921 276.38390912722389 0 276.38390912722389 491.55575915665122 0 0 0 0 98.56316009965667 -124.70318290330033 0 -124.70318290330033 235.02266629041696 0 0 0 0 -428.51824681228027 121.11505124944961 0 121.11505124944961 467.36168173892156 0 0 0 0 -852.24282161095471 108.64676617533405 0 108.64676617533405 593.04693802518887 0 0 0 0 -489.9573426744173 32.471786407491891 0 32.471786407491891 405.96466531422629 0 0 0 0 -771.26262922649039 314.77048579495022 0 314.77048579495022 468.49729373029913 0 0 0 0 -733.75675777447759 246.8165996121752 0 246.8165996121752 685.13616134745189 0 0 0 0 -588.16486241691018 188.89654267434526 0 188.89654267434526 613.57906298384478 0 0 0 0 -1173.3413933379052 382.11538782560092 0 382.11538782560092 -335.95712736870337 0 0 0 0 -3555.4049207947683 -208.3207892099017 0 -208.3207892099017 -349.20621385177219 0 0 0 0 -1584.1409086036474 205.74606493506963 0 205.74606493506963 185.66883560727001 0 0 0 0 -1094.1189804454334 9.3135178172024098 0 9.3135178172024098 430.80513624793821 0 0 0 0 -929.94572571861499 344.96551940029894 0 344.96551940029894 201.53179036115762 0 0 0 0 -388.74598992700339 -44.358252481280942 0 -44.358252481280942 43.978571259562159 0 0 0 0 -372.07472208121908 28.405606333231844 0 28.405606333231844 361.35460762924049 0 0 0 0 177.33078428359295 -97.891170859013073 0 -97.891170859013073 -1226.0086914386993 0 0 0 0 -1462.0395328083105 -101.92902481381861 0 -101.92902481381861 114.49823399132583 0 0 0 0 1287.4104505734613 87.783811552985753 0 87.783811552985753 -168.95369227460469 0 0 0 0 356.79424670121807 513.45831448281388 0 513.45831448281388 25.172213154111887 0 0 0 0 527.01130056462716 -116.60045137853012 0 -116.60045137853012 -187.38692128212824 0 0 0 0 982.14332785474835 558.42347802311087 0 558.42347802311087 302.38151505414862 0 0 0 0 1137.9874886750185 431.02083993675478 0 431.02083993675478 355.29388291954092 0 0 0 0 669.84161648778536 2.6199914008757332 0 2.6199914008757332 290.40227783224691 0 0 0 0 845.41715969966026 372.67242358392832 0 372.67242358392832 805.01432659567217 0 0 0 0 2075.7536973900278 945.49402045142051 0 945.49402045142051 504.58179709219439 0 0 0 0 17.090014739154242 29.847461644651133 0 29.847461644651133 -81.721167161181427 0 0 0 0 1790.0767184630131 1062.3767471677029 0 1062.3767471677029 102.14074895136582 0 0 0 0 193.50225139342365 395.44320327598689 0 395.44320327598689 151.09306492872929 0 0 0 0 -227.49738358866307 -82.693029084170121 0 -82.693029084170121 548.39936647074501 0 0 0 0 -230.47675123549561 52.714733221082497 0 52.714733221082497 48.982700842927443 0 0 0 0 -46.3879668923718 53.447887300413669 0 53.447887300413669 131.08088370202313 0 0 0 0 -13.524763087795975 56.52452388616345 0 56.52452388616345 8.0539964221698739 0 0 0 0 123.50508571308455 379.20746283645713 0 379.20746283645713 -1583.1912593942452 0 0 0 0 86.158485922118416 314.64058289163222 0 314.64058289163222 -1015.7043635562441 0 0 0 0 405.48911200735165 321.6620815676215 0 321.6620815676215 -1108.8962387495558 0 0 0 0 -2.7913944156977095 36.99377560167072 0 36.99377560167072 -95.71829247033844 0 0 0 0 994.80290849936137 1887.000269947137 0 1887.000269947137 494.96658740685962 0 0 0 0 -754.97527591504331 874.8406872476553 0 874.8406872476553 -95.033271501102718 0 0 0 0 813.72215832028087 1040.8999200945796 0 1040.8999200945796 -1153.6040659291684 0 0 0 0 -1048.9887866659701 1149.6708420604264 0 1149.6708420604264 396.41282221009169 0 0 0 0 -774.49855787017441 779.643956402615 0 779.643956402615 -11.405273939250037 0 0 0 0 -3350.0786996727402 1660.3438153454044 0 1660.3438153454044 -266.71002420056175 0 0 0 0 -766.01727111607488 648.01649567848881 0 648.01649567848881 -3438.6492321307451 0 0 0 0 286.51833855181758 147.66993758934404 0 147.66993758934404 115.04973244877328 0 0 0 0 263.36712887282192 405.21431693682825 0 405.21431693682825 -318.77657875251316 0 0 0 0 142.20470538857626 230.61651532210817 0 230.61651532210817 -23.1602277735401 0 0 0 0 148.63889801801997 327.5415947481597 0 327.5415947481597 23.176593560176116 0 0 0 0 261.78418144582974 236.10809085678738 0 236.10809085678738 96.310768572322559 0 0 0 0 198.32626465818612 389.82476154393225 0 389.82476154393225 215.82187434994557 0 0 0 0 178.7829933300427 151.96240124746487 0 151.96240124746487 78.451859565378982 0 0 0 0 212.83164331089938 355.07487738136479 0 355.07487738136479 108.11241765902378 0 0 0 0 473.97862123110463 299.01832660429864 0 299.01832660429864 201.44526227808092 0 0 0 0 208.45882270098082 313.48839094986033 0 313.48839094986033 464.96005395154498 0 0 0 0 -745.80591368096066 494.0407078105236 0 494.0407078105236 296.87408410220633 0 0 0 0 -46.680573438514102 31.229273737244711 0 31.229273737244711 -27.386303000137104 0 0 0 0 166.78978101427492 415.37653107060942 0 415.37653107060942 423.23833290539915 0 0 0 0 419.4454928570085 585.86221105059803 0 585.86221105059803 306.74665432880283 0 0 0 0 -965.04966170534681 -312.13793943307337 0 -312.13793943307337 176.77696144991205 0 0 0 0 -1210.071266797604 -251.65783658349392 0 -251.65783658349392 336.0001527818622 0 0 0 0 -1130.3883511030581 -386.66220761086151 0 -386.66220761086151 165.35106603166059 0 0 0 0 -1386.3523887486081 -317.44942829115462 0 -317.44942829115462 326.94657221913803 0 0 0 0 -763.63427399397915 813.22925093991944 0 813.22925093991944 347.88728160344908 0 0 0 0 -8.2197645400185877 28.882119693418758 0 28.882119693418758 -5.8575018331699766 0 0 0 0 192.39446548791602 501.32232782221399 0 501.32232782221399 883.16167029489225 0 0 0 0 2.3106240802899478 17.91616297182108 0 17.91616297182108 7.2930593415114799 0 0 0 0 -9.7776676018396387 44.267490036578948 0 44.267490036578948 95.863244457077712 0 0 0 0 -2085.1885088618146 492.2773104276057 0 492.2773104276057 410.11910204200194 0 0 0 0 582.43216054689037 622.01523528150665 0 622.01523528150665 -1019.4148490580337 0 0 0 0 413.41226728582478 332.11504259844151 0 332.11504259844151 -599.94962783343362 0 0 0 0 -2522.1713658416847 -880.20872524141305 0 -880.20872524141305 131.20874711942633 0 0 0 0 -12.424756577638561 12.023973803946475 0 12.023973803946475 -12.555547088769032 0 0 0 0 -1714.3554121812704 -765.71410328501042 0 -765.71410328501042 845.63925468678644 0 0 0 0 -775.72345624186346 1017.5876545853944 0 1017.5876545853944 68.697418211319018 0 0 0 0 680.00995519853677 -192.99502942535128 0 -192.99502942535128 108.40902938153886 0 0 0 0 -501.87384553789161 -1037.58576016187 0 -1037.58576016187 -489.35490446970107 0 0 0 0 -1053.2865067626844 -345.28905110205233 0 -345.28905110205233 1097.8466167169936 0 0 0 0 -129.16807828379467 124.8270301062237 0 124.8270301062237 36.411741295881285 0 0 0 0 -239.45797515827871 568.13851622994116 0 568.13851622994116 -1323.4663930148126 0 0 0 0 -98.105244415837717 120.21587704114515 0 120.21587704114515 26.832625878308885 0 0 0 0 -633.49753173839417 584.34632382911514 0 584.34632382911514 -251.46103798925469 0 0 0 0 -212.02765155748057 329.93956846004585 0 329.93956846004585 837.03502599558851 0 0 0 0 220.11556189032854 782.23173474580835 0 782.23173474580835 -683.95631888490516 0 0 0 0 187.12006596263382 512.30814380519178 0 512.30814380519178 -218.43361219247163 0 0 0 0 -719.4833379604388 760.49928066282519 0 760.49928066282519 68.602265528883436 0 0 0 0 97.662335856046411 468.02634387838771 0 468.02634387838771 -79.253694472550706 0 0 0 0 24.909394968213746 374.57415566463169 0 374.57415566463169 -123.00559117937519 0 0 0 0 -181.34022845768595 388.08122935158872 0 388.08122935158872 -83.236510328802979 0 0 0 0 388.71483752827044 1286.2916925294194 0 1286.2916925294194 -598.23016306472709 0 0 0 0 550.8918751560268 155.01323185134243 0 155.01323185134243 -170.05557209177096 0 0 0 0 -1193.2879272290156 356.84868222598743 0 356.84868222598743 56.991736480580585 0 0 0 0 373.62379824947857 108.42985240507551 0 108.42985240507551 -188.60571741771128 0 0 0 0 -52.557800431634575 150.89577430719271 0 150.89577430719271 35.399178036111486 0 0 0 0 327.01728416602054 257.97580823788667 0 257.97580823788667 89.320399651772277 0 0 0 0 168.1740841848532 168.37388444725366 0 168.37388444725366 26.921405484916249 0 0 0 0 55.182484520832674 196.30958726932747 0 196.30958726932747 -15.787413776506206 0 0 0 0 18.804464908993324 150.1540105451968 0 150.1540105451968 -41.882589936239896 0 0 0 0 83.17191987960031 145.3804282943363 0 145.3804282943363 -76.404739698337551 0 0 0 0 -42.434299576694983 80.947414036584433 0 80.947414036584433 26.670600528573516 0 0 0 0 164.27396457677605 144.50400665993948 0 144.50400665993948 -48.263119705297868 0 0 0 0 165.19106546225157 154.47717839829602 0 154.47717839829602 -3.5797806610207772 0 0 0 0 112.18594233291515 154.09013057353513 0 154.09013057353513 18.830027580741444 0 0 0 0 51.836090646478091 133.47712983663632 0 133.47712983663632 -13.618132996023178 0 0 0 0 -810.59121688069899 116.1858038129958 0 116.1858038129958 87.297426750068553 0 0 0 0 56.894774593722914 17.190372732687933 0 17.190372732687933 -13.846396856440549 0 0 0 0 312.5338951793965 19.987801719304116 0 19.987801719304116 -62.862336043071991 0 0 0 0 -35.244407260484877 110.33711653358478 0 110.33711653358478 34.503680456533402 0 0 0 0 -24.416645583202069 37.290032488708619 0 37.290032488708619 -13.357670928350871 0 0 0 0 215.92694064783336 293.30936247857608 0 293.30936247857608 163.6623435128713 0 0 0 0 275.04145118133965 249.88988903888094 0 249.88988903888094 136.10943097056588 0 0 0 0 35.770128982258129 35.157805534489668 0 35.157805534489668 -74.516319653270813 0 0 0 0 385.20844889109139 213.37420542749169 0 213.37420542749169 28.975395959161688 0 0 0 0 184.44524950863706 24.894307871065394 0 24.894307871065394 57.902973431344435 0 0 0 0 165.3093816203891 264.59133726080472 0 264.59133726080472 113.74625875953643 0 0 0 0 217.60795490456803 281.18791502830572 0 281.18791502830572 687.50580248481128 0 0 0 0 287.39521472252693 108.83754212850636 0 108.83754212850636 277.37409222437418 0 0 0 0 459.05965539485624 312.62301582694636 0 312.62301582694636 -273.36854336663964 0 0 0 0 145.8221639393596 520.83072841516696 0 520.83072841516696 485.68062170798657 0 0 0 0 -0.13124746941434751 3.9280180795980471 0 3.9280180795980471 -20.448431990540335 0 0 0 0 258.2065171224458 251.87627165528102 0 251.87627165528102 250.39589126277133 0 0 0 0 378.3943707448434 571.65910184838503 0 571.65910184838503 634.63324834001833 0 0 0 0 4.7882602719094791 5.1792919588154405 0 5.1792919588154405 -10.394067849177389 0 0 0 0 183.26172152717845 187.5938227311708 0 187.5938227311708 -25.251544982544146 0 0 0 0 220.0729008603339 235.10986913379747 0 235.10986913379747 -73.362886399496347 0 0 0 0 216.9484261572743 293.30138015802368 0 293.30138015802368 120.79762591379404 0 0 0 0 222.99793165252959 160.64203154754068 0 160.64203154754068 -121.5928953469338 0 0 0 0 35.599460918572731 147.96380414505256 0 147.96380414505256 52.196283101453446 0 0 0 0 89.34602757116015 45.740272995828192 0 45.740272995828192 -49.614969957147856 0 0 0 0 251.64130450576999 164.53954053953203 0 164.53954053953203 61.954591594840167 0 0 0 0 128.63942438258101 64.23636765476283 0 64.23636765476283 -9.8134228920718698 0 0 0 0 8.1891380053036187 32.878695713798876 0 32.878695713798876 23.32940891514238 0 0 0 0 191.41196641182103 252.01990517721606 0 252.01990517721606 158.60470278665889 0 0 0 0 98.225556236400735 81.230210692585388 0 81.230210692585388 15.746375046612229 0 0 0 0 -36.460263435857634 29.699458320743318 0 29.699458320743318 21.672216153489217 0 0 0 0 170.7734439504311 139.71827154337007 0 139.71827154337007 76.044078187256673 0 0 0 0 31.446100022768384 42.325316509832305 0 42.325316509832305 -1.3524343672827115 0 0 0 0 169.51083429580399 189.85016926381456 0 189.85016926381456 55.58782775857253 0 0 0 0 220.67391501285601 242.21068027470756 0 242.21068027470756 219.00734545680461 0 0 0 0 38.558934775900525 51.859746007783542 0 51.859746007783542 29.352902126745903 0 0 0 0 431.00334455183929 300.16639215651958 0 300.16639215651958 -10.843754162327969 0 0 0 0 -65.206867434189917 66.951627728551557 0 66.951627728551557 15.187148727039755 0 0 0 0 273.581875267133 191.45908814837094 0 191.45908814837094 -38.168849275496086 0 0 0 0 187.50594250408176 18.434203850287304 0 18.434203850287304 -5.0032959142117761 0 0 0 0 346.52101540293688 216.3508131582239 0 216.3508131582239 15.37684597054249 0 0 0 0 577.0815713682241 195.8437811871554 0 195.8437811871554 49.2750895741774 0 0 0 0 60.825955584597111 147.46339884962279 0 147.46339884962279 45.971977449903932 0 0 0 0 -95.112437838834012 182.62035543779712 0 182.62035543779712 35.795524435867264 0 0 0 0 -124.77974597818138 59.059048340712707 0 59.059048340712707 -49.932747488448513 0 0 0 0 160.70839944653926 149.75980832580535 0 149.75980832580535 0.36891896357701626 0 0 0 0 237.31914398657136 163.99535785035187 0 163.99535785035187 -28.582479766791948 0 0 0 0 49.800645390165847 32.270189759232807 0 32.270189759232807 -17.773119431710626 0 0 0 0 178.77458102883611 109.42511495688086 0 109.42511495688086 6.3998709661427711 0 0 0 0 281.40121478429137 148.29083385714694 0 148.29083385714694 54.679516567401151 0 0 0 0 -81.596234706194082 139.96814626217019 0 139.96814626217019 156.39447044378903 0 0 0 0 355.2933770034897 125.74322416413088 0 125.74322416413088 46.193981633354269 0 0 0 0 290.46733571371078 231.30402454201248 0 231.30402454201248 96.492277677596576 0 0 0 0 213.39507996421708 180.57320974269169 0 180.57320974269169 66.202825489490351 0 0 0 0 63.155508757549626 165.03907932955019 0 165.03907932955019 92.494510176546754 0 0 0 0 217.8672464924166 352.25124603376025 0 352.25124603376025 101.56305780606635 0 0 0 0 377.12569169409471 269.29723132210711 0 269.29723132210711 101.7957202545108 0 0 0 0 48.782288860058785 45.600739019351039 0 45.600739019351039 -30.725381123212117 0 0 0 0 626.97073751547032 477.32618353086764 0 477.32618353086764 -117.72763517161366 0 0 0 0 61.911054888129115 35.637637804152405 0 35.637637804152405 9.6330825447494703 0 0 0 0 363.23437324486986 163.30438914742263 0 163.30438914742263 121.16276397140973 0 0 0 0 339.30765323202286 224.12119941899073 0 224.12119941899073 25.828650985800778 0 0 0 0 286.35320621609389 173.28539714554609 0 173.28539714554609 235.88695269155869 0 0 0 0 -16.249378409765185 12.312850603026977 0 12.312850603026977 -9.6842827903490161 0 0 0 0 267.75697894976111 123.79094228441863 0 123.79094228441863 11.7072543046379 0 0 0 0 314.74490605846631 143.48265151440819 0 143.48265151440819 -14.182432282730588 0 0 0 0 -64.854566302885345 73.264607194706571 0 73.264607194706571 10.89215380469409 0 0 0 0 -111.14969876542455 -12.273348036633251 0 -12.273348036633251 97.250403791578719 0 0 0 0 257.2893121764896 201.22495060283109 0 201.22495060283109 57.392558378014655 0 0 0 0 236.36916572374776 -60.87437195669645 0 -60.87437195669645 -11.564169206241786 0 0 0 0 -7.2933729129301028 8.9646514632489183 0 8.9646514632489183 -3.6814199764740181 0 0 0 0 271.58366777487754 221.88815016330773 0 221.88815016330773 137.15877610161988 0 0 0 0 280.64444285428908 157.52220628364012 0 157.52220628364012 -66.929049256063081 0 0 0 0 40.473513478083987 123.03388350993464 0 123.03388350993464 478.19513519529573 0 0 0 0 174.67981596037862 421.08387029523874 0 421.08387029523874 -43.847257439897021 0 0 0 0 612.35574253029336 38.31822174475019 0 38.31822174475019 260.99687965046542 0 0 0 0 53.117564839423721 174.87318871810839 0 174.87318871810839 -113.15930371321519 0 0 0 0 349.28595901946392 -336.01505773198733 0 -336.01505773198733 285.69905357324751 0 0 0 0 -236.92308322013923 63.682534755774213 0 63.682534755774213 113.76588785390595 0 0 0 0 -7.0995821220889255 5.875056375313239 0 5.875056375313239 3.7775385786999038 0 0 0 0 314.48820888832597 685.14773843505554 0 685.14773843505554 -424.18170493670914 0 0 0 0 63.827388353427523 136.41635864837008 0 136.41635864837008 430.38522073194326 0 0 0 0 705.93267864144582 1086.3943236443306 0 1086.3943236443306 36.199510966205708 0 0 0 0 -3.4002280067077848 0.46809487693564833 0 0.46809487693564833 4.497083377637594 0 0 0 0 315.96191758579516 -653.85010431116825 0 -653.85010431116825 -274.09328597806598 0 0 0 0 658.99004672211413 71.577623723143915 0 71.577623723143915 16.330962012720192 0 0 0 0 -15.552341404248576 14.123330383249181 0 14.123330383249181 -35.15564616612108 0 0 0 0 838.68214082169743 238.03854623698862 0 238.03854623698862 -411.37389810881905 0 0 0 0 -178.02795742916396 421.35149916698765 0 421.35149916698765 -55.573740015763178 0 0 0 0 302.09432104831376 156.71033583231883 0 156.71033583231883 26.004689250998126 0 0 0 0 632.61167726787608 390.70689528499952 0 390.70689528499952 -87.846424990567357 0 0 0 0 432.10787460854544 415.27744945240602 0 415.27744945240602 25.604036839917171 0 0 0 0 231.79718896515988 -428.57545935155576 0 -428.57545935155576 296.52889086637515 0 0 0 0 634.92678574007778 556.23997710894355 0 556.23997710894355 243.66624653942563 0 0 0 0 -7.6718212459757353 -2.2205346638665731 0 -2.2205346638665731 4.9126504397853665 0 0 0 0 112.45857206136861 206.75642998261355 0 206.75642998261355 4.4282886165747186 0 0 0 0 339.82836048257013 553.94668017280401 0 553.94668017280401 15.206785352573206 0 0 0 0 -436.88900029216893 395.5242266548521 0 395.5242266548521 167.0270561755824 0 0 0 0 -587.6113573978364 41.729276604310144 0 41.729276604310144 -294.41944635997788 0 0 0 0 -542.03260216906347 306.0621989710562 0 306.0621989710562 94.419459260840085 0 0 0 0 -858.03107586787519 -142.70228738777678 0 -142.70228738777678 56.847506381960557 0 0 0 0 -361.34433464062749 40.152567873134103 0 40.152567873134103 191.61619336688454 0 0 0 0 -172.29301349878733 367.0934329656111 0 367.0934329656111 239.91161716874558 0 0 0 0 364.20583938253594 310.71189375701033 0 310.71189375701033 -206.08532726821431 0 0 0 0 -72.180849503913322 85.466700763284564 0 85.466700763284564 -7.2364787364037682 0 0 0 0 -255.8279022969291 -200.96557194559682 0 -200.96557194559682 48.177553938628989 0 0 0 0 -118.66703944011533 206.92317215756884 0 206.92317215756884 -72.577582690675627 0 0 0 0 -68.707763025916279 78.670672322427578 0 78.670672322427578 1.7253832222851031 0 0 0 0 316.93289206907752 229.04384684898105 0 229.04384684898105 -65.446709258547344 0 0 0 0 297.1189925919025 735.6299964997379 0 735.6299964997379 161.73673030214559 0 0 0 0 -49.200508547124628 73.712571432246477 0 73.712571432246477 192.45098418308407 0 0 0 0 -86.238559690961125 114.7798346506078 0 114.7798346506078 21.494468966596941 0 0 0 0 779.6863261870385 41.907683635636204 0 41.907683635636204 -86.750379931468615 0 0 0 0 527.92487196556704 437.75723386300137 0 437.75723386300137 -174.56444451173593 0 0 0 0 470.14135514297595 126.81783565214482 0 126.81783565214482 -303.05631829827325 0 0 0 0 33.310037664236802 15.833464814839459 0 15.833464814839459 7.6122450655031599 0 0 0 0 106.15494701338139 137.95589173347616 0 137.95589173347616 98.227348790274846 0 0 0 0 -90.809907877277226 105.54429403307643 0 105.54429403307643 35.96487645657453 0 0 0 0 200.41925726117915 24.500350057682226 0 24.500350057682226 109.3903477201975 0 0 0 0 258.28504200193856 194.54111405730509 0 194.54111405730509 151.97058313221351 0 0 0 0 -1191.9293137867317 1146.4218002086545 0 1146.4218002086545 -291.524495064652 0 0 0 0 343.94951142522041 -186.44092287142121 0 -186.44092287142121 -77.555668101216725 0 0 0 0 390.17673296180146 905.61899222677312 0 905.61899222677312 -965.65842241271821 0 0 0 0 -615.71095613780199 133.29973068769323 0 133.29973068769323 -149.16324208184233 0 0 0 0 236.43268430467288 89.758332788332154 0 89.758332788332154 -350.46143236781063 0 0 0 0 1.0575086084427312 367.91377445227772 0 367.91377445227772 -485.64012132656353 0 0 0 0 -91.643492254370358 97.176767831595498 0 97.176767831595498 -368.23820034062373 0 0 0 0 -4.492565739172278 402.35938116022953 0 402.35938116022953 -235.49991591291655 0 0 0 0 -836.39954540798499 -15.032601458087811 0 -15.032601458087811 -61.664879864540126 0 0 0 0 -341.65109293191927 451.94033500138539 0 451.94033500138539 -149.68084781136713 0 0 0 0 -154.82409282065055 96.007616005510499 0 96.007616005510499 272.45438340304827 0 0 0 0 -5.8093132883277718 10.909843571683567 0 10.909843571683567 -7.7396239644663325 0 0 0 0 -2380.5580290800281 -220.65975204913957 0 -220.65975204913957 206.38429101476322 0 0 0 0 2160.2332862131298 1047.3142810399895 0 1047.3142810399895 645.85652165018837 0 0 0 0 -660.27081375062698 -194.9191107138322 0 -194.9191107138322 -332.47334350194433 0 0 0 0 229.86008692919859 211.45118756091324 0 211.45118756091324 -111.98218591451587 0 0 0 0 116.12462683099875 2194.7167817556856 0 2194.7167817556856 306.40252201180556 0 0 0 0 -25.264863002557036 41.466196233039852 0 41.466196233039852 -33.873680101751233 0 0 0 0 33.439850117596478 24.755716210854331 0 24.755716210854331 -76.11490965154519 0 0 0 0 218.10774372509331 417.98709938160027 0 417.98709938160027 -219.7386922418591 0 0 0 0 271.3479156595713 -74.350574494186731 0 -74.350574494186731 -242.38214334410441 0 0 0 0 -405.2549183802621 77.478419242368545 0 77.478419242368545 79.484444468325819 0 0 0 0 233.54111937782727 -450.1540161895573 0 -450.1540161895573 1476.6010213971895 0 0 0 0 1870.2371031984585 -108.59699837599328 0 -108.59699837599328 -339.63618271770247 0 0 0 0 141.65011843097454 19.249293442397175 0 19.249293442397175 256.27353233673784 0 0 0 0 197.87698319161427 -206.67809836425295 0 -206.67809836425295 625.31803039999795 0 0 0 0 315.24015274902195 544.75508901607054 0 544.75508901607054 -309.01825752462901 0 0 0 0 -155.86994497803971 604.36132546196313 0 604.36132546196313 824.29635770021741 0 0 0 0 -41.369850598421181 334.4250994328977 0 334.4250994328977 1394.8071175539126 0 0 0 0 9.5435943952019215 2.8175295663514959 0 2.8175295663514959 -36.300989038682232 0 0 0 0 42.749076439641982 68.437164257829608 0 68.437164257829608 -73.603162096776288 0 0 0 0 249.77815186887165 157.5448653735366 0 157.5448653735366 166.32583921636979 0 0 0 0 54.68864705087617 46.696220117300982 0 46.696220117300982 -16.947857629740611 0 0 0 0 484.02781083143782 67.45529088297917 0 67.45529088297917 -1139.8410882303142 0 0 0 0 40.197286749724299 23.557385456646443 0 23.557385456646443 -34.355545963626355 0 0 0 0 71.508419277547901 58.668374319725217 0 58.668374319725217 12.83368495692261 0 0 0 0 45.108727915598649 36.892372685440023 0 36.892372685440023 -61.784628692148303 0 0 0 0 25.750784051284427 5.1766751096292865 0 5.1766751096292865 -43.727035038813483 0 0 0 0 46.87669825845694 36.412713118567709 0 36.412713118567709 -79.095642444612622 0 0 0 0 32.461149726819713 -1176.8040862106718 0 -1176.8040862106718 487.81746128225495 0 0 0 0 35.88546460835633 -12.119956528900879 0 -12.119956528900879 -59.30491905476741 0 0 0 0 -1211.2754284453695 1034.6297621212143 0 1034.6297621212143 1877.7739212916058 0 0 0 0 73.847819971800959 51.491773150712142 0 51.491773150712142 -101.77917933608578 0 0 0 0 62.078972142859129 48.696171774427057 0 48.696171774427057 7.820538743166253 0 0 0 0 98.48807790427432 30.434364444188304 0 30.434364444188304 -42.706334119505755 0 0 0 0 108.52461067090917 99.394013738812646 0 99.394013738812646 58.854961220218684 0 0 0 0 49.457079556039957 48.483406968044761 0 48.483406968044761 25.0556049647534 0 0 0 0 216.52248161398893 142.43377976201009 0 142.43377976201009 128.73824622097891 0 0 0 0 158.771823718626 114.93444046148889 0 114.93444046148889 -19.565592232223452 0 0 0 0 92.499731388437795 326.96690208929795 0 326.96690208929795 -119.01159441960772 0 0 0 0 273.92906048231816 204.93386945320526 0 204.93386945320526 -69.631781189556932 0 0 0 0 81.847196658716712 93.435602673263929 0 93.435602673263929 319.03078055774677 0 0 0 0 -106.75666654342785 320.90764377289452 0 320.90764377289452 91.473715068073943 0 0 0 0 5.6565177284576862 50.468321876306192 0 50.468321876306192 -8.8980224565158323 0 0 0 0 37.948959347752208 21.793487994004437 0 21.793487994004437 -40.263460622659821 0 0 0 0 -273.01516603041091 150.74998617585516 0 150.74998617585516 -20.071176761848619 0 0 0 0 40.474269576864259 22.03357971088036 0 22.03357971088036 11.405980029989792 0 0 0 0 -6.7676824472541455 43.995452198576317 0 43.995452198576317 9.3604281818229538 0 0 0 0 329.40405441078474 185.42637853953056 0 185.42637853953056 149.77270070748636 0 0 0 0 293.34270246046071 222.23049425476347 0 222.23049425476347 152.40301639668178 0 0 0 0 -48.907377939827072 68.653612373040545 0 68.653612373040545 55.3708019019017 0 0 0 0 282.45996861773529 106.17645095629814 0 106.17645095629814 133.5521664407861 0 0 0 0 -19.087287775003027 -11.760669719708659 0 -11.760669719708659 3.7097117063707685 0 0 0 0 134.49131987101464 0.71712668334475893 0 0.71712668334475893 274.58917428566929 0 0 0 0 287.901407078587 184.42262787640402 0 184.42262787640402 99.570085392231704 0 0 0 0 163.45890173103544 151.00430906100519 0 151.00430906100519 269.19366662448147 0 0 0 0 94.87683914141715 59.684713829765613 0 59.684713829765613 -54.660475388523665 0 0 0 0 187.31421974256227 153.45609900568161 0 153.45609900568161 -30.700056447571114 0 0 0 0 129.59913660628808 75.286331009123387 0 75.286331009123387 32.731891423667548 0 0 0 0 148.57096796792757 96.868503869482083 0 96.868503869482083 155.2653266758789 0 0 0 0 204.61961688251176 65.35082040711859 0 65.35082040711859 70.185856413701913 0 0 0 0 156.52954210923735 163.97285217349088 0 163.97285217349088 107.44076085590495 0 0 0 0 186.48956598472432 174.70283719279905 0 174.70283719279905 110.90235543076051 0 0 0 0 120.38560742856419 75.082468315580726 0 75.082468315580726 -31.395752108359879 0 0 0 0 28.240751946177863 102.55940376678564 0 102.55940376678564 74.021200287188776 0 0 0 0 184.71997979039747 187.86761318077333 0 187.86761318077333 60.790760123389191 0 0 0 0 127.90402145450935 61.973764666188799 0 61.973764666188799 2.3508541322735255 0 0 0 0 104.96482271755667 130.91027095645404 0 130.91027095645404 61.662983550108038 0 0 0 0 59.568611978838504 102.84958170631397 0 102.84958170631397 51.248658663620574 0 0 0 0 75.172331804717487 36.661290394468779 0 36.661290394468779 -49.611104544890509 0 0 0 0 174.92583186891534 189.9167731616908 0 189.9167731616908 52.450282242727553 0 0 0 0 78.456578851079826 32.512131736541136 0 32.512131736541136 -46.705976172077982 0 0 0 0 260.19955645051232 122.27133970800787 0 122.27133970800787 19.845881846180419 0 0 0 0 122.69036257201515 144.35687023003265 0 144.35687023003265 59.522499445422 0 0 0 0 322.00645866862396 229.23264730007941 0 229.23264730007941 67.378487714435323 0 0 0 0 231.11992260467014 120.67131672705727 0 120.67131672705727 137.24227584357141 0 0 0 0 237.13488924738704 146.22114826041798 0 146.22114826041798 70.121580681545311 0 0 0 0 193.11726785973519 46.332846191749013 0 46.332846191749013 -38.817219520307845 0 0 0 0 6.1900984963181553 13.015142528362606 0 13.015142528362606 6.4855768785151895 0 0 0 0 7.2615255185883143 83.940021336449718 0 83.940021336449718 -11.957454686926212 0 0 0 0 97.949454438870106 74.48462524875977 0 74.48462524875977 47.606114767095875 0 0 0 0 134.27162885120651 128.64767229627796 0 128.64767229627796 -64.577723707305267 0 0 0 0 85.200633326639945 26.939402199888718 0 26.939402199888718 -24.153000822174363 0 0 0 0 -6.8844196186485789 46.29964269366215 0 46.29964269366215 11.198551855960886 0 0 0 0 287.32844534973265 204.53226464912586 0 204.53226464912586 33.236758778046351 0 0 0 0 206.55904092855417 195.75238352183078 0 195.75238352183078 108.8377063274238 0 0 0 0 122.60417082690401 124.37640247666423 0 124.37640247666423 -44.966445349513378 0 0 0 0 272.11876900890434 -56.597582210919882 0 -56.597582210919882 173.77557565059396 0 0 0 0 252.82374937153509 229.55602074684793 0 229.55602074684793 83.582096771773649 0 0 0 0 7.2417864588205703 145.88882529037073 0 145.88882529037073 308.59962937397358 0 0 0 0 397.95057361241925 169.70088823944388 0 169.70088823944388 -34.282022558094468 0 0 0 0 -1.7287760431208454 2.7065336284947392 0 2.7065336284947392 4.5655573947973096 0 0 0 0 339.72711851940767 -102.51335439523245 0 -102.51335439523245 -1.7480194338131696 0 0 0 0 73.427656244182799 119.44097956427504 0 119.44097956427504 23.404114365432179 0 0 0 0 -22.042305366963774 12.368866820939729 0 12.368866820939729 188.20847164958832 0 0 0 0 83.192367905430729 205.86687594547402 0 205.86687594547402 298.4888136696718 0 0 0 0 157.59995754031843 98.486473529454088 0 98.486473529454088 -169.79015704536141 0 0 0 0 65.952638323909923 -91.752512430539355 0 -91.752512430539355 2.8953458946198225 0 0 0 0 128.02366639238608 167.76650182084995 0 167.76650182084995 -31.938925691663826 0 0 0 0 78.029381994214418 60.007836453376513 0 60.007836453376513 1.8853533798537683 0 0 0 0 73.509181478998016 51.068938829800999 0 51.068938829800999 -26.043696421209205 0 0 0 0 72.407048848477643 75.891206194206461 0 75.891206194206461 -24.281510627566604 0 0 0 0 80.019640797583634 76.162406891417049 0 76.162406891417049 -26.207961289343075 0 0 0 0 79.237797451600272 91.504510283535637 0 91.504510283535637 -51.384993575993576 0 0 0 0 66.577987646890051 66.522241525870413 0 66.522241525870413 -25.195234338360024 0 0 0 0 98.655339649681991 30.439651746753952 0 30.439651746753952 -104.12665425422165 0 0 0 0 62.523493342861002 141.25870033976753 0 141.25870033976753 -167.30020695540588 0 0 0 0 90.74927982986992 115.14681542725884 0 115.14681542725884 -142.15518206587876 0 0 0 0 20.059255604057796 43.240539531543192 0 43.240539531543192 -87.419306175826591 0 0 0 0 92.025821519358942 98.019990083608718 0 98.019990083608718 -51.572161281641456 0 0 0 0 81.428745961300592 74.426870788374799 0 74.426870788374799 -78.686721236517769 0 0 0 0 72.863507316012601 52.789082315960911 0 52.789082315960911 -39.307712138303486 0 0 0 0 82.197100631296053 65.622314421074407 0 65.622314421074407 -53.213238003081642 0 0 0 0 184.25889539398486 225.04641621408518 0 225.04641621408518 -43.121829405397875 0 0 0 0 440.23932474981302 370.37749741585867 0 370.37749741585867 -1.2504434153670445 0 0 0 0 -145.64012302320771 159.15042790475127 0 159.15042790475127 316.55904596097389 0 0 0 0 990.06217692403879 221.70030995683919 0 221.70030995683919 -191.86488084460143 0 0 0 0 -153.04093884819849 44.440775139089965 0 44.440775139089965 145.34615666460013 0 0 0 0 148.5244102872166 393.07574558540364 0 393.07574558540364 260.55021717568161 0 0 0 0 -0.22202989864833977 -1.7434809051505482 0 -1.7434809051505482 3.9061311778986578 0 0 0 0 502.01520657085894 189.48679710514261 0 189.48679710514261 462.60405390692176 0 0 0 0 -31.661296487840211 35.406071201888125 0 35.406071201888125 15.822765655617729 0 0 0 0 55.958550106719485 111.65176768644596 0 111.65176768644596 27.610958332003065 0 0 0 0 65.126666923712037 119.62113684980432 0 119.62113684980432 23.717598794260994 0 0 0 0 302.73483792644947 110.65852515625011 0 110.65852515625011 67.927603670425015 0 0 0 0 -35.965425999882264 27.022604500427008 0 27.022604500427008 5.7455759347506046 0 0 0 0 -29.211940528683044 52.0772957563604 0 52.0772957563604 -37.921593704770203 0 0 0 0 -68.393103914881067 53.149865859100828 0 53.149865859100828 -37.169586418309336 0 0 0 0 -122.45287867301886 95.211194527044427 0 95.211194527044427 88.960818547551753 0 0 0 0 -140.4796065056471 140.75107918410504 0 140.75107918410504 -7.2794211645668838 0 0 0 0 -106.08701304929127 74.299846178051666 0 74.299846178051666 31.460754297939275 0 0 0 0 -144.39738229389695 -0.87575585442391457 0 -0.87575585442391457 -114.43042364451685 0 0 0 0 382.14377731347486 698.21411659970181 0 698.21411659970181 649.39689504870694 0 0 0 0 266.11524256683515 -107.16476501945726 0 -107.16476501945726 -946.136858310143 0 0 0 0 506.36183573358721 898.62201754364651 0 898.62201754364651 477.05494501040084 0 0 0 0 -15.053662936764596 7.6898265161667609 0 7.6898265161667609 -5.2596885259653163 0 0 0 0 728.0866116884572 909.51812735979911 0 909.51812735979911 65.901594878610922 0 0 0 0 488.14448656679451 718.44495657140214 0 718.44495657140214 277.85738091426902 0 0 0 0 432.45604705003643 733.52312501790584 0 733.52312501790584 296.7671024374722 0 0 0 0 4392.428760372175 4572.5944718947867 0 4572.5944718947867 636.7506395256496 0 0 0 0 931.98541651816777 769.69943783087365 0 769.69943783087365 -1238.6922103549005 0 0 0 0 -107.15974560365794 346.34294996751123 0 346.34294996751123 152.59006923020934 0 0 0 0 -133.06264703373745 238.94027944951085 0 238.94027944951085 -153.25957508984357 0 0 0 0 -330.34637748980276 78.063681613471999 0 78.063681613471999 138.56519486141042 0 0 0 0 11.468675068594008 14.856980234535058 0 14.856980234535058 22.39400909679631 0 0 0 0 -229.03841428266787 184.54439932344394 0 184.54439932344394 140.3066565633053 0 0 0 0 -268.64964864439389 238.04713638254907 0 238.04713638254907 131.80590842349557 0 0 0 0 -310.62523371688076 182.89539723824419 0 182.89539723824419 245.99409483128693 0 0 0 0 638.50870819562806 -226.61233785936565 0 -226.61233785936565 -162.30931411831989 0 0 0 0 -233.32674529685391 376.42924650208442 0 376.42924650208442 474.633615233819 0 0 0 0 -221.30038078316647 85.416141978872474 0 85.416141978872474 154.15184688898808 0 0 0 0 -104.55595533975429 165.25141506790533 0 165.25141506790533 130.94354059590114 0 0 0 0 -87.799928385048588 107.91167083352047 0 107.91167083352047 83.555963839986362 0 0 0 0 -220.90835605672692 140.86414251712267 0 140.86414251712267 167.29663435363909 0 0 0 0 607.12568064175139 387.98609132115234 0 387.98609132115234 -353.40709220491408 0 0 0 0 377.2551501779526 -5.6973490663222037 0 -5.6973490663222037 -111.57259142890689 0 0 0 0 -516.50830192996364 32.065011010941816 0 32.065011010941816 329.24576595412327 0 0 0 0 -38.878588910969412 176.10883599596198 0 176.10883599596198 65.92213094985965 0 0 0 0 12.762503938327427 205.03030931223475 0 205.03030931223475 -2.3826361186147551 0 0 0 0 43.750631245945385 191.99177148322195 0 191.99177148322195 39.955101789451817 0 0 0 0 561.10159276823833 227.14122650868376 0 227.14122650868376 -305.0229057591132 0 0 0 0 -24.488550324211246 126.08534565160517 0 126.08534565160517 -317.97157612904994 0 0 0 0 -263.01099203034028 -199.2946375097672 0 -199.2946375097672 -162.0688834117027 0 0 0 0 -87.681292248274985 210.06819783318497 0 210.06819783318497 225.62393282668199 0 0 0 0 812.84940600851405 707.56262294048793 0 707.56262294048793 -55.214219295419753 0 0 0 0 458.39072942328494 368.70832621632144 0 368.70832621632144 -311.2622419911786 0 0 0 0 -1231.4595694885065 -1632.2953578333836 0 -1632.2953578333836 -2154.6760116273072 0 0 0 0 -112.54928395009483 649.15570280850807 0 649.15570280850807 183.6997371968173 0 0 0 0 30.840350478741939 156.30886588590027 0 156.30886588590027 132.40898232638517 0 0 0 0 14.767666004824349 73.707116015269918 0 73.707116015269918 -57.569067385055746 0 0 0 0 347.08101050201913 673.93580303812632 0 673.93580303812632 825.92771825536329 0 0 0 0 -1134.8460510241857 -413.9658855495145 0 -413.9658855495145 548.2034004740708 0 0 0 0 1044.6191184203235 920.69719606457147 0 920.69719606457147 97.387944809219334 0 0 0 0 4.6814990669445251 671.34725753278326 0 671.34725753278326 716.83894045912893 0 0 0 0 -1202.7250524595729 1489.2325388384415 0 1489.2325388384415 -671.3901754556282 0 0 0 0 -27.260870885419052 36.193044848909373 0 36.193044848909373 -45.644458901985445 0 0 0 0 57.212908746444398 132.22254200729964 0 132.22254200729964 82.459859496606441 0 0 0 0 -402.02482325540041 -48.434881499037147 0 -48.434881499037147 395.59107669210061 0 0 0 0 689.59323123202921 118.5338988316762 0 118.5338988316762 -346.10131343745161 0 0 0 0 -382.31459775920666 35.809151613371796 0 35.809151613371796 -149.20425714070734 0 0 0 0 -837.67525615224076 504.99942904662385 0 504.99942904662385 377.49864712462295 0 0 0 0 -98.240169903445349 475.87282706261612 0 475.87282706261612 -93.417899302759906 0 0 0 0 1441.4011939888151 1175.6218756033741 0 1175.6218756033741 -494.43878997574211 0 0 0 0 419.18865969133913 3.8122117195744067 0 3.8122117195744067 241.86203578160348 0 0 0 0 -62.056600428499223 151.89487260114402 0 151.89487260114402 48.066357302333927 0 0 0 0 0.78433664032490924 269.92998988434556 0 269.92998988434556 71.475689735263586 0 0 0 0 -41.471858746268481 162.25910238938741 0 162.25910238938741 -152.04478801379446 0 0 0 0 -217.63673263268902 32.703795886649459 0 32.703795886649459 -21.160792258306174 0 0 0 0 308.7693623895766 9.0635610413519316 0 9.0635610413519316 98.484018706352799 0 0 0 0 231.3815149630077 88.425402210428729 0 88.425402210428729 75.173816048089066 0 0 0 0 15.885199999325778 281.25142242565198 0 281.25142242565198 -86.995003872016241 0 0 0 0 15.115499141955297 263.89894920463121 0 263.89894920463121 -50.749255338085277 0 0 0 0 25.970283859633209 50.58089173130486 0 50.58089173130486 60.724214177866997 0 0 0 0 32.119661077458872 43.549724965863959 0 43.549724965863959 -6.9929688294175776 0 0 0 0 16.357594372874715 19.836365374780399 0 19.836365374780399 14.258538206446531 0 0 0 0 70.872142632055784 51.311788244805939 0 51.311788244805939 -3.122308525867993 0 0 0 0 144.08228526280698 16.524146127485437 0 16.524146127485437 51.324786276542 0 0 0 0 55.470673804967461 115.05472974295517 0 115.05472974295517 17.533017711828904 0 0 0 0 240.93127361750976 29.70741340474342 0 29.70741340474342 15.938650294468971 0 0 0 0 194.97940454065429 13.704108567922958 0 13.704108567922958 42.459720304977964 0 0 0 0 -792.79282721804339 193.25103695116923 0 193.25103695116923 -3.0555980198550969 0 0 0 0 190.13396724271081 113.85594084086188 0 113.85594084086188 24.139499053300824 0 0 0 0 99.860772226441441 57.150746031209366 0 57.150746031209366 -14.157333091001661 0 0 0 0 -843.72476276074303 270.3613309780776 0 270.3613309780776 4.9471700713256723 0 0 0 0 -1035.3875568511721 436.37299120242824 0 436.37299120242824 12.457062416186091 0 0 0 0 -1028.5951057049824 436.13751469462295 0 436.13751469462295 -33.848692717991071 0 0 0 0 -680.77607904502656 177.83914736541919 0 177.83914736541919 150.40768324758392 0 0 0 0 8.7219259518069521 47.098711559674257 0 47.098711559674257 -8.5690455131661452 0 0 0 0 93.998896955294185 27.228216334726312 0 27.228216334726312 -73.324334905730211 0 0 0 0 104.79127326715752 51.942865278819227 0 51.942865278819227 -40.878012051638507 0 0 0 0 53.572138521620218 48.716746626072563 0 48.716746626072563 5.5983111348359671 0 0 0 0 71.570791611648303 11.64073219162583 0 11.64073219162583 -16.495279703107443 0 0 0 0 -462.14867575623794 1440.4103793205286 0 1440.4103793205286 -522.68589315997087 0 0 0 0 136.56622151422926 802.29651541021303 0 802.29651541021303 -466.04031992878299 0 0 0 0 -616.292346548973 427.723144644071 0 427.723144644071 -215.76506562225404 0 0 0 0 -367.34161015032441 296.23980308614409 0 296.23980308614409 -164.93776329647517 0 0 0 0 -709.34939982170181 219.6311003366427 0 219.6311003366427 -56.002906681795139 0 0 0 0 -835.8235887731098 516.35781231409783 0 516.35781231409783 -170.73317494714865 0 0 0 0 -922.99033695540857 285.92636493573082 0 285.92636493573082 48.635621656838339 0 0 0 0 -960.85133598718676 419.0648352142598 0 419.0648352142598 -29.425139485741965 0 0 0 0 -959.00979853794138 607.24999538037468 0 607.24999538037468 -324.55911339819431 0 0 0 0 -974.59533039882081 505.79632073524408 0 505.79632073524408 -157.99069743853761 0 0 0 0 -849.64236577258271 758.63103928549754 0 758.63103928549754 -340.03104515979066 0 0 0 0 -783.98916168083088 477.85080239584204 0 477.85080239584204 -150.94523175366339 0 0 0 0 -1129.6268790806348 1040.1431952940216 0 1040.1431952940216 -284.21609527879627 0 0 0 0 -753.37372989541473 1084.7521439368502 0 1084.7521439368502 -286.62044447922381 0 0 0 0 -797.65112380409846 989.92108196047775 0 989.92108196047775 -475.27038952956627 0 0 0 0 -545.18979084322928 638.88452367557329 0 638.88452367557329 -293.70469197354396 0 0 0 0 -713.85341798008449 504.75079029686458 0 504.75079029686458 -207.86420106803416 0 0 0 0 -12.241230976506102 0.51702591233151907 0 0.51702591233151907 8.7659489025217567 0 0 0 0 -1160.6375511066508 648.77808689160156 0 648.77808689160156 -364.76899944867182 0 0 0 0 -934.34792911704426 632.79835846215428 0 632.79835846215428 -638.36326124580228 0 0 0 0 -1478.092793862299 1256.9568311727926 0 1256.9568311727926 -897.92212109431421 0 0 0 0 -1125.3407945856452 618.86454449253506 0 618.86454449253506 -197.17515757106594 0 0 0 0 -1066.315320796828 751.73703602043679 0 751.73703602043679 -337.50679134168422 0 0 0 0 -6.6451460905414024 1.1010999791816971 0 1.1010999791816971 5.3199936344749972 0 0 0 0 -484.33170422035619 19.309389728761744 0 19.309389728761744 316.82888260993059 0 0 0 0 -458.45461963259459 317.85970387352836 0 317.85970387352836 -90.76688785396982 0 0 0 0 -616.83696292439708 465.17837058896839 0 465.17837058896839 74.071972884194111 0 0 0 0 101.34609252348855 25.897167410148541 0 25.897167410148541 -25.475573901028838 0 0 0 0 123.31005054968773 45.496209948127216 0 45.496209948127216 -49.247030690137763 0 0 0 0 3.5624267465629895 21.600655785345886 0 21.600655785345886 -38.077014896061314 0 0 0 0 -928.38396435282266 511.33940260490635 0 511.33940260490635 -465.72151553885487 0 0 0 0 93.270340890812804 42.352140141993004 0 42.352140141993004 -40.895332742802566 0 0 0 0 36.894191692293091 48.774755720981631 0 48.774755720981631 -32.748532930793658 0 0 0 0 -1356.7242379614136 538.82576781051739 0 538.82576781051739 -96.912690047553042 0 0 0 0 -1629.6303441168129 571.63936905398441 0 571.63936905398441 -72.962959496682743 0 0 0 0 145.64574272251593 32.354731728824845 0 32.354731728824845 -27.004762461348946 0 0 0 0 10.508655707819344 -1.7229213228492881 0 -1.7229213228492881 -18.736588727901108 0 0 0 0 90.124133412434276 73.452729865204674 0 73.452729865204674 -100.5399903980142 0 0 0 0 240.25458888087906 -121.94735672313254 0 -121.94735672313254 1.423785753606353 0 0 0 0 -7.5858390280328365 -6.2115151111399314 0 -6.2115151111399314 0.85281143354757205 0 0 0 0 142.53088450962559 -177.22842736158782 0 -177.22842736158782 -23.267216937994817 0 0 0 0 -86.508794292083621 166.31538630477371 0 166.31538630477371 -257.93201415348449 0 0 0 0 446.32911246110643 -418.12028390870546 0 -418.12028390870546 66.365895060884213 0 0 0 0 1102.5979964540006 -147.44491683569868 0 -147.44491683569868 -347.58261727602803 0 0 0 0 866.17327308586437 813.66888411328182 0 813.66888411328182 49.756468145409599 0 0 0 0 -673.62089761348398 355.44807402626611 0 355.44807402626611 -36.369786820076115 0 0 0 0 -211.46647931817643 462.20782935900206 0 462.20782935900206 -326.71088009714731 0 0 0 0 665.89389462610768 411.1337694816757 0 411.1337694816757 -732.99921297669061 0 0 0 0 380.18241500996635 -13.11007458261156 0 -13.11007458261156 -297.85016430543328 0 0 0 0 320.46175999178604 32.259704240204883 0 32.259704240204883 -326.32905534980819 0 0 0 0 148.56744429484365 165.81741542910459 0 165.81741542910459 -221.90328305368166 0 0 0 0 67.07934748753668 61.619770892848749 0 61.619770892848749 -11.420013978614691 0 0 0 0 191.76968029710679 120.33080453370349 0 120.33080453370349 -174.08798901521368 0 0 0 0 8.8228368117888323 10.237603664336064 0 10.237603664336064 -5.2670825152900989 0 0 0 0 -316.27345378235987 166.9575777895152 0 166.9575777895152 16.406313019891968 0 0 0 0 145.46898399735886 193.62276120772913 0 193.62276120772913 -147.81711015023757 0 0 0 0 45.447448132009143 64.884352121082202 0 64.884352121082202 -24.883700647431326 0 0 0 0 -167.11626536415133 63.337512179066835 0 63.337512179066835 79.345760432537645 0 0 0 0 80.161305420575445 75.536126682745817 0 75.536126682745817 -105.14223235023383 0 0 0 0 59.112186969779941 81.215572726119717 0 81.215572726119717 -54.535331126768142 0 0 0 0 79.296316131144522 101.91372987386058 0 101.91372987386058 -46.495732877156115 0 0 0 0 87.753168791097778 93.05793299076322 0 93.05793299076322 -47.309761299075035 0 0 0 0 38.159016585606878 89.663928402413148 0 89.663928402413148 45.727214235041174 0 0 0 0 137.80546875436085 28.295346536324359 0 28.295346536324359 -12.993012695485959 0 0 0 0 17.697706980958017 5.699745276081444 0 5.699745276081444 0.53815470043525693 0 0 0 0 5.4953031980421656 117.89065313058381 0 117.89065313058381 -16.351727999717696 0 0 0 0 85.894420156721026 62.156044887262397 0 62.156044887262397 20.700023879471701 0 0 0 0 89.661261521843244 62.923823235916615 0 62.923823235916615 -6.7099778996426238 0 0 0 0 10.128077827398076 -4.1715912792742813 0 -4.1715912792742813 -21.989300054532805 0 0 0 0 -2.9113589464395773 59.719931364816148 0 59.719931364816148 -3.5709327154909261 0 0 0 0 75.913320310533891 94.919021895140759 0 94.919021895140759 43.901401180613902 0 0 0 0 160.60343651570565 -35.477494707178266 0 -35.477494707178266 -148.02752216250519 0 0 0 0 55.213520241561667 43.236732677648419 0 43.236732677648419 -18.300386078426754 0 0 0 0 137.56564495382918 58.913463891774882 0 58.913463891774882 20.83642491844148 0 0 0 0 53.446347388258346 47.092227170738624 0 47.092227170738624 -24.287705766502768 0 0 0 0 53.479812699625391 59.561275518564997 0 59.561275518564997 10.71928406903578 0 0 0 0 38.632465381067142 37.95028873046931 0 37.95028873046931 -22.180083891171932 0 0 0 0 85.125134333758979 35.989479224386741 0 35.989479224386741 -114.8039533093106 0 0 0 0 13.867260036534503 24.354739210232481 0 24.354739210232481 -14.348514926202938 0 0 0 0 20.869809155585244 158.79431346067577 0 158.79431346067577 -133.89640987128405 0 0 0 0 175.87540200576768 83.030927717132727 0 83.030927717132727 -144.32313873554085 0 0 0 0 104.73917194770183 -23.934363513952121 0 -23.934363513952121 -38.745391141626897 0 0 0 0 -19.760545077052029 -5.0721807701959847 0 -5.0721807701959847 2.2729912877710348 0 0 0 0 -82.207362725312123 700.60560323085519 0 700.60560323085519 -1873.7285375312931 0 0 0 0 -755.32662964376505 1293.3700415270432 0 1293.3700415270432 -939.02048146817833 0 0 0 0 -1891.1944024378754 -440.44332405585737 0 -440.44332405585737 1096.5753229675611 0 0 0 0 1.3982247025568313 2.4208228984845164 0 2.4208228984845164 3.9259303967555752 0 0 0 0 -194.22139879706083 1390.0992496485123 0 1390.0992496485123 -2040.4939112468855 0 0 0 0 -1083.444199417303 -80.686084986664355 0 -80.686084986664355 666.46894998016069 0 0 0 0 -1514.2347660508967 650.97799794763705 0 650.97799794763705 31.612219508882845 0 0 0 0 -928.73765578721941 406.81806719681481 0 406.81806719681481 116.40603235556046 0 0 0 0 -929.42542238738679 424.04136356953677 0 424.04136356953677 -280.22949112456809 0 0 0 0 -11.725026425572992 45.559205097964494 0 45.559205097964494 -79.407865730533047 0 0 0 0 285.63715539897021 -292.46737096237484 0 -292.46737096237484 -96.360729168256512 0 0 0 0 -41.576181978207387 393.99420002060288 0 393.99420002060288 -203.01850315154297 0 0 0 0 -633.61238879166922 707.80901941101911 0 707.80901941101911 -162.21570682752645 0 0 0 0 7.19427214411553 1539.0379662586165 0 1539.0379662586165 252.77001308375839 0 0 0 0 -11.631262770848963 39.082217629765992 0 39.082217629765992 -88.495726207751886 0 0 0 0 -606.3380717166001 -140.99275581757684 0 -140.99275581757684 -831.37238747595984 0 0 0 0 -453.20166875235736 367.97196678734326 0 367.97196678734326 -1043.2123372882052 0 0 0 0 2.9319843775883783 379.59622362935625 0 379.59622362935625 -799.87609036808226 0 0 0 0 -322.48418093760847 29.913780140828749 0 29.913780140828749 -262.83431010192726 0 0 0 0 -365.76165162850521 365.59899701655195 0 365.59899701655195 -979.20168381140684 0 0 0 0 -23.150652500707984 121.4691060194978 0 121.4691060194978 -75.166770290654483 0 0 0 0 -75.019302105531096 93.69407159423281 0 93.69407159423281 -789.82447082390718 0 0 0 0 155.24507704221469 161.05520235855511 0 161.05520235855511 -1165.0174370628811 0 0 0 0 105.00133471974186 121.80798552989017 0 121.80798552989017 -378.44514350255486 0 0 0 0 12.820928127199295 328.46840406238789 0 328.46840406238789 -599.25894194142893 0 0 0 0 -31.752316172045539 110.98780293883198 0 110.98780293883198 -49.999861155362225 0 0 0 0 -31.587593732377229 40.544167273070798 0 40.544167273070798 -18.219259160890005 0 0 0 0 -128.302701637469 349.54482953458501 0 349.54482953458501 356.2014530216984 0 0 0 0 54.861034283152549 140.39375806426688 0 140.39375806426688 -319.99337303619177 0 0 0 0 -99.090755102981348 207.49805549874145 0 207.49805549874145 -175.20191872185751 0 0 0 0 -749.62960731636849 1086.7343256326712 0 1086.7343256326712 -17.989812798798084 0 0 0 0 -52.346459957552725 350.90822586744616 0 350.90822586744616 -998.22739499402815 0 0 0 0 -187.38591502350755 279.93729745918972 0 279.93729745918972 -226.81415954533441 0 0 0 0 632.48416431356964 386.73743540074975 0 386.73743540074975 -218.40525074847392 0 0 0 0 -17.843160915779006 84.199856330897916 0 84.199856330897916 -73.987943386414827 0 0 0 0 773.94617902298342 679.30997782519262 0 679.30997782519262 316.25198707220261 0 0 0 0 511.26153245480964 877.57784557620471 0 877.57784557620471 420.7239568801042 0 0 0 0 447.52119416990899 830.31561304663774 0 830.31561304663774 423.74171731413389 0 0 0 0 -148.08805295420461 1199.9892576498241 0 1199.9892576498241 2540.9549813151098 0 0 0 0 -21.847672658768687 22.585997347428275 0 22.585997347428275 -5.2653096789996425 0 0 0 0 -135.77937427497818 182.8593021510751 0 182.8593021510751 -66.429085077426862 0 0 0 0 -3.14597759068036 49.430892364594939 0 49.430892364594939 -25.758531284969763 0 0 0 0 493.27990830641647 763.84435885146377 0 763.84435885146377 514.51927812102076 0 0 0 0 -175.22794091236574 150.34838639212103 0 150.34838639212103 -744.45177390674507 0 0 0 0 -530.22788471755484 469.28726345442919 0 469.28726345442919 -1030.9256763952726 0 0 0 0 -168.62198075465903 541.55061918309354 0 541.55061918309354 -1028.4874341756804 0 0 0 0 -236.73836828967615 442.6202281261285 0 442.6202281261285 -1145.2689303410298 0 0 0 0 -251.4110571021065 577.56026855210666 0 577.56026855210666 -713.18719376189983 0 0 0 0 33.065599074438069 233.96770539900172 0 233.96770539900172 -766.2662011361972 0 0 0 0 -75.321649006204098 414.41055001183122 0 414.41055001183122 -991.78524018811004 0 0 0 0 -13.80345915806538 238.67452580112149 0 238.67452580112149 -1556.2693611736831 0 0 0 0 -222.35691646690248 967.07374488087953 0 967.07374488087953 -1313.8899097233516 0 0 0 0 178.83310568114393 443.40142827121963 0 443.40142827121963 -508.99714009910531 0 0 0 0 -944.70194379860186 591.060082426382 0 591.060082426382 -372.07462265084177 0 0 0 0 53.678195564592897 772.90918278215395 0 772.90918278215395 -3603.855910398881 0 0 0 0 -1352.5662696811523 1767.5312383723135 0 1767.5312383723135 -1554.0354319775361 0 0 0 0 -1912.7234658781308 1175.1514993843739 0 1175.1514993843739 4370.5173132508789 0 0 0 0 -11.94380855509246 10.147229725316265 0 10.147229725316265 -2.3477396259183365 0 0 0 0 -1231.8965037596608 1689.3814385769001 0 1689.3814385769001 2102.6359031279862 0 0 0 0 866.22247222508304 1218.6035241143472 0 1218.6035241143472 751.27108815145039 0 0 0 0 -1120.4958674312948 -274.53090678701119 0 -274.53090678701119 3000.1941413624736 0 0 0 0 -159.33814611406706 406.18217454623664 0 406.18217454623664 819.07263278867231 0 0 0 0 -3.3542285922166286 -0.22816835896128396 0 -0.22816835896128396 0.30076157142946158 0 0 0 0 -4381.260215298098 -756.2109724219772 0 -756.2109724219772 987.64146869551041 0 0 0 0 -618.0679721893539 82.861321739314008 0 82.861321739314008 323.33634961105417 0 0 0 0 -9.7470619146370865 13.357436081810249 0 13.357436081810249 -14.118647508933293 0 0 0 0 -1240.949848907665 1327.6060205212416 0 1327.6060205212416 -220.99720792866719 0 0 0 0 -1517.9710866365131 -817.28448637166002 0 -817.28448637166002 -421.99989219709278 0 0 0 0 -829.77426489811478 1743.8067450677918 0 1743.8067450677918 -970.09321846425883 0 0 0 0 -838.30071766547371 277.29680887229551 0 277.29680887229551 -310.89418625488179 0 0 0 0 -1032.9411961371534 957.55187773661237 0 957.55187773661237 -422.50782991608139 0 0 0 0 -631.11932182946475 362.92144398059463 0 362.92144398059463 -373.41797802885412 0 0 0 0 -10.842782351056542 -0.90852655338625254 0 -0.90852655338625254 5.6803985598305076 0 0 0 0 -745.3976421159241 351.0512449876187 0 351.0512449876187 5.18558533169562 0 0 0 0 -707.05354424988764 321.09970173073816 0 321.09970173073816 -167.72017351249815 0 0 0 0 -550.24455457453587 334.38910159493389 0 334.38910159493389 -93.095246857817983 0 0 0 0 -520.85437107874895 248.937613012371 0 248.937613012371 -70.261550942683243 0 0 0 0 -501.58783231015695 288.1011648720596 0 288.1011648720596 -49.06731127279636 0 0 0 0 -310.39897485547408 248.76772459402855 0 248.76772459402855 -191.1088088004617 0 0 0 0 -326.59811666604946 227.68478401715402 0 227.68478401715402 -165.38113813922973 0 0 0 0 -390.23280563970184 114.63687120319082 0 114.63687120319082 -45.333886264037574 0 0 0 0 -666.33894873505778 424.12698992366495 0 424.12698992366495 -194.31640870368574 0 0 0 0 -673.29214366363976 225.58972616821347 0 225.58972616821347 163.59852360005607 0 0 0 0 9.7551140329233021 32.745317482527753 0 32.745317482527753 -212.51137589104474 0 0 0 0 -189.22320555467741 340.72071699796652 0 340.72071699796652 127.44527604222094 0 0 0 0 -388.64305287733441 174.02395823725965 0 174.02395823725965 -76.009743796894327 0 0 0 0 -327.91759547153197 18.449617998892791 0 18.449617998892791 268.96385555358574 0 0 0 0 -142.842355294546 155.93489025846065 0 155.93489025846065 -191.97656164754881 0 0 0 0 -142.76755594850692 143.68937584133528 0 143.68937584133528 -222.2094762125962 0 0 0 0 -60.022542825929122 26.446240381585085 0 26.446240381585085 43.776573821291095 0 0 0 0 -1160.8344948126178 1141.2705911055309 0 1141.2705911055309 1543.0154411004332 0 0 0 0 1.9910044368837134 9.2057739352974863 0 9.2057739352974863 16.078782710936821 0 0 0 0 -4.312691634819231 7.5084227984620497 0 7.5084227984620497 16.546294020777964 0 0 0 0 -132.94281466432039 182.30834582164061 0 182.30834582164061 1311.0964256461884 0 0 0 0 11.94518719772168 -217.2974861945986 0 -217.2974861945986 230.30436202025157 0 0 0 0 -246.7299075666815 426.30849856158602 0 426.30849856158602 930.72065403110173 0 0 0 0 833.59160219562182 1790.845655760364 0 1790.845655760364 2107.5692892917432 0 0 0 0 353.14107963412243 1339.2497034863918 0 1339.2497034863918 1690.7576282873342 0 0 0 0 1672.8445997072849 1212.504315312297 0 1212.504315312297 55.202966774639208 0 0 0 0 121.17183202810702 899.63388938689604 0 899.63388938689604 609.30591081862804 0 0 0 0 187.42856741158175 672.2572251547499 0 672.2572251547499 371.8595240888244 0 0 0 0 -400.15199626461254 161.52788738018717 0 161.52788738018717 3.1041758410283364 0 0 0 0 -256.23872217656753 720.8671152718307 0 720.8671152718307 -14.847567945847914 0 0 0 0 -122.28610821448092 512.6005131495549 0 512.6005131495549 159.7045519691892 0 0 0 0 67.038890588455615 1307.1230208561922 0 1307.1230208561922 12.577982744667679 0 0 0 0 582.95277017787157 977.14670649512846 0 977.14670649512846 -343.63099946497823 0 0 0 0 67.464860625805159 1317.7226291364714 0 1317.7226291364714 -867.10988712881226 0 0 0 0 608.28761528311225 983.45690923795701 0 983.45690923795701 -241.68643442634493 0 0 0 0 1188.2705346907096 1029.0305746432641 0 1029.0305746432641 -238.23808424320305 0 0 0 0 1504.194324564276 1448.8146279376233 0 1448.8146279376233 18.931206162465969 0 0 0 0 856.98685636628943 1389.9303717428265 0 1389.9303717428265 142.99222697416553 0 0 0 0 2361.9431049545528 402.48703499656403 0 402.48703499656403 -680.1523348968185 0 0 0 0 -570.63510783136007 240.54631589235214 0 240.54631589235214 51.406603181603714 0 0 0 0 -614.38648425460269 272.93510814287947 0 272.93510814287947 789.13446687543183 0 0 0 0 -711.02821809609304 -35.73676583651104 0 -35.73676583651104 248.0740522273918 0 0 0 0 -700.30084626397002 18.871299674487091 0 18.871299674487091 56.895680140383774 0 0 0 0 -587.48434948993963 53.193010268179933 0 53.193010268179933 3.6707424902415369 0 0 0 0 -12.224133068121787 73.177073614567803 0 73.177073614567803 -76.13271612492332 0 0 0 0 2520.5366078460283 1029.1199644648004 0 1029.1199644648004 975.51618678780505 0 0 0 0 2907.9547968659663 181.51861123067283 0 181.51861123067283 2829.913057841768 0 0 0 0 2711.4824700645549 2159.490192836849 0 2159.490192836849 918.61099737833138 0 0 0 0 8.2524544897270857 11.320660273628647 0 11.320660273628647 13.120737294347521 0 0 0 0 3624.8899911476474 348.45327892439673 0 348.45327892439673 109.11768149177078 0 0 0 0 3497.7783285895312 1331.3157711958593 0 1331.3157711958593 -431.01349213422509 0 0 0 0 3363.4319503282895 221.03418724265066 0 221.03418724265066 -91.234670601486869 0 0 0 0 3324.4501033026027 1268.7657230312325 0 1268.7657230312325 -1575.8414871026762 0 0 0 0 -8.1516797794311344 -1.4047990138510613 0 -1.4047990138510613 4.4142887998149263 0 0 0 0 3191.0958189557423 2865.8618202336074 0 2865.8618202336074 1191.5526075524103 0 0 0 0 1138.8199111243448 -212.33419575582957 0 -212.33419575582957 -874.93172258968843 0 0 0 0 5733.6307171817607 1751.9946771889881 0 1751.9946771889881 -1511.2842513972282 0 0 0 0 -1117.6082900347392 573.13107554845192 0 573.13107554845192 -745.13190512561414 0 0 0 0 -7.279105329479755 58.533596915526019 0 58.533596915526019 -78.566419348031332 0 0 0 0 -1469.6289215427678 410.52475585170032 0 410.52475585170032 -401.18326345208334 0 0 0 0 -1142.3372258434247 464.43363433559716 0 464.43363433559716 -330.91259160282789 0 0 0 0 -995.84335900269798 48.125529256867594 0 48.125529256867594 -123.98466998717049 0 0 0 0 -690.15596324430953 -34.634107919780945 0 -34.634107919780945 -141.53731247317046 0 0 0 0 -837.47938040172448 124.59758917905856 0 124.59758917905856 -16.040496869536582 0 0 0 0 -649.43728750146693 193.15665210178122 0 193.15665210178122 -229.38946043235046 0 0 0 0 -722.66434145506355 256.66660445858724 0 256.66660445858724 -174.0684442766651 0 0 0 0 -445.54573141576839 426.81798124819761 0 426.81798124819761 -632.16483851680096 0 0 0 0 -685.58988433929335 559.7320460290648 0 559.7320460290648 -618.95352070080116 0 0 0 0 -1349.8697981338773 830.89594592133653 0 830.89594592133653 -761.57321959341061 0 0 0 0 -670.28520458821731 582.83275786797458 0 582.83275786797458 -725.22589801970753 0 0 0 0 -714.9545575985685 1089.7312047017913 0 1089.7312047017913 -927.82887233642396 0 0 0 0 -184.6319303457858 1427.6799941008067 0 1427.6799941008067 -1817.3803428998726 0 0 0 0 -766.72530717853806 1292.88638026228 0 1292.88638026228 -1443.8573466600938 0 0 0 0 -261.18795394690824 1457.697995172326 0 1457.697995172326 -1658.5622566773091 0 0 0 0 -264.20061566922232 881.35465035936795 0 881.35465035936795 -1156.9211807628162 0 0 0 0 -64.910171048133634 1091.9857069677091 0 1091.9857069677091 -2027.1753130414436 0 0 0 0 277.41351403323642 617.86444509127796 0 617.86444509127796 -1485.0313865161734 0 0 0 0 -245.67122278761235 614.76295280194608 0 614.76295280194608 -956.35067256950424 0 0 0 0 -349.80012922521564 799.72309365727415 0 799.72309365727415 -1207.0081385289814 0 0 0 0 -464.57515985760256 313.66901238918945 0 313.66901238918945 -363.58930828009034 0 0 0 0 -116.88177159090992 456.21829857307603 0 456.21829857307603 -967.15192399167063 0 0 0 0 -130.05832041890608 213.90955789394502 0 213.90955789394502 -529.6636072176334 0 0 0 0 -184.87265173273045 454.08181677055836 0 454.08181677055836 -131.29454812649055 0 0 0 0 -138.25880616551149 281.64588925574935 0 281.64588925574935 162.89837427125894 0 0 0 0 -319.32290453853784 292.80984322805307 0 292.80984322805307 167.64726600790164 0 0 0 0 -220.21092154383769 141.4854081171452 0 141.4854081171452 -67.675894393352792 0 0 0 0 -261.96083419915522 310.89644671377027 0 310.89644671377027 -363.84545663336667 0 0 0 0 -548.64736911030195 201.68049212403275 0 201.68049212403275 57.589852313743904 0 0 0 0 -489.02421115484321 170.00311030862213 0 170.00311030862213 -154.92524972375031 0 0 0 0 -645.0621158968861 101.64523816882866 0 101.64523816882866 214.16386434319429 0 0 0 0 -317.92024201879394 70.511158499313751 0 70.511158499313751 119.18779957157676 0 0 0 0 -414.22327384664095 279.6558327995881 0 279.6558327995881 398.25533969093522 0 0 0 0 -411.57498007707181 93.387831759187975 0 93.387831759187975 752.91131972899893 0 0 0 0 -423.79269064535038 60.186127103603212 0 60.186127103603212 205.77316972930566 0 0 0 0 -172.92435518470302 182.23937567567191 0 182.23937567567191 751.82154276526126 0 0 0 0 108.58572880335851 432.1284605517867 0 432.1284605517867 207.23576870119723 0 0 0 0 23.036553362704581 30.977627902029781 0 30.977627902029781 312.81898799544433 0 0 0 0 -397.34320855720944 1499.2184152474883 0 1499.2184152474883 1943.3434609132528 0 0 0 0 2806.8168340074772 305.80888333151233 0 305.80888333151233 1187.9539286758227 0 0 0 0 -62.81398396194038 52.474583667291256 0 52.474583667291256 -31.689159010727877 0 0 0 0 13.884481018088991 2220.3165842368253 0 2220.3165842368253 2308.0091684809013 0 0 0 0 -453.69222997028555 1953.7355801412195 0 1953.7355801412195 -118.79207288006728 0 0 0 0 -2875.1126450887532 2394.5227731180494 0 2394.5227731180494 1739.4015623151299 0 0 0 0 -93.646183984506933 838.92275975301163 0 838.92275975301163 1216.8066014049691 0 0 0 0 -1579.7330684694462 2883.3615399063274 0 2883.3615399063274 448.60938915776205 0 0 0 0 326.28461068592151 1631.9919294311549 0 1631.9919294311549 -553.97506125780637 0 0 0 0 -938.19725214553182 2603.0279489192908 0 2603.0279489192908 -1549.452173164289 0 0 0 0 -1258.5789562103455 1999.5738925993792 0 1999.5738925993792 -395.61999307770748 0 0 0 0 354.35957115099882 1138.6583855390927 0 1138.6583855390927 -294.54260736855213 0 0 0 0 -519.29981501121074 1356.0045855464996 0 1356.0045855464996 2281.3518103849801 0 0 0 0 -262.59550941173802 1926.8459424324828 0 1926.8459424324828 -446.38589161438358 0 0 0 0 -1.5384968044818379 1217.6079355128168 0 1217.6079355128168 679.64451816487417 0 0 0 0 28.825365622178651 1794.246124515892 0 1794.246124515892 991.82119020679966 0 0 0 0 206.51712201785995 1384.7023709674977 0 1384.7023709674977 -861.78036840398272 0 0 0 0 -432.44634454874176 2261.3024211907832 0 2261.3024211907832 -1393.5321237627359 0 0 0 0 -98.405964213976404 1725.1090270671557 0 1725.1090270671557 -1646.3737377388461 0 0 0 0 -229.91067109780852 1869.6817267931037 0 1869.6817267931037 -1661.5361387780704 0 0 0 0 -498.20649251536815 1696.5612238500034 0 1696.5612238500034 -1721.0555797655543 0 0 0 0 -1984.8163529769226 1550.9862744603306 0 1550.9862744603306 -1063.5670616953212 0 0 0 0 -736.74154718833597 1989.0378038419985 0 1989.0378038419985 -1498.1563280523987 0 0 0 0 -1691.3619044855441 2611.9668450457757 0 2611.9668450457757 -1447.4591138810792 0 0 0 0 -1014.5765540064021 1864.989316690102 0 1864.989316690102 -1466.919742878621 0 0 0 0 -590.13555502142117 2504.5965596585738 0 2504.5965596585738 -1329.0628502646578 0 0 0 0 -154.73165043504559 1685.097768008578 0 1685.097768008578 -1337.140552310826 0 0 0 0 -1389.4291422245733 2038.4501289535838 0 2038.4501289535838 -1393.2283568380517 0 0 0 0 -3133.9466969824862 2882.0277469618304 0 2882.0277469618304 -1065.0323390687408 0 0 0 0 -1.51820773199222 17.7729878502291 0 17.7729878502291 -40.055374097897186 0 0 0 0 -6521.0978301235009 2550.4256392661846 0 2550.4256392661846 233.59901556021941 0 0 0 0 -2629.4081349578046 4065.1758361468674 0 4065.1758361468674 -1382.5641489681439 0 0 0 0 -3825.2524008455584 986.92114707050496 0 986.92114707050496 -559.86673672473989 0 0 0 0 -1657.8310939791154 686.56290850640289 0 686.56290850640289 -595.45964983472368 0 0 0 0 5427.5408874787827 -889.72439099079929 0 -889.72439099079929 -1036.3610407983069 0 0 0 0 867.24971235882549 1286.231599035993 0 1286.231599035993 2240.0959869584694 0 0 0 0 -21.342944237406357 28.702080950430783 0 28.702080950430783 -22.63511957192361 0 0 0 0 2293.0373587931244 3169.7852245789254 0 3169.7852245789254 -4832.5861232893949 0 0 0 0 7583.3405330149326 1012.2422036345306 0 1012.2422036345306 -4001.4524154113024 0 0 0 0 5147.1259046896012 777.3098954113957 0 777.3098954113957 -4079.8435003876511 0 0 0 0 269.01867029225104 2251.6293014025578 0 2251.6293014025578 1738.5172101988519 0 0 0 0 109.93214848899515 733.56751049865852 0 733.56751049865852 1866.9334329020348 0 0 0 0 1076.4493271317624 1014.9259466474759 0 1014.9259466474759 1591.9776674724417 0 0 0 0 815.7203743707214 513.28884415108769 0 513.28884415108769 1307.3742894661846 0 0 0 0 575.60868459707126 924.13416127787787 0 924.13416127787787 1893.6686583769624 0 0 0 0 -3765.3154693797696 2160.3740313445451 0 2160.3740313445451 527.72973722455936 0 0 0 0 2350.0934135068092 1240.4842091271421 0 1240.4842091271421 -1651.28652774496 0 0 0 0 -59.225613942699738 54.601243202669167 0 54.601243202669167 -35.693273287465843 0 0 0 0 -6729.3370341201953 -5174.0448968973651 0 -5174.0448968973651 -4643.2831653446774 0 0 0 0 -1244.138483447663 2222.6074727035011 0 2222.6074727035011 1747.5230466618377 0 0 0 0 156.69877480011201 796.16843406463886 0 796.16843406463886 1429.5265849143034 0 0 0 0 -1708.1387704872977 560.28954185815383 0 560.28954185815383 807.62455326906638 0 0 0 0 -324.88958309683949 1300.4564708160469 0 1300.4564708160469 1121.4377556550171 0 0 0 0 -827.52842810214497 1786.7383828647871 0 1786.7383828647871 -374.62392463354627 0 0 0 0 -615.6106768953905 564.92971526121255 0 564.92971526121255 1594.0170427537378 0 0 0 0 1922.5817425110745 428.89434414908465 0 428.89434414908465 796.77099001320312 0 0 0 0 -319.4910933634709 456.07959849697681 0 456.07959849697681 1410.4857836634619 0 0 0 0 1013.5110571881523 -113.01576728187501 0 -113.01576728187501 1001.185857936347 0 0 0 0 -3421.9437147349236 -241.51350927511521 0 -241.51350927511521 379.72706847416703 0 0 0 0 -4971.8320681952609 47.90693814176484 0 47.90693814176484 814.63290935619443 0 0 0 0 -2243.2212767319579 914.60977818492393 0 914.60977818492393 328.11019606474156 0 0 0 0 -1990.5221982331423 830.89044492368703 0 830.89044492368703 326.10352539542328 0 0 0 0 -1432.5598702138523 684.1848064159567 0 684.1848064159567 146.5031933694554 0 0 0 0 -1951.81151717803 958.78549384044163 0 958.78549384044163 151.21127379767131 0 0 0 0 -883.71926013600023 828.96728489361703 0 828.96728489361703 -230.38891582880751 0 0 0 0 -2808.1194052623869 1401.791039410291 0 1401.791039410291 120.01025596878026 0 0 0 0 -2077.0262264694175 815.89322461205302 0 815.89322461205302 -49.360156118851592 0 0 0 0 -1901.2447232819977 1273.1318108108972 0 1273.1318108108972 71.263845409819623 0 0 0 0 -485.11854902595223 1452.5464673209208 0 1452.5464673209208 -344.73859639122384 0 0 0 0 -3779.1967858134158 2303.2363248486799 0 2303.2363248486799 -630.82184186248924 0 0 0 0 -1735.1167913237005 661.5188735765114 0 661.5188735765114 -1148.5488202710476 0 0 0 0 2185.5257721745393 2205.7102127792277 0 2205.7102127792277 500.3872253447189 0 0 0 0 -15.365850784191622 17.850468199845935 0 17.850468199845935 -10.500272785264372 0 0 0 0 -1041.6555810373684 3672.1854297916288 0 3672.1854297916288 337.43159452004511 0 0 0 0 -2596.0855761298517 1684.3033966686562 0 1684.3033966686562 -1778.2836457428348 0 0 0 0 -2354.6609825314808 -686.4327067671984 0 -686.4327067671984 -994.00886829501542 0 0 0 0 -1100.9754363551192 728.10758982124025 0 728.10758982124025 -2837.1531668160751 0 0 0 0 -1189.6351314814219 817.4602796325853 0 817.4602796325853 762.19947574526304 0 0 0 0 -2941.8589697892457 1642.6447812835686 0 1642.6447812835686 578.9383314200677 0 0 0 0 -1654.575483173423 434.67282418995455 0 434.67282418995455 718.71759623885737 0 0 0 0 867.5436124726873 1108.8906404184966 0 1108.8906404184966 264.46769648662303 0 0 0 0 26.340060492068005 -32.583509595340729 0 -32.583509595340729 -6.8337716277455911 0 0 0 0 -140.87763162486408 -799.14574406910651 0 -799.14574406910651 -858.41244970547268 0 0 0 0 6.2348117276113157 10.238681166491915 0 10.238681166491915 23.161693868578709 0 0 0 0 -27.050078672342352 80.771846893403563 0 80.771846893403563 -1496.8524960715149 0 0 0 0 -1186.9044027743457 -105.49197295762679 0 -105.49197295762679 -931.37270698766224 0 0 0 0 -1235.0538342535729 772.01264148888004 0 772.01264148888004 -1635.2984036749694 0 0 0 0 -1274.8832035920491 86.7725873241302 0 86.7725873241302 466.86443761378177 0 0 0 0 -71.062977109162603 51.92820607831527 0 51.92820607831527 76.789217018835188 0 0 0 0 14.908400154901756 19.565824845882162 0 19.565824845882162 -63.867579289799323 0 0 0 0 -354.95236736161041 245.48230253319298 0 245.48230253319298 -176.31049816519953 0 0 0 0 -3.0821851201883987 4.3825168760179167 0 4.3825168760179167 8.6462188900070487 0 0 0 0 -338.62635298835812 258.65783807719708 0 258.65783807719708 -189.12717226994573 0 0 0 0 -352.55070256869953 328.62113481164647 0 328.62113481164647 -268.76287089698599 0 0 0 0 -578.68325568956607 436.40123028751987 0 436.40123028751987 -166.06074788011028 0 0 0 0 -405.83847509096086 406.25362285583105 0 406.25362285583105 -369.12459666194627 0 0 0 0 -448.62131833611784 456.2718480574913 0 456.2718480574913 -172.62183594529051 0 0 0 0 -370.58393799244368 458.20599933910125 0 458.20599933910125 -369.2809609851023 0 0 0 0 -4.0389083846279448 1.9953308002835968 0 1.9953308002835968 5.4619901933996289 0 0 0 0 -34.195096283219755 -53.498441206742427 0 -53.498441206742427 237.43418658693554 0 0 0 0 -170.76943447854137 147.86202012142166 0 147.86202012142166 103.01155433217355 0 0 0 0 -51.97933642922726 80.119130580569617 0 80.119130580569617 -17.071389885910321 0 0 0 0 7.0496806933308847 31.556636685202164 0 31.556636685202164 34.720742884716174 0 0 0 0 -44.107335948312539 114.96506805495301 0 114.96506805495301 72.888807763796649 0 0 0 0 193.8216283439433 -5.8884913061956468 0 -5.8884913061956468 -306.12184457184048 0 0 0 0 -921.71310779034684 636.67765029126895 0 636.67765029126895 -206.91860333079239 0 0 0 0 468.30994138242386 612.36537041969132 0 612.36537041969132 -585.42385958542582 0 0 0 0 -343.05924611441151 138.1540532062354 0 138.1540532062354 226.88902834278997 0 0 0 0 -402.25449668893634 44.427462308583927 0 44.427462308583927 86.125382701109629 0 0 0 0 -479.97232864922262 417.23644186009187 0 417.23644186009187 -173.04925005784025 0 0 0 0 -1018.8571110194025 205.63857307603757 0 205.63857307603757 227.09765820702887 0 0 0 0 -1455.1418382294214 578.33357316259935 0 578.33357316259935 262.44298786279978 0 0 0 0 -334.03532852292119 137.38947648466274 0 137.38947648466274 459.40549523528898 0 0 0 0 -509.85143979650456 416.78596516040852 0 416.78596516040852 76.101318907954919 0 0 0 0 -10.745193049703545 26.831361596782187 0 26.831361596782187 -2.1599942006851052 0 0 0 0 -47.636664817690075 42.830181454768592 0 42.830181454768592 9.5212151213333982 0 0 0 0 -83.008240390801802 132.00479614533833 0 132.00479614533833 -103.48874371327111 0 0 0 0 -8.46582665706228 17.529650963726453 0 17.529650963726453 -42.662223696708679 0 0 0 0 -37.866515722744225 50.198167381517123 0 50.198167381517123 -0.80622884747572243 0 0 0 0 35.946429692296078 291.14972429547925 0 291.14972429547925 220.4737735533854 0 0 0 0 -32.949093460374726 52.957504600054897 0 52.957504600054897 12.763535980183804 0 0 0 0 -49.678868789022772 42.869012883206153 0 42.869012883206153 45.779178686988018 0 0 0 0 -178.83167708079418 -13.87738795162295 0 -13.87738795162295 8.7454740685825527 0 0 0 0 -9.3792884790570099 33.518479686278226 0 33.518479686278226 -36.807042501890066 0 0 0 0 -59.203862958318496 64.562637617898872 0 64.562637617898872 -18.90422136336565 0 0 0 0 5.3635234601242701 67.305741217569448 0 67.305741217569448 -170.90408789005596 0 0 0 0 -53.021033267563325 54.887120531275286 0 54.887120531275286 -6.4721612275898224 0 0 0 0 -1583.7703538153582 401.10374125049566 0 401.10374125049566 169.6119897062963 0 0 0 0 -1601.0003526511682 376.74622863945842 0 376.74622863945842 306.14041924785124 0 0 0 0 -42.578192152945675 52.882098709392174 0 52.882098709392174 -34.621890227900224 0 0 0 0 -13.861531766709959 136.97131519159302 0 136.97131519159302 3.7670789839758072 0 0 0 0 -1339.5335688267442 -179.73456205591356 0 -179.73456205591356 -80.546069054806139 0 0 0 0 -31.06215255799053 30.167923757982976 0 30.167923757982976 -17.465529389143512 0 0 0 0 34.934095657197759 -72.030843277214444 0 -72.030843277214444 -99.848293594070128 0 0 0 0 -161.20558059903851 101.81167680864746 0 101.81167680864746 109.2236585586943 0 0 0 0 -2.6210377624091166 11.288584031286504 0 11.288584031286504 -19.766101897912506 0 0 0 0 31.995250472755288 43.513945466693258 0 43.513945466693258 0.38339719109353609 0 0 0 0 -1.7903614208643717 3.9861889143935088 0 3.9861889143935088 -11.355343396422427 0 0 0 0 19.223465173323348 10.786808886106883 0 10.786808886106883 0.38339719106443226 0 0 0 0 51.951595329635893 35.687385345881921 0 35.687385345881921 -0.0022464937288639332 0 0 0 0 -476.96711061356109 -410.70491411207331 0 -410.70491411207331 27.41264117116225 0 0 0 0 1.9114063181694547 -0.94321199815512102 0 -0.94321199815512102 -5.8884230221600546 0 0 0 0 -546.02850563130778 -182.47089550348755 0 -182.47089550348755 146.85623286821647 0 0 0 0 -303.65355244699094 287.38224137502039 0 287.38224137502039 323.4731940079655 0 0 0 0 197.21525008913522 378.28381805754543 0 378.28381805754543 34.934528393729124 0 0 0 0 213.38624484465981 643.64980390364508 0 643.64980390364508 -0.73962814989499748 0 0 0 0 -13.61179753095594 7.7761737790178316 0 7.7761737790178316 -5.8126868813956776 0 0 0 0 -6699.6281687551018 -1669.9464064316016 0 -1669.9464064316016 96.775089791219216 0 0 0 0 -2362.6627906436079 1559.820730039035 0 1559.820730039035 -4.8636621887417277 0 0 0 0 -2167.2875052142954 -289.55927357930341 0 -289.55927357930341 544.3250478724367 0 0 0 0 -2441.748209561978 133.78565095055092 0 133.78565095055092 -68.280719025960934 0 0 0 0 -2279.2835711691441 633.30481093314302 0 633.30481093314302 1271.6030699707044 0 0 0 0 -1077.2139775302057 594.73421351336583 0 594.73421351336583 582.71921464757179 0 0 0 0 -2080.4460652620619 632.76208906334068 0 632.76208906334068 597.65739550849139 0 0 0 0 -2635.125774584656 -102.51744883585707 0 -102.51744883585707 541.94066594564356 0 0 0 0 -4090.2618723518317 -1092.4736747065326 0 -1092.4736747065326 223.92493705882225 0 0 0 0 -3442.5907089648244 286.33277411463496 0 286.33277411463496 680.20416204175854 0 0 0 0 -2564.5361161845503 460.05640778846282 0 460.05640778846282 941.4880435775267 0 0 0 0 -2308.0567607273697 -60.20027394896897 0 -60.20027394896897 155.47243365123722 0 0 0 0 -2094.2036263512709 526.77904730854789 0 526.77904730854789 297.78280583160813 0 0 0 0 -2640.9757771158766 803.10740297351731 0 803.10740297351731 837.6183501467458 0 0 0 0 -1878.1413484646473 -50.459005570650334 0 -50.459005570650334 341.86127493739332 0 0 0 0 2.3227946567640174 790.49646923255932 0 790.49646923255932 432.35708359748241 0 0 0 0 -1989.1803028374525 426.37914642549003 0 426.37914642549003 810.76171460209298 0 0 0 0 -30.842085078986813 38.495583753250827 0 38.495583753250827 -22.016973885548737 0 0 0 0 -742.68996411665285 2035.0322719899705 0 2035.0322719899705 610.54407951458415 0 0 0 0 693.89834866323508 2159.0382124419557 0 2159.0382124419557 -2276.4800630371319 0 0 0 0 -14.434792312099717 1455.4838136160035 0 1455.4838136160035 727.91996033806936 0 0 0 0 -2771.2572079658275 1109.8197235039261 0 1109.8197235039261 -406.36084205936641 0 0 0 0 -1785.9414567192653 1335.2111482010005 0 1335.2111482010005 -1170.272170327662 0 0 0 0 -2357.1319389815617 2021.7613777990045 0 2021.7613777990045 283.87701956168166 0 0 0 0 -735.29600361369376 2023.8691517358529 0 2023.8691517358529 -807.32746373696136 0 0 0 0 -14.248074773814551 7.2412453914123205 0 7.2412453914123205 2.1577545511521663 0 0 0 0 -2970.8293724365867 -83.32873599116283 0 -83.32873599116283 2204.31964978826 0 0 0 0 -803.19696584381745 -659.7774389020633 0 -659.7774389020633 1548.3467520595295 0 0 0 0 2687.8499859825533 240.07991741286241 0 240.07991741286241 -131.27603602019371 0 0 0 0 681.8865347384999 -148.73144335736288 0 -148.73144335736288 1859.2812518848223 0 0 0 0 -848.9261071255969 1371.7552379213885 0 1371.7552379213885 1646.5477293438162 0 0 0 0 -477.5274087722064 852.31402607893688 0 852.31402607893688 1954.6933994245483 0 0 0 0 245.93626351846615 754.06542225883459 0 754.06542225883459 669.06052897698828 0 0 0 0 -1999.9425004010955 709.64533861814198 0 709.64533861814198 1131.3672631405061 0 0 0 0 529.019324831228 1695.0593760519841 0 1695.0593760519841 -47.043917989707552 0 0 0 0 -714.47679889565916 539.67051790490223 0 539.67051790490223 -460.51229905926448 0 0 0 0 -2135.1243818940493 1432.6938819300194 0 1432.6938819300194 2.4214283653418534 0 0 0 0 -303.32776028768421 2655.2999210520866 0 2655.2999210520866 670.89932545751799 0 0 0 0 2728.3640674914072 2664.9459216626674 0 2664.9459216626674 -642.7844309565553 0 0 0 0 -4158.5844538804959 -1116.1591138027143 0 -1116.1591138027143 2608.6394415273608 0 0 0 0 -16.765891151702107 20.07760556813998 0 20.07760556813998 -11.757747478704232 0 0 0 0 -2788.7683563215342 2837.7324119801706 0 2837.7324119801706 1115.6335570903611 0 0 0 0 555.35539970906029 -51.742814573495707 0 -51.742814573495707 -456.18039767528535 0 0 0 0 2841.8769932184368 1769.0014232463582 0 1769.0014232463582 -1.1746716369837844 0 0 0 0 2.3226107045600202 1.8736150235453408 0 1.8736150235453408 0.30918290708626728 0 0 0 0 162.8626079117239 -38.740477567582275 0 -38.740477567582275 35.226321006142825 0 0 0 0 -16.339100696934253 4.758097390349235 0 4.758097390349235 31.820569897562848 0 0 0 0 -200.71355957591732 59.959041467540374 0 59.959041467540374 141.57679290541273 0 0 0 0 -56.584112260839618 63.295627729870745 0 63.295627729870745 -11.088423113314064 0 0 0 0 2599.4547345916653 1728.6911375183117 0 1728.6911375183117 889.85599168733461 0 0 0 0 80.334984691726277 762.56309357722785 0 762.56309357722785 708.26456905395025 0 0 0 0 -14.440815584253812 16.789280908006234 0 16.789280908006234 -9.2970260787380994 0 0 0 0 -6.7913335471057508 336.63466754519504 0 336.63466754519504 711.73367209252319 0 0 0 0 -307.63851100218017 -7.0027336355269654 0 -7.0027336355269654 1722.9956706866251 0 0 0 0 -245.11293083871715 -278.98647330268432 0 -278.98647330268432 572.44419082600507 0 0 0 0 465.90691376639188 58.728536755566893 0 58.728536755566893 -59.866454106580932 0 0 0 0 842.84110611080905 330.96271508163773 0 330.96271508163773 -11.918692531180568 0 0 0 0 526.6248443751183 11.709839683077007 0 11.709839683077007 -176.68863512697862 0 0 0 0 300.27155736932787 -514.86685577663593 0 -514.86685577663593 236.27843624120578 0 0 0 0 -491.34097410553841 299.30120783597522 0 299.30120783597522 104.57986717447056 0 0 0 0 986.79349744668434 327.40046424150933 0 327.40046424150933 -155.65139725863264 0 0 0 0 488.11668039161668 246.60230262833647 0 246.60230262833647 30.937505535403034 0 0 0 0 1387.9463953281129 45.636863836356497 0 45.636863836356497 -136.78956242266577 0 0 0 0 868.27934008682223 393.61646380741149 0 393.61646380741149 17.062655112415086 0 0 0 0 1118.2876556486372 535.96596020599827 0 535.96596020599827 -3.9204458761523711 0 0 0 0 1122.3590425372931 630.80519102310063 0 630.80519102310063 218.78128180763451 0 0 0 0 508.60592876129488 47.870617028826928 0 47.870617028826928 -72.098325565282721 0 0 0 0 -5.6906078081471723 18.441109833257656 0 18.441109833257656 -20.264341564913821 0 0 0 0 38.605567442472875 33.809634008066496 0 33.809634008066496 -14.67741463764105 0 0 0 0 537.88160586310551 479.8148059216328 0 479.8148059216328 251.27190026576864 0 0 0 0 842.99855329099228 780.18368552310858 0 780.18368552310858 545.12787228185334 0 0 0 0 12.349407461309296 14.26633842548685 0 14.26633842548685 -29.875405827745794 0 0 0 0 10.787158976024369 -1.6200253789598946 0 -1.6200253789598946 -6.906289954632598 0 0 0 0 898.96253953609175 470.27347202621604 0 470.27347202621604 68.013420783972833 0 0 0 0 10.882840783398031 15.212891822043844 0 15.212891822043844 -24.449967150848977 0 0 0 0 30.54307925300418 39.043738948676037 0 39.043738948676037 -10.47138193732826 0 0 0 0 6.691047622481233 8.3049883309826669 0 8.3049883309826669 -17.87290165346127 0 0 0 0 30.162291586294941 13.322374277777271 0 13.322374277777271 -1.626167104463093 0 0 0 0 23.715922197574855 18.318204300994694 0 18.318204300994694 -33.105306188808754 0 0 0 0 8.6299820079802885 29.455623815607396 0 29.455623815607396 -26.896871656441363 0 0 0 0 18.949827123910381 20.895443361325306 0 20.895443361325306 -11.746554953017039 0 0 0 0 32.448949460525085 42.51805602548211 0 42.51805602548211 -17.117731219361303 0 0 0 0 12.779575120900891 9.561722100743566 0 9.561722100743566 -16.727747732429293 0 0 0 0 34.729209192367307 19.466075564774656 0 19.466075564774656 -42.179338132613339 0 0 0 0 -2.2395358775502316 9.5124316566293601 0 9.5124316566293601 0.11586780339789016 0 0 0 0 1145.0979333661853 539.74632349763124 0 539.74632349763124 27.180281639884925 0 0 0 0 822.08889282035852 314.83724367633113 0 314.83724367633113 151.55570621853985 0 0 0 0 -2.4605127030653997 7.5666788566620369 0 7.5666788566620369 -6.5361826583258562 0 0 0 0 990.10122127752402 403.8446709650234 0 403.8446709650234 28.506732112349709 0 0 0 0 942.22120729990706 273.76791573541414 0 273.76791573541414 88.711849184386665 0 0 0 0 775.63450179913843 448.89921712145588 0 448.89921712145588 23.94125636634999 0 0 0 0 5.7433737836490089 22.015305845646196 0 22.015305845646196 -4.7587547358126585 0 0 0 0 30.451793181839093 37.879821531038033 0 37.879821531038033 7.5787228185508866 0 0 0 0 24.451326992239046 23.330093477372429 0 23.330093477372429 -15.385597471322399 0 0 0 0 -9.9615980906310497 13.858661345353781 0 13.858661345353781 15.909228660689735 0 0 0 0 2.5797528924276225 6.3188689148069273 0 6.3188689148069273 -3.762954181081227 0 0 0 0 20.626572593203491 23.026662573494832 0 23.026662573494832 -9.2760296526685124 0 0 0 0 983.75443499855942 267.46854134299792 0 267.46854134299792 3.6055918101919815 0 0 0 0 4.4287994567057432 -2.3340432865747829 0 -2.3340432865747829 -2.1611102482356728 0 0 0 0 -303.73294555569555 88.90283519008517 0 88.90283519008517 72.82579338218784 0 0 0 0 27.124121020511211 79.753453843179159 0 79.753453843179159 -21.631597888510441 0 0 0 0 500.5935803224445 593.18776496023929 0 593.18776496023929 677.87527944589965 0 0 0 0 -3.7396582019478015 -0.058925219792172356 0 -0.058925219792172356 8.4315368388454317 0 0 0 0 244.62363780489159 510.91491861062241 0 510.91491861062241 366.16342239020742 0 0 0 0 963.6819449251534 745.18642341328086 0 745.18642341328086 259.99604449779508 0 0 0 0 1116.2253626399208 408.94431352826359 0 408.94431352826359 -23.947482045041397 0 0 0 0 1069.9360125737221 211.31140229190351 0 211.31140229190351 39.001068012963515 0 0 0 0 1943.4666786631958 182.1820904510023 0 182.1820904510023 -95.194614836334949 0 0 0 0 -35.602596839372382 -103.55492947498715 0 -103.55492947498715 49.227251805423293 0 0 0 0 569.82340464808931 152.30346068645304 0 152.30346068645304 34.354209712731972 0 0 0 0 356.48456009789879 256.08063244757068 0 256.08063244757068 141.44181535328971 0 0 0 0 45.656845449675529 -145.4447265504059 0 -145.4447265504059 47.694644385934225 0 0 0 0 110.05935680724906 -59.136632894689683 0 -59.136632894689683 -233.00038591189877 0 0 0 0 59.405430555395924 -125.01374044426848 0 -125.01374044426848 19.519626183770015 0 0 0 0 53.336452468403877 -45.502145911676052 0 -45.502145911676052 -125.61559724847029 0 0 0 0 9.4080972459921171 48.967751800242809 0 48.967751800242809 -30.83384554334009 0 0 0 0 10.900267649990589 13.116301010667836 0 13.116301010667836 -38.005616183399866 0 0 0 0 -1272.2566641652666 624.65206390127423 0 624.65206390127423 -210.07504609233001 0 0 0 0 -1702.6124504844083 700.90971786730734 0 700.90971786730734 -95.499477140197996 0 0 0 0 -1735.2155953297479 581.93320215115091 0 581.93320215115091 -281.73265601461753 0 0 0 0 -1608.0865401361516 796.68250263175287 0 796.68250263175287 -205.92812397744274 0 0 0 0 -1891.7497203688908 659.24267842106929 0 659.24267842106929 -137.51469518337399 0 0 0 0 -1573.833167838995 521.44679575136979 0 521.44679575136979 -411.66743168923131 0 0 0 0 -1299.2264889654907 761.79843692066788 0 761.79843692066788 -358.70101232320303 0 0 0 0 -962.79387217954354 548.03971130760328 0 548.03971130760328 -404.21872684393566 0 0 0 0 -1683.6741562946409 537.56871136408881 0 537.56871136408881 -346.05036706167448 0 0 0 0 24.418151477146214 50.015258599461873 0 50.015258599461873 -60.490981213030693 0 0 0 0 -159.05942286672416 53.288035784811655 0 53.288035784811655 -6.3911872779726764 0 0 0 0 -2501.0272093516487 747.79690028114055 0 747.79690028114055 -255.99242098527611 0 0 0 0 -2509.7076290679797 765.88656773473122 0 765.88656773473122 0.76908167754299939 0 0 0 0 -2036.2602878701291 349.75630217946309 0 349.75630217946309 -525.4417796432972 0 0 0 0 23.229150021772277 -15.145552882609969 0 -15.145552882609969 -6.7673817325109553 0 0 0 0 -2893.1480890368111 789.32127879315522 0 789.32127879315522 -318.86734492861433 0 0 0 0 -698.19135483336868 509.9457017632958 0 509.9457017632958 -209.18649543019274 0 0 0 0 -626.36648174236689 546.1763977221417 0 546.1763977221417 -198.22486203658627 0 0 0 0 -961.21646776548005 406.64350473927334 0 406.64350473927334 395.7486857421718 0 0 0 0 -1195.6370014196727 762.85112928743183 0 762.85112928743183 -115.65309496605187 0 0 0 0 -994.62571366854536 485.54543310173904 0 485.54543310173904 -282.5000200951763 0 0 0 0 -961.38103280284849 462.80376170937961 0 462.80376170937961 -286.31696115611157 0 0 0 0 -789.33549770051468 658.34466325234825 0 658.34466325234825 -309.02793901946279 0 0 0 0 -551.09439995996945 587.31580426241999 0 587.31580426241999 -320.54625117787509 0 0 0 0 -353.84870717512968 546.97925350858714 0 546.97925350858714 -358.33711388260417 0 0 0 0 -197.89706310167094 197.42271285661263 0 197.42271285661263 12.533133580873255 0 0 0 0 -727.69858845493582 617.75266766262212 0 617.75266766262212 -258.11712123191683 0 0 0 0 -147.2218593446305 260.76515196137188 0 260.76515196137188 -340.08872317861642 0 0 0 0 -710.45102223475624 924.11852838691266 0 924.11852838691266 -842.29660342837451 0 0 0 0 -494.27592547937093 225.63610728700769 0 225.63610728700769 -190.93905885178538 0 0 0 0 78.151364167526481 50.427691269593197 0 50.427691269593197 -315.64260705860215 0 0 0 0 -141.30799481502618 11.01750085905951 0 11.01750085905951 137.13390566196176 0 0 0 0 -2157.0165483159581 964.04018226674816 0 964.04018226674816 -160.46264154117671 0 0 0 0 -1714.8971751880454 982.54712512640981 0 982.54712512640981 -230.96356778046174 0 0 0 0 -1548.7146397173492 833.92443173135689 0 833.92443173135689 -280.02826544383424 0 0 0 0 -1626.8078181402452 705.14156192868541 0 705.14156192868541 -265.53119247667928 0 0 0 0 -812.80935705926822 1571.9315824074656 0 1571.9315824074656 -1459.701945592009 0 0 0 0 -237.62949441051751 96.461342637725465 0 96.461342637725465 -396.17380796361249 0 0 0 0 -3484.7374966390325 1625.4093414769177 0 1625.4093414769177 -2616.7156073777296 0 0 0 0 -3426.6006760318487 1232.685038010095 0 1232.685038010095 -115.0398447007683 0 0 0 0 16.231277422982039 41.671136631756568 0 41.671136631756568 -64.102402493696559 0 0 0 0 -7.8660711979947209 23.992258404974507 0 23.992258404974507 -20.108571533767929 0 0 0 0 -9976.3538539315068 2632.8279735261131 0 2632.8279735261131 3292.8600831650547 0 0 0 0 -60.819080034926628 10.930294971691183 0 10.930294971691183 -280.79226063923852 0 0 0 0 -8.4732826398909538 3.7840512595342943 0 3.7840512595342943 13.259786627081269 0 0 0 0 -9916.3135013264837 7086.4719147048891 0 7086.4719147048891 -4561.7362697924837 0 0 0 0 -71.072226991520097 69.423884232086465 0 69.423884232086465 41.597222448764001 0 0 0 0 -155.79120760994556 112.45832294982392 0 112.45832294982392 32.86924692006869 0 0 0 0 -69.291052150307223 155.76700946070923 0 155.76700946070923 -73.162067012191983 0 0 0 0 -309.19237116894692 222.73422069658409 0 222.73422069658409 -5.6217245562729659 0 0 0 0 -6025.6660938316672 -161.00719564487372 0 -161.00719564487372 59.596184902788082 0 0 0 0 -20.686970323027495 9.2240818318225166 0 9.2240818318225166 77.77825000720884 0 0 0 0 -114.11155338129902 86.115241035702638 0 86.115241035702638 -93.246578363672597 0 0 0 0 -83.823493810977652 67.004114959362283 0 67.004114959362283 41.363530866028427 0 0 0 0 -80.343050980558473 86.425085798211512 0 86.425085798211512 -71.178986682381947 0 0 0 0 8.6954314327036926 -1.9955317125826468 0 -1.9955317125826468 -4.7927841353206304 0 0 0 0 -141.28987545523705 143.23495185455977 0 143.23495185455977 -99.737188872561092 0 0 0 0 -66.350268193949887 116.0337014902907 0 116.0337014902907 -72.088591024534253 0 0 0 0 -82.11188934083755 70.366193067627364 0 70.366193067627364 32.753008599688457 0 0 0 0 -479.99490111985506 144.24446087540855 0 144.24446087540855 237.32532003027154 0 0 0 0 -45.810368725353328 109.36381089033966 0 109.36381089033966 -71.942247021506773 0 0 0 0 -68.632897251536633 98.392870513816888 0 98.392870513816888 -57.48117863124935 0 0 0 0 -86.871559996692667 105.65125635290315 0 105.65125635290315 -57.357349143072497 0 0 0 0 -3.9960588496152809 7.2525442013076429 0 7.2525442013076429 9.7364079140099875 0 0 0 0 -8.9570706975828216 44.605730594608758 0 44.605730594608758 -5.7508532543142792 0 0 0 0 -45.114179227468412 46.328313347083167 0 46.328313347083167 -4.4110550675832201 0 0 0 0 -7.3385391160336439 11.430564590060385 0 11.430564590060385 -5.7508532543152224 0 0 0 0 -1.4522506816925471 1.5427801106827985 0 1.5427801106827985 9.1722924940664825 0 0 0 0 50.13000346413537 62.535376452244236 0 62.535376452244236 -62.899047951990724 0 0 0 0 -54.839328638792722 33.313112804891716 0 33.313112804891716 -0.01288281635788735 0 0 0 0 -3.3012181774608251 -0.7458857247424362 0 -0.7458857247424362 5.8819364442306323 0 0 0 0 -33.551320245729585 14.62276551638206 0 14.62276551638206 -4.411055067603888 0 0 0 0 -7.5932241559476097 35.916453549245489 0 35.916453549245489 0.0056467979884473607 0 0 0 0 -98.028318964086793 232.32618132246716 0 232.32618132246716 -113.65689362617559 0 0 0 0 -46.642691913704766 124.64390509852092 0 124.64390509852092 -67.963568244153066 0 0 0 0 -24.388872187062589 139.45601633243496 0 139.45601633243496 -73.972615550213959 0 0 0 0 386.85236206712216 -14.433770279036253 0 -14.433770279036253 -72.192094350934781 0 0 0 0 -19.711878941940085 459.52244660226279 0 459.52244660226279 -0.049626526568317786 0 0 0 0 -332.09192491215435 98.185771023578127 0 98.185771023578127 5.6395832358684856 0 0 0 0 -668.82723686929057 462.30827582759957 0 462.30827582759957 0.27509937790455297 0 0 0 0 -5.5897914964152378 -2.5980592460917222 0 -2.5980592460917222 21.934587212306269 0 0 0 0 1.708057871467215 18.740001806810554 0 18.740001806810554 -7.2919648420114527 0 0 0 0 -6983.5880686830496 4954.260910773497 0 4954.260910773497 0.39760932130599552 0 0 0 0 103.68359929590952 77.503180902691383 0 77.503180902691383 -0.065478505683131516 0 0 0 0 -432.50026831850482 3731.2099253787164 0 3731.2099253787164 69.017190312364008 0 0 0 0 1.8303546108124973 2.5638832309414568 0 2.5638832309414568 -17.876863812147008 0 0 0 0 1090.6091933905718 72.725135400105501 0 72.725135400105501 -274.05579347357707 0 0 0 0 -4994.9088929402151 -592.14900694352764 0 -592.14900694352764 492.33936583559262 0 0 0 0 2563.1201179758982 389.51630747926902 0 389.51630747926902 -206.33103015477536 0 0 0 0 -6246.0614130826252 3374.1529056514828 0 3374.1529056514828 -1964.032799402019 0 0 0 0 190.22179259128279 783.24296991873052 0 783.24296991873052 267.69905595551245 0 0 0 0 11.705787025925822 39.526034220592393 0 39.526034220592393 -42.249274222466681 0 0 0 0 472.99716362016079 223.4083961469878 0 223.4083961469878 -60.899093713582261 0 0 0 0 -7247.629824685122 2121.5501911241881 0 2121.5501911241881 -1792.2959766636486 0 0 0 0 5.7885687550920899 10.708445885077019 0 10.708445885077019 -51.133279492932274 0 0 0 0 1142.0783954737026 164.41233539126551 0 164.41233539126551 -240.59811725656618 0 0 0 0 1408.0054826181968 -108.78155669323314 0 -108.78155669323314 19.029205959581304 0 0 0 0 1357.7549414198475 768.72042116649391 0 768.72042116649391 -101.14192613167688 0 0 0 0 1168.2020625719879 277.76800832682784 0 277.76800832682784 -146.49374298902694 0 0 0 0 1628.7786891691539 178.55552254630311 0 178.55552254630311 -26.886027477157768 0 0 0 0 18.395664812740506 16.625514238476171 0 16.625514238476171 -15.515674218011554 0 0 0 0 1590.1482118606218 101.98524118136265 0 101.98524118136265 1748.9815915439394 0 0 0 0 2570.7159339878999 253.14670461876085 0 253.14670461876085 -147.45160136171035 0 0 0 0 4895.6790509240018 2136.4480214815703 0 2136.4480214815703 1329.0609410862089 0 0 0 0 1558.3570560049266 -2087.4475709414255 0 -2087.4475709414255 381.51186516112648 0 0 0 0 5.4202287723017406 -0.10030977304634803 0 -0.10030977304634803 -5.6339109926420861 0 0 0 0 9.7044423302527889 6.1618032347581959 0 6.1618032347581959 -32.397390519837245 0 0 0 0 1008.7233944172472 -14.438166123189148 0 -14.438166123189148 44.050717512320261 0 0 0 0 1156.1011945267055 920.3767632622621 0 920.3767632622621 488.36775160877733 0 0 0 0 2.4199684903528293 16.49947937591719 0 16.49947937591719 -22.878629871202577 0 0 0 0 1537.509181974455 647.2276582141003 0 647.2276582141003 351.38803792675026 0 0 0 0 1588.7943648615292 710.04122359163011 0 710.04122359163011 207.72332629159791 0 0 0 0 1540.0206268815145 560.20590516254833 0 560.20590516254833 588.72090670233592 0 0 0 0 1514.5877258893597 731.68374462611973 0 731.68374462611973 461.52799842337845 0 0 0 0 1974.9853231229063 325.26596296031494 0 325.26596296031494 -97.686434186762199 0 0 0 0 958.23549021593681 208.89963526702195 0 208.89963526702195 925.7408912195533 0 0 0 0 986.92619348077278 234.56911598656734 0 234.56911598656734 -834.91757030616282 0 0 0 0 25.06793228771258 40.273894397952517 0 40.273894397952517 -42.685107450786745 0 0 0 0 24.864116557835132 38.311137613323808 0 38.311137613323808 -35.769875063851941 0 0 0 0 22.801235397478194 34.372328049139469 0 34.372328049139469 -41.110877645187429 0 0 0 0 4.1961040686534847 15.453379861389521 0 15.453379861389521 -26.002771208601871 0 0 0 0 11.402149302741844 18.428465128162316 0 18.428465128162316 6.0386977564775179 0 0 0 0 55.658333348705128 12.71643725206377 0 12.71643725206377 -34.641166842589882 0 0 0 0 45.705780342571416 76.832713278156007 0 76.832713278156007 -38.424397777896957 0 0 0 0 43.435339201359511 58.494171850717976 0 58.494171850717976 -55.577863082435215 0 0 0 0 87.28947783606327 -95.599409462243784 0 -95.599409462243784 15.468394772877218 0 0 0 0 -26.912261076750568 81.182417339610765 0 81.182417339610765 -34.393037174566416 0 0 0 0 5.2970826802246096 7.4850327328717583 0 7.4850327328717583 10.878864005839205 0 0 0 0 -20.399421814262496 34.110844211041695 0 34.110844211041695 -5.361187356422306 0 0 0 0 44.633585907763973 22.763849360242602 0 22.763849360242602 -24.337965913931839 0 0 0 0 -42.145768760918372 36.091750580497319 0 36.091750580497319 -26.66368459656951 0 0 0 0 -16.925745219181408 62.055014985584421 0 62.055014985584421 0.045262632124796788 0 0 0 0 -51.022340324684137 45.039447491057217 0 45.039447491057217 -0.07438215788151234 0 0 0 0 204.25988179079332 -210.46648303952315 0 -210.46648303952315 81.87536825260031 0 0 0 0 -1.2071514347598882 2.603029897604074 0 2.603029897604074 6.028872106178369 0 0 0 0 2.1602406226666986 1.8309652844362461 0 1.8309652844362461 3.5200759351179158 0 0 0 0 -460.43343647977099 500.34156045490818 0 500.34156045490818 220.75394711215631 0 0 0 0 566.43021359099612 838.90937606322041 0 838.90937606322041 -3.1369179178145714 0 0 0 0 -235.19307815491936 -145.88278456737862 0 -145.88278456737862 147.64886480986024 0 0 0 0 95.466607024489349 33.55415792040003 0 33.55415792040003 -217.67777274971013 0 0 0 0 184.91394620603842 408.23824837886787 0 408.23824837886787 -6.4517883967346279 0 0 0 0 841.70322726145241 1083.3912124816925 0 1083.3912124816925 0.89837657108261948 0 0 0 0 543.58458098113806 341.5171501589939 0 341.5171501589939 -84.28353989552852 0 0 0 0 2308.784717839816 99.696905801811226 0 99.696905801811226 -246.43506224770681 0 0 0 0 82.117483504940537 928.89252183154895 0 928.89252183154895 -11.054802273501991 0 0 0 0 696.17870959926222 501.13094608173196 0 501.13094608173196 -12.144249020697316 0 0 0 0 131.4398878160664 647.18365322669706 0 647.18365322669706 237.93642256630119 0 0 0 0 315.3202381061592 538.52653620037745 0 538.52653620037745 -15.182675455987919 0 0 0 0 -20.741634466910909 32.109956838503422 0 32.109956838503422 -38.351169800429489 0 0 0 0 -122.63649045852571 154.02537722059787 0 154.02537722059787 -71.660095790641208 0 0 0 0 721.58294873528757 234.68432799487346 0 234.68432799487346 -39.876437764149159 0 0 0 0 5.4282464334441478 7.4814672249624437 0 7.4814672249624437 5.7170463260530369 0 0 0 0 508.81038895544953 229.04397023940146 0 229.04397023940146 12.451299552951241 0 0 0 0 82.483159039442398 129.48448917391943 0 129.48448917391943 61.056104730778316 0 0 0 0 -10.273956544217071 48.518073244500556 0 48.518073244500556 -9.5808318358613178 0 0 0 0 6.3549811185777054 11.955555104141538 0 11.955555104141538 4.1926638053421357 0 0 0 0 138.66517871350243 89.417204119697999 0 89.417204119697999 41.382074986526277 0 0 0 0 28.516041200549807 2.5516940246452577 0 2.5516940246452577 -17.318664945894852 0 0 0 0 15.191349949773077 18.059202577389556 0 18.059202577389556 -9.6962702758528962 0 0 0 0 16.174336865716214 20.923783386671857 0 20.923783386671857 -12.337335460120812 0 0 0 0 16.152978937095298 16.006852487402909 0 16.006852487402909 -6.3435108856058946 0 0 0 0 29.429572633198404 20.531294937682105 0 20.531294937682105 -16.178622629689926 0 0 0 0 89.390423514680151 54.576739724056097 0 54.576739724056097 -26.726507179719192 0 0 0 0 29.508661082035218 12.123284588912895 0 12.123284588912895 -1.5583250166772302 0 0 0 0 89.698688392086297 65.869958700328425 0 65.869958700328425 2.4946830811968539 0 0 0 0 196.13824856997235 222.83144666298176 0 222.83144666298176 130.08009384764591 0 0 0 0 -26.360925174714794 46.17509110768151 0 46.17509110768151 196.89815701990301 0 0 0 0 137.48513493366045 364.60423318536778 0 364.60423318536778 429.92896093119634 0 0 0 0 25.502186564932344 252.55013608915033 0 252.55013608915033 350.93285200319951 0 0 0 0 17.528050396889739 346.4182116548327 0 346.4182116548327 -176.53151004086249 0 0 0 0 -224.81582269975479 200.4017265473376 0 200.4017265473376 -222.28692211099769 0 0 0 0 18.223218450398292 9.2278240604297253 0 9.2278240604297253 2.3657548872814544 0 0 0 0 133.48313137558034 208.66013660925091 0 208.66013660925091 361.19804771854251 0 0 0 0 -459.68359446021714 175.93162018410931 0 175.93162018410931 84.560926495090825 0 0 0 0 36.85840040228868 -14.621282135383808 0 -14.621282135383808 -51.079832095041638 0 0 0 0 -3.7768216680419897 3.3508866199385352 0 3.3508866199385352 -3.3897653778678318 0 0 0 0 -109.20569785576299 576.7208085443126 0 576.7208085443126 -481.35611606744351 0 0 0 0 -493.79418559784972 526.61647830392758 0 526.61647830392758 -209.51959231550427 0 0 0 0 139.26391756458361 239.66926736167807 0 239.66926736167807 -608.52392277643958 0 0 0 0 -614.99653255389421 202.40122853629873 0 202.40122853629873 44.371445431082975 0 0 0 0 -164.86289844638486 459.36537660544127 0 459.36537660544127 -819.58918467629701 0 0 0 0 -649.51979058549114 569.75500060687773 0 569.75500060687773 -191.03746768154087 0 0 0 0 -397.69488191977143 555.70732857368421 0 555.70732857368421 -404.67469655603782 0 0 0 0 -36.555395314622729 189.86974727315828 0 189.86974727315828 -273.83441155985201 0 0 0 0 -39.211006466270192 -66.247369602147955 0 -66.247369602147955 -75.23145200957515 0 0 0 0 -306.47048074851045 159.36127430362103 0 159.36127430362103 8.2771197210458922 0 0 0 0 85.261996993175217 5.9112293431226135 0 5.9112293431226135 -58.517334460018901 0 0 0 0 -5.4693169120491554 22.13657103194646 0 22.13657103194646 -31.16611904854426 0 0 0 0 29.097623027490044 23.104508123826236 0 23.104508123826236 -16.300883490679553 0 0 0 0 96.31971596693802 54.16290268994635 0 54.16290268994635 -34.723490330419736 0 0 0 0 16.881345409121423 -24.457318776254397 0 -24.457318776254397 -38.956606712803477 0 0 0 0 33.200100092333741 21.37841203095013 0 21.37841203095013 -17.709452290262561 0 0 0 0 -41.413898827458979 35.565967277114396 0 35.565967277114396 -4.5470994943170808 0 0 0 0 -134.05355750022682 13.915226744553365 0 13.915226744553365 21.307148907653755 0 0 0 0 -6.5135139322498716 12.526998575633456 0 12.526998575633456 -4.5343320402118934 0 0 0 0 -31.184874489139474 37.824443744888413 0 37.824443744888413 154.99735514319036 0 0 0 0 -43.377624246961204 77.506473665882368 0 77.506473665882368 159.97601941509311 0 0 0 0 -104.37591433772263 539.15583447070276 0 539.15583447070276 -246.35479070432484 0 0 0 0 21.57764511190905 29.11005873359602 0 29.11005873359602 39.557844448147932 0 0 0 0 -7.6299289661910734 72.382324862264795 0 72.382324862264795 29.647357665882737 0 0 0 0 5.8162027887611316 10.030447974190992 0 10.030447974190992 15.577103747834485 0 0 0 0 522.41001175238125 68.825026864637039 0 68.825026864637039 -396.33968601915694 0 0 0 0 950.05715909834908 290.29353796094074 0 290.29353796094074 -292.81753406624193 0 0 0 0 387.68771295901752 670.46118681665394 0 670.46118681665394 105.46216224078671 0 0 0 0 545.65556036256385 302.09981234055886 0 302.09981234055886 -534.24735082780535 0 0 0 0 284.01808915498259 239.44833692275279 0 239.44833692275279 -448.65010109326249 0 0 0 0 -127.79227537083352 354.28604213401559 0 354.28604213401559 -169.24683240386366 0 0 0 0 296.64460396968843 722.80560157304717 0 722.80560157304717 150.69295834371587 0 0 0 0 101.15935342681223 189.31884011860529 0 189.31884011860529 -779.4203993955889 0 0 0 0 6.015239306096035 4.5990295709736415 0 4.5990295709736415 1.299770448895373 0 0 0 0 397.68801086187159 465.19850023055915 0 465.19850023055915 -524.51634010551697 0 0 0 0 474.87290447372288 767.34294342526118 0 767.34294342526118 448.32003316914779 0 0 0 0 -6.848437119533628 396.49646762992779 0 396.49646762992779 1419.5129380583276 0 0 0 0 137.99106047212717 15.638045788156887 0 15.638045788156887 453.17045021729427 0 0 0 0 -173.88592015676841 301.59209855260269 0 301.59209855260269 321.43164115826903 0 0 0 0 -258.66496603648193 122.31056921200434 0 122.31056921200434 95.430967352440348 0 0 0 0 -433.49485129139066 160.89665756937757 0 160.89665756937757 162.54347264184617 0 0 0 0 -410.81112302986776 290.11108200760737 0 290.11108200760737 25.517315147415502 0 0 0 0 28.002827902278838 51.096438369557546 0 51.096438369557546 54.740671102239219 0 0 0 0 -355.54674016628405 168.11610256712993 0 168.11610256712993 -3.8949321966792922 0 0 0 0 -360.36859944001844 148.34994170627033 0 148.34994170627033 174.30211745674023 0 0 0 0 -359.39971586858837 52.167484926148973 0 52.167484926148973 108.07114183067461 0 0 0 0 -363.24763031001203 26.587142328600748 0 26.587142328600748 190.84277775696137 0 0 0 0 -281.34470238003996 9.3719064850665745 0 9.3719064850665745 25.793199170802836 0 0 0 0 -24.21500098945809 14.763458463119065 0 14.763458463119065 9.4100996306677303 0 0 0 0 -803.81390184009433 -208.86973136209417 0 -208.86973136209417 77.363544602852926 0 0 0 0 2045.0430055936572 2528.3620695447225 0 2528.3620695447225 2555.6250402950391 0 0 0 0 1982.5311257860562 1597.8108614539333 0 1597.8108614539333 2082.5138692744658 0 0 0 0 142.43467895566391 345.47709602405666 0 345.47709602405666 328.60645124465736 0 0 0 0 -1.8708527887456512 485.63610799948583 0 485.63610799948583 192.95410415838705 0 0 0 0 -328.10254409593836 -49.482981056105928 0 -49.482981056105928 302.63411743656388 0 0 0 0 -587.22233594768841 254.99507773930236 0 254.99507773930236 172.65855990290675 0 0 0 0 -381.33032238042506 183.99174953668989 0 183.99174953668989 8.0348623844620306 0 0 0 0 -5.6564079813905153 5.4514507958088814 0 5.4514507958088814 3.7873390609280477 0 0 0 0 -2130.220717193105 -402.903187713855 0 -402.903187713855 50.067815581714967 0 0 0 0 -777.01799236312581 1079.1248777662477 0 1079.1248777662477 -1.2772443896537879 0 0 0 0 3513.4879269826924 2595.1195425790356 0 2595.1195425790356 2056.437623502803 0 0 0 0 2930.9016190318289 2414.2138610306865 0 2414.2138610306865 1519.0118210829387 0 0 0 0 2768.4399850044865 2384.4507142086295 0 2384.4507142086295 2684.0717031928361 0 0 0 0 2913.2307422748563 2556.0767326862961 0 2556.0767326862961 1760.1616361664201 0 0 0 0 2929.1472351662705 2494.0576451507586 0 2494.0576451507586 5.4004363543645013 0 0 0 0 3140.362763812911 3262.8923444389511 0 3262.8923444389511 3.9098735323272522 0 0 0 0 4011.391183081636 3271.5896706468484 0 3271.5896706468484 2406.2142412042303 0 0 0 0 3157.3543518151855 3528.7203526602898 0 3528.7203526602898 2791.5156349731842 0 0 0 0 22.200447729768669 18.741373917786319 0 18.741373917786319 7.6855036597855815 0 0 0 0 58.330893935777567 44.210592008428648 0 44.210592008428648 0.10351176225231029 0 0 0 0 -4.4858819197688717 111.17415224855358 0 111.17415224855358 65.912069906393299 0 0 0 0 61.238102983401831 42.768261963105431 0 42.768261963105431 -16.7813926547759 0 0 0 0 79.92109470959258 52.159043066276354 0 52.159043066276354 2.7899422580958344 0 0 0 0 159.71379014491686 25.339035630429862 0 25.339035630429862 108.66730788000859 0 0 0 0 -14.589226829996534 3.9673751443170602 0 3.9673751443170602 50.970982427720458 0 0 0 0 3433.113602750961 3637.7272078653377 0 3637.7272078653377 3131.8602309056441 0 0 0 0 -72.549792759367847 129.85138073860435 0 129.85138073860435 70.758970991315437 0 0 0 0 -10.337301426691681 4.5130929270238767 0 4.5130929270238767 24.219589112912729 0 0 0 0 16.031222850211634 246.31557276547392 0 246.31557276547392 140.75610863312613 0 0 0 0 -84.422194602011587 142.90512679597305 0 142.90512679597305 81.443513437443471 0 0 0 0 85.976645253769675 47.9833033462819 0 47.9833033462819 -0.24811792078253347 0 0 0 0 186.37425915487256 121.49194568255916 0 121.49194568255916 53.23178951216687 0 0 0 0 222.003290206354 93.676220968558482 0 93.676220968558482 1.1655272799835075 0 0 0 0 84.423723238314835 35.456326777041738 0 35.456326777041738 -19.900367447932254 0 0 0 0 -10.012978246450075 638.31153615649964 0 638.31153615649964 -1374.2772232046773 0 0 0 0 669.22206612331502 1504.4583893346426 0 1504.4583893346426 -621.15109578620468 0 0 0 0 -1125.0660906367411 1877.2622038042828 0 1877.2622038042828 1621.1571441876877 0 0 0 0 78.867011788963282 805.49281315658664 0 805.49281315658664 -187.79993766077678 0 0 0 0 2773.8977237411018 2002.1970768880201 0 2002.1970768880201 185.84289348327729 0 0 0 0 444.15100601523591 3042.300468941452 0 3042.300468941452 3643.6570418485935 0 0 0 0 135.2407287735914 2176.539643305965 0 2176.539643305965 1672.6560355239071 0 0 0 0 991.29760726128006 3038.5876610025662 0 3038.5876610025662 3031.1237538593414 0 0 0 0 116.07927091846068 2242.3772390401718 0 2242.3772390401718 2372.4304161627952 0 0 0 0 -32.616956193196543 35.26805577311066 0 35.26805577311066 4.0282945853430192 0 0 0 0 1102.1293508708332 2135.7116014060448 0 2135.7116014060448 1647.2598986530975 0 0 0 0 -262.74616500987031 -21.763250046147732 0 -21.763250046147732 -8.2935286403517239 0 0 0 0 1336.2540444061451 1100.9221636641159 0 1100.9221636641159 1500.5363688298967 0 0 0 0 1902.4897678753186 1078.7953953822725 0 1078.7953953822725 1296.5602622542356 0 0 0 0 2742.0412899276271 2463.884239381543 0 2463.884239381543 1613.3816618246292 0 0 0 0 3036.0585447161575 2494.5665885590279 0 2494.5665885590279 1237.0867141948656 0 0 0 0 2923.4549968595675 2035.2359861755976 0 2035.2359861755976 2697.1191189577512 0 0 0 0 -1972.0530752748236 239.54915050814816 0 239.54915050814816 140.90660881361691 0 0 0 0 1.0668462208510618 3.4674234815234968 0 3.4674234815234968 2.2092010323797808 0 0 0 0 3971.4018106724616 4315.3485197727568 0 4315.3485197727568 2791.6697544163544 0 0 0 0 2073.2731096926873 1550.1968589163153 0 1550.1968589163153 433.22907794182538 0 0 0 0 5640.3649373798871 -561.52604174977932 0 -561.52604174977932 646.45311957394006 0 0 0 0 4574.6995751928189 906.69761258269864 0 906.69761258269864 -705.4902889644145 0 0 0 0 1503.4252782019903 940.48796637949999 0 940.48796637949999 -0.61345637189515401 0 0 0 0 3157.9231567259776 1713.5927744230576 0 1713.5927744230576 681.34748547326308 0 0 0 0 2810.2118395136422 3164.0826598401109 0 3164.0826598401109 3527.2291507259215 0 0 0 0 45.488023138182371 7.8003974649549264 0 7.8003974649549264 -6.4799924905414343 0 0 0 0 6173.5678350047674 2877.3419546726218 0 2877.3419546726218 -13.326109271940368 0 0 0 0 2883.0352770684731 1155.485401655551 0 1155.485401655551 0.22903440298978239 0 0 0 0 240.76160432250981 919.95575442640256 0 919.95575442640256 1570.5688272347907 0 0 0 0 93.489236715480558 23.289066277412871 0 23.289066277412871 -16.904128075169226 0 0 0 0 1372.6978216960561 -91.887417282079696 0 -91.887417282079696 -4039.0947790149221 0 0 0 0 708.72401204065682 515.49538351286174 0 515.49538351286174 331.82348312591785 0 0 0 0 406.08777938221465 1674.4227984987665 0 1674.4227984987665 -632.60761391755659 0 0 0 0 1344.0889803861719 -405.43389773074887 0 -405.43389773074887 1663.4372456509882 0 0 0 0 1653.7892213672312 636.77864354968187 0 636.77864354968187 979.1115988632373 0 0 0 0 -732.45859443003792 -1741.0930770603445 0 -1741.0930770603445 -1169.0318340173981 0 0 0 0 3194.8094584255959 -1980.5739078103361 0 -1980.5739078103361 -5431.8062038302014 0 0 0 0 4778.3250979981531 670.70630733750295 0 670.70630733750295 -3129.6884170098419 0 0 0 0 2899.830781503726 -985.49053198320325 0 -985.49053198320325 -2194.6786024528337 0 0 0 0 1371.4630342312303 -555.35927094290673 0 -555.35927094290673 264.48217064968776 0 0 0 0 2398.467822351784 459.55334525796934 0 459.55334525796934 1224.4379341480962 0 0 0 0 3752.3450579249111 408.98244713411259 0 408.98244713411259 -94.694505491352174 0 0 0 0 3887.7033565708116 680.51214461599011 0 680.51214461599011 -1309.5494443760545 0 0 0 0 3993.1246301199644 1142.0172659861892 0 1142.0172659861892 180.3992742128321 0 0 0 0 2651.0758305529307 1.4963931455713464 0 1.4963931455713464 196.53872135475831 0 0 0 0 5483.9207484128419 2284.2157099623873 0 2284.2157099623873 -527.06848121486837 0 0 0 0 3766.0075118470268 2557.4956912507623 0 2557.4956912507623 1044.8014794101182 0 0 0 0 2980.1480182470059 2037.6809243153239 0 2037.6809243153239 -412.801278858562 0 0 0 0 3118.503428309923 1180.0442458384787 0 1180.0442458384787 867.80651940344251 0 0 0 0 2835.349444734733 1120.9334483054117 0 1120.9334483054117 889.91574963135645 0 0 0 0 3080.0695472586522 671.06638463369745 0 671.06638463369745 1396.9464198522328 0 0 0 0 3737.8944440749037 1190.7782800656787 0 1190.7782800656787 284.16835616549361 0 0 0 0 3257.2733408504209 745.80548982044274 0 745.80548982044274 1044.6105549338099 0 0 0 0 3396.754433133261 517.33439290426759 0 517.33439290426759 711.95368972836877 0 0 0 0 2582.9068155718705 681.44815727148671 0 681.44815727148671 1443.1851185980486 0 0 0 0 2532.1019419401491 795.38220438791541 0 795.38220438791541 1923.8472919797059 0 0 0 0 2372.0884957917442 386.66400548364618 0 386.66400548364618 1269.7860399557394 0 0 0 0 2423.7479197606262 1606.248553329483 0 1606.248553329483 2764.0548690240539 0 0 0 0 2804.619373540525 1191.6773801376185 0 1191.6773801376185 1468.2258981259656 0 0 0 0 2507.3589165909798 1153.4024825060478 0 1153.4024825060478 1566.4720515686786 0 0 0 0 3101.7690313500643 1782.1350126166944 0 1782.1350126166944 1123.8557859273424 0 0 0 0 2886.6720301693131 2295.2707995033925 0 2295.2707995033925 2272.9405439825059 0 0 0 0 3039.8322314395627 2054.5307911819546 0 2054.5307911819546 1877.1203135434189 0 0 0 0 1915.3149002948994 682.51554509114067 0 682.51554509114067 2544.1630752481578 0 0 0 0 2012.1844510778465 314.35336574580288 0 314.35336574580288 1243.4867469271558 0 0 0 0 1024.7887871622006 2158.6850573186803 0 2158.6850573186803 4995.5598900877812 0 0 0 0 5.6879540451316473 -16.863922625933014 0 -16.863922625933014 39.501378961426212 0 0 0 0 5195.6020784835491 4134.0031844297519 0 4134.0031844297519 3157.321384575087 0 0 0 0 698.67548202929902 279.91524309487431 0 279.91524309487431 -713.80973581896978 0 0 0 0 -565.39413496953421 198.04062112643624 0 198.04062112643624 792.92052123419126 0 0 0 0 -166.85383468441432 390.12898231530562 0 390.12898231530562 1310.7137050244492 0 0 0 0 198.91661008627852 835.27230386977317 0 835.27230386977317 -231.93555269995704 0 0 0 0 -288.6687362222583 911.0869846190617 0 911.0869846190617 418.56243230984546 0 0 0 0 466.80805023681023 83.817565357254352 0 83.817565357254352 539.50311713782139 0 0 0 0 -455.29642120897915 916.88323230037349 0 916.88323230037349 1421.9890644883853 0 0 0 0 124.73892605446207 108.81192555503372 0 108.81192555503372 -155.47085902732948 0 0 0 0 188.33718917035731 284.96126559075492 0 284.96126559075492 229.25710852933116 0 0 0 0 182.84910471824696 264.83222992331866 0 264.83222992331866 185.48336172091513 0 0 0 0 145.43822049998562 237.18403377945651 0 237.18403377945651 166.36056640549214 0 0 0 0 297.03420604718849 -12.312449361663312 0 -12.312449361663312 322.16611047263723 0 0 0 0 108.54466146531729 112.80903486037556 0 112.80903486037556 -142.99925278381659 0 0 0 0 3388.0075239026264 2693.3911643307074 0 2693.3911643307074 2024.4434162584657 0 0 0 0 3304.0380316588271 2466.8939674426983 0 2466.8939674426983 2130.4933211664029 0 0 0 0 22.602808233869098 -11.260825030114972 0 -11.260825030114972 148.67842849536362 0 0 0 0 2988.4274135511077 1911.3701945919893 0 1911.3701945919893 1624.5243426932429 0 0 0 0 3039.1770235822769 1715.370826741957 0 1715.370826741957 1052.9366854479304 0 0 0 0 3422.8264407998067 2403.0174693168665 0 2403.0174693168665 712.73458000563551 0 0 0 0 3233.1034928892186 2412.3690162376733 0 2412.3690162376733 1278.1464966468338 0 0 0 0 3323.997374057275 2594.3313419623155 0 2594.3313419623155 1629.6126498327524 0 0 0 0 2624.377414167684 3673.8677761518047 0 3673.8677761518047 2964.6758694085665 0 0 0 0 2946.5438005885226 2951.8755331038556 0 2951.8755331038556 2995.1335950260254 0 0 0 0 1767.5852619286743 4784.8638387192623 0 4784.8638387192623 2146.6209813471942 0 0 0 0 4093.3791605306033 4451.1824063547101 0 4451.1824063547101 2149.3083459488407 0 0 0 0 2778.5493422292639 3587.7861182190245 0 3587.7861182190245 1590.1570623446605 0 0 0 0 3368.7932507249061 3115.682313355559 0 3115.682313355559 1812.9365083602606 0 0 0 0 3253.937120342016 2530.6332995646517 0 2530.6332995646517 545.88276240290725 0 0 0 0 3708.986187657858 2666.8902255622015 0 2666.8902255622015 455.96322016936028 0 0 0 0 5366.334909227342 3173.4468604959184 0 3173.4468604959184 33.900008690776303 0 0 0 0 4410.1595362423832 1945.1914617956863 0 1945.1914617956863 -666.42838498629862 0 0 0 0 3852.0289829610265 2475.5621627071232 0 2475.5621627071232 -123.51769375496951 0 0 0 0 2354.1010435744829 1026.6064021734928 0 1026.6064021734928 -294.25261471845442 0 0 0 0 3646.8428974359413 2039.2344603212405 0 2039.2344603212405 213.69054058945039 0 0 0 0 2956.0702996907348 2200.224897852313 0 2200.224897852313 295.58621668425621 0 0 0 0 1881.9203150786416 1769.8172702471311 0 1769.8172702471311 542.42980549670756 0 0 0 0 2926.2520376687171 2148.8053642863524 0 2148.8053642863524 860.43741030964884 0 0 0 0 3007.9217112973492 1886.8685264078231 0 1886.8685264078231 146.46934732218506 0 0 0 0 1599.0228558557137 2797.4768258163895 0 2797.4768258163895 137.53681974619394 0 0 0 0 2337.6965124684502 1752.0434913763893 0 1752.0434913763893 660.13920245283225 0 0 0 0 -37.866467809306286 33.09636446250002 0 33.09636446250002 10.67431894335806 0 0 0 0 145.45474630947865 185.2872486703418 0 185.2872486703418 133.29772218113067 0 0 0 0 44.392967256923782 45.37385587717381 0 45.37385587717381 -69.925798978998046 0 0 0 0 31.489743194579205 130.45615718040062 0 130.45615718040062 69.776264205152984 0 0 0 0 -6.7591099491037312 113.487750780434 0 113.487750780434 53.785574167268351 0 0 0 0 -16.559674208707293 81.360440152289812 0 81.360440152289812 21.256728216685588 0 0 0 0 -184.471599536133 124.97275461058598 0 124.97275461058598 -86.787473161995877 0 0 0 0 1036.348118379814 223.81599371033371 0 223.81599371033371 -18.445863106637262 0 0 0 0 23.790936202267631 60.035592560569114 0 60.035592560569114 -3.6690465944706148 0 0 0 0 26.712054864602678 51.113283547108267 0 51.113283547108267 -14.295635242622552 0 0 0 0 41.741604645067127 60.062499643128831 0 60.062499643128831 32.092422575457022 0 0 0 0 11.823513622673175 78.447214750614663 0 78.447214750614663 -1.3399305107825512 0 0 0 0 105.65591031711665 59.970588567375671 0 59.970588567375671 4.6850429537007585 0 0 0 0 19.419924196470745 15.865334619486021 0 15.865334619486021 -2.2309989992872943 0 0 0 0 1394.0641741844593 1735.2626171613956 0 1735.2626171613956 630.52944298961665 0 0 0 0 -11.250330519847751 5.7238858752954513 0 5.7238858752954513 -1.2409889643553811 0 0 0 0 598.01227933953851 1353.2271976508673 0 1353.2271976508673 1688.0339897441445 0 0 0 0 1193.0721684127129 2124.8460825797665 0 2124.8460825797665 1559.2763948346255 0 0 0 0 539.25483274235739 776.58221533422329 0 776.58221533422329 1183.4756548612422 0 0 0 0 -729.19496378663462 6.208440485803294 0 6.208440485803294 3370.8497068535762 0 0 0 0 340.03080298259738 610.74462520785164 0 610.74462520785164 1188.1436319828281 0 0 0 0 -874.37052616830624 -857.02067268466635 0 -857.02067268466635 722.83916657115333 0 0 0 0 442.93027852846717 971.37655629232177 0 971.37655629232177 1361.1387302763032 0 0 0 0 67.612184027209878 160.94896162095392 0 160.94896162095392 68.186130003188737 0 0 0 0 -20.146755923375906 50.993407594345769 0 50.993407594345769 26.211974054753114 0 0 0 0 77.4036729520667 134.67215954344647 0 134.67215954344647 95.69207987660775 0 0 0 0 35.287210455192422 72.746315395807983 0 72.746315395807983 -35.989366917993095 0 0 0 0 642.79931341318297 149.77846554055577 0 149.77846554055577 -172.21497779351193 0 0 0 0 145.2335632561684 252.77905281998017 0 252.77905281998017 187.81096368383442 0 0 0 0 96.65650611203472 142.85883674378539 0 142.85883674378539 96.718400765556851 0 0 0 0 -57.0725175549195 69.460186018889971 0 69.460186018889971 68.770840609693721 0 0 0 0 118.8333406446327 232.35937370644388 0 232.35937370644388 194.19307944924367 0 0 0 0 -22.557892719742085 154.19625487380836 0 154.19625487380836 142.8492781964087 0 0 0 0 -46.467142897174199 71.60675994392659 0 71.60675994392659 150.95372083650727 0 0 0 0 47.75017985244682 97.731355730869481 0 97.731355730869481 105.99679524854372 0 0 0 0 20.294714669003952 105.40847571130507 0 105.40847571130507 127.97604299333761 0 0 0 0 61.530634245464171 179.640657808166 0 179.640657808166 137.35415899855252 0 0 0 0 -6.8148373417498078 81.39072005826165 0 81.39072005826165 109.48201017990505 0 0 0 0 -57.880695722531527 84.280203293208615 0 84.280203293208615 138.83811409737245 0 0 0 0 67.781189297344412 92.241652933085959 0 92.241652933085959 98.662042113486109 0 0 0 0 8.5634306331721746 31.78003885203816 0 31.78003885203816 183.10225123669079 0 0 0 0 40.855934689427158 128.77930025531532 0 128.77930025531532 93.82226180183352 0 0 0 0 -6.6691087188519305 130.05199395529053 0 130.05199395529053 127.21929995325127 0 0 0 0 -6.828828074852936 128.05511320359074 0 128.05511320359074 118.44692256445114 0 0 0 0 -8.5543020516779507 121.78677574700851 0 121.78677574700851 126.85346726514399 0 0 0 0 -9.487456780665525 118.82628450784614 0 118.82628450784614 117.94907863301341 0 0 0 0 131.51476885481679 257.05403133825166 0 257.05403133825166 239.2657614912896 0 0 0 0 -76.725254099892624 35.401489816125718 0 35.401489816125718 42.288515753327829 0 0 0 0 36.171878995890438 151.00494012841955 0 151.00494012841955 120.34808344377961 0 0 0 0 25.980711345353484 140.14600248949137 0 140.14600248949137 -26.872519339609426 0 0 0 0 0.7998591293253412 120.38296103622997 0 120.38296103622997 118.51667433101102 0 0 0 0 -28.337414319990785 521.15886345469335 0 521.15886345469335 -411.17174656245334 0 0 0 0 80.950480817002244 252.07434601319255 0 252.07434601319255 -375.27870358944347 0 0 0 0 23.004128272792002 85.554422518652956 0 85.554422518652956 32.370287916237643 0 0 0 0 -362.18108013802703 226.45597911727964 0 226.45597911727964 610.45404075844272 0 0 0 0 -102.31140069680987 767.46292703538347 0 767.46292703538347 -106.33941449949634 0 0 0 0 24.179605313693344 83.948398547680199 0 83.948398547680199 29.355649770441346 0 0 0 0 -577.84914723176917 63.571168011851114 0 63.571168011851114 1132.9479905542903 0 0 0 0 13.804534121845791 212.98684979629616 0 212.98684979629616 93.954000155576068 0 0 0 0 42.584840439028994 117.20416379449125 0 117.20416379449125 -156.62451899178268 0 0 0 0 -5.0264363747701282 160.56342231250164 0 160.56342231250164 113.77936641173437 0 0 0 0 1382.7329626628198 -52.495431297880714 0 -52.495431297880714 -2735.0332141959225 0 0 0 0 -160.08877112914342 32.106488871999318 0 32.106488871999318 -533.8052347852863 0 0 0 0 78.968851969130696 10.698775131447064 0 10.698775131447064 -21.469682745760906 0 0 0 0 203.66274198066094 1143.2585717292677 0 1143.2585717292677 -1081.0047945872429 0 0 0 0 81.310827265901025 1282.112259300804 0 1282.112259300804 232.58475990331317 0 0 0 0 -240.84242542028369 205.91732353801126 0 205.91732353801126 255.58394718918134 0 0 0 0 14568.130774839607 13014.700226338849 0 13014.700226338849 14642.044040048633 0 0 0 0 5944.0483755214082 2639.5800104079244 0 2639.5800104079244 -3906.2242724895477 0 0 0 0 6503.1040516656794 8941.2461185098655 0 8941.2461185098655 5321.142804879928 0 0 0 0 -6045.631312081503 5281.7061074129597 0 5281.7061074129597 14805.222120267776 0 0 0 0 9012.4441580594867 5472.9554700021399 0 5472.9554700021399 -1457.9129233036729 0 0 0 0 1251.0097688743845 2726.697534278268 0 2726.697534278268 3712.9283467632195 0 0 0 0 187.97288432711503 541.29575885123631 0 541.29575885123631 235.0174303648364 0 0 0 0 122.46552626054358 23.692276941948705 0 23.692276941948705 -32.829909857074512 0 0 0 0 181.72874435238191 270.10016425303183 0 270.10016425303183 186.50638958961645 0 0 0 0 301.44480444157671 429.22318958838878 0 429.22318958838878 316.70875212135434 0 0 0 0 -112.27262700506981 476.73774398617024 0 476.73774398617024 1758.5503225743887 0 0 0 0 26.847623493609717 319.31862580674351 0 319.31862580674351 295.39644895274614 0 0 0 0 370.05190487539221 479.53142167779151 0 479.53142167779151 335.91071855399059 0 0 0 0 128.37541260427679 317.64990057938849 0 317.64990057938849 316.57457634527236 0 0 0 0 273.80420922373742 279.61273456236449 0 279.61273456236449 198.18404752881906 0 0 0 0 32.951042438055083 40.313178913521654 0 40.313178913521654 36.703146686846708 0 0 0 0 100.37541812160634 283.81831081191922 0 283.81831081191922 286.49991330430203 0 0 0 0 63.05118794759619 184.17420466047042 0 184.17420466047042 202.59450104240022 0 0 0 0 166.91354496492932 249.08516204196894 0 249.08516204196894 188.02365968027152 0 0 0 0 -58.348709106096067 85.018390404467937 0 85.018390404467937 193.89202487563807 0 0 0 0 63.659050692454912 147.44767442931334 0 147.44767442931334 83.163535768704605 0 0 0 0 -77.69969151423291 41.944867645357476 0 41.944867645357476 63.862975454453249 0 0 0 0 28.465999118953278 99.677042025288458 0 99.677042025288458 28.584183546431731 0 0 0 0 -121.6315453563584 532.22085423787212 0 532.22085423787212 -393.85429457420832 0 0 0 0 -133.37794862544979 586.07010353569058 0 586.07010353569058 -359.81517894387071 0 0 0 0 -265.02813399885781 413.98365709720383 0 413.98365709720383 -435.22009295874159 0 0 0 0 -263.30111901246414 285.88995763565731 0 285.88995763565731 -561.31044644821668 0 0 0 0 -31.258525635223549 62.71153571695092 0 62.71153571695092 -45.350991357249256 0 0 0 0 -136.69357215864852 426.15360066427559 0 426.15360066427559 -630.0606826673029 0 0 0 0 -444.37866432449664 967.70734866170096 0 967.70734866170096 -22.799327181215631 0 0 0 0 -22.749144425449572 30.180571223575399 0 30.180571223575399 9.9200912726353323 0 0 0 0 -44.823021973032155 750.81385059810054 0 750.81385059810054 -1152.7832750128 0 0 0 0 74.563737417345692 270.8270397900742 0 270.8270397900742 344.67486787009693 0 0 0 0 -4.473489843684888 3.9603199124533717 0 3.9603199124533717 1.0309278826171635 0 0 0 0 -113.49221138042776 813.40082296220862 0 813.40082296220862 -2067.1340682458977 0 0 0 0 -113.10017034524935 480.00256778639596 0 480.00256778639596 -380.30358560868808 0 0 0 0 -300.20989137105062 635.41686405087603 0 635.41686405087603 -361.0274114102649 0 0 0 0 -34.034406181657687 180.11442742204235 0 180.11442742204235 -288.27325030878637 0 0 0 0 -297.91213326445722 -60.749043692565465 0 -60.749043692565465 215.34555746804108 0 0 0 0 -182.11258466978325 538.04070946991851 0 538.04070946991851 362.39597361901542 0 0 0 0 -490.46543968297192 1025.5915344646928 0 1025.5915344646928 114.18938135776989 0 0 0 0 989.1456989099097 1724.8163095462805 0 1724.8163095462805 -733.00937942031305 0 0 0 0 -554.97546257277736 1034.6294707896939 0 1034.6294707896939 -1843.2932434897084 0 0 0 0 -11.967919330225698 5.1022961908362561 0 5.1022961908362561 1.7014432912672106 0 0 0 0 -564.7656243944557 849.13766901723989 0 849.13766901723989 -1209.3528885184933 0 0 0 0 -34.559895575535393 20.962553681034876 0 20.962553681034876 -12.92150149997164 0 0 0 0 -345.63454140536487 197.58115526139591 0 197.58115526139591 40.277420521437307 0 0 0 0 -42.57057081233333 46.094160005621745 0 46.094160005621745 -63.402891228797102 0 0 0 0 -496.73927097576961 448.53694672051643 0 448.53694672051643 -787.73955842043506 0 0 0 0 -21.841876207812504 55.332416980713163 0 55.332416980713163 -60.837106331904181 0 0 0 0 -627.82369002728956 475.18156075495062 0 475.18156075495062 -783.71930534249987 0 0 0 0 -500.40706098993178 426.84151855185155 0 426.84151855185155 -877.71356041455874 0 0 0 0 -537.34168525860878 295.30741624628718 0 295.30741624628718 -726.45777660062595 0 0 0 0 -302.32369913175353 324.4233436187933 0 324.4233436187933 -834.66200709361874 0 0 0 0 -314.39935797519865 349.46496775952983 0 349.46496775952983 -733.83764979556145 0 0 0 0 -103.58997713209828 282.84629988689267 0 282.84629988689267 -970.80399035345181 0 0 0 0 2.0169773548740864 10.272101642543191 0 10.272101642543191 2.906919802070604 0 0 0 0 -250.62918638915289 441.26006206661259 0 441.26006206661259 -1079.3236670720944 0 0 0 0 -12.264360758765918 16.727163630142769 0 16.727163630142769 -15.416276240279984 0 0 0 0 -464.90324408009474 385.36059919825493 0 385.36059919825493 490.037889491432 0 0 0 0 -153.79039505899709 903.95507201821601 0 903.95507201821601 -1464.6789543232444 0 0 0 0 -131.59467923818738 -83.512678102983045 0 -83.512678102983045 -549.25263182452181 0 0 0 0 26.251118829852203 522.90591201139614 0 522.90591201139614 -2138.9186565065174 0 0 0 0 -259.83625383290928 494.39896296690858 0 494.39896296690858 -2042.0478714322526 0 0 0 0 -50.117337711839355 301.9326296332365 0 301.9326296332365 -100.40348532154894 0 0 0 0 -56.498326309156255 190.66475651405199 0 190.66475651405199 -998.6703175107541 0 0 0 0 -3.9277254792634153 4.0778728718860293 0 4.0778728718860293 1.965884714025492 0 0 0 0 -111.16116454418807 282.68095960535902 0 282.68095960535902 -718.08539716943051 0 0 0 0 -243.72111938367016 208.09261520250584 0 208.09261520250584 -689.2616507690509 0 0 0 0 -241.63078316397696 188.10664515167718 0 188.10664515167718 -597.01953752091504 0 0 0 0 -233.16540327449911 450.7064206319701 0 450.7064206319701 -283.48812703789736 0 0 0 0 -547.75111471218406 510.65341282777808 0 510.65341282777808 -294.37116812719614 0 0 0 0 -628.54997383116643 441.16779724948537 0 441.16779724948537 44.353148258087458 0 0 0 0 -729.22283080079796 145.283695832999 0 145.283695832999 225.44011254710495 0 0 0 0 -1439.1493706140027 -142.57270080278977 0 -142.57270080278977 292.61512269175728 0 0 0 0 -1515.7737078184291 1048.7217543961888 0 1048.7217543961888 -269.2250273063546 0 0 0 0 -795.07557346028625 522.68893586778722 0 522.68893586778722 113.20659561868524 0 0 0 0 -866.63610330919983 784.75617001439423 0 784.75617001439423 79.224521649652161 0 0 0 0 -941.22340060526039 548.55809826750919 0 548.55809826750919 -385.91798774265044 0 0 0 0 1.0198766793173437 -3.0670286497774555 0 -3.0670286497774555 6.8318344633971151 0 0 0 0 1231.1195046284265 552.88136699815368 0 552.88136699815368 -233.04043030259345 0 0 0 0 385.16723287700734 558.17922005801665 0 558.17922005801665 -612.63688291760627 0 0 0 0 -223.99823388899677 880.62832305381016 0 880.62832305381016 57.954987995690317 0 0 0 0 -167.68452479824191 373.52740885340609 0 373.52740885340609 -747.17623645381536 0 0 0 0 -323.70654520895914 359.80900755905168 0 359.80900755905168 -592.61513659733464 0 0 0 0 -344.49606860581844 83.067316426102479 0 83.067316426102479 -444.02132983261254 0 0 0 0 -918.03901365186903 231.40732360008406 0 231.40732360008406 -399.37260386846901 0 0 0 0 -268.12899429147365 318.99690303156967 0 318.99690303156967 -767.65305779553455 0 0 0 0 -1100.2514700551983 737.55241753729933 0 737.55241753729933 -708.84661612175114 0 0 0 0 -168.46744237994426 992.22615895621129 0 992.22615895621129 -81.071273969453614 0 0 0 0 -148.48837681402802 342.8788829632831 0 342.8788829632831 266.57611880699551 0 0 0 0 -770.17077331207838 -10.027963722503046 0 -10.027963722503046 115.24494000495179 0 0 0 0 -398.44114566945063 86.669902619047207 0 86.669902619047207 -9.9131350079769618 0 0 0 0 -309.07044905565635 89.927833127045233 0 89.927833127045233 -48.099082820786862 0 0 0 0 -813.4968941026018 291.52372879202449 0 291.52372879202449 41.263669271211256 0 0 0 0 -323.76305170389242 14.240321773475443 0 14.240321773475443 -348.30970586129115 0 0 0 0 -41.892950934180874 10.537525870062339 0 10.537525870062339 2.2795493695153937 0 0 0 0 -112.16848366020321 102.56922165664054 0 102.56922165664054 53.840713582782655 0 0 0 0 1180.3204254891752 1298.9368878830501 0 1298.9368878830501 -1211.5015437862603 0 0 0 0 1525.4582116510719 1247.8617647443316 0 1247.8617647443316 -793.09224748159613 0 0 0 0 1342.8610371494142 1399.1802415682469 0 1399.1802415682469 -426.53007793860161 0 0 0 0 1830.6069365434814 754.98939550231444 0 754.98939550231444 -827.28006765650935 0 0 0 0 1709.3559916014783 843.90615911086206 0 843.90615911086206 -222.31957198727468 0 0 0 0 1935.3187142152674 352.27979138324372 0 352.27979138324372 -73.398779566021403 0 0 0 0 -29.269573753910663 1089.279441415747 0 1089.279441415747 -2355.1668252909003 0 0 0 0 1.5387725807529478 10.144885872187984 0 10.144885872187984 2.8824606996448097 0 0 0 0 -3533.3674932649301 -833.80853153219505 0 -833.80853153219505 632.22250365900982 0 0 0 0 -2064.8355951696431 2165.916490483738 0 2165.916490483738 1081.8419000356225 0 0 0 0 -442.3900489291118 83.860314012723393 0 83.860314012723393 -487.24329270380258 0 0 0 0 182.64081085483485 -118.82760378770035 0 -118.82760378770035 -542.85752915026387 0 0 0 0 322.31197231669285 374.92936649218609 0 374.92936649218609 -692.42897768551484 0 0 0 0 9.3886711458544596 824.73180774379944 0 824.73180774379944 -1737.8625130705041 0 0 0 0 -602.4820556030063 655.20405064382612 0 655.20405064382612 -709.48330021576839 0 0 0 0 -321.96204594396841 533.60535373174571 0 533.60535373174571 -462.50228047961718 0 0 0 0 -70.383287695876788 173.00088535773102 0 173.00088535773102 -1038.8886882625375 0 0 0 0 -4.2297163610928692 401.29342208227899 0 401.29342208227899 -2353.6352992751199 0 0 0 0 11.615274369655879 18.487496518379274 0 18.487496518379274 4.467663899986519 0 0 0 0 -17.317656128085218 610.07310622380464 0 610.07310622380464 -854.82400062579109 0 0 0 0 -47.744601465642063 374.76739524513198 0 374.76739524513198 -575.66686756620766 0 0 0 0 105.52197612024611 314.18400714757445 0 314.18400714757445 -509.71252659869788 0 0 0 0 -561.59673705122259 190.71159874022123 0 190.71159874022123 -528.36305850253848 0 0 0 0 -32.907170564052649 -101.24235621586558 0 -101.24235621586558 -801.83852698819828 0 0 0 0 10.253706638299604 20.147936973537227 0 20.147936973537227 5.2063630315009988 0 0 0 0 -63.951216883113375 1045.3167712444119 0 1045.3167712444119 -833.25864489757805 0 0 0 0 -760.12455333274556 -286.31355357488792 0 -286.31355357488792 -1447.2516113176389 0 0 0 0 -431.83163456722104 779.32566302127088 0 779.32566302127088 -549.20266131713288 0 0 0 0 406.66024852049304 411.878919337978 0 411.878919337978 -1167.4700742527639 0 0 0 0 1338.5357227392669 1211.5522642293363 0 1211.5522642293363 -808.26719098274771 0 0 0 0 1109.4574210241553 799.55775314287166 0 799.55775314287166 -559.29691630825982 0 0 0 0 1126.4799568791641 1259.9250628366426 0 1259.9250628366426 -795.37365289911395 0 0 0 0 901.3940883968753 1125.2892220409558 0 1125.2892220409558 -354.76542698175763 0 0 0 0 1645.7867548366194 920.08317035429354 0 920.08317035429354 -379.76644296851009 0 0 0 0 963.55595089792041 726.89420219456952 0 726.89420219456952 360.78080433580908 0 0 0 0 250.65727537000203 359.28217219847284 0 359.28217219847284 157.40591959076119 0 0 0 0 915.30197921243962 996.36347625810595 0 996.36347625810595 -260.27234940006747 0 0 0 0 1345.8436410001814 660.23877246932534 0 660.23877246932534 2.601377205690369 0 0 0 0 1122.0499548833468 1022.6590396163301 0 1022.6590396163301 652.36688668833813 0 0 0 0 1027.388359956909 1432.8459649725701 0 1432.8459649725701 1748.1512563600845 0 0 0 0 2313.2632056087023 2487.2943149029979 0 2487.2943149029979 1228.5986212133139 0 0 0 0 1867.116271183826 1228.0761369656684 0 1228.0761369656684 356.7083059430588 0 0 0 0 -330.4699934667733 -10.302913281309884 0 -10.302913281309884 -168.89374541386496 0 0 0 0 -108.38643063756172 118.32718454474525 0 118.32718454474525 -191.46448890543616 0 0 0 0 456.61692202623817 103.57494452303217 0 103.57494452303217 -383.48590999552107 0 0 0 0 741.41340848381515 151.10757853995892 0 151.10757853995892 -14.222986602209858 0 0 0 0 -123.81550463731401 96.01317070062214 0 96.01317070062214 169.49255178612657 0 0 0 0 665.77766350103775 533.78547759230423 0 533.78547759230423 299.74610859694076 0 0 0 0 -67.851908030279446 24.834418191894656 0 24.834418191894656 56.051469365222147 0 0 0 0 -61.423608643206535 87.672532288604998 0 87.672532288604998 280.48641729296651 0 0 0 0 1132.3786868086063 -60.932097133395473 0 -60.932097133395473 -230.88854077729047 0 0 0 0 1202.9440013973726 555.20592320530341 0 555.20592320530341 120.00915502093267 0 0 0 0 1269.3571418793581 277.59504228967126 0 277.59504228967126 334.81674546805152 0 0 0 0 1118.3288420419558 596.86551041759958 0 596.86551041759958 -48.731664972117869 0 0 0 0 170.62705708442081 -431.14549187798548 0 -431.14549187798548 -829.24921041307971 0 0 0 0 -7.0017545895017292 12.198695256336975 0 12.198695256336975 -5.2090545268538904 0 0 0 0 4026.336412070712 2172.3786582634202 0 2172.3786582634202 -142.66019206511555 0 0 0 0 4341.548494399889 549.82176422436896 0 549.82176422436896 -383.52355042903218 0 0 0 0 2499.2307349681505 1386.8434647421673 0 1386.8434647421673 147.4411787664867 0 0 0 0 1742.1577520360006 1043.2634995551052 0 1043.2634995551052 146.1899396245426 0 0 0 0 2002.3786973941023 660.7231818465516 0 660.7231818465516 -62.049144518125104 0 0 0 0 2688.3348490252974 1361.0070565745118 0 1361.0070565745118 42.246701328600466 0 0 0 0 4062.3412324074307 874.98454036415205 0 874.98454036415205 -390.15615922847064 0 0 0 0 2564.2056617347116 283.28505349945044 0 283.28505349945044 -154.59571786480956 0 0 0 0 -3162.885616910964 -669.31875574756486 0 -669.31875574756486 2190.5766329330436 0 0 0 0 -15.159951423599608 20.785451372691711 0 20.785451372691711 -24.780103320497687 0 0 0 0 210.65864509231073 562.17074956435556 0 562.17074956435556 -53.032350823952584 0 0 0 0 200.46437990914274 158.6820762414136 0 158.6820762414136 -386.5573285833525 0 0 0 0 -204.95231260506262 492.65980184153887 0 492.65980184153887 -45.543792152020615 0 0 0 0 -679.8690902615599 612.18136886162029 0 612.18136886162029 30.050516716320999 0 0 0 0 -458.27140292605327 -160.72759749443503 0 -160.72759749443503 -189.37381221549003 0 0 0 0 -1278.9886644438229 386.89084691058088 0 386.89084691058088 23.633691427123267 0 0 0 0 2013.3179151933728 1057.0942827206673 0 1057.0942827206673 -2786.8004939033417 0 0 0 0 1958.5327619260788 1344.7762490512105 0 1344.7762490512105 -1137.5808952462394 0 0 0 0 -6.2181920539004523 9.605722916827176 0 9.605722916827176 -14.993798528399111 0 0 0 0 -3675.8642956805415 -76.051836360929883 0 -76.051836360929883 736.58786460512783 0 0 0 0 2097.8783464824082 942.01335697845207 0 942.01335697845207 -5089.6794778672629 0 0 0 0 -1496.5211125396308 -260.70403867482673 0 -260.70403867482673 -191.97987356848898 0 0 0 0 1467.2070157440903 596.52749220612168 0 596.52749220612168 -1644.3083859686158 0 0 0 0 1323.691626554064 776.99074018519605 0 776.99074018519605 962.60515409408254 0 0 0 0 1358.5952667048696 1149.83686690779 0 1149.83686690779 -245.4470239932416 0 0 0 0 -3485.8364475070266 1457.8837483324533 0 1457.8837483324533 1104.4983130718902 0 0 0 0 -2260.8170462716662 855.13993789446249 0 855.13993789446249 171.13981594567304 0 0 0 0 -1494.6645689558936 1177.7589727153681 0 1177.7589727153681 172.63387870523729 0 0 0 0 -1470.4616552862526 1429.7821182282441 0 1429.7821182282441 60.030449146957835 0 0 0 0 -1208.5211520626108 976.79070952109032 0 976.79070952109032 40.146319652703824 0 0 0 0 -1067.1290785536694 854.64425330983067 0 854.64425330983067 140.91366366974398 0 0 0 0 -572.70211264232057 867.00098369529587 0 867.00098369529587 -116.38291596857744 0 0 0 0 -955.27855507306231 1067.4266397011088 0 1067.4266397011088 -168.19014604239783 0 0 0 0 -1070.2694823463098 1120.5006797876449 0 1120.5006797876449 -51.271833943785168 0 0 0 0 -976.09063742443686 526.78838837799049 0 526.78838837799049 188.34783373269602 0 0 0 0 -1264.2952976616871 881.18595355372963 0 881.18595355372963 82.444161236577202 0 0 0 0 -1013.465234619769 481.10143574107497 0 481.10143574107497 137.02876932577055 0 0 0 0 -558.8537719608903 188.06404512448717 0 188.06404512448717 315.41119218128733 0 0 0 0 -726.13619868636306 614.34260727270885 0 614.34260727270885 47.323079203488305 0 0 0 0 -654.4844768087496 681.44678003892477 0 681.44678003892477 100.28004501673422 0 0 0 0 -440.8817742660176 412.03628429951641 0 412.03628429951641 187.73208785940369 0 0 0 0 -698.64372790815833 1104.4636013103009 0 1104.4636013103009 -77.257518834485381 0 0 0 0 -900.51222752168542 904.77367915162904 0 904.77367915162904 -2.2122709573304746 0 0 0 0 -423.25564984871016 775.31611689305282 0 775.31611689305282 -64.205845035281527 0 0 0 0 71.121823029548978 1834.9534700829681 0 1834.9534700829681 80.462226203744649 0 0 0 0 -972.35129067978414 623.22904329565063 0 623.22904329565063 4.3826838256500196 0 0 0 0 -46.990522060006697 699.27782814590591 0 699.27782814590591 -249.32712403970072 0 0 0 0 -199.04937324445928 215.27542810671002 0 215.27542810671002 -343.00023555349253 0 0 0 0 -189.22650452074595 330.17687185548129 0 330.17687185548129 -19.840697159990668 0 0 0 0 -137.62284690569868 -17.444625348984118 0 -17.444625348984118 272.0709722074389 0 0 0 0 -237.79192513998714 182.2683289982524 0 182.2683289982524 169.39945850666118 0 0 0 0 119.81005396396358 109.15469848760767 0 109.15469848760767 13.001007151411613 0 0 0 0 -107.66153052615118 -232.40722656542493 0 -232.40722656542493 951.51666247348476 0 0 0 0 4.1076649062670185 -167.08476299740141 0 -167.08476299740141 400.79200750341988 0 0 0 0 347.51537210532115 192.81175603996962 0 192.81175603996962 -386.20453412347342 0 0 0 0 30.940858276022482 -436.01306910903804 0 -436.01306910903804 456.29397077091926 0 0 0 0 406.56781694274105 125.99868899675494 0 125.99868899675494 -185.13944294150861 0 0 0 0 46.560159257915231 52.194397093614199 0 52.194397093614199 0.84225870808040781 0 0 0 0 -49.678943487197557 890.25174759721813 0 890.25174759721813 -393.54877831263002 0 0 0 0 -77.923073392887773 187.98487697096903 0 187.98487697096903 186.35595003899653 0 0 0 0 293.43689332999929 -369.5273880555178 0 -369.5273880555178 536.62359672884486 0 0 0 0 43.801549066498239 78.256710833165599 0 78.256710833165599 91.615880073057895 0 0 0 0 321.46972324077797 -74.682693383365404 0 -74.682693383365404 403.99218609633681 0 0 0 0 -7.9353952801374987 11.9843443378887 0 11.9843443378887 29.89184443657085 0 0 0 0 380.68300083716167 -133.9462901702791 0 -133.9462901702791 350.86788339284976 0 0 0 0 102.97285238455515 50.4725030892223 0 50.4725030892223 206.32366266352619 0 0 0 0 106.69254334355571 -274.97734510802894 0 -274.97734510802894 315.27411611878779 0 0 0 0 376.99965462694331 -402.20666443997465 0 -402.20666443997465 434.29630889157124 0 0 0 0 35.114861648760751 77.559075195041203 0 77.559075195041203 110.7873305459191 0 0 0 0 445.50317801983329 -164.85335225097515 0 -164.85335225097515 332.97365023416933 0 0 0 0 659.1028203976166 -355.91217039464391 0 -355.91217039464391 381.30354665603954 0 0 0 0 525.15578736961834 -224.56577407124496 0 -224.56577407124496 -101.8584980800515 0 0 0 0 434.38498624163913 -104.04962046889705 0 -104.04962046889705 126.82515342216357 0 0 0 0 288.81022195206606 -314.68722019177221 0 -314.68722019177221 193.73719259796781 0 0 0 0 548.68530206615105 -306.82368950488672 0 -306.82368950488672 149.67933300451841 0 0 0 0 -2.8124369161378127 -384.31523186527193 0 -384.31523186527193 231.54693368457083 0 0 0 0 1121.2768484694825 -432.47401756377076 0 -432.47401756377076 -29.418136458421941 0 0 0 0 -386.34748534143728 210.25895468010276 0 210.25895468010276 150.36683274303505 0 0 0 0 150.60889809261425 -109.59241932434088 0 -109.59241932434088 236.3987760181044 0 0 0 0 -181.79726311319973 -209.21087964863545 0 -209.21087964863545 295.46211921198119 0 0 0 0 -90.094280174118467 -124.74016403419955 0 -124.74016403419955 198.57801385702624 0 0 0 0 -791.0838146120077 -160.16035796089272 0 -160.16035796089272 354.61761723597738 0 0 0 0 -430.2134210731756 -21.267403627059139 0 -21.267403627059139 40.974320634093601 0 0 0 0 1116.817212432652 -1068.1535853858077 0 -1068.1535853858077 676.69639281566924 0 0 0 0 415.00477000013689 -467.28327224974555 0 -467.28327224974555 164.04547175017069 0 0 0 0 -392.3309468536936 -275.53072056942983 0 -275.53072056942983 493.41620298472117 0 0 0 0 415.93812240635452 -484.31680519762449 0 -484.31680519762449 209.78634107920516 0 0 0 0 302.40352956253628 -171.39148909354117 0 -171.39148909354117 -116.06258062696725 0 0 0 0 321.99400132364826 -14.195110601183842 0 -14.195110601183842 1088.0647280059966 0 0 0 0 12.298779878971487 10.641320019440641 0 10.641320019440641 0.91035708224978862 0 0 0 0 1759.6085513124563 -367.43087678870506 0 -367.43087678870506 -386.50888470944483 0 0 0 0 353.48140813549981 599.64246241551882 0 599.64246241551882 286.13835243074573 0 0 0 0 60.97950105513155 45.474090353694919 0 45.474090353694919 136.16132658354763 0 0 0 0 59.383560118760215 117.24359121797897 0 117.24359121797897 201.04738536400328 0 0 0 0 -25.945971148001263 125.33128320200194 0 125.33128320200194 479.01251632523781 0 0 0 0 11.098801059488842 23.688378147452113 0 23.688378147452113 13.197210310406149 0 0 0 0 114.70866425247368 51.158725863744621 0 51.158725863744621 22.369600387581158 0 0 0 0 -13.63922216030187 280.65193099832686 0 280.65193099832686 127.08552610178594 0 0 0 0 256.6202656768437 90.435873003261804 0 90.435873003261804 -43.059981440499541 0 0 0 0 69.056248776856705 63.572838812389108 0 63.572838812389108 -0.25450425606364036 0 0 0 0 132.91926657222211 99.905972102540545 0 99.905972102540545 -43.124864148417373 0 0 0 0 47.693403614379349 143.67530806195282 0 143.67530806195282 55.836584827353363 0 0 0 0 19.806506209299982 0.56371134827024605 0 0.56371134827024605 -21.28127803273145 0 0 0 0 82.448096447585783 84.135840374852648 0 84.135840374852648 69.174762202912575 0 0 0 0 157.56840710149845 18.30792514065979 0 18.30792514065979 225.92272356792819 0 0 0 0 90.418871538968233 79.598517960810568 0 79.598517960810568 39.946822214405984 0 0 0 0 462.22114604266244 16.20498946456064 0 16.20498946456064 12.065143689083925 0 0 0 0 170.42894464160781 119.33512798286392 0 119.33512798286392 78.240831662973505 0 0 0 0 828.80829314632138 129.34991900601744 0 129.34991900601744 -529.97349510280765 0 0 0 0 104.97573829823523 116.62587827063908 0 116.62587827063908 -383.8124617334397 0 0 0 0 4.1925519264519266 17.71381531264629 0 17.71381531264629 14.628173062772646 0 0 0 0 26.344744582181875 59.854703390679788 0 59.854703390679788 0.78707043474423699 0 0 0 0 -5.9885167808970436 44.968138064017694 0 44.968138064017694 53.859169018294779 0 0 0 0 -1.6783250600736004 30.416998869533131 0 30.416998869533131 20.493013181511742 0 0 0 0 35.331877002103283 78.321630105321674 0 78.321630105321674 53.057385871929 0 0 0 0 26.569705768830318 56.573593416476797 0 56.573593416476797 4.3140227238181978 0 0 0 0 9.4215792177477056 90.203805645273007 0 90.203805645273007 66.099944510142564 0 0 0 0 43.522085380280259 94.767603412279641 0 94.767603412279641 3.4813315271458123 0 0 0 0 51.836827601513448 87.194856553795077 0 87.194856553795077 14.783699988040325 0 0 0 0 116.26848331961082 82.417559355148114 0 82.417559355148114 17.117048205807805 0 0 0 0 68.088875215905929 70.749649623474568 0 70.749649623474568 10.409238901036645 0 0 0 0 25.529563643631064 54.142893670054264 0 54.142893670054264 -10.277053037291466 0 0 0 0 45.793408281904703 65.495915668812813 0 65.495915668812813 -28.595685071602929 0 0 0 0 44.501999237395694 84.481222781243929 0 84.481222781243929 -64.211821956561039 0 0 0 0 61.585369405006773 69.785169306341828 0 69.785169306341828 -31.310394004028183 0 0 0 0 9.5633916541555664 76.881766300051822 0 76.881766300051822 -13.307014908234123 0 0 0 0 76.19842889249108 56.721984150465317 0 56.721984150465317 -19.185788355383139 0 0 0 0 106.38955128841189 71.333836923644412 0 71.333836923644412 10.37926036407589 0 0 0 0 92.281115377900278 77.874551731991232 0 77.874551731991232 15.634710930971778 0 0 0 0 76.799456803069916 -38.480031307975878 0 -38.480031307975878 -168.54381238674978 0 0 0 0 15.708840295215992 5.630785374717405 0 5.630785374717405 -21.422199927388277 0 0 0 0 104.58181190673713 75.712199400251848 0 75.712199400251848 -23.022594906244194 0 0 0 0 106.276020078687 82.677123493536783 0 82.677123493536783 0.031666148817748763 0 0 0 0 18.601325897893108 31.739400197126912 0 31.739400197126912 -64.498449793660939 0 0 0 0 149.91868411570749 179.0321058216341 0 179.0321058216341 -270.99660478538135 0 0 0 0 14.027052096486209 18.640318109963744 0 18.640318109963744 -29.99690062050405 0 0 0 0 265.34163592153527 126.35297658641502 0 126.35297658641502 -23.540845253621228 0 0 0 0 284.21231060180253 102.19080877897795 0 102.19080877897795 -6.5672366415019496 0 0 0 0 135.03437074050271 37.585043596176547 0 37.585043596176547 -26.736647428268952 0 0 0 0 -23.944076557090739 94.55727308744099 0 94.55727308744099 58.704561427482986 0 0 0 0 40.360849572794308 40.459795307161428 0 40.459795307161428 -30.631752294447097 0 0 0 0 79.089621578316951 82.657695893989569 0 82.657695893989569 59.297099093590987 0 0 0 0 57.120828528430138 163.51233591318305 0 163.51233591318305 4.1716820905862733 0 0 0 0 277.99115046590305 -92.594358001239016 0 -92.594358001239016 -159.62003546917913 0 0 0 0 43.059249555791681 56.6983010846225 0 56.6983010846225 54.759639807381518 0 0 0 0 71.712790583729657 135.63122730316536 0 135.63122730316536 -42.544549892816576 0 0 0 0 103.99379056421299 632.45690182268936 0 632.45690182268936 -113.82587995992799 0 0 0 0 -262.13047203329188 -80.723082052143582 0 -80.723082052143582 438.9928820499772 0 0 0 0 643.64594201109139 250.54705307590484 0 250.54705307590484 279.5170280370512 0 0 0 0 -1.8820004814333515 -248.22794992079434 0 -248.22794992079434 109.88398076556041 0 0 0 0 316.0108890206393 -286.98105574597139 0 -286.98105574597139 11.971202558794175 0 0 0 0 -0.69040006219474392 35.826839018426185 0 35.826839018426185 -57.507569567536279 0 0 0 0 68.145465384373892 92.313684724998893 0 92.313684724998893 -49.508232414977101 0 0 0 0 139.53883046453484 72.149699430374312 0 72.149699430374312 -27.25419470842462 0 0 0 0 36.819155882467925 33.76121888427889 0 33.76121888427889 -27.910377624131627 0 0 0 0 80.686790733809175 -49.056236671742226 0 -49.056236671742226 42.063476373019512 0 0 0 0 1.8793913472872212 12.469025562119256 0 12.469025562119256 -39.359406377183859 0 0 0 0 11.552328745734826 2.6340521189119954 0 2.6340521189119954 -0.8300052599539498 0 0 0 0 390.39050019323622 263.48281904670876 0 263.48281904670876 620.11990419460926 0 0 0 0 72.541356720797921 399.01546529556072 0 399.01546529556072 888.87667032540776 0 0 0 0 -557.57984938673326 355.01771115890006 0 355.01771115890006 667.59050232396112 0 0 0 0 950.68714383292172 827.64606597570673 0 827.64606597570673 198.84464918778394 0 0 0 0 6.4204717094777255 -1.2200241213329974 0 -1.2200241213329974 14.407867956694759 0 0 0 0 -29.201328830904458 12.46311761947436 0 12.46311761947436 57.50903287548681 0 0 0 0 59.599304822459089 234.63776070484164 0 234.63776070484164 -60.459292661136715 0 0 0 0 279.78959996800404 932.23509860082413 0 932.23509860082413 -207.45940529584186 0 0 0 0 317.3032756743778 1074.7697825288487 0 1074.7697825288487 336.64947089081397 0 0 0 0 -1666.429835436822 830.35280306078494 0 830.35280306078494 510.91492955357535 0 0 0 0 -28.085920075009199 -198.88730937168293 0 -198.88730937168293 -940.0311919922824 0 0 0 0 -683.52644949516252 414.59998764307238 0 414.59998764307238 -140.51243045291631 0 0 0 0 -286.72761358358548 675.80569612584077 0 675.80569612584077 -965.62304052393665 0 0 0 0 -1.7457806351903571 5.5951128244492736 0 5.5951128244492736 -14.822349734762611 0 0 0 0 652.15467393996778 -227.02766909693673 0 -227.02766909693673 -813.9120614627609 0 0 0 0 494.33048379463071 794.63326949063776 0 794.63326949063776 -123.33986634825123 0 0 0 0 37.041803198345406 -299.46986589529661 0 -299.46986589529661 43.853943920461461 0 0 0 0 88.423757494569145 -73.797524808091111 0 -73.797524808091111 -101.49074169315281 0 0 0 0 3.2877625030268973 -356.08735760234413 0 -356.08735760234413 150.57745588876423 0 0 0 0 -22.866781207409076 -145.795885993517 0 -145.795885993517 114.20158674983395 0 0 0 0 96.870194488465131 5.601545126279234 0 5.601545126279234 -8.0220269597775768 0 0 0 0 -141.86733639007434 256.0613998460758 0 256.0613998460758 -585.07351091710734 0 0 0 0 -180.26385819560892 -66.595682659171871 0 -66.595682659171871 -22.074971878144424 0 0 0 0 -84.184535789200254 -21.821171431764014 0 -21.821171431764014 27.911509006371489 0 0 0 0 -318.17832887372788 287.96271403598075 0 287.96271403598075 -176.61296270768798 0 0 0 0 -165.95231901787156 380.72389528514032 0 380.72389528514032 -253.96257371630054 0 0 0 0 -336.97559162153993 587.11544084976777 0 587.11544084976777 -393.87165249275859 0 0 0 0 -337.173544980575 363.68654382702971 0 363.68654382702971 -55.56075230485294 0 0 0 0 -131.12291020441626 40.919874518047436 0 40.919874518047436 -47.732274659967516 0 0 0 0 -146.41060410067075 143.1708577477184 0 143.1708577477184 483.20875231965329 0 0 0 0 137.89388239175969 113.22546635195613 0 113.22546635195613 -160.18853111004864 0 0 0 0 299.30131793918554 624.35887887658464 0 624.35887887658464 1350.7325166850933 0 0 0 0 450.25582293963453 -694.5180575865088 0 -694.5180575865088 693.14937531010946 0 0 0 0 9.9102692288761318 -367.42905747426266 0 -367.42905747426266 -22.884337874362245 0 0 0 0 12.901509624825849 -240.79139248296269 0 -240.79139248296269 266.08772094998858 0 0 0 0 504.93031308523496 596.15700376268069 0 596.15700376268069 331.69989367405651 0 0 0 0 -602.4290086302135 760.05149273818824 0 760.05149273818824 214.68114921281813 0 0 0 0 -4.3655003706309117 -5.5865912707620353 0 -5.5865912707620353 -1.2218526758933876 0 0 0 0 1064.8420021460006 -57.056354583743087 0 -57.056354583743087 -116.27694882254582 0 0 0 0 -199.22794268547295 -237.06169463030528 0 -237.06169463030528 1099.7785539370379 0 0 0 0 2296.2354856169986 973.6274924230529 0 973.6274924230529 -17.92005711956881 0 0 0 0 124.1136382113109 335.48702591020265 0 335.48702591020265 555.28114538716909 0 0 0 0 37.84030142654774 -58.853261292231764 0 -58.853261292231764 381.72563444951084 0 0 0 0 -104.0727465319469 62.738160616223468 0 62.738160616223468 240.05576641147491 0 0 0 0 -268.92084795720439 257.28149692187435 0 257.28149692187435 122.54899107348501 0 0 0 0 318.65567561953503 294.87360454333975 0 294.87360454333975 -151.5295023262006 0 0 0 0 70.472344521453337 94.359499117374284 0 94.359499117374284 98.792488484648743 0 0 0 0 -58.220454387024802 675.32780314188858 0 675.32780314188858 -133.68758814192461 0 0 0 0 -23.191084807964216 -45.195564801484579 0 -45.195564801484579 192.10330421614344 0 0 0 0 306.91670910406538 314.10197631705523 0 314.10197631705523 -361.28002390053007 0 0 0 0 39.514381963224565 80.835305105155072 0 80.835305105155072 40.061265722400854 0 0 0 0 41.38708811532706 133.79196534585208 0 133.79196534585208 -401.65834754504613 0 0 0 0 -271.16271631225391 238.43772100363276 0 238.43772100363276 77.939875047799433 0 0 0 0 -42.625461304874989 -255.02550709030038 0 -255.02550709030038 35.260677806581953 0 0 0 0 69.557113625412271 95.882632336165386 0 95.882632336165386 98.409686392858305 0 0 0 0 19.12793258124762 1.7100053539059132 0 1.7100053539059132 -24.180373643422683 0 0 0 0 13.608207246747913 8.4133046572437493 0 8.4133046572437493 -25.274799605184626 0 0 0 0 -572.78588752634823 845.25189258536557 0 845.25189258536557 -3.062741990230279 0 0 0 0 -531.1057668405665 311.75229195912834 0 311.75229195912834 26.382511792704463 0 0 0 0 50.943910212057745 -181.98538837735759 0 -181.98538837735759 -350.51279127618182 0 0 0 0 303.01528403690463 214.42917791254877 0 214.42917791254877 -359.50781287596328 0 0 0 0 132.48041951881169 -208.31793647169252 0 -208.31793647169252 80.13407435445697 0 0 0 0 107.66453372943215 348.86525054528465 0 348.86525054528465 -2861.3120357078697 0 0 0 0 10.662701576862332 13.898309323000888 0 13.898309323000888 3.157561678650822 0 0 0 0 -0.75725190888624638 1348.3992036169002 0 1348.3992036169002 -1263.263175337961 0 0 0 0 -46.99645258221426 679.43416434989922 0 679.43416434989922 -856.79591544782306 0 0 0 0 -17.447868287068559 507.87307629747374 0 507.87307629747374 -445.06876732846285 0 0 0 0 -39.500646614712423 824.45080600995038 0 824.45080600995038 -132.85324023672729 0 0 0 0 30.433539632162137 289.3841072032119 0 289.3841072032119 -327.41944918814988 0 0 0 0 73.865134849073911 690.87828513970408 0 690.87828513970408 -880.45658064415329 0 0 0 0 102.17038482322823 275.98812556348275 0 275.98812556348275 -1413.0327062598226 0 0 0 0 163.24895450519398 2057.859481879168 0 2057.859481879168 6623.8862198174484 0 0 0 0 34.519940080853189 36.701898285012334 0 36.701898285012334 -3.0068584831976892 0 0 0 0 59.878199142721201 48.825092984050798 0 48.825092984050798 -4.3004725287430148 0 0 0 0 417.84814850788825 1576.8174826199393 0 1576.8174826199393 3691.0298154615157 0 0 0 0 604.31006270112994 1302.7851364158414 0 1302.7851364158414 3825.3336904942116 0 0 0 0 995.29776538460283 1166.4523943614768 0 1166.4523943614768 3417.8687165242736 0 0 0 0 807.74330998902951 1718.2925556875907 0 1718.2925556875907 3065.3462736282963 0 0 0 0 779.00243459947887 1819.6518042096941 0 1819.6518042096941 3819.9238726751646 0 0 0 0 1135.5506791469234 2648.9467287813459 0 2648.9467287813459 3834.0088247055683 0 0 0 0 1128.1135365846276 2771.385689791663 0 2771.385689791663 2876.2742134269138 0 0 0 0 1.9338270668740734 3640.0550767901841 0 3640.0550767901841 4624.6864043324895 0 0 0 0 277.35912737618492 2854.5206226799564 0 2854.5206226799564 4246.1844109359808 0 0 0 0 136.33504478789109 2213.8994712831773 0 2213.8994712831773 8530.9649608151885 0 0 0 0 1132.821905277171 3639.7673696410548 0 3639.7673696410548 2364.4847027753131 0 0 0 0 1214.7493277404865 3340.3798953807454 0 3340.3798953807454 2570.8232239737408 0 0 0 0 -3.8030960498675701 4514.3877465698542 0 4514.3877465698542 1882.2139863862976 0 0 0 0 1706.8670318322474 4674.5623740283991 0 4674.5623740283991 -0.46435975719214184 0 0 0 0 2359.201978578596 3895.1558298120217 0 3895.1558298120217 913.42209899917361 0 0 0 0 2356.0114791782262 3833.7406422888812 0 3833.7406422888812 177.55701392193441 0 0 0 0 1986.2450524380693 3212.9015419408643 0 3212.9015419408643 1622.218282806949 0 0 0 0 1798.8665392115654 3581.5092864399339 0 3581.5092864399339 897.26304054551838 0 0 0 0 1454.026668447812 2356.6812950770109 0 2356.6812950770109 1598.4396324936679 0 0 0 0 1691.0326257765701 2024.297070767745 0 2024.297070767745 1138.583845445457 0 0 0 0 1497.2180725014332 2132.2012982425731 0 2132.2012982425731 2178.6917267279932 0 0 0 0 1305.3129774632689 1570.545921162935 0 1570.545921162935 931.62684299315879 0 0 0 0 705.78777536930284 1039.9187811081792 0 1039.9187811081792 836.99755966574594 0 0 0 0 1519.2393587956249 1495.6943581918858 0 1495.6943581918858 -200.93238232261501 0 0 0 0 915.94265442187316 1040.4782883686712 0 1040.4782883686712 792.29750625019369 0 0 0 0 2147.4005192040859 1897.2985669145055 0 1897.2985669145055 -23.807869630269124 0 0 0 0 2233.6657267450937 3012.4578568802463 0 3012.4578568802463 702.73344082363474 0 0 0 0 2425.760651269753 2518.603670145596 0 2518.603670145596 63.36827182226989 0 0 0 0 3143.8065140272374 4249.5699371206865 0 4249.5699371206865 -2.2152790878462838 0 0 0 0 2252.5467407150572 2040.75814954628 0 2040.75814954628 -958.53807417245116 0 0 0 0 4523.7285477686964 3373.7119243487396 0 3373.7119243487396 -1045.7891711598095 0 0 0 0 29.999023819902504 17.752901642797951 0 17.752901642797951 -0.042072916912729852 0 0 0 0 48.45787776679515 25.093207329488706 0 25.093207329488706 4.3481507700501965 0 0 0 0 -448.99548298360605 963.63483054591779 0 963.63483054591779 -1303.7757691088482 0 0 0 0 3734.5443287193193 448.65401767835647 0 448.65401767835647 -3007.1863115788583 0 0 0 0 20.410815064970507 8.1759919237622967 0 8.1759919237622967 -0.60693197023178413 0 0 0 0 30.007934178574942 17.776750253571663 0 17.776750253571663 -0.011272332587395795 0 0 0 0 96.108012011114624 1027.2737334125413 0 1027.2737334125413 -530.79761982618948 0 0 0 0 9.8068291952968139 1462.5305319801155 0 1462.5305319801155 -809.72577412423561 0 0 0 0 -868.04120819803211 1075.4675749068265 0 1075.4675749068265 -266.63933340534277 0 0 0 0 214.77005702986207 1606.5866676220103 0 1606.5866676220103 -224.07374272181187 0 0 0 0 1252.9508407086541 779.14109194000775 0 779.14109194000775 -758.91668407069665 0 0 0 0 651.00901943674762 1265.0981379807909 0 1265.0981379807909 445.00142128684092 0 0 0 0 33.596981914743083 656.57362935911806 0 656.57362935911806 -132.21970703710576 0 0 0 0 -1051.8640951420675 1284.3491446715925 0 1284.3491446715925 384.25590954135987 0 0 0 0 -242.07488546893001 670.09136888104695 0 670.09136888104695 1287.3417772118992 0 0 0 0 -147.59772742834321 448.30943454155204 0 448.30943454155204 -126.33553658641176 0 0 0 0 -896.60126321975258 505.17138829537726 0 505.17138829537726 2233.6203960342827 0 0 0 0 100.22729241499792 48.52011300718226 0 48.52011300718226 -11.250758617238553 0 0 0 0 11.579614912392572 -446.02393624196702 0 -446.02393624196702 -884.31316999404953 0 0 0 0 -174.14702031962224 265.67398432668415 0 265.67398432668415 -44.036116134811891 0 0 0 0 407.17632437573047 85.711611521473969 0 85.711611521473969 2087.5519984390703 0 0 0 0 553.91934994061012 460.74937995267101 0 460.74937995267101 1195.8357944843301 0 0 0 0 596.75384898716584 504.18022683993331 0 504.18022683993331 1382.5130541868421 0 0 0 0 581.85153164697113 563.90310059845797 0 563.90310059845797 515.90454827950452 0 0 0 0 585.40198162340675 813.81297558368533 0 813.81297558368533 1505.9006742382189 0 0 0 0 1034.0926115859038 1411.5585126808874 0 1411.5585126808874 1957.5227071892587 0 0 0 0 556.12974526520702 817.62461927426921 0 817.62461927426921 1756.0100022475235 0 0 0 0 571.67101980402367 680.42262619777466 0 680.42262619777466 2214.7594833190378 0 0 0 0 1153.2555239649373 1535.085466774879 0 1535.085466774879 2165.4949418738252 0 0 0 0 710.84779961613822 1238.933892460569 0 1238.933892460569 2888.6016830760345 0 0 0 0 757.23623384529492 1187.9534642512444 0 1187.9534642512444 2830.8392114502203 0 0 0 0 795.0522027554689 1594.5806023197947 0 1594.5806023197947 3551.7471121705894 0 0 0 0 203.96511484387156 918.12104226693918 0 918.12104226693918 4874.5091852536425 0 0 0 0 1058.4310524335306 1612.8809954333119 0 1612.8809954333119 3210.2837349162146 0 0 0 0 -14.655825799447484 245.3309832208397 0 245.3309832208397 2831.5079196644365 0 0 0 0 16.546667239404883 -13.491319915460906 0 -13.491319915460906 -32.523140957615908 0 0 0 0 256.40790078340797 267.30541276975418 0 267.30541276975418 2437.9091012608405 0 0 0 0 242.5616368863557 -128.42387946409872 0 -128.42387946409872 -183.62038153655158 0 0 0 0 256.25851122438326 262.34177855125745 0 262.34177855125745 2435.2597885618743 0 0 0 0 83.765563932195391 41.874552633616418 0 41.874552633616418 -0.94789520993117549 0 0 0 0 13.529093485717794 18.841673823505587 0 18.841673823505587 -3.0880458000310966 0 0 0 0 26.890904626561678 147.07632581259895 0 147.07632581259895 122.37073614240217 0 0 0 0 -54.328619793814141 86.18392002901237 0 86.18392002901237 179.18912716189516 0 0 0 0 33.559845656622201 219.57502404367551 0 219.57502404367551 -429.98307837379252 0 0 0 0 20.920656995149329 114.99893851121305 0 114.99893851121305 30.940412334923167 0 0 0 0 21.473524183873451 112.91748811851812 0 112.91748811851812 -128.36006972825271 0 0 0 0 8.0131682518185698 340.3685668515318 0 340.3685668515318 -211.81373027089285 0 0 0 0 7.6172158742556348 328.53010905822157 0 328.53010905822157 162.71175610172213 0 0 0 0 -206.62478197002201 789.7342849173001 0 789.7342849173001 246.33665541776645 0 0 0 0 -18.231763755582506 523.91387339329231 0 523.91387339329231 27.229534660611534 0 0 0 0 -99.890982078271918 465.61217116787884 0 465.61217116787884 283.37605588315637 0 0 0 0 -102.01687544671586 319.9523235008819 0 319.9523235008819 563.83789660526963 0 0 0 0 -113.60187040807796 395.35870226121915 0 395.35870226121915 126.42289667711884 0 0 0 0 -304.5812141110946 511.96707172968308 0 511.96707172968308 455.20639176428085 0 0 0 0 -347.59574138332391 467.50396485340025 0 467.50396485340025 1509.6436256158195 0 0 0 0 -521.90646993101109 -26.520066829267307 0 -26.520066829267307 594.62729318619949 0 0 0 0 -795.40915730445704 -28.315546256966627 0 -28.315546256966627 2734.3607969624863 0 0 0 0 -1311.9536801920622 -1371.5584760077909 0 -1371.5584760077909 509.60121710375824 0 0 0 0 913.80867768957978 3560.2141155829595 0 3560.2141155829595 4450.7201281241505 0 0 0 0 -3345.8700768447889 -958.97053842832975 0 -958.97053842832975 5413.0480183531472 0 0 0 0 25.560230201066702 31.80355779063197 0 31.80355779063197 22.172138130211152 0 0 0 0 -328.77846943031182 -342.55145524474938 0 -342.55145524474938 231.85049045379856 0 0 0 0 -168.24162985230214 -208.94872319923888 0 -208.94872319923888 -89.509028777043568 0 0 0 0 -123.01515441283118 -310.92064154129184 0 -310.92064154129184 -282.82299025719112 0 0 0 0 -48.735950533504365 6.4736370178725338 0 6.4736370178725338 591.07451605862298 0 0 0 0 1053.5728220005403 684.60040796498652 0 684.60040796498652 887.33820971672685 0 0 0 0 3514.4110801799397 2511.2487077058977 0 2511.2487077058977 1204.6828448913002 0 0 0 0 1866.95771637297 1430.7567417314422 0 1430.7567417314422 2667.1424764439435 0 0 0 0 807.36449436389375 -522.53703566767217 0 -522.53703566767217 747.24852409196501 0 0 0 0 -521.86104843503563 -45.030703904485563 0 -45.030703904485563 621.31570058560465 0 0 0 0 3167.6596171687124 1235.1388481856266 0 1235.1388481856266 528.29113075555142 0 0 0 0 15.953592359467848 20.132764598220803 0 20.132764598220803 18.233785652194115 0 0 0 0 9262.6791104843724 5713.0097226501384 0 5713.0097226501384 12216.555214059423 0 0 0 0 -2085.3864377519349 2364.5177638644527 0 2364.5177638644527 12062.172406728787 0 0 0 0 1215.1290390868962 3184.5225009765563 0 3184.5225009765563 2509.9098443412222 0 0 0 0 4934.4805848930264 6926.3344464353577 0 6926.3344464353577 6226.0707632822305 0 0 0 0 7343.6785919849644 3401.1902198260868 0 3401.1902198260868 598.77533549719374 0 0 0 0 3928.8408574162167 -322.37255591500434 0 -322.37255591500434 -1345.2979770316233 0 0 0 0 -883.61762105929665 27.035645942320116 0 27.035645942320116 11579.284698070885 0 0 0 0 54.905692272375063 28.398119893653075 0 28.398119893653075 17.520083745746291 0 0 0 0 4358.827801105348 5576.8714105298241 0 5576.8714105298241 5793.4988594770839 0 0 0 0 -28.767789455450838 852.86331500991946 0 852.86331500991946 12128.672966915081 0 0 0 0 337.0545461972506 993.9519629994611 0 993.9519629994611 2486.7907586103829 0 0 0 0 151.217291314335 70.635835159840241 0 70.635835159840241 30.471848719284182 0 0 0 0 79.441384229168762 -87.584737698845856 0 -87.584737698845856 3959.6568437129608 0 0 0 0 -354.74816653470043 38.311516273781308 0 38.311516273781308 1305.2383375915379 0 0 0 0 417.17976587470184 1624.6895996224848 0 1624.6895996224848 2349.5229118551797 0 0 0 0 87.116180650715251 1980.8422196525498 0 1980.8422196525498 2823.7621782529168 0 0 0 0 725.30666648008628 3111.4667403186904 0 3111.4667403186904 4381.2724666215345 0 0 0 0 107.49261209676843 1884.4060308047829 0 1884.4060308047829 2869.3070646904671 0 0 0 0 1071.312637008079 80.465211889113561 0 80.465211889113561 -159.80887119349791 0 0 0 0 87.410700293113052 49.211936432633991 0 49.211936432633991 -11.446060630483174 0 0 0 0 307.45501099858666 2138.7412154106714 0 2138.7412154106714 3145.9818970854831 0 0 0 0 500.07652672095719 -76.883849286066834 0 -76.883849286066834 -3622.9394794697582 0 0 0 0 -228.54733696587937 1054.7110257316745 0 1054.7110257316745 -2312.8762134901335 0 0 0 0 1764.8046300657443 2882.4300173916636 0 2882.4300173916636 238.22070615668781 0 0 0 0 -556.8697076717217 -317.96795512280369 0 -317.96795512280369 -892.43315784528386 0 0 0 0 1568.6630200055079 2070.2857569999469 0 2070.2857569999469 -951.60270211305351 0 0 0 0 -5064.9999442454864 1612.1820681330209 0 1612.1820681330209 656.93671828835795 0 0 0 0 4.644388855719157 11.905353230592624 0 11.905353230592624 8.327715105277548 0 0 0 0 6778.7183936505317 1360.1070270092387 0 1360.1070270092387 -1832.6994311033486 0 0 0 0 1823.7450522625295 548.7333851368021 0 548.7333851368021 -1111.4535972167214 0 0 0 0 1701.0476820789627 1277.1745308795362 0 1277.1745308795362 -522.48385828048049 0 0 0 0 115.49074656396544 57.269452471651988 0 57.269452471651988 -14.363871484742404 0 0 0 0 1545.9823104228126 1125.2185826107161 0 1125.2185826107161 -565.47365527712827 0 0 0 0 -453.3933308176056 -818.15184676644276 0 -818.15184676644276 -211.37192460587175 0 0 0 0 -774.19643241478479 -635.401820677871 0 -635.401820677871 498.51672786525887 0 0 0 0 -362.20954652581713 1758.6433161050081 0 1758.6433161050081 -755.52727533863799 0 0 0 0 -1398.5159493816027 -239.45833164431679 0 -239.45833164431679 1560.419245160796 0 0 0 0 -1140.4749821220539 938.79306763903514 0 938.79306763903514 -875.63850706411176 0 0 0 0 2888.3743941148859 556.60348983516451 0 556.60348983516451 -120.19029731437331 0 0 0 0 750.49508448119013 1685.0994307435976 0 1685.0994307435976 -61.743313350118115 0 0 0 0 11.741201289247954 35.451519788343845 0 35.451519788343845 20.34480734678732 0 0 0 0 1201.5230143211302 1279.3619945139471 0 1279.3619945139471 209.66761977339047 0 0 0 0 -2932.0292369563394 1531.3098752461665 0 1531.3098752461665 -10.337953439426201 0 0 0 0 -866.6271052189245 1037.4158097050602 0 1037.4158097050602 -559.59151040259167 0 0 0 0 -1108.3546489595756 1060.8961126687427 0 1060.8961126687427 -469.47551490232581 0 0 0 0 17.2462175354745 43.395589142198602 0 43.395589142198602 28.273269970145861 0 0 0 0 -1126.9580037604173 -275.82427996945626 0 -275.82427996945626 -47.369269519374939 0 0 0 0 -284.49195161512762 813.16281814142712 0 813.16281814142712 63.784422466269461 0 0 0 0 -2050.8057081024308 1131.2751282929239 0 1131.2751282929239 428.10466082660423 0 0 0 0 -2654.7864337694919 1109.0139363754352 0 1109.0139363754352 -0.44830398213525768 0 0 0 0 -644.96410186824505 1810.3182254643907 0 1810.3182254643907 -703.23562408302678 0 0 0 0 -17.654785754479235 975.90589446431841 0 975.90589446431841 -1099.1470864609291 0 0 0 0 -782.39387388777686 1034.3507199253072 0 1034.3507199253072 -1269.6660719888168 0 0 0 0 14.802548705088498 2.9152996544397354 0 2.9152996544397354 -2.4422570482254287 0 0 0 0 48.638944697391707 35.185637849383056 0 35.185637849383056 -7.2182099917627056 0 0 0 0 -14.863276594830552 13.804409363363447 0 13.804409363363447 10.767287090948344 0 0 0 0 744.55050332952669 1855.1966219740607 0 1855.1966219740607 -0.4225083343044389 0 0 0 0 1644.2176764241158 1291.6637996166828 0 1291.6637996166828 288.75280803721398 0 0 0 0 32.939295291966118 783.96728479423473 0 783.96728479423473 -382.43405385816004 0 0 0 0 343.79406455966819 2216.553668050954 0 2216.553668050954 186.41751322986238 0 0 0 0 -509.67113933827932 1397.0467613725414 0 1397.0467613725414 530.1213625803648 0 0 0 0 1680.1409548357478 3135.8508159515768 0 3135.8508159515768 992.33661127710729 0 0 0 0 13.47329799340929 13.206489554507584 0 13.206489554507584 -1.8839645637124676 0 0 0 0 603.59975226494134 2399.0350116123955 0 2399.0350116123955 4945.4089346774417 0 0 0 0 429.22557191679516 1118.9134677915572 0 1118.9134677915572 -4483.3538072471565 0 0 0 0 862.5772062353717 1745.6396315419915 0 1745.6396315419915 308.97676936772768 0 0 0 0 1156.3324308003503 2236.1699601785804 0 2236.1699601785804 457.31372251530775 0 0 0 0 134.41169775098388 673.76777411805233 0 673.76777411805233 -1918.9288282204943 0 0 0 0 1321.7062945251892 2745.4113215370089 0 2745.4113215370089 -1684.2875945495762 0 0 0 0 77.777861284746905 808.60027389416064 0 808.60027389416064 -2749.0131747096707 0 0 0 0 40.010399186462848 24.516672295147316 0 24.516672295147316 -4.4136746076700035 0 0 0 0 -543.52499715557497 888.71767432126217 0 888.71767432126217 -1463.3368371255347 0 0 0 0 605.48880982314586 1064.1395742756577 0 1064.1395742756577 1373.6295087157196 0 0 0 0 598.0621388821819 1066.26629827547 0 1066.26629827547 1416.257800076477 0 0 0 0 257.41141546310973 526.08934959614999 0 526.08934959614999 641.60175373492984 0 0 0 0 1161.6994166445438 1280.2992185126641 0 1280.2992185126641 0.52517763906507753 0 0 0 0 974.77194546721876 1216.3241039963323 0 1216.3241039963323 580.84951098248712 0 0 0 0 1523.9592807729059 1864.6733243069248 0 1864.6733243069248 843.01793879938486 0 0 0 0 1406.3450043113426 580.97672631175192 0 580.97672631175192 -171.88439294885029 0 0 0 0 759.71384288692207 851.06577340916556 0 851.06577340916556 0.47596928381700698 0 0 0 0 500.35543430178222 365.78331729495403 0 365.78331729495403 231.65975638145756 0 0 0 0 1420.5854726604593 -229.08466837406013 0 -229.08466837406013 58.370506981154904 0 0 0 0 274.42038529214915 158.43963139598782 0 158.43963139598782 51.25556674589825 0 0 0 0 17.642386558058348 5.8875163442946814 0 5.8875163442946814 -8.6814518937283083 0 0 0 0 2641.4953206096689 1434.6171436685545 0 1434.6171436685545 773.93677023955388 0 0 0 0 3696.4293687463796 1394.1524016171315 0 1394.1524016171315 62.170775138627505 0 0 0 0 1.6750022935844413 17.67680189208221 0 17.67680189208221 3.1333231587806836 0 0 0 0 72.060445864475355 27.860800137854369 0 27.860800137854369 -7.1500218596365244 0 0 0 0 242.85222576362867 113.04156539666292 0 113.04156539666292 -1617.3680930612609 0 0 0 0 -413.93656025597011 259.1541886596533 0 259.1541886596533 114.7401065099366 0 0 0 0 105.16520935896551 1159.4693496708642 0 1159.4693496708642 -2369.652137096622 0 0 0 0 130.95084635791864 911.62740438401306 0 911.62740438401306 -1110.8521367321955 0 0 0 0 -489.97812828804308 664.69348853831616 0 664.69348853831616 -678.98596641227778 0 0 0 0 3548.5884531460688 1202.149788727922 0 1202.149788727922 310.71169491994078 0 0 0 0 -1.5697592455738558 43.332621527417814 0 43.332621527417814 24.830329327421964 0 0 0 0 3708.1966587486677 1073.0897683694711 0 1073.0897683694711 331.02298263435659 0 0 0 0 6625.1542365669957 2071.4110294352067 0 2071.4110294352067 -104.95459954472608 0 0 0 0 -2.9066016690005227 17.733473952418365 0 17.733473952418365 8.9880694644568848 0 0 0 0 926.77145267755259 4644.0060066455626 0 4644.0060066455626 727.81141685752664 0 0 0 0 -139.61181433434831 3417.4181904727593 0 3417.4181904727593 894.06728671956807 0 0 0 0 -4788.2564670334505 917.98534917903999 0 917.98534917903999 2190.6020285183913 0 0 0 0 -257.51780901472375 1874.2781644674105 0 1874.2781644674105 -761.17748888397909 0 0 0 0 -265.58327535454009 2015.7395855191571 0 2015.7395855191571 -1821.7951187405488 0 0 0 0 505.71962806857482 1189.6763527011753 0 1189.6763527011753 -6082.3121833125188 0 0 0 0 27.746707499499678 21.342786880226356 0 21.342786880226356 -3.4307464010343267 0 0 0 0 -600.53663837070053 484.63216256016312 0 484.63216256016312 -2745.2258239879693 0 0 0 0 965.22725225618342 1983.1626359973889 0 1983.1626359973889 2560.9024499895313 0 0 0 0 485.66806409628771 620.43143970419624 0 620.43143970419624 2956.0535453957564 0 0 0 0 -614.55313098857005 3281.9105992261902 0 3281.9105992261902 7059.064100867643 0 0 0 0 534.32002123055281 2134.6065684661298 0 2134.6065684661298 1764.8210626410073 0 0 0 0 582.1085146543046 1134.8891515290597 0 1134.8891515290597 -351.54432765100501 0 0 0 0 89.003814220894128 1812.8730148857139 0 1812.8730148857139 2249.6027402898617 0 0 0 0 304.62385818894836 1460.5455197132469 0 1460.5455197132469 -1177.290192742832 0 0 0 0 -498.21468449593522 425.92617857609002 0 425.92617857609002 591.88768176444864 0 0 0 0 324.09539893822966 493.21543261704846 0 493.21543261704846 536.79664742281602 0 0 0 0 -12.507250533400338 77.14570797650444 0 77.14570797650444 -34.640683031203139 0 0 0 0 554.54691023320629 995.40830459158315 0 995.40830459158315 -1047.3664097838046 0 0 0 0 -137.96355429245159 409.96481279561704 0 409.96481279561704 262.291893885631 0 0 0 0 934.69897356591537 391.44405215114239 0 391.44405215114239 -1448.9855003056582 0 0 0 0 262.10514578426955 1072.1085566206748 0 1072.1085566206748 913.6426399784832 0 0 0 0 1071.3561190853652 995.08950176963117 0 995.08950176963117 -245.70934121329628 0 0 0 0 2018.0463887368678 99.062211770229624 0 99.062211770229624 -2067.1983718033007 0 0 0 0 1562.0456135467975 1402.7679292689572 0 1402.7679292689572 541.99884584287065 0 0 0 0 1028.5486781767104 634.49489118054044 0 634.49489118054044 -183.73496672577676 0 0 0 0 233.07232068675512 1621.9527674432902 0 1621.9527674432902 1000.1098230964271 0 0 0 0 71.904117685786332 254.45778164389776 0 254.45778164389776 1557.9971978337617 0 0 0 0 -21.867813769891058 13.426011220207442 0 13.426011220207442 -17.163628233278814 0 0 0 0 441.77398625029309 1086.8590146999486 0 1086.8590146999486 908.08852691415814 0 0 0 0 1984.2643099462584 1378.9869716667417 0 1378.9869716667417 507.36271148559172 0 0 0 0 -478.94717785710236 840.23238327704894 0 840.23238327704894 1095.2057989418627 0 0 0 0 18.595585667016962 24.289804476556469 0 24.289804476556469 10.104769015595664 0 0 0 0 2327.4597628125921 2135.4478326892277 0 2135.4478326892277 2110.7721135196334 0 0 0 0 1438.0736876773299 2629.9779687815026 0 2629.9779687815026 6308.3663400379246 0 0 0 0 1619.3665311546065 1768.7523191441578 0 1768.7523191441578 4133.5926071801005 0 0 0 0 3187.9497074937681 4763.7451231279847 0 4763.7451231279847 2970.9883893982915 0 0 0 0 3422.111588880769 5976.1751930123864 0 5976.1751930123864 5898.7255811794457 0 0 0 0 6037.3889701814624 5259.01480673068 0 5259.01480673068 640.73136109404732 0 0 0 0 7235.5612870432087 11424.824316718616 0 11424.824316718616 16331.224843662436 0 0 0 0 3680.1114374319441 1898.0624685147195 0 1898.0624685147195 -2467.1591969824403 0 0 0 0 8429.6336954508006 10204.207142215302 0 10204.207142215302 11169.217607809784 0 0 0 0 8.7843305681454353 -30.327561637479576 0 -30.327561637479576 -15.322210114015633 0 0 0 0 2779.0540722613514 -975.39573778581689 0 -975.39573778581689 -5446.5900087324035 0 0 0 0 5514.5506623381516 10310.781549769614 0 10310.781549769614 19848.04369925239 0 0 0 0 3584.3697953934316 -143.02545693767024 0 -143.02545693767024 -5435.8977164216631 0 0 0 0 119.40200679004971 27.999726132996159 0 27.999726132996159 2.5035907261330408 0 0 0 0 1521.3156383887108 992.87271147179854 0 992.87271147179854 -1569.1893299476069 0 0 0 0 -1136.2354763371404 -1026.7142783074087 0 -1026.7142783074087 -2659.6946917786845 0 0 0 0 -1042.4704309762869 1028.4218178212927 0 1028.4218178212927 -1047.6349190094625 0 0 0 0 -95.795318206161028 1471.6265364955761 0 1471.6265364955761 -1156.2297463789873 0 0 0 0 237.31536384358009 89.809329107017149 0 89.809329107017149 5.1060546518284156 0 0 0 0 353.11358463260694 377.57300427279552 0 377.57300427279552 22.645441870408831 0 0 0 0 353.2518532378017 395.06818137051596 0 395.06818137051596 -97.222437648990308 0 0 0 0 -5.415390661214019 86.691269847252329 0 86.691269847252329 -22.387944491743212 0 0 0 0 -14.307188589300495 463.09475937017123 0 463.09475937017123 -107.88104382010351 0 0 0 0 217.46866091905605 113.35294729516075 0 113.35294729516075 15.140335881584974 0 0 0 0 5.3851840659249319 -1.1152164302831693 0 -1.1152164302831693 -0.5391102325450845 0 0 0 0 -994.21173324238043 1992.6901221314329 0 1992.6901221314329 487.47585772414459 0 0 0 0 882.17321789037669 -129.99532759337308 0 -129.99532759337308 831.06116631990881 0 0 0 0 1130.2357621623378 66.868478170501476 0 66.868478170501476 283.0168488604686 0 0 0 0 11.905665430153022 -65.66648041526787 0 -65.66648041526787 776.87798361507885 0 0 0 0 -14.794682175648632 910.23468663915628 0 910.23468663915628 2964.5944228662702 0 0 0 0 1169.6433738282649 2701.0072260436427 0 2701.0072260436427 2622.9580450195135 0 0 0 0 3227.2930646534369 442.96190730245871 0 442.96190730245871 2168.4668220281455 0 0 0 0 438.3672302942141 338.72891309453553 0 338.72891309453553 2097.6416354670218 0 0 0 0 1443.0848098806018 1636.1078875425446 0 1636.1078875425446 1595.4139041398739 0 0 0 0 528.16510270402068 800.98980915325956 0 800.98980915325956 1104.3344402502844 0 0 0 0 3658.5212105736427 3348.027726847642 0 3348.027726847642 2294.9506461507117 0 0 0 0 1336.4425173441705 1400.4633064327136 0 1400.4633064327136 3597.4548062870454 0 0 0 0 -494.32102525202208 2900.3239392270843 0 2900.3239392270843 974.49231649089052 0 0 0 0 39.565551312023217 28.315118639176191 0 28.315118639176191 25.4776195888644 0 0 0 0 2472.0591532870312 4976.1420294805721 0 4976.1420294805721 2011.42060841895 0 0 0 0 5365.2468185552279 4864.7936965180415 0 4864.7936965180415 1004.1112006701005 0 0 0 0 6183.7780509872828 2740.6892245040508 0 2740.6892245040508 1186.6274460059067 0 0 0 0 3296.8490704260985 4358.6376304777623 0 4358.6376304777623 1812.241612566344 0 0 0 0 3762.6933960990282 4255.4737129218265 0 4255.4737129218265 1811.9457603405463 0 0 0 0 3433.2087486833916 2726.2831948857201 0 2726.2831948857201 1478.7351291556115 0 0 0 0 2027.8578331557801 1521.7292719347752 0 1521.7292719347752 -179.85844598425319 0 0 0 0 994.03800392269477 1639.0243362602541 0 1639.0243362602541 295.17846109042875 0 0 0 0 1953.7178550674871 2719.347508730265 0 2719.347508730265 823.51713927008313 0 0 0 0 3456.9245340560374 3766.9154845794346 0 3766.9154845794346 1300.537103489507 0 0 0 0 683.60068859712919 2347.9010298165958 0 2347.9010298165958 1273.7036593724476 0 0 0 0 226.72952496659127 1447.4221747850897 0 1447.4221747850897 1199.5368472269911 0 0 0 0 5.8490368195343763 958.14665583508031 0 958.14665583508031 633.92886755248765 0 0 0 0 -1619.7376507399895 856.77362234760949 0 856.77362234760949 -1128.0558117104229 0 0 0 0 426.69349204176979 2543.9208952916724 0 2543.9208952916724 1250.8523425999156 0 0 0 0 -1672.1853928184719 1846.3976620907633 0 1846.3976620907633 1399.9890171559746 0 0 0 0 -1523.5838335596491 345.62547368137166 0 345.62547368137166 883.19113002007362 0 0 0 0 -1802.585175149492 1407.5449242107134 0 1407.5449242107134 -1949.4768430809927 0 0 0 0 902.98265749763232 -463.79515136535338 0 -463.79515136535338 77.74060876763906 0 0 0 0 5297.8539588860003 -895.13477890707873 0 -895.13477890707873 81.992772876823437 0 0 0 0 5886.1754446377236 2004.3204137184175 0 2004.3204137184175 52.923773378919577 0 0 0 0 2779.9613524662964 -100.78507597176662 0 -100.78507597176662 -493.66442579030991 0 0 0 0 2784.8968938454009 1129.2936285546909 0 1129.2936285546909 -430.28859970570193 0 0 0 0 1244.0656065143412 189.71543133787054 0 189.71543133787054 -378.84717506180459 0 0 0 0 60.416528824445322 98.706700402694239 0 98.706700402694239 67.890556295043041 0 0 0 0 12.264083780581132 328.83831109039602 0 328.83831109039602 -243.89953937707469 0 0 0 0 272.40991837544425 626.54455714471987 0 626.54455714471987 -13.024191776610678 0 0 0 0 1242.3616225694423 241.03991735381715 0 241.03991735381715 -228.5123086062631 0 0 0 0 658.51005100202167 262.07379242320434 0 262.07379242320434 32.725470340519678 0 0 0 0 1205.1809681344021 567.35808600312885 0 567.35808600312885 127.05730968717398 0 0 0 0 -51.704023502085683 -0.74611444926927106 0 -0.74611444926927106 -3.4675637764008798 0 0 0 0 1907.2071770120237 400.94104138285184 0 400.94104138285184 -318.06694529686138 0 0 0 0 1111.7558639759955 791.35763774807128 0 791.35763774807128 338.01862045304733 0 0 0 0 -199.7409165588324 27.695141106400115 0 27.695141106400115 61.555650026813964 0 0 0 0 749.05207143956795 500.67409554167534 0 500.67409554167534 142.46590852748614 0 0 0 0 -75.109947419740706 57.749949026533386 0 57.749949026533386 26.338779046666247 0 0 0 0 -36.738921204175064 41.791781843089467 0 41.791781843089467 42.173411890364719 0 0 0 0 1523.3783204618376 1491.341969613175 0 1491.341969613175 1663.1445499341353 0 0 0 0 1381.3025553684565 1447.0777218076983 0 1447.0777218076983 1911.5558387567871 0 0 0 0 1584.385868362675 1403.8499521427366 0 1403.8499521427366 1036.2816156909976 0 0 0 0 1544.3247417288076 1196.1213036696936 0 1196.1213036696936 1777.8764661780733 0 0 0 0 1616.6792705663247 1078.5193463571341 0 1078.5193463571341 949.09160076830449 0 0 0 0 1580.4897184706133 1448.4324353867287 0 1448.4324353867287 845.37964698577707 0 0 0 0 1066.3088529850647 1066.1760963971683 0 1066.1760963971683 604.19793905541883 0 0 0 0 1320.2476579237846 1092.656702713517 0 1092.656702713517 361.82874683081809 0 0 0 0 1832.0053520361835 2022.3289720612884 0 2022.3289720612884 304.06302630351183 0 0 0 0 1842.7613337391404 1177.0067055011546 0 1177.0067055011546 -708.57275425989064 0 0 0 0 -2.7919641345249602 7.2713420565422098 0 7.2713420565422098 -2.8983358996818822 0 0 0 0 1529.5986168210511 1445.1435239334314 0 1445.1435239334314 -1039.9795758867767 0 0 0 0 1591.3191757696331 1123.2326598578511 0 1123.2326598578511 -826.98280496716325 0 0 0 0 1577.5288718406955 2204.9787498570295 0 2204.9787498570295 1453.663318894105 0 0 0 0 1781.6293784602749 2158.1749919801205 0 2158.1749919801205 -399.53843868320109 0 0 0 0 1522.7598967734812 1685.0194301481861 0 1685.0194301481861 9.5953317880921531 0 0 0 0 2673.5047303772299 945.3167779704163 0 945.3167779704163 -643.99608333305514 0 0 0 0 3256.3955954909907 936.67695907012239 0 936.67695907012239 -360.36479503952432 0 0 0 0 3370.8974187525328 2294.6383511705421 0 2294.6383511705421 210.21595608898497 0 0 0 0 1626.5955124018947 1885.0199921232706 0 1885.0199921232706 1246.3754227019817 0 0 0 0 1629.9710939594579 1931.540527588573 0 1931.540527588573 647.64923205020023 0 0 0 0 587.90333689472754 1323.6661277651001 0 1323.6661277651001 682.65923697040853 0 0 0 0 1137.8168763814028 1719.9150770550768 0 1719.9150770550768 558.0204253118136 0 0 0 0 1116.0721256365941 1861.9804176404941 0 1861.9804176404941 300.67379583241564 0 0 0 0 837.3680018017767 1042.1288235601751 0 1042.1288235601751 78.446520184823385 0 0 0 0 986.07997036326924 1625.9640559390064 0 1625.9640559390064 17.484433809935581 0 0 0 0 722.19895958225243 1860.3204099036448 0 1860.3204099036448 -70.203776086709695 0 0 0 0 804.01981085818261 1664.8847268818354 0 1664.8847268818354 23.40783717697559 0 0 0 0 991.15643672427905 1647.0942765166692 0 1647.0942765166692 23.794119625570602 0 0 0 0 1120.818557886756 1690.2907202747883 0 1690.2907202747883 -14.566580679951585 0 0 0 0 1537.4670783296642 1513.6385620548899 0 1513.6385620548899 -444.80368980739149 0 0 0 0 1402.5910301601398 1080.8365389684768 0 1080.8365389684768 -559.22675030209939 0 0 0 0 1242.8102602664731 1135.8537511794857 0 1135.8537511794857 -537.33938703461899 0 0 0 0 1068.9225977486931 1139.0765572056698 0 1139.0765572056698 -438.43047205069161 0 0 0 0 1134.2595225991681 1014.3273502088268 0 1014.3273502088268 -369.17169574167929 0 0 0 0 1042.9859556070442 1543.5564840728766 0 1543.5564840728766 -18.339173153712181 0 0 0 0 783.93716473817767 1394.4954320801298 0 1394.4954320801298 272.23282331658993 0 0 0 0 960.28313122061081 1285.3211034092237 0 1285.3211034092237 -5.7492423066869378 0 0 0 0 804.72003911953652 1387.6604631340451 0 1387.6604631340451 -72.371372377405351 0 0 0 0 1076.5793358290102 1175.1670786607356 0 1175.1670786607356 -276.80012716102647 0 0 0 0 843.74309002276277 905.0641287688195 0 905.0641287688195 -257.92050414086589 0 0 0 0 877.46099869039608 588.71569869403902 0 588.71569869403902 -436.01662037725328 0 0 0 0 -1.8405634607552201 6.9977068861961698 0 6.9977068861961698 -1.2234245460521436 0 0 0 0 1565.0107505120686 2379.6220321390574 0 2379.6220321390574 3636.0930944937209 0 0 0 0 835.83747245167615 1047.0059707439796 0 1047.0059707439796 -87.982786270935321 0 0 0 0 638.77677423207206 1095.5215744581074 0 1095.5215744581074 295.89612500887597 0 0 0 0 745.71143885920173 1062.324077416677 0 1062.324077416677 104.24951487540966 0 0 0 0 415.83336120087188 496.2638995469315 0 496.2638995469315 109.63056233724569 0 0 0 0 -4.7518937324615536 10.61875027103514 0 10.61875027103514 -1.9208039584721917 0 0 0 0 1564.850787971809 2379.0824757964874 0 2379.0824757964874 3636.1854835625418 0 0 0 0 1689.468788138518 1308.4473501668326 0 1308.4473501668326 1067.2497172877484 0 0 0 0 1723.7103735764395 1159.7015873980563 0 1159.7015873980563 1173.2995326599921 0 0 0 0 1583.3582432327385 550.88155484324534 0 550.88155484324534 -556.7692397342762 0 0 0 0 1295.0553511584294 983.64202017376374 0 983.64202017376374 -533.2281638928107 0 0 0 0 1147.7478208595421 908.27245594770648 0 908.27245594770648 -565.02877213407191 0 0 0 0 1579.5962369190529 2370.0995171653922 0 2370.0995171653922 3641.6264556387905 0 0 0 0 988.45441820065025 886.62211041568662 0 886.62211041568662 -479.48011814133497 0 0 0 0 667.91873956724885 867.02579119298753 0 867.02579119298753 1445.2492010115711 0 0 0 0 847.90711560068303 1244.4285487672678 0 1244.4285487672678 1225.1971759308144 0 0 0 0 503.60751870239619 1135.6972766849358 0 1135.6972766849358 1200.3872613779095 0 0 0 0 420.05331117462083 597.23783647016626 0 597.23783647016626 1295.5536125106446 0 0 0 0 589.2501145916176 1255.1875314304634 0 1255.1875314304634 806.56410177209909 0 0 0 0 704.14446477133606 1225.886535819991 0 1225.886535819991 617.55226870503975 0 0 0 0 433.72653003392043 1579.4367582710838 0 1579.4367582710838 382.93622722687724 0 0 0 0 547.69639867544174 1398.3136380304204 0 1398.3136380304204 637.17776412517196 0 0 0 0 715.06430797319626 1456.4736669364283 0 1456.4736669364283 221.23175639843976 0 0 0 0 652.13719846721506 1548.4744954424204 0 1548.4744954424204 230.10977412207285 0 0 0 0 681.22846848651534 1244.461306662095 0 1244.461306662095 681.14247634929779 0 0 0 0 476.89967042117496 1346.8658925755153 0 1346.8658925755153 281.80244016667712 0 0 0 0 382.57487250707345 1173.9415687310247 0 1173.9415687310247 664.84311874072228 0 0 0 0 -214.8075234564858 1008.9724202548032 0 1008.9724202548032 187.67783615551889 0 0 0 0 -23.247095337457722 1932.751593845649 0 1932.751593845649 -36.498642107399064 0 0 0 0 659.38881314528408 1563.8712312732096 0 1563.8712312732096 182.9365614005219 0 0 0 0 430.85892246104777 1537.4228319007525 0 1537.4228319007525 187.51387894649542 0 0 0 0 796.09276018264063 1250.6493758828583 0 1250.6493758828583 -858.18889764800406 0 0 0 0 417.48423888761317 1555.5831238644314 0 1555.5831238644314 -813.67668645929371 0 0 0 0 475.75160550358123 982.34662784078682 0 982.34662784078682 -750.66484043258515 0 0 0 0 -346.51316263378249 1529.3673246262406 0 1529.3673246262406 -223.45123390670051 0 0 0 0 253.05189453985076 1082.5847723665283 0 1082.5847723665283 99.401568451488856 0 0 0 0 790.98455878636742 1097.1409997248629 0 1097.1409997248629 62.543708983954275 0 0 0 0 653.98458246668451 1123.5689365638391 0 1123.5689365638391 130.30326948708898 0 0 0 0 480.72987682782696 432.57698993072154 0 432.57698993072154 96.710394923240528 0 0 0 0 493.5519316518039 389.49595169738313 0 389.49595169738313 174.55802626164223 0 0 0 0 -10.164724236425855 7.5310823170079289 0 7.5310823170079289 -2.6814604914102063 0 0 0 0 -313.22511285948121 548.42739305766065 0 548.42739305766065 333.769428336891 0 0 0 0 181.89181740905042 827.12693299905368 0 827.12693299905368 892.08927372809012 0 0 0 0 675.86665463499958 1169.0670073491638 0 1169.0670073491638 948.07690752604685 0 0 0 0 560.24792685982538 1059.8980370672652 0 1059.8980370672652 1526.0714274349284 0 0 0 0 871.00785848710802 1829.9240112191983 0 1829.9240112191983 1578.8228551558132 0 0 0 0 445.05025469401153 1313.5364539293441 0 1313.5364539293441 1037.1718631293479 0 0 0 0 508.9799921400554 291.2689452661798 0 291.2689452661798 366.68688234267029 0 0 0 0 -23.602042362736597 19.871431878203282 0 19.871431878203282 -12.045813847315344 0 0 0 0 456.65172842572611 180.76767735734029 0 180.76767735734029 235.76698599413794 0 0 0 0 247.02894923090935 215.46103398055129 0 215.46103398055129 265.89155685786682 0 0 0 0 700.96392607831513 90.172842066705925 0 90.172842066705925 231.7242905808962 0 0 0 0 148.73021834206884 185.25913224552642 0 185.25913224552642 391.07106944566476 0 0 0 0 12.503653816573205 288.37554935268781 0 288.37554935268781 342.31364431872498 0 0 0 0 148.59380820629303 -50.69672761649781 0 -50.69672761649781 393.17794888428762 0 0 0 0 1732.5248192686122 -965.88558105163975 0 -965.88558105163975 1558.2544598003151 0 0 0 0 78.542810865066713 406.69938126771012 0 406.69938126771012 415.18359961375245 0 0 0 0 -43.912854684758031 28.67097159870508 0 28.67097159870508 -23.451808226116299 0 0 0 0 29.199413497000933 205.86257593521441 0 205.86257593521441 164.94864440675883 0 0 0 0 -199.42134720971808 339.7686443917919 0 339.7686443917919 428.1490829941722 0 0 0 0 142.37594557760895 112.3020684486255 0 112.3020684486255 -578.5547210277291 0 0 0 0 57.171593827777542 902.32972469614469 0 902.32972469614469 -1216.6747333677631 0 0 0 0 92.866165868355893 222.97005792644632 0 222.97005792644632 300.77056028778316 0 0 0 0 -13.667413700124598 70.192293527339643 0 70.192293527339643 100.0689943000325 0 0 0 0 -261.48144380218582 495.43188525259029 0 495.43188525259029 63.249851467662666 0 0 0 0 -806.533766124252 858.52324113904615 0 858.52324113904615 -56.055750524799805 0 0 0 0 -516.66717957505534 -297.21319490510541 0 -297.21319490510541 524.29912690111087 0 0 0 0 848.32561987044755 -736.84179585525999 0 -736.84179585525999 243.26787976152991 0 0 0 0 2200.6817067147786 213.23921725784385 0 213.23921725784385 -12.125486415578052 0 0 0 0 3896.6059011254692 880.34342860800098 0 880.34342860800098 -710.62472552373947 0 0 0 0 3906.2254402576541 3597.9668436644338 0 3597.9668436644338 1791.0695244062517 0 0 0 0 1362.9183612214692 1893.8078341801665 0 1893.8078341801665 652.29132433817722 0 0 0 0 1930.5462529158394 720.34119238235871 0 720.34119238235871 58.907316791694029 0 0 0 0 2868.1848488945689 1357.9083150808219 0 1357.9083150808219 166.70564528813702 0 0 0 0 1481.1248541512759 1282.8548368743141 0 1282.8548368743141 158.48030891333474 0 0 0 0 1090.8212199956033 990.21473560090453 0 990.21473560090453 134.67576728634594 0 0 0 0 1501.7515723204124 484.54040525089658 0 484.54040525089658 94.397862123839786 0 0 0 0 703.69804131911951 43.623747567544342 0 43.623747567544342 80.129205668577924 0 0 0 0 47.280533735145582 1462.9360518872709 0 1462.9360518872709 762.68984991886828 0 0 0 0 -11.447732078871923 1551.9290712883158 0 1551.9290712883158 968.83604683689373 0 0 0 0 414.99277954289573 1685.0938283398937 0 1685.0938283398937 902.71815006552788 0 0 0 0 460.13071920099901 1541.2759338340693 0 1541.2759338340693 429.41828044597059 0 0 0 0 977.81134627416031 1916.216628472961 0 1916.216628472961 700.44343200169533 0 0 0 0 1514.770834391762 2651.1274665384117 0 2651.1274665384117 1734.1473898510012 0 0 0 0 -760.93919598837965 1742.9742723479139 0 1742.9742723479139 2478.9643901123782 0 0 0 0 -467.19105958996806 1340.1183394744148 0 1340.1183394744148 2242.5767277910818 0 0 0 0 -416.90452544786967 1257.5014380297071 0 1257.5014380297071 1924.1654660002969 0 0 0 0 398.27923682350593 1804.788043436015 0 1804.788043436015 1095.6288089508016 0 0 0 0 -308.84485403099825 1043.6168711618302 0 1043.6168711618302 1070.9608088951209 0 0 0 0 -224.083801334491 759.15419214881695 0 759.15419214881695 879.35159055238182 0 0 0 0 -242.78273510596773 1045.7315031821145 0 1045.7315031821145 625.39167614196776 0 0 0 0 -262.33238647939288 1074.3140365768268 0 1074.3140365768268 1073.5933212658274 0 0 0 0 -173.20468590201926 876.92886543885106 0 876.92886543885106 430.73629621713189 0 0 0 0 -226.89262487870292 1225.2531712151685 0 1225.2531712151685 417.61932197547867 0 0 0 0 -228.29840484069427 1204.4653830967873 0 1204.4653830967873 489.84930945515225 0 0 0 0 -198.88289824812091 1410.4781441699452 0 1410.4781441699452 598.08458376028284 0 0 0 0 -212.1833358577278 1296.6973121605406 0 1296.6973121605406 926.04992423519434 0 0 0 0 -106.91102887014858 1344.081971381871 0 1344.081971381871 529.28285887262609 0 0 0 0 -156.60489262203919 1345.8317424522647 0 1345.8317424522647 546.81670330482302 0 0 0 0 79.994190841476666 1479.5731786727702 0 1479.5731786727702 442.86206906361622 0 0 0 0 -205.13394339831575 1418.3073069923448 0 1418.3073069923448 500.23673103857436 0 0 0 0 -248.38332071417244 1345.0778414794586 0 1345.0778414794586 517.77269096547388 0 0 0 0 -306.0106016251375 1261.2760393647914 0 1261.2760393647914 320.16060524853674 0 0 0 0 -268.20959545164078 1256.6924754952433 0 1256.6924754952433 315.0526454916253 0 0 0 0 -125.76227855835896 1242.993951240047 0 1242.993951240047 181.37983486584562 0 0 0 0 -301.63329931764747 1083.332669627147 0 1083.332669627147 156.5489616130053 0 0 0 0 366.50044709304348 1307.0142291989323 0 1307.0142291989323 -27.900279254081397 0 0 0 0 351.07682966941502 1566.3404036584325 0 1566.3404036584325 375.00260347858421 0 0 0 0 184.79491404173314 1307.3979290245115 0 1307.3979290245115 -26.082400159997633 0 0 0 0 472.10021840553964 1636.9326051065727 0 1636.9326051065727 405.883651720942 0 0 0 0 491.15785652957129 1321.2439616257452 0 1321.2439616257452 -7.0480434027995216 0 0 0 0 865.12443816222367 1627.2764961424691 0 1627.2764961424691 215.58479005580011 0 0 0 0 518.67113272831193 1565.0841740066098 0 1565.0841740066098 -253.97822008287039 0 0 0 0 564.34965080302209 1293.6051855781043 0 1293.6051855781043 -424.70713428993622 0 0 0 0 581.54243790215696 1194.2469680573267 0 1194.2469680573267 -441.86664825225444 0 0 0 0 551.48805781350529 1276.7025592069331 0 1276.7025592069331 -443.14904370284057 0 0 0 0 479.32043621063349 966.88209162520207 0 966.88209162520207 399.59054697125976 0 0 0 0 322.72939659371332 1268.5047054917413 0 1268.5047054917413 71.711681090513594 0 0 0 0 472.05431502497231 1124.451188088311 0 1124.451188088311 20.996230023578391 0 0 0 0 520.27698611305095 1245.1124011248903 0 1245.1124011248903 81.333498839419917 0 0 0 0 336.07830121657389 985.03520685080184 0 985.03520685080184 652.42438704156666 0 0 0 0 623.70831786008785 1164.9297054696799 0 1164.9297054696799 721.63669203052268 0 0 0 0 533.16095419047633 1386.7456045521103 0 1386.7456045521103 718.818898499645 0 0 0 0 369.95835026833811 919.59131226419231 0 919.59131226419231 1274.9445625715452 0 0 0 0 344.50157529828721 1127.2039385910393 0 1127.2039385910393 1416.4313840859395 0 0 0 0 406.51336821286532 1184.8077457219297 0 1184.8077457219297 1323.2396186906117 0 0 0 0 499.40364890982164 1192.374769596121 0 1192.374769596121 1347.3365500823347 0 0 0 0 346.89516680091037 1142.7656059170331 0 1142.7656059170331 1411.3723888957247 0 0 0 0 501.78718780749477 1351.6923791369627 0 1351.6923791369627 1428.6803983404197 0 0 0 0 237.14554835387753 1071.062261570326 0 1071.062261570326 1985.4351652557962 0 0 0 0 252.56411900318926 834.87039034073678 0 834.87039034073678 -1935.5999512082217 0 0 0 0 297.73484425220522 1388.4176458470902 0 1388.4176458470902 -436.75360098169767 0 0 0 0 1.2251397205889134 2.9819048369566019 0 2.9819048369566019 0.47921917104610401 0 0 0 0 194.02464232654893 1007.2835611778683 0 1007.2835611778683 -426.44756381699699 0 0 0 0 -282.75291232936434 1005.0065284720331 0 1005.0065284720331 -23.951536699503777 0 0 0 0 -434.58861105301185 675.74577025931285 0 675.74577025931285 89.850438682551612 0 0 0 0 -373.93065143265994 1033.1069751840259 0 1033.1069751840259 718.77560451433965 0 0 0 0 138.7923441088642 1004.5098295506759 0 1004.5098295506759 770.67528916869924 0 0 0 0 -14.3261445191456 272.87929328073369 0 272.87929328073369 1339.273668601134 0 0 0 0 -80.43280148942722 612.54039261612343 0 612.54039261612343 133.79481207060599 0 0 0 0 -72.168821575905895 446.0669281176888 0 446.0669281176888 -864.77965645768563 0 0 0 0 -484.46317489733337 268.70701011590427 0 268.70701011590427 -58.002284763955686 0 0 0 0 -173.75799250469572 866.07984708472213 0 866.07984708472213 -94.218021513515851 0 0 0 0 -0.59099936830659772 8.9322260313101793 0 8.9322260313101793 2.7751565581118172 0 0 0 0 4.3353233929893804 3.5852745671645039 0 3.5852745671645039 1.7230356579046457 0 0 0 0 254.89110270264791 760.70557438461765 0 760.70557438461765 -1138.4715733657504 0 0 0 0 6.5304022982444394 8.0691017415185655 0 8.0691017415185655 2.8523129835648717 0 0 0 0 -154.49992335317074 1009.3375202792668 0 1009.3375202792668 -630.73493092346325 0 0 0 0 -510.07904597144807 1178.8816043865772 0 1178.8816043865772 864.64299297537946 0 0 0 0 -347.91071271817054 509.64847472132078 0 509.64847472132078 -46.763704108918319 0 0 0 0 -319.56004725312232 789.47833130171057 0 789.47833130171057 2279.9315977809965 0 0 0 0 323.30169329806813 1753.8518545473125 0 1753.8518545473125 1281.1053878343591 0 0 0 0 -452.02708996212459 751.76251718819185 0 751.76251718819185 -426.78727737070585 0 0 0 0 -205.00004911344149 1102.5038944475091 0 1102.5038944475091 -203.6166664643315 0 0 0 0 -497.35312285620603 726.56996002267988 0 726.56996002267988 -336.26362267404329 0 0 0 0 -0.6711964788264595 1210.5736971085971 0 1210.5736971085971 -786.19614355127851 0 0 0 0 -54.540279713459313 779.21792189848566 0 779.21792189848566 -1912.9398616902909 0 0 0 0 -894.26668831551797 1348.6126314556896 0 1348.6126314556896 1739.3872766832501 0 0 0 0 3.7794320551817009 2.6690256355566149 0 2.6690256355566149 -0.51974136779858782 0 0 0 0 -538.50852810934884 783.65457884459465 0 783.65457884459465 3110.1724539268544 0 0 0 0 -1.0282645793579377 3.6731152269212828 0 3.6731152269212828 2.3588713448278185 0 0 0 0 222.30916607100517 506.17256299416476 0 506.17256299416476 -1081.6469111080696 0 0 0 0 -206.5220511455118 206.87411043320026 0 206.87411043320026 2243.1527118478552 0 0 0 0 70.775324048154289 1152.6204890312292 0 1152.6204890312292 1264.5334682292887 0 0 0 0 -112.97725655965041 1119.6003446575924 0 1119.6003446575924 1963.8041079378527 0 0 0 0 -14.44232063848176 1401.3833114972003 0 1401.3833114972003 2327.8965552244772 0 0 0 0 0.028616302923182957 1246.7177517619311 0 1246.7177517619311 1535.5432940269311 0 0 0 0 116.1516801584221 1359.5947775914465 0 1359.5947775914465 1383.4184789105639 0 0 0 0 53.444175104115857 1052.8910543488455 0 1052.8910543488455 1101.1678445580255 0 0 0 0 36.523392575720209 1137.9274041728313 0 1137.9274041728313 109.39925215590483 0 0 0 0 0.042801858100574464 1393.8011974346591 0 1393.8011974346591 692.48051718941133 0 0 0 0 -170.82092558049771 1427.0116687148547 0 1427.0116687148547 574.28042749304268 0 0 0 0 97.779634979451657 1233.5648822653966 0 1233.5648822653966 591.64489896564919 0 0 0 0 -24.007652847027202 1334.1367841054271 0 1334.1367841054271 1222.9234748019662 0 0 0 0 -195.72570896582329 1346.9959907602388 0 1346.9959907602388 988.04905931446046 0 0 0 0 -188.61945485715114 1280.9574826221069 0 1280.9574826221069 524.6171545250545 0 0 0 0 -281.54738479279331 1352.3252500966628 0 1352.3252500966628 541.84932074732205 0 0 0 0 -206.13676189914986 1314.8059196843096 0 1314.8059196843096 463.24285790564318 0 0 0 0 -238.0234173918434 1431.1392542428803 0 1431.1392542428803 541.4470907222676 0 0 0 0 -259.12482774071395 1317.2815430873452 0 1317.2815430873452 596.31754151840869 0 0 0 0 -92.733071574781206 1399.9947653356467 0 1399.9947653356467 140.71806362291682 0 0 0 0 -247.69688885881624 1383.6636305558714 0 1383.6636305558714 376.85445164062548 0 0 0 0 -265.28529240313219 1177.7685168687167 0 1177.7685168687167 376.93958854282175 0 0 0 0 -139.32410856403294 904.52541233900411 0 904.52541233900411 -177.721423624811 0 0 0 0 -195.6692752482013 1211.0235193242297 0 1211.0235193242297 209.92552995934966 0 0 0 0 -222.66944272534965 1109.1759565210787 0 1109.1759565210787 85.808953169253073 0 0 0 0 -102.75709969685704 1299.1699782032811 0 1299.1699782032811 -357.20996270204705 0 0 0 0 -116.99348718527472 880.86071519223333 0 880.86071519223333 -863.24100785535848 0 0 0 0 -0.054326515994034708 1420.1076350217991 0 1420.1076350217991 -97.5029305498756 0 0 0 0 -562.63472536500194 963.65602181710346 0 963.65602181710346 2973.8847826133024 0 0 0 0 317.39977429882856 1815.0906083362788 0 1815.0906083362788 1709.8390929879351 0 0 0 0 473.52851137705147 1128.4828534332446 0 1128.4828534332446 1688.7672615965093 0 0 0 0 -0.021050356721389107 1175.2002258523426 0 1175.2002258523426 1935.9426039672981 0 0 0 0 335.80546096021135 1626.6065051763835 0 1626.6065051763835 -363.73708244777663 0 0 0 0 8.3805839397703608 7.7071218846981111 0 7.7071218846981111 4.7937187944318254 0 0 0 0 321.71413335108082 1433.2350310969659 0 1433.2350310969659 -1441.1742745193478 0 0 0 0 13.742367696629515 16.566842789802493 0 16.566842789802493 11.477255746733761 0 0 0 0 -568.55365716625238 1183.3501967216071 0 1183.3501967216071 -259.80911203975484 0 0 0 0 -729.79929335060297 638.93954534851582 0 638.93954534851582 799.25703712765971 0 0 0 0 -658.48876976739848 582.58875279073982 0 582.58875279073982 1542.4527452610419 0 0 0 0 -520.78653245556052 806.81519272899823 0 806.81519272899823 -32.556388153112493 0 0 0 0 -111.40482715808321 1679.0534524474861 0 1679.0534524474861 1242.010115612944 0 0 0 0 -468.13460014747761 1489.7116607778626 0 1489.7116607778626 1200.8426779393994 0 0 0 0 -497.27365090962849 1138.1290202443706 0 1138.1290202443706 1097.594361296673 0 0 0 0 -386.57701546990575 1267.5759410424826 0 1267.5759410424826 904.93086519441567 0 0 0 0 -87.246590519716847 1647.6753828181791 0 1647.6753828181791 931.65741440125566 0 0 0 0 89.927593895001337 1688.9446146091104 0 1688.9446146091104 1103.2748692337991 0 0 0 0 -97.624710645919549 1578.709006967576 0 1578.709006967576 1060.8058387011552 0 0 0 0 -55.384390209495905 1453.6124333464795 0 1453.6124333464795 1371.4344763196714 0 0 0 0 0.45493298683140893 1513.7009589098052 0 1513.7009589098052 1375.1031051830396 0 0 0 0 138.81295260027764 1451.4296737162108 0 1451.4296737162108 1079.3246625073007 0 0 0 0 55.498858197490335 1582.6726579353544 0 1582.6726579353544 823.81367330000285 0 0 0 0 -0.070825990347657353 1609.4255875765593 0 1609.4255875765593 999.00702844942316 0 0 0 0 -141.79220969972084 1531.4820271907593 0 1531.4820271907593 810.73223419649003 0 0 0 0 -0.096013792091980577 1575.0883687662863 0 1575.0883687662863 705.04309930687668 0 0 0 0 -0.36177886275982019 1426.6387917204775 0 1426.6387917204775 233.80821899696093 0 0 0 0 -262.96547233105753 1290.6947053280428 0 1290.6947053280428 464.89929937742272 0 0 0 0 -112.99664844073413 1558.6973950699435 0 1558.6973950699435 1209.8318788331962 0 0 0 0 -114.62496513378574 1528.575920419571 0 1528.575920419571 658.44228215135263 0 0 0 0 -48.303809015429579 1675.3525514841822 0 1675.3525514841822 772.85661051950956 0 0 0 0 -269.43236709397161 1603.2411417541116 0 1603.2411417541116 840.23734797438374 0 0 0 0 -23.759921341996233 1615.0940484069224 0 1615.0940484069224 788.22788817290711 0 0 0 0 -69.626783718922525 1683.9402006881701 0 1683.9402006881701 788.99519626261463 0 0 0 0 -140.92350264792913 1611.2399432067832 0 1611.2399432067832 906.9279821182281 0 0 0 0 -190.97514119459811 1490.5957217575742 0 1490.5957217575742 731.55599258825532 0 0 0 0 -246.92107621228206 1230.4343934335739 0 1230.4343934335739 559.19469596945055 0 0 0 0 -135.52511439999944 1409.938667233675 0 1409.938667233675 848.33435605486011 0 0 0 0 -262.45295296733093 1237.2737396716548 0 1237.2737396716548 640.94096221587824 0 0 0 0 -174.54306892794557 1205.2157316606044 0 1205.2157316606044 419.62567639419285 0 0 0 0 76.060595973714953 1495.2446869956948 0 1495.2446869956948 642.50055748723207 0 0 0 0 259.66736914572539 1712.2004423996477 0 1712.2004423996477 776.85161152037108 0 0 0 0 -40.528693299216684 1584.2051262842906 0 1584.2051262842906 731.95506620819651 0 0 0 0 96.268855233778595 1716.2322865643291 0 1716.2322865643291 744.1024430247453 0 0 0 0 7.5362156160117593 1569.7650171490968 0 1569.7650171490968 1320.0535523401195 0 0 0 0 565.1629856310974 1418.9203901913861 0 1418.9203901913861 2225.2075005109509 0 0 0 0 632.8629170460481 904.22489063746616 0 904.22489063746616 1546.1071317841852 0 0 0 0 -5.4880995826388244 5.2438735668103789 0 5.2438735668103789 -0.55447769142496384 0 0 0 0 36.399835889473252 1540.2845080866741 0 1540.2845080866741 2478.6083293962074 0 0 0 0 436.84241502639634 680.73523437763288 0 680.73523437763288 259.61596932123211 0 0 0 0 -349.14976699132239 1591.158911012496 0 1591.158911012496 199.60611387218523 0 0 0 0 414.96507100295275 890.41090702538349 0 890.41090702538349 -1024.3395524557818 0 0 0 0 -40.105498635472031 1188.3123301382002 0 1188.3123301382002 425.26312372348548 0 0 0 0 -47.723718848807039 1190.7888636821153 0 1190.7888636821153 532.0506138211349 0 0 0 0 382.46861970896134 1278.9588398616688 0 1278.9588398616688 192.45861882855388 0 0 0 0 241.83195669148699 1174.4818882061008 0 1174.4818882061008 516.02326253141291 0 0 0 0 220.26524961924588 1073.8943416510956 0 1073.8943416510956 599.27682944160188 0 0 0 0 116.58498898783 1206.0828514743953 0 1206.0828514743953 549.70259758736756 0 0 0 0 -127.48574800509232 1152.3821942966742 0 1152.3821942966742 682.07859400384768 0 0 0 0 -101.94760595842672 1078.4497231079586 0 1078.4497231079586 635.08439859896316 0 0 0 0 -448.16840874953778 1182.198223759442 0 1182.198223759442 790.87669974863456 0 0 0 0 -516.61159944185056 911.1005777701539 0 911.1005777701539 547.77217816302436 0 0 0 0 -283.38354032475036 1139.5728544762551 0 1139.5728544762551 752.34203023240843 0 0 0 0 -319.95113807040616 1054.6514487457462 0 1054.6514487457462 642.14363766591487 0 0 0 0 -203.62033532798523 1071.907883404052 0 1071.907883404052 507.96973109164264 0 0 0 0 -266.18266244696861 822.013999744393 0 822.013999744393 -65.142489326757641 0 0 0 0 -872.93172374786809 562.16568611746698 0 562.16568611746698 -159.49574649298302 0 0 0 0 -91.714867387985578 950.53101381086799 0 950.53101381086799 -95.250174909771886 0 0 0 0 109.81857381908776 1153.0737348036737 0 1153.0737348036737 379.74600354937866 0 0 0 0 272.44457086909097 1282.3170754524981 0 1282.3170754524981 482.3154161725688 0 0 0 0 -26.618885777032119 1050.0222651929325 0 1050.0222651929325 393.56258837694622 0 0 0 0 47.350986078541609 1242.7659477876441 0 1242.7659477876441 459.94469469314208 0 0 0 0 662.3677603151009 1022.5261698951508 0 1022.5261698951508 899.52122140266147 0 0 0 0 786.2166232380514 1353.5534886226042 0 1353.5534886226042 761.35758964477282 0 0 0 0 683.41871917646495 1074.9518951527316 0 1074.9518951527316 579.48269311253898 0 0 0 0 278.80192981674918 1160.0516905142103 0 1160.0516905142103 673.32622925721444 0 0 0 0 732.52287075371714 1167.6952250445611 0 1167.6952250445611 386.57720341133972 0 0 0 0 -191.22766823861457 263.2848356663053 0 263.2848356663053 272.95457825584708 0 0 0 0 -190.09433617329341 328.76359316104572 0 328.76359316104572 672.61940687204333 0 0 0 0 676.15135729304166 378.0444091581885 0 378.0444091581885 339.57379948288144 0 0 0 0 220.3524710174388 60.809511860450584 0 60.809511860450584 759.63336741243256 0 0 0 0 287.39578014417202 516.97489541234609 0 516.97489541234609 316.96762447962828 0 0 0 0 -145.45444797616881 85.230572601611016 0 85.230572601611016 50.850776807678585 0 0 0 0 1130.256799419054 940.54147681985341 0 940.54147681985341 589.99468023118243 0 0 0 0 1245.6176986884093 1217.2513235241204 0 1217.2513235241204 730.07744342735532 0 0 0 0 -259.36229543050285 78.696793212213379 0 78.696793212213379 162.3902837124042 0 0 0 0 -137.77361264728768 80.575835495485052 0 80.575835495485052 48.462663759486503 0 0 0 0 1257.7466795574583 927.44734786105255 0 927.44734786105255 575.89720574971579 0 0 0 0 664.27118094988691 1118.9742751978956 0 1118.9742751978956 640.26270001428929 0 0 0 0 306.91623117771815 1180.5323383359555 0 1180.5323383359555 661.14132115521352 0 0 0 0 241.5903059469108 1162.2916550138902 0 1162.2916550138902 599.06511442060582 0 0 0 0 594.82796460139798 1009.0003005937251 0 1009.0003005937251 562.40504381401661 0 0 0 0 649.09394894794968 1074.843905728063 0 1074.843905728063 526.79099229169515 0 0 0 0 617.88492326973937 1006.4790573929531 0 1006.4790573929531 399.23389504963416 0 0 0 0 940.63423425564542 933.17127071259529 0 933.17127071259529 490.30916998934481 0 0 0 0 766.9027730627422 898.12718550877617 0 898.12718550877617 413.43340680409165 0 0 0 0 909.4098092924396 1065.0254607711031 0 1065.0254607711031 587.41485249037214 0 0 0 0 526.39298774476629 782.11231174466957 0 782.11231174466957 604.88836860736046 0 0 0 0 571.60499148408417 943.76064129238512 0 943.76064129238512 759.29810417784029 0 0 0 0 497.84448065713514 901.50072311071926 0 901.50072311071926 742.87933556629287 0 0 0 0 636.29997577771428 856.82570450427738 0 856.82570450427738 703.10782326266462 0 0 0 0 622.87161179361283 880.04408229136607 0 880.04408229136607 701.1118996712612 0 0 0 0 884.23433711740654 1126.4152087478979 0 1126.4152087478979 741.71812115775538 0 0 0 0 609.9533719921601 914.46582986519934 0 914.46582986519934 609.39249648677833 0 0 0 0 -6.1208705114759141 15.394817376689048 0 15.394817376689048 -7.1233317459536636 0 0 0 0 441.17239983400214 1375.1617617917946 0 1375.1617617917946 1818.6109286426472 0 0 0 0 -2.9621324026573461 3.6219277890792227 0 3.6219277890792227 2.6412983915127768 0 0 0 0 594.01305982023769 918.12976352310943 0 918.12976352310943 1520.4036680229765 0 0 0 0 458.95056029286206 1092.2429576462273 0 1092.2429576462273 1790.2963710832846 0 0 0 0 633.57776418575668 1307.2557934467586 0 1307.2557934467586 1811.3832524710306 0 0 0 0 -9.177703839737319 14.275828338230468 0 14.275828338230468 -6.2963586962788014 0 0 0 0 1499.7119103588921 1445.4759106577912 0 1445.4759106577912 1240.6649443442293 0 0 0 0 1383.9514481933656 1137.7965488235222 0 1137.7965488235222 916.75876855704701 0 0 0 0 1379.2151420022128 1103.2839193302498 0 1103.2839193302498 940.06340525216365 0 0 0 0 1458.8428011899814 1121.5400538380927 0 1121.5400538380927 889.75820334885793 0 0 0 0 1456.524590827159 1000.7590769552387 0 1000.7590769552387 761.42189711690298 0 0 0 0 1530.4690114423283 1135.9809839496447 0 1135.9809839496447 890.63558025736711 0 0 0 0 1539.6138179566151 1303.1391592579043 0 1303.1391592579043 1120.9636542343942 0 0 0 0 1545.474408297604 1128.9881133015274 0 1128.9881133015274 893.02000622017658 0 0 0 0 1638.7687658126233 1288.6928153258486 0 1288.6928153258486 1028.1533129945165 0 0 0 0 1561.526439638983 2381.9899788596667 0 2381.9899788596667 3635.1912116790627 0 0 0 0 1088.0856529469893 1004.2069903676093 0 1004.2069903676093 1002.0971477182029 0 0 0 0 1006.7504290554207 1190.0670811440286 0 1190.0670811440286 1357.1170452080405 0 0 0 0 1200.6639941626345 1210.6742001533712 0 1210.6742001533712 1338.8132826627916 0 0 0 0 1085.4647443068679 1029.4954260624145 0 1029.4954260624145 758.85392702031822 0 0 0 0 1299.0729000323336 1002.6884915736446 0 1002.6884915736446 695.9719315788243 0 0 0 0 1177.0383928960655 997.78896428052758 0 997.78896428052758 567.35096124534903 0 0 0 0 1232.7044722131977 1079.2918300448146 0 1079.2918300448146 683.46144043461391 0 0 0 0 1294.2860576614621 952.37016501498874 0 952.37016501498874 642.29519849659118 0 0 0 0 1355.2544075845944 986.36469160356501 0 986.36469160356501 730.5722520686104 0 0 0 0 1320.9367972982582 1083.49202055551 0 1083.49202055551 948.40838355239248 0 0 0 0 1340.7187298043282 943.73528274193814 0 943.73528274193814 690.06399275010335 0 0 0 0 1403.6155817056424 1021.1332237534734 0 1021.1332237534734 683.96439774707687 0 0 0 0 1462.8723232108168 1019.658273813533 0 1019.658273813533 718.22899780589796 0 0 0 0 1222.4254502662225 1027.4633160179801 0 1027.4633160179801 541.01997110697994 0 0 0 0 1287.1398951739011 1042.2610996465983 0 1042.2610996465983 543.48576462783967 0 0 0 0 1217.170623504062 1009.4813423488267 0 1009.4813423488267 481.02843826564276 0 0 0 0 933.93980638042558 1017.4696210499769 0 1017.4696210499769 577.7120547775412 0 0 0 0 1025.0562278756552 1062.2774243186268 0 1062.2774243186268 530.4139571230553 0 0 0 0 1244.8937535699806 1032.1397172026736 0 1032.1397172026736 486.14121283918212 0 0 0 0 1320.2838387967277 1051.9047699868352 0 1051.9047699868352 485.98197770960542 0 0 0 0 733.89327369790408 -400.73948666636716 0 -400.73948666636716 -424.3174141693853 0 0 0 0 -448.17534164281096 -442.04377759937779 0 -442.04377759937779 -328.50958936060488 0 0 0 0 1315.4548692752724 520.60138721467956 0 520.60138721467956 55.219481846317649 0 0 0 0 -128.2045678806671 80.496907322891047 0 80.496907322891047 30.385597453120795 0 0 0 0 -17.496889878604861 48.093941106849464 0 48.093941106849464 21.894336354196497 0 0 0 0 1108.1110982307437 980.62689405888887 0 980.62689405888887 606.65348069899483 0 0 0 0 1276.0474644674823 868.51418733159358 0 868.51418733159358 681.43103899319249 0 0 0 0 1439.5108432868146 832.97756457277865 0 832.97756457277865 651.97139172299649 0 0 0 0 1389.9580561924377 868.64941679271578 0 868.64941679271578 626.30093642047723 0 0 0 0 1454.6589421015815 923.1374655108666 0 923.1374655108666 637.27170249727715 0 0 0 0 1543.0639781852951 944.51293779801199 0 944.51293779801199 613.4243298657675 0 0 0 0 1028.9155338341006 719.95956889063268 0 719.95956889063268 414.17951366935449 0 0 0 0 283.5815703411572 452.71987007005191 0 452.71987007005191 747.74966872493678 0 0 0 0 -90.55506427995897 33.431093522494507 0 33.431093522494507 55.99966288104207 0 0 0 0 686.0746581358253 1188.0129720983969 0 1188.0129720983969 1252.8204522516244 0 0 0 0 1006.8812582645915 954.95981457486778 0 954.95981457486778 640.93077215521043 0 0 0 0 798.9566090219887 921.38134253781755 0 921.38134253781755 554.98559734462469 0 0 0 0 1090.7243881272661 831.02914615314512 0 831.02914615314512 516.15349363940186 0 0 0 0 1165.5566409598323 1056.9742783676393 0 1056.9742783676393 706.32268553580798 0 0 0 0 1456.0818845109898 913.07264739567472 0 913.07264739567472 715.95951336672442 0 0 0 0 1570.1879695348034 1157.5584600792063 0 1157.5584600792063 832.06075861323916 0 0 0 0 1550.6733589321775 973.16792872235965 0 973.16792872235965 675.99689264025073 0 0 0 0 1414.4286474612018 949.04692165934102 0 949.04692165934102 725.82798043746152 0 0 0 0 1425.7548730512499 881.45128082118026 0 881.45128082118026 558.3686098625185 0 0 0 0 -112.86513688589912 37.503466855261649 0 37.503466855261649 -6.4332542089687195 0 0 0 0 -108.64114324559341 68.623549649877532 0 68.623549649877532 81.707280730217462 0 0 0 0 -79.201806365574328 42.777321429149026 0 42.777321429149026 36.701299268675427 0 0 0 0 683.88514247265994 545.47328551144892 0 545.47328551144892 433.71306622394877 0 0 0 0 -57.714683975762455 69.895491778584983 0 69.895491778584983 90.104542797023896 0 0 0 0 -78.877826528478181 24.723160680143337 0 24.723160680143337 29.535913198284106 0 0 0 0 -184.70639544687583 41.522433837722929 0 41.522433837722929 80.728913413557166 0 0 0 0 -5.1564863831465981 52.331084012511923 0 52.331084012511923 44.812266689462831 0 0 0 0 -136.23488768027164 319.53752687788801 0 319.53752687788801 -240.00118863297757 0 0 0 0 -92.179371062507755 22.419556820057139 0 22.419556820057139 24.555189407123535 0 0 0 0 -135.58188219355361 70.220069925559073 0 70.220069925559073 37.399894889604184 0 0 0 0 -93.971827231838063 38.922902171196682 0 38.922902171196682 22.377485025060878 0 0 0 0 -221.25515878718579 213.20058756825892 0 213.20058756825892 -169.71684525319142 0 0 0 0 163.65979690980021 257.03017988115971 0 257.03017988115971 -650.9681711045414 0 0 0 0 -362.07788590873133 461.25993306992677 0 461.25993306992677 1099.8324482366006 0 0 0 0 553.78088345383003 732.61092015366012 0 732.61092015366012 -70.012069568863808 0 0 0 0 -406.11036238758243 215.57927157038648 0 215.57927157038648 -62.575028436571301 0 0 0 0 -482.95378784243076 281.9977137606038 0 281.9977137606038 17.626248170432518 0 0 0 0 -16.895876279730974 17.792382701446087 0 17.792382701446087 17.10276785273436 0 0 0 0 -924.45413790665043 -199.9679055976012 0 -199.9679055976012 991.28513915739313 0 0 0 0 -0.27138937617593784 -2.825141265977237 0 -2.825141265977237 6.7228488846259324 0 0 0 0 -563.62410381149675 -40.982346977041743 0 -40.982346977041743 799.38874687222415 0 0 0 0 -286.21108435429051 582.71397333768255 0 582.71397333768255 1722.8667952241667 0 0 0 0 906.64615366514317 826.06733105157969 0 826.06733105157969 743.35300155571895 0 0 0 0 61.163756027584895 406.60077483973873 0 406.60077483973873 568.33779817420873 0 0 0 0 72.483787149655655 665.37459013905755 0 665.37459013905755 900.17371032820665 0 0 0 0 656.07525826073834 413.75311260272429 0 413.75311260272429 284.49669266195269 0 0 0 0 -1486.612851614409 -220.66384438532623 0 -220.66384438532623 983.56643701432768 0 0 0 0 -335.6900062320492 37.525829940714175 0 37.525829940714175 -197.45563201339246 0 0 0 0 -379.18479771788407 279.5999796629585 0 279.5999796629585 588.89335141504125 0 0 0 0 -838.79513883418986 125.59484090089973 0 125.59484090089973 1108.9333206045994 0 0 0 0 -161.12511220251326 927.64332909261429 0 927.64332909261429 1522.9312866477994 0 0 0 0 -647.08884171699174 -572.93126286518964 0 -572.93126286518964 141.12917941434716 0 0 0 0 -128.84197851166908 75.766961799389549 0 75.766961799389549 41.231709137427714 0 0 0 0 207.23032375145704 810.82771477054484 0 810.82771477054484 411.01462529311812 0 0 0 0 604.37975567806279 355.90076231221246 0 355.90076231221246 410.34017528207914 0 0 0 0 -1.0458091852852931 3.5847064196145482 0 3.5847064196145482 19.779666723596563 0 0 0 0 2174.2886591796705 1221.1218821425864 0 1221.1218821425864 60.796959290921222 0 0 0 0 -853.33751561604731 266.70925281614291 0 266.70925281614291 217.88199813675601 0 0 0 0 -1.5557630880338706 4.0373277776794794 0 4.0373277776794794 54.431724431668329 0 0 0 0 554.00349549061502 550.8468123647217 0 550.8468123647217 265.29394803243849 0 0 0 0 223.1917729737761 379.09465533310686 0 379.09465533310686 235.80916491156677 0 0 0 0 339.29329031806992 704.3304519275116 0 704.3304519275116 794.9993196974392 0 0 0 0 -266.1397718055814 328.60844366182573 0 328.60844366182573 55.232356579348561 0 0 0 0 -218.76872469738009 129.81789794700308 0 129.81789794700308 -10.73881313361926 0 0 0 0 24.757522299187258 262.49604367259599 0 262.49604367259599 -24.607793546874746 0 0 0 0 225.39149972620362 178.54864657417784 0 178.54864657417784 -101.71482999766886 0 0 0 0 81.291641047879239 333.84204544602107 0 333.84204544602107 -84.527593307895586 0 0 0 0 65.811496165755671 460.11687591623559 0 460.11687591623559 -37.974141227328801 0 0 0 0 283.7726304699172 228.79806765540707 0 228.79806765540707 -11.147692700527841 0 0 0 0 310.0302432058088 262.77181215968449 0 262.77181215968449 -83.739512001957223 0 0 0 0 209.4193295409641 276.40623772403706 0 276.40623772403706 258.444111383782 0 0 0 0 218.07605182796397 256.88675127725219 0 256.88675127725219 -20.701213608859689 0 0 0 0 -45.722715370269725 154.46972104281485 0 154.46972104281485 -74.294315862003714 0 0 0 0 -59.591366723758256 118.52701994925383 0 118.52701994925383 -9.29242487213196 0 0 0 0 -86.659215385778225 134.87045572694478 0 134.87045572694478 32.805599515251743 0 0 0 0 49.93864605249837 199.91826051454336 0 199.91826051454336 -63.639593981512007 0 0 0 0 -30.757710680494768 86.654284511999776 0 86.654284511999776 -39.977692646725238 0 0 0 0 -21.017891970986966 235.08665764383477 0 235.08665764383477 -31.588587328718859 0 0 0 0 -52.923881636386795 110.46927518698612 0 110.46927518698612 68.50092409842182 0 0 0 0 -199.80100558181584 121.79507960575575 0 121.79507960575575 162.75968512643885 0 0 0 0 -145.0783471504692 192.34733250825957 0 192.34733250825957 0.027894422695680987 0 0 0 0 -58.878546788939275 36.277877331973286 0 36.277877331973286 125.24085116152128 0 0 0 0 -248.68072089955967 161.02134577985271 0 161.02134577985271 136.05522734033002 0 0 0 0 -14.157326127526034 11.926126953016052 0 11.926126953016052 86.127197599351746 0 0 0 0 -72.880944318079855 -23.121723387397651 0 -23.121723387397651 440.51628884714592 0 0 0 0 -45.676009393879212 -6.8023835644271458 0 -6.8023835644271458 717.42781182677027 0 0 0 0 16.71124329653685 -35.647198434522579 0 -35.647198434522579 -21.199195506822434 0 0 0 0 -44.049280820996501 107.86455125920475 0 107.86455125920475 34.511755608920794 0 0 0 0 -463.30733458892792 616.9083444020871 0 616.9083444020871 -502.23764181573642 0 0 0 0 -46.306917545522822 16.427922329999717 0 16.427922329999717 1.2737411580600693 0 0 0 0 51.723131348902825 139.16154593081228 0 139.16154593081228 68.168807960333652 0 0 0 0 -3.9763702390555977 19.510675518946613 0 19.510675518946613 1.3601811810561344 0 0 0 0 -55.655849298200337 4.3340109238488367 0 4.3340109238488367 -73.687855588155799 0 0 0 0 -54.805036116573149 55.743041004969641 0 55.743041004969641 82.64891141292189 0 0 0 0 -61.243988425354473 565.29876784308362 0 565.29876784308362 -1000.8906699926592 0 0 0 0 -39.406173458162812 45.503215959328372 0 45.503215959328372 -98.622172184099327 0 0 0 0 51.583817086968338 124.16001927924663 0 124.16001927924663 -108.47675074784456 0 0 0 0 -40.146817483347434 85.130578392043304 0 85.130578392043304 -29.697158974820205 0 0 0 0 -147.01289947261102 168.74873714934802 0 168.74873714934802 4.203686187902349 0 0 0 0 -9.8034382870673511 22.810559395193309 0 22.810559395193309 7.34841181618512 0 0 0 0 -83.214638475143147 37.948349606252123 0 37.948349606252123 -160.3338314744833 0 0 0 0 -158.60945288554649 232.6189397409471 0 232.6189397409471 -1076.1485234851862 0 0 0 0 -274.57742513573612 214.51177004005149 0 214.51177004005149 -1057.7373831437362 0 0 0 0 -2.0234412035889591 7.3628739910635659 0 7.3628739910635659 -28.118284564487311 0 0 0 0 83.147494960212498 127.26874784227766 0 127.26874784227766 -118.00452002479506 0 0 0 0 -711.71139923413284 723.51100376310205 0 723.51100376310205 -925.74970924810987 0 0 0 0 -351.61226233567868 318.60152515194204 0 318.60152515194204 -832.10129876549036 0 0 0 0 -227.43407465211931 592.30186554318425 0 592.30186554318425 -1575.6972373269527 0 0 0 0 -593.25423820660217 480.943645932035 0 480.943645932035 -1003.9104945556683 0 0 0 0 -269.07246499416942 579.40614715113043 0 579.40614715113043 -1946.2449081496306 0 0 0 0 -664.81234170883545 689.72569061839749 0 689.72569061839749 -1498.5533504038722 0 0 0 0 67.068589038722337 12.958335930358821 0 12.958335930358821 -3.2225335797549377 0 0 0 0 -209.1423493543698 94.048834218432603 0 94.048834218432603 604.62429995817001 0 0 0 0 211.40905119627496 1235.5397895021742 0 1235.5397895021742 -638.79917637971084 0 0 0 0 -703.43533936162567 1166.9932041627162 0 1166.9932041627162 -1381.7220608694915 0 0 0 0 -367.98963161886786 1233.7706281087521 0 1233.7706281087521 -2088.8460705756588 0 0 0 0 3.5424593922041367 -1.5219636878902776 0 -1.5219636878902776 -8.49678314164467 0 0 0 0 572.41748063237173 -407.2426541103232 0 -407.2426541103232 -355.16829179675551 0 0 0 0 -964.66934667850728 1798.6708455821608 0 1798.6708455821608 -2436.0906199748606 0 0 0 0 94.296339893189725 35.981836061004287 0 35.981836061004287 91.18397117170025 0 0 0 0 80.921342876888048 212.47552267284226 0 212.47552267284226 -48.750081300138845 0 0 0 0 -43.569566676311069 58.731573113805325 0 58.731573113805325 -46.747809629354606 0 0 0 0 -483.49616948267794 187.52911831014899 0 187.52911831014899 -19.978439348342363 0 0 0 0 886.30697510688333 841.48355901397008 0 841.48355901397008 540.96103190009308 0 0 0 0 22.013409012350166 423.52747220051242 0 423.52747220051242 -546.24864327308023 0 0 0 0 -19.108045781666419 71.778521217974969 0 71.778521217974969 -46.830670989423282 0 0 0 0 1026.3512096059567 1370.7673239862379 0 1370.7673239862379 -993.44339104430219 0 0 0 0 25.515438596339663 421.71482177942016 0 421.71482177942016 -739.52892047888054 0 0 0 0 373.90163195670902 730.73539212595551 0 730.73539212595551 -1633.7399020433513 0 0 0 0 -344.8198486577021 1123.2136108295526 0 1123.2136108295526 -2370.3542635366612 0 0 0 0 671.90165915457328 -89.874847312521524 0 -89.874847312521524 -926.00240785568894 0 0 0 0 -495.86601702486041 61.435154382667406 0 61.435154382667406 -1389.1295059428194 0 0 0 0 -324.7833306440225 1043.6369029998232 0 1043.6369029998232 -1739.6649047528299 0 0 0 0 -33.589516054256819 126.39967515314856 0 126.39967515314856 -59.567886980286858 0 0 0 0 -0.93497841227451772 81.805018960941908 0 81.805018960941908 -5.8902681280765616 0 0 0 0 103.20190035194946 53.780061170072379 0 53.780061170072379 -14.392504929560928 0 0 0 0 279.5171105544141 -656.99119347856322 0 -656.99119347856322 408.68207971751326 0 0 0 0 1757.8652005649637 558.33077945351124 0 558.33077945351124 -429.79614780906741 0 0 0 0 -44.692270340001699 92.936603152290246 0 92.936603152290246 -17.447307990780629 0 0 0 0 -273.01094532234129 643.28433622094599 0 643.28433622094599 -2803.097645264872 0 0 0 0 -17.410533273308829 147.23263997415779 0 147.23263997415779 -32.850493659345375 0 0 0 0 3.14905024738772 103.20027693758759 0 103.20027693758759 -34.232467858702542 0 0 0 0 -90.397292627080418 90.932917436547314 0 90.932917436547314 -6.8800848069283038 0 0 0 0 80.50396611749602 178.50350133978327 0 178.50350133978327 -21.71611558693985 0 0 0 0 361.08449781005402 450.52073804269935 0 450.52073804269935 82.528068001918655 0 0 0 0 -78.454747106150592 90.632586868761564 0 90.632586868761564 13.011764053521224 0 0 0 0 -78.276168747517048 96.705760168283334 0 96.705760168283334 -14.725796005619287 0 0 0 0 266.90697753264976 77.319369792807265 0 77.319369792807265 -178.62372023431271 0 0 0 0 263.02526598581608 384.07069942152702 0 384.07069942152702 149.65230677293448 0 0 0 0 -73.336937803120236 127.44924867753389 0 127.44924867753389 45.819092667446967 0 0 0 0 -48.385054188441742 108.7670512675781 0 108.7670512675781 -2.8079874485956182 0 0 0 0 19.91743230735301 149.90625880239418 0 149.90625880239418 43.443354259064108 0 0 0 0 410.11295786383562 1143.7333913192779 0 1143.7333913192779 -1807.6217669524558 0 0 0 0 -372.62429620715557 1123.2983026039274 0 1123.2983026039274 -1802.2205377426289 0 0 0 0 353.45175785080937 6.2558787965263036 0 6.2558787965263036 -1175.0954040617944 0 0 0 0 23.252664339375315 32.005215502546719 0 32.005215502546719 21.453466283490002 0 0 0 0 97.733613080228679 210.83699931924275 0 210.83699931924275 -202.60897461666173 0 0 0 0 217.19803711123021 77.963262135757105 0 77.963262135757105 -4.8545295803175783 0 0 0 0 17.270037013280671 589.55001066436671 0 589.55001066436671 -626.77152628100521 0 0 0 0 397.33490308610635 241.91585779584784 0 241.91585779584784 -76.657712910686314 0 0 0 0 -3545.1546859228911 542.11271591518744 0 542.11271591518744 798.21128841895552 0 0 0 0 -31.870208953574263 -1.9181637351806984 0 -1.9181637351806984 12.944924496082985 0 0 0 0 -571.99659664515639 3234.799402905257 0 3234.799402905257 -4491.3529872875406 0 0 0 0 -504.00003404004383 -474.20019129633329 0 -474.20019129633329 -445.07370945882553 0 0 0 0 -425.79456137301167 3793.1106923992447 0 3793.1106923992447 -3321.3946436335682 0 0 0 0 -1006.7503838155244 3886.2624160963824 0 3886.2624160963824 -2569.6815171867893 0 0 0 0 -2397.1374088122975 1895.0329617494281 0 1895.0329617494281 -2962.6778000322447 0 0 0 0 -42.015147936297581 2546.2641482983672 0 2546.2641482983672 -3243.9364818226913 0 0 0 0 67.454967657860834 530.75502533181134 0 530.75502533181134 -1354.4161275039842 0 0 0 0 294.99877806741279 -680.31833157861547 0 -680.31833157861547 -3946.8313364377536 0 0 0 0 -25.970355299417861 126.69847913757758 0 126.69847913757758 63.516178025933641 0 0 0 0 27.242437081255844 81.521048920567296 0 81.521048920567296 16.822327439029674 0 0 0 0 287.44791988763609 1054.1504288810247 0 1054.1504288810247 -1463.5320387050087 0 0 0 0 -18.991086370086066 21.033014141012558 0 21.033014141012558 16.163399504086755 0 0 0 0 -118.25681512376468 69.587671704956847 0 69.587671704956847 306.68340303835794 0 0 0 0 -69.902649071858121 52.668086708259693 0 52.668086708259693 54.217320452729354 0 0 0 0 -1123.8478973260499 368.32478647167818 0 368.32478647167818 225.48645430728811 0 0 0 0 -1153.3092139358923 23.758724022028218 0 23.758724022028218 1547.9671390370008 0 0 0 0 -769.83152052712103 -960.91042494361318 0 -960.91042494361318 681.5234629347824 0 0 0 0 -466.16346372128464 -16.119479865541507 0 -16.119479865541507 1265.7821070941427 0 0 0 0 -363.69366572771469 156.74727353691082 0 156.74727353691082 -1120.2013398773233 0 0 0 0 -34.725996345361608 19.729120329711606 0 19.729120329711606 -8.8964890234896359 0 0 0 0 -396.85351525343867 207.19135258856295 0 207.19135258856295 -290.65858573381411 0 0 0 0 5.1389614987120922 6.2974152047371348 0 6.2974152047371348 2.2976487825089844 0 0 0 0 82.146840421541128 261.65301774914246 0 261.65301774914246 -469.37081286739794 0 0 0 0 -2715.2712150035077 1983.0917946345708 0 1983.0917946345708 1908.1818018675795 0 0 0 0 1307.9556929928513 -309.01158210437916 0 -309.01158210437916 -1679.1919469760469 0 0 0 0 -252.17711150753894 -1419.845616000066 0 -1419.845616000066 -486.85375993651178 0 0 0 0 -1561.4768209291942 1224.7633660693746 0 1224.7633660693746 -150.6386985590143 0 0 0 0 -218.12617393064284 1003.4958091360468 0 1003.4958091360468 -480.40463074115542 0 0 0 0 -169.32553403227939 981.69046400383013 0 981.69046400383013 -1508.6222622318546 0 0 0 0 92.109897217771504 160.62875873008124 0 160.62875873008124 -117.40624685478087 0 0 0 0 -650.41771621321095 600.04831362773803 0 600.04831362773803 133.82029340357622 0 0 0 0 -549.54208811282297 1195.1618267457234 0 1195.1618267457234 -587.48356465973666 0 0 0 0 404.66386706402045 301.19458649432841 0 301.19458649432841 -288.19687170643374 0 0 0 0 384.74514785539941 141.40047872381933 0 141.40047872381933 -18.823838629141392 0 0 0 0 59.321085058443714 232.24017759401613 0 232.24017759401613 -103.58765548141491 0 0 0 0 -319.58303475135472 420.74129265999363 0 420.74129265999363 -193.61786332476913 0 0 0 0 -306.08240243539331 582.4664829605972 0 582.4664829605972 -881.44014359680295 0 0 0 0 45.921827069862047 171.61358992963687 0 171.61358992963687 -278.75012907126757 0 0 0 0 -580.8728573784756 -265.90258612217747 0 -265.90258612217747 -64.281939208064372 0 0 0 0 -36.569858373681882 65.471623022759545 0 65.471623022759545 -33.961603258159464 0 0 0 0 -328.04238317449926 324.3289241302482 0 324.3289241302482 -98.985676324338783 0 0 0 0 202.42898719468758 2749.5159849690331 0 2749.5159849690331 -2031.6496298106285 0 0 0 0 -735.27560876378266 395.99116182910325 0 395.99116182910325 789.35680881366397 0 0 0 0 629.29375932998664 -156.93706307871321 0 -156.93706307871321 -47.59039500176732 0 0 0 0 824.12642118282383 262.54605646142409 0 262.54605646142409 -250.5336236424464 0 0 0 0 -1124.3416589867556 205.04587219018867 0 205.04587219018867 -26.767762799273441 0 0 0 0 1438.5829071796325 1457.3838536333196 0 1457.3838536333196 -1675.0941150891013 0 0 0 0 68.133125881378987 88.445225179546867 0 88.445225179546867 36.640979409967585 0 0 0 0 -227.93878205181682 65.683452102555748 0 65.683452102555748 78.107230488040841 0 0 0 0 65.225954443556077 29.2045488066817 0 29.2045488066817 -2.6078374760441179 0 0 0 0 -543.04539834725438 -1754.4979487774654 0 -1754.4979487774654 838.84604764886171 0 0 0 0 58.493306203599786 103.50502703852544 0 103.50502703852544 481.84943242251029 0 0 0 0 -20.579085647595889 73.091536043086393 0 73.091536043086393 -36.036338291238962 0 0 0 0 -73.484381914880942 472.67090575832663 0 472.67090575832663 124.68650324627379 0 0 0 0 -88.951160031399922 403.14570991951041 0 403.14570991951041 -136.32078589475896 0 0 0 0 90.513071727107558 119.2077178326921 0 119.2077178326921 43.041470479369529 0 0 0 0 5.1262935247003725 20.00237621508002 0 20.00237621508002 -11.418595028487864 0 0 0 0 -392.15620110038435 51.618745454677082 0 51.618745454677082 -120.69488600142176 0 0 0 0 -340.44021082088875 723.1586938385517 0 723.1586938385517 -561.26407121121792 0 0 0 0 -23.363714826118212 98.317485701427216 0 98.317485701427216 1.5352310861354965 0 0 0 0 -24.750014389195712 567.7453542034873 0 567.7453542034873 -530.75155932171288 0 0 0 0 -92.50641122367233 352.76706446222761 0 352.76706446222761 -394.41352392991757 0 0 0 0 -143.5973863219042 314.30193931094436 0 314.30193931094436 -309.04850355450799 0 0 0 0 -141.07074646188994 425.93990902009318 0 425.93990902009318 -380.67080154682026 0 0 0 0 -2.9714640593592776 68.972579372378732 0 68.972579372378732 -28.41107888064289 0 0 0 0 65.376834908472517 70.4470636184668 0 70.4470636184668 41.774854786936466 0 0 0 0 -23.153366480767374 50.302271186084084 0 50.302271186084084 -43.087647733623299 0 0 0 0 -71.817379938758677 28.229108104933403 0 28.229108104933403 -53.153493335174062 0 0 0 0 29.481049266993068 179.94878588641586 0 179.94878588641586 -18.787905591867457 0 0 0 0 70.059256400738377 163.00969058067858 0 163.00969058067858 -105.50419240570045 0 0 0 0 137.79169329786237 359.09760488719439 0 359.09760488719439 -443.06778075911279 0 0 0 0 51.119562705833232 511.96522666129022 0 511.96522666129022 -694.20164439825749 0 0 0 0 48.112903412347805 473.81867764366234 0 473.81867764366234 -1177.8364800312556 0 0 0 0 43.390886574532487 -10.481016242505575 0 -10.481016242505575 -497.08782999366667 0 0 0 0 133.86460962901765 -6.8225495041697286 0 -6.8225495041697286 -874.9936749652552 0 0 0 0 -17.917387122864767 15.435361529718136 0 15.435361529718136 -15.521164538621093 0 0 0 0 117.73384631694171 149.42716265722447 0 149.42716265722447 -2117.5050155177087 0 0 0 0 -1488.7144060732826 884.63192350239842 0 884.63192350239842 40.030085571095697 0 0 0 0 -573.37090318791161 1757.0541847313289 0 1757.0541847313289 -763.77961898222566 0 0 0 0 20.256811957495586 4.4875183344694349 0 4.4875183344694349 -2.8857043170013696 0 0 0 0 -53.433792654876015 1232.450181785518 0 1232.450181785518 -3668.9933660704992 0 0 0 0 -249.18620598602865 1167.5741237534894 0 1167.5741237534894 -2166.3061324512528 0 0 0 0 -1888.8863447692711 -1475.2292034455022 0 -1475.2292034455022 -589.11735212012172 0 0 0 0 50.67415654330398 511.76670609689609 0 511.76670609689609 -1970.615592929078 0 0 0 0 -846.26860370379291 42.622174500727851 0 42.622174500727851 -1329.3265174915578 0 0 0 0 -697.59028159154695 890.74979896412697 0 890.74979896412697 -1175.1965169265459 0 0 0 0 -382.45366479747463 1530.0401934999027 0 1530.0401934999027 -242.89714631752577 0 0 0 0 569.54483154401532 1952.7604642656224 0 1952.7604642656224 -1806.0468433022725 0 0 0 0 -2131.3851052850951 1026.7267884952089 0 1026.7267884952089 -200.25468469792213 0 0 0 0 -251.21253873797832 1434.3101239470816 0 1434.3101239470816 -1755.636402994618 0 0 0 0 -1294.355284068035 1087.5656357681746 0 1087.5656357681746 229.15653957737959 0 0 0 0 -350.44776333833579 61.022802519895777 0 61.022802519895777 337.48750476662099 0 0 0 0 43.720286708528874 176.99781774158146 0 176.99781774158146 -50.022760718755308 0 0 0 0 -17.688126202990134 3.3937944898884638 0 3.3937944898884638 -2.2483710311536598 0 0 0 0 748.12831257384096 232.43159703100537 0 232.43159703100537 -84.237579145628843 0 0 0 0 -125.63705381183536 796.9372202006416 0 796.9372202006416 779.79765793851232 0 0 0 0 7.5955998108603069 4.7866909469980783 0 4.7866909469980783 -1.3155693470953622 0 0 0 0 -370.87931418907829 751.6875684391307 0 751.6875684391307 491.89744346571388 0 0 0 0 -160.52251934166998 632.93996235057966 0 632.93996235057966 270.93757846133667 0 0 0 0 -148.60535477191746 87.715143400778942 0 87.715143400778942 51.322628526294636 0 0 0 0 66.562321375713509 1316.5935604219867 0 1316.5935604219867 -148.41210038337158 0 0 0 0 98.208580205973703 1144.6788661368719 0 1144.6788661368719 400.93332846647536 0 0 0 0 482.59407736598951 1138.0655342884766 0 1138.0655342884766 -711.91751650660444 0 0 0 0 -149.41061001142401 85.818192933607293 0 85.818192933607293 49.010393893728178 0 0 0 0 -189.40691869558941 1025.9505415062813 0 1025.9505415062813 -93.750062741528382 0 0 0 0 10.145072499173693 784.28543669017745 0 784.28543669017745 872.61077868100165 0 0 0 0 -209.36315260690753 850.65236974038817 0 850.65236974038817 191.11416205424757 0 0 0 0 213.33766504580854 1398.4351167897003 0 1398.4351167897003 213.85700460289263 0 0 0 0 77.427169278264046 1238.2377333428994 0 1238.2377333428994 69.850766946125077 0 0 0 0 55.079597013636885 1404.655210871344 0 1404.655210871344 488.42310712925246 0 0 0 0 291.60523722157814 1572.9345402079962 0 1572.9345402079962 86.397831781996501 0 0 0 0 224.62128463125555 1684.2674171491162 0 1684.2674171491162 433.99033474525277 0 0 0 0 222.07636242374917 1479.5577393121337 0 1479.5577393121337 -1436.1416950448256 0 0 0 0 7.6510283429275319 7.515337829162263 0 7.515337829162263 4.6807366821967236 0 0 0 0 -469.22289781396103 604.99652290903032 0 604.99652290903032 2401.0958221755627 0 0 0 0 469.41642876597211 1456.4159711584621 0 1456.4159711584621 1478.8865024835104 0 0 0 0 16.744501283857971 1569.8951243300344 0 1569.8951243300344 902.52963454995916 0 0 0 0 478.74732417294035 910.5067450053557 0 910.5067450053557 629.76473092052765 0 0 0 0 -194.91564080456737 835.61431733926656 0 835.61431733926656 974.05214321121639 0 0 0 0 11.666485634588753 881.0339732522807 0 881.0339732522807 875.13298614907399 0 0 0 0 -21.649896238499139 15.790491701577395 0 15.790491701577395 4.0208465230030583 0 0 0 0 180.2354732635722 723.46285561285276 0 723.46285561285276 7.6598466014838777 0 0 0 0 77.018912893036031 498.70321699894612 0 498.70321699894612 -382.75336476056691 0 0 0 0 -296.51255606679842 37.181491617889606 0 37.181491617889606 163.42635026339849 0 0 0 0 -195.61436514579691 347.16564202718291 0 347.16564202718291 701.70535621750241 0 0 0 0 15.415080406357447 860.58942092128882 0 860.58942092128882 -57.284084525999788 0 0 0 0 -133.0941949813608 93.941612567802338 0 93.941612567802338 52.255126942261569 0 0 0 0 229.88711108062125 494.85132772352881 0 494.85132772352881 -243.75607351032068 0 0 0 0 74.841082812612854 96.896212228449514 0 96.896212228449514 64.23847917693881 0 0 0 0 69.264705396599311 171.30846224476227 0 171.30846224476227 -148.60846106184545 0 0 0 0 -147.08792361960514 459.02116581795963 0 459.02116581795963 -349.95040608901218 0 0 0 0 -291.58715299583855 75.104482104979979 0 75.104482104979979 -272.24518282974168 0 0 0 0 -246.81867846258683 301.70378744465233 0 301.70378744465233 -128.05432816790562 0 0 0 0 -40.115470079906629 71.014401767122791 0 71.014401767122791 -28.825395706874559 0 0 0 0 -51.36019781237701 300.12111846600237 0 300.12111846600237 -169.75922178436304 0 0 0 0 -75.487292925447036 147.64775182915855 0 147.64775182915855 -86.755245345897492 0 0 0 0 33.501970889445488 75.422500853923168 0 75.422500853923168 37.201513607263749 0 0 0 0 -228.27669683987187 322.341003130427 0 322.341003130427 -284.63847768178312 0 0 0 0 -33.366574736865005 335.65791349057326 0 335.65791349057326 -326.18901950729196 0 0 0 0 -32.12722213989764 481.35791081333991 0 481.35791081333991 -506.5518710379929 0 0 0 0 58.69561811831403 91.210237828963074 0 91.210237828963074 38.275997986065605 0 0 0 0 -431.37148445010826 842.11988907136129 0 842.11988907136129 -912.11612585555122 0 0 0 0 -358.29143453162396 528.439194748315 0 528.439194748315 -609.51652409867529 0 0 0 0 -275.1532446783167 324.02025029186916 0 324.02025029186916 -147.4095010431738 0 0 0 0 -670.94850949302781 708.60349152558229 0 708.60349152558229 -40.86558197269369 0 0 0 0 -696.281296788904 812.23172145682838 0 812.23172145682838 -400.58063662589188 0 0 0 0 -466.32246502696944 788.52262091096873 0 788.52262091096873 -398.15984047057145 0 0 0 0 -36.496753226380292 59.294654185652092 0 59.294654185652092 -47.556281384531033 0 0 0 0 6.7297052840741571 45.90277464821105 0 45.90277464821105 8.974036479867479 0 0 0 0 -17.283891731873155 1041.7816299475846 0 1041.7816299475846 -1437.6002996700263 0 0 0 0 -48.235484098983818 59.188288130404743 0 59.188288130404743 -10.22890343026765 0 0 0 0 -60.437021996476687 11.043872415870283 0 11.043872415870283 -259.57854818447231 0 0 0 0 -5.3703109531197697 163.83340327308542 0 163.83340327308542 -1.7648390255493496 0 0 0 0 -53.696962778194575 272.0735638016231 0 272.0735638016231 -240.66792536016874 0 0 0 0 -47.844169451811467 256.45773050337539 0 256.45773050337539 280.98868864997348 0 0 0 0 -12.990684470969427 142.50028227852181 0 142.50028227852181 -38.683944629297912 0 0 0 0 150.99280715797795 253.78262207278112 0 253.78262207278112 -126.92588615031127 0 0 0 0 -156.00351110795236 535.12935752595922 0 535.12935752595922 -1312.8512470157539 0 0 0 0 -30.438774807160371 331.2309297004449 0 331.2309297004449 599.79778172732586 0 0 0 0 15.620788058529342 26.679344367654174 0 26.679344367654174 17.291589012640344 0 0 0 0 9.8321869210598152 18.371384522967212 0 18.371384522967212 11.618174404812937 0 0 0 0 200.49121470221144 585.54701397041208 0 585.54701397041208 -1460.7352066471949 0 0 0 0 -303.67233037432015 572.99885165997352 0 572.99885165997352 -1441.0768323028933 0 0 0 0 -52.973928543680813 959.59723983117055 0 959.59723983117055 -2020.5909793980709 0 0 0 0 -252.23020813931362 783.5636982239098 0 783.5636982239098 -741.45691590836259 0 0 0 0 17.517146067388239 435.41187075369476 0 435.41187075369476 -53.386632875716259 0 0 0 0 600.32708204518713 849.36294695968604 0 849.36294695968604 -736.3978675640268 0 0 0 0 -40.441909253841629 49.445461916652306 0 49.445461916652306 -59.683383691929876 0 0 0 0 56.340413463272853 241.60875545167107 0 241.60875545167107 -523.42307395736339 0 0 0 0 201.68261845507368 557.21454933341204 0 557.21454933341204 -788.80861988533638 0 0 0 0 -119.07410361673101 425.60909618212827 0 425.60909618212827 -829.43125574947726 0 0 0 0 0.055547648153151385 560.87387225187058 0 560.87387225187058 -937.63726636391311 0 0 0 0 140.9890396483097 411.45125346943087 0 411.45125346943087 -1464.8520773638511 0 0 0 0 -9.820287705224473 735.34784628438501 0 735.34784628438501 -2058.2795787572559 0 0 0 0 -177.46295127861958 477.97116537518377 0 477.97116537518377 -1458.1196594782464 0 0 0 0 -0.092110105609868168 542.62487485503834 0 542.62487485503834 -1783.2952039923712 0 0 0 0 -195.57342546217842 -343.37085157353977 0 -343.37085157353977 3918.1582190296594 0 0 0 0 4.6119868324799427 4.2865179441454657 0 4.2865179441454657 4.2458911899573089 0 0 0 0 0.57048714939446654 1029.6520541595219 0 1029.6520541595219 2144.1238603706588 0 0 0 0 -153.10892034509652 297.57679432425778 0 297.57679432425778 1635.0387304783944 0 0 0 0 -454.77154487467487 718.37368130576942 0 718.37368130576942 1231.5751045123509 0 0 0 0 -259.92592293160851 30.672632124224037 0 30.672632124224037 1981.4470758267034 0 0 0 0 -134.97631357381033 90.099880906545877 0 90.099880906545877 1235.5798098550622 0 0 0 0 -226.70596655277768 959.57414089682061 0 959.57414089682061 1486.6668674407993 0 0 0 0 -265.03017535243998 359.69274482379296 0 359.69274482379296 1782.3503588746935 0 0 0 0 -478.2521585859995 460.50173166229916 0 460.50173166229916 544.00799464996453 0 0 0 0 -514.10734874429181 306.53681783890534 0 306.53681783890534 608.79740298099568 0 0 0 0 -513.40291561854792 974.6907825472922 0 974.6907825472922 1520.0557128934233 0 0 0 0 -454.12005409280391 1024.8365499815345 0 1024.8365499815345 -455.62746037612669 0 0 0 0 -807.53245483062346 677.79356394793831 0 677.79356394793831 583.94665044457361 0 0 0 0 -26.5692065784242 422.72456631794557 0 422.72456631794557 -1027.6152806976079 0 0 0 0 -19.288603919470916 567.74627605845671 0 567.74627605845671 -47.815521403564162 0 0 0 0 0.51264407453709282 938.55586434677753 0 938.55586434677753 474.96531592766405 0 0 0 0 -158.07457424631139 275.94576699641152 0 275.94576699641152 1151.17107112542 0 0 0 0 -289.04820928546542 1017.2855158857255 0 1017.2855158857255 1496.323143531682 0 0 0 0 180.74180084865657 211.35090003909136 0 211.35090003909136 -110.00739998225617 0 0 0 0 -544.76096000222606 310.20365627736464 0 310.20365627736464 105.24749377233093 0 0 0 0 -152.22262887386023 41.725418339749012 0 41.725418339749012 188.83283269988897 0 0 0 0 2.1429289507359499 -353.58374068236844 0 -353.58374068236844 1041.2413067694142 0 0 0 0 8.5160064428550015 9.8212242997488346 0 9.8212242997488346 15.441723219699043 0 0 0 0 -1680.6208922778751 124.4765609468086 0 124.4765609468086 1506.934586782867 0 0 0 0 -641.44003716497537 1121.5351892281778 0 1121.5351892281778 833.40509092461434 0 0 0 0 -851.28253797401521 269.03079799654097 0 269.03079799654097 63.260350880096667 0 0 0 0 -1685.237225993711 257.96073800798331 0 257.96073800798331 523.96371683271718 0 0 0 0 -889.90877320474829 511.63212457773625 0 511.63212457773625 40.306389091059827 0 0 0 0 -639.55387856469315 438.68501205412031 0 438.68501205412031 18.443418759932683 0 0 0 0 -493.60240730593068 221.2819256592411 0 221.2819256592411 23.206057876464911 0 0 0 0 -2.8644204393856967 -10.536087258121839 0 -10.536087258121839 -7.3857861903385356 0 0 0 0 -35.549377239876776 -377.26212868189032 0 -377.26212868189032 1050.8217871617599 0 0 0 0 -1416.2299892286319 1476.6224897747888 0 1476.6224897747888 -1004.95041722108 0 0 0 0 -2082.5755185873713 360.07553397872107 0 360.07553397872107 433.2535696380437 0 0 0 0 -705.37591089039051 860.18766008260718 0 860.18766008260718 -318.13113044422062 0 0 0 0 -1815.2453815963381 917.03351839119932 0 917.03351839119932 399.20151389478269 0 0 0 0 -1440.1841640619095 586.35140046986271 0 586.35140046986271 552.03655781398629 0 0 0 0 -1273.0240995877102 255.23402842782525 0 255.23402842782525 781.03149192350975 0 0 0 0 -147.54279467718152 260.80582881258306 0 260.80582881258306 309.6140061082333 0 0 0 0 -846.04927783635503 352.02146767541853 0 352.02146767541853 325.55883968079797 0 0 0 0 -496.09060197716462 771.8187069164851 0 771.8187069164851 -471.97788120355835 0 0 0 0 -130.81851992471638 650.02611460478147 0 650.02611460478147 -47.614790072548203 0 0 0 0 -1025.1048184247775 619.53939950296444 0 619.53939950296444 203.06326440520206 0 0 0 0 -148.10757672266482 315.37933982378308 0 315.37933982378308 -13.842581864992098 0 0 0 0 -1350.373332524483 569.58553340065919 0 569.58553340065919 242.23969676974411 0 0 0 0 -1262.9968092022682 523.30117147549026 0 523.30117147549026 -93.324779730915907 0 0 0 0 -1894.1812642068544 400.54423855060304 0 400.54423855060304 339.48114048247226 0 0 0 0 -677.56339921127073 -451.96697957598371 0 -451.96697957598371 -70.753465759109531 0 0 0 0 -616.38441351070651 437.24901764077003 0 437.24901764077003 18.817871113122237 0 0 0 0 -1179.5238853265764 356.1401090891577 0 356.1401090891577 319.16941777754982 0 0 0 0 -210.12076885032366 -35.414266707139177 0 -35.414266707139177 -102.90263069595676 0 0 0 0 6.4668465216144142 39.058897083186565 0 39.058897083186565 42.428400779600508 0 0 0 0 -37.340363552364579 45.922920856803103 0 45.922920856803103 180.93115896504605 0 0 0 0 -400.30938994519965 176.67311379057628 0 176.67311379057628 67.94947054387012 0 0 0 0 -39.154771569924264 28.896354940296135 0 28.896354940296135 -2.462981711777644 0 0 0 0 61.645745785077452 -95.945956465286145 0 -95.945956465286145 -255.11047695858724 0 0 0 0 -22.772974328087003 129.26291296381169 0 129.26291296381169 67.256479411442342 0 0 0 0 -1.94092358753187 138.25725129733655 0 138.25725129733655 -270.5529359141583 0 0 0 0 -19.705626745337213 163.91878447023373 0 163.91878447023373 72.704673237619318 0 0 0 0 -18.246420681561403 57.767839125536256 0 57.767839125536256 -64.561154703484206 0 0 0 0 -73.373514696009806 107.41982780793478 0 107.41982780793478 298.10336175918201 0 0 0 0 419.97995891877508 -306.69142955076131 0 -306.69142955076131 167.81336729003669 0 0 0 0 -5.8047290843048813 6.4534973004347478 0 6.4534973004347478 -4.8593504401825811 0 0 0 0 2.648298091153265 -40.772232108516619 0 -40.772232108516619 21.930783760878512 0 0 0 0 -15.23727134063914 30.294684847008597 0 30.294684847008597 -27.001262402087249 0 0 0 0 2105.8401106282545 820.06166032836882 0 820.06166032836882 -300.2336971044424 0 0 0 0 1846.7679661885195 314.57735113015951 0 314.57735113015951 204.67758970012619 0 0 0 0 -14.330899233723954 19.38987869248453 0 19.38987869248453 -24.178866108223019 0 0 0 0 182.64969102109899 230.04956604131439 0 230.04956604131439 -77.381523548832774 0 0 0 0 -3.7260674299774905 3.7323496041627209 0 3.7323496041627209 -4.9545139464941315 0 0 0 0 -32.590209568399587 -634.15126317094109 0 -634.15126317094109 -1046.361843802576 0 0 0 0 170.55486559661222 -512.42751329470775 0 -512.42751329470775 -191.20225537722581 0 0 0 0 721.52219285118554 822.39725351768539 0 822.39725351768539 -1173.9226983753179 0 0 0 0 12.901989289443009 -98.887401167681674 0 -98.887401167681674 110.11038878562249 0 0 0 0 1.2574413615771505 44.877365724929916 0 44.877365724929916 -66.134049986163987 0 0 0 0 31.637042233560351 971.45290105345339 0 971.45290105345339 130.38885142409708 0 0 0 0 -776.27279278927017 -564.8553451889311 0 -564.8553451889311 806.06722251409883 0 0 0 0 92.498359417179017 67.429758356011007 0 67.429758356011007 73.499137242011784 0 0 0 0 -83.447436931513948 562.73089997442003 0 562.73089997442003 656.36132419046771 0 0 0 0 -12.418824169234085 51.676603618179229 0 51.676603618179229 -72.4942057515877 0 0 0 0 -187.50565666868351 -305.55069717191509 0 -305.55069717191509 390.337619733662 0 0 0 0 156.62410210051894 191.55915621130407 0 191.55915621130407 -1076.0368245707068 0 0 0 0 247.00098479512963 -273.33965013029228 0 -273.33965013029228 -1307.7424368252359 0 0 0 0 1.8665171214655061 1.5680620163787466 0 1.5680620163787466 -0.69589736879075303 0 0 0 0 -7.8236938315822044 111.40902557662048 0 111.40902557662048 -16.537369743047748 0 0 0 0 266.00847944893758 -201.62176855521102 0 -201.62176855521102 -927.57287242389793 0 0 0 0 -6.2046031660574954 -31.719688506418606 0 -31.719688506418606 -957.37470743169615 0 0 0 0 -309.67030101483397 385.89537453440425 0 385.89537453440425 -94.667942528718413 0 0 0 0 -185.55323413280712 72.970833217819745 0 72.970833217819745 456.4258030167548 0 0 0 0 -343.90331493018175 1631.3424985114045 0 1631.3424985114045 1109.3200122314302 0 0 0 0 -453.97522269441106 290.88043788033247 0 290.88043788033247 551.42206523720233 0 0 0 0 395.99458631557354 -35.504316701990319 0 -35.504316701990319 -192.95007711232756 0 0 0 0 819.10358399057441 507.41763507807991 0 507.41763507807991 238.51280430336192 0 0 0 0 -68.823002850433113 -249.62254077971738 0 -249.62254077971738 10.213967723502719 0 0 0 0 203.00051733515556 7.8378629204698882 0 7.8378629204698882 -124.61278781211877 0 0 0 0 134.36185498596024 95.339618082216475 0 95.339618082216475 37.53925580928626 0 0 0 0 88.734442274522735 897.02129336472717 0 897.02129336472717 -308.43909244802717 0 0 0 0 346.75409404378297 867.83200961699913 0 867.83200961699913 -409.18708732791129 0 0 0 0 -2.7075791799783104 3.9761455392094547 0 3.9761455392094547 -11.130589812169092 0 0 0 0 166.00917999498779 148.83283746206143 0 148.83283746206143 -159.68754398945021 0 0 0 0 21.538939004776807 5.335965260965736 0 5.335965260965736 -8.763417343086374 0 0 0 0 -12.535767648327379 18.315989415102592 0 18.315989415102592 -9.0744674701009558 0 0 0 0 63.285445063811494 232.82891313315486 0 232.82891313315486 381.98115867108572 0 0 0 0 215.46440446181805 -251.98831502248504 0 -251.98831502248504 -716.77335607583518 0 0 0 0 830.06903131739818 106.81843496056536 0 106.81843496056536 -893.09007276438933 0 0 0 0 184.1088282963683 199.12542984083484 0 199.12542984083484 307.28702093663742 0 0 0 0 207.72736251199967 110.4284646979504 0 110.4284646979504 437.26383766211802 0 0 0 0 185.00349159157486 546.12291973318497 0 546.12291973318497 845.86159156513168 0 0 0 0 68.966998223382689 221.15751854847258 0 221.15751854847258 -363.41374617913243 0 0 0 0 -135.79531223516096 64.318338145603775 0 64.318338145603775 277.69077069868217 0 0 0 0 9.8412471944391768 4.1337325538233927 0 4.1337325538233927 -2.6584863453637269 0 0 0 0 149.55638073725277 214.13302805982676 0 214.13302805982676 739.78127832754399 0 0 0 0 355.8567293084343 369.59261171577964 0 369.59261171577964 480.23651045004954 0 0 0 0 300.7556344330369 51.289445129252272 0 51.289445129252272 23.079911588873074 0 0 0 0 211.08444107143441 147.17131724598585 0 147.17131724598585 -63.96246295767196 0 0 0 0 445.83332420082297 312.4166237545287 0 312.4166237545287 225.53612538351445 0 0 0 0 220.55283556322684 72.821413644589484 0 72.821413644589484 48.181716581239016 0 0 0 0 448.34421641452354 227.91264500195393 0 227.91264500195393 86.470410787442233 0 0 0 0 244.98688006887096 170.13314114803507 0 170.13314114803507 296.70929999163491 0 0 0 0 227.59634821900545 290.1220185289967 0 290.1220185289967 320.37602227393654 0 0 0 0 11.603858120259247 98.418565189043875 0 98.418565189043875 -8.3796430592337856 0 0 0 0 -3.4571498413861264 311.20794853490952 0 311.20794853490952 61.484712781437338 0 0 0 0 94.421180277437088 255.97017235671956 0 255.97017235671956 289.56880932717468 0 0 0 0 177.38961010801722 169.4485474969988 0 169.4485474969988 194.42923013542895 0 0 0 0 243.44285743063665 258.27956513441677 0 258.27956513441677 93.397524269501446 0 0 0 0 137.87772580387536 225.50897569171502 0 225.50897569171502 55.434004617643041 0 0 0 0 135.0973763812799 154.65460634623014 0 154.65460634623014 -224.88602545775029 0 0 0 0 223.27994785332703 68.495194318667927 0 68.495194318667927 -202.62223500300024 0 0 0 0 35.116692377039726 111.00807411238929 0 111.00807411238929 3.78030176590255 0 0 0 0 101.92654752401285 69.007061305503044 0 69.007061305503044 39.387289762574795 0 0 0 0 95.995932033911231 100.00013676740491 0 100.00013676740491 -22.115181995060993 0 0 0 0 47.954037527269975 148.9473585033993 0 148.9473585033993 115.90502326746355 0 0 0 0 808.77358399987133 53.438479347016255 0 53.438479347016255 -349.63825441903464 0 0 0 0 736.53198860275006 55.796350963508303 0 55.796350963508303 -182.0709378978936 0 0 0 0 7.2539137371393707 16.708761064509076 0 16.708761064509076 -28.477591805719385 0 0 0 0 90.301072785819997 30.077996176369197 0 30.077996176369197 -127.82943443578188 0 0 0 0 69.012328088079812 30.223291712769424 0 30.223291712769424 -69.885256201901939 0 0 0 0 12.90515442277615 66.422933480906195 0 66.422933480906195 52.217836906273675 0 0 0 0 873.49615498671483 -230.42450081856805 0 -230.42450081856805 150.27554135519313 0 0 0 0 1094.5827352035412 -596.18407735232904 0 -596.18407735232904 176.06013990250358 0 0 0 0 992.67738489505791 -5.1878171239877702 0 -5.1878171239877702 -525.37560312837013 0 0 0 0 1403.1860914086756 -35.064255914312525 0 -35.064255914312525 -210.59308547005639 0 0 0 0 599.7059743145328 -88.3740633547568 0 -88.3740633547568 -829.36490844808577 0 0 0 0 551.64677662527538 -43.683832591923419 0 -43.683832591923419 -142.13778819164872 0 0 0 0 -477.52973230008502 -66.801967516868899 0 -66.801967516868899 -30.766083413371234 0 0 0 0 -2059.5934123406623 -758.24165445551625 0 -758.24165445551625 -882.09472725988599 0 0 0 0 -476.25768404569772 -90.734198589115294 0 -90.734198589115294 -658.22581669758074 0 0 0 0 -1553.8519481060066 -300.50659508058015 0 -300.50659508058015 21.58178262077854 0 0 0 0 -61.65883739574565 4.4338865666832135 0 4.4338865666832135 -2183.2559588055883 0 0 0 0 147.14547195611522 586.54297821103683 0 586.54297821103683 -732.62452570819369 0 0 0 0 457.76586830837186 172.12203922806657 0 172.12203922806657 -362.15805590790842 0 0 0 0 34.624974973103235 780.91965390420228 0 780.91965390420228 -355.35244397526549 0 0 0 0 -389.8646115243755 1517.5375217264882 0 1517.5375217264882 -1617.9514292446547 0 0 0 0 -126.48902036967775 1185.0629098889694 0 1185.0629098889694 889.81279045482961 0 0 0 0 209.9769779145081 296.24937249270442 0 296.24937249270442 45.898693355848081 0 0 0 0 20.683469561634411 815.19181750202188 0 815.19181750202188 -353.90348839617218 0 0 0 0 29.47199853231723 744.7735041567139 0 744.7735041567139 -448.58463545782433 0 0 0 0 -943.76941460272064 -95.451549227502255 0 -95.451549227502255 138.00014317585737 0 0 0 0 -1055.2056988332406 -101.11750410256718 0 -101.11750410256718 605.47752828094235 0 0 0 0 -1632.0183982894087 -428.77753810407739 0 -428.77753810407739 1150.1680277788837 0 0 0 0 -1429.7312463751077 -472.63215138174564 0 -472.63215138174564 238.78126914483437 0 0 0 0 -2568.3580762798811 -1182.4192807112777 0 -1182.4192807112777 -388.1089494820917 0 0 0 0 -2601.4973818562867 843.32902651858603 0 843.32902651858603 15.258147250297043 0 0 0 0 -855.97549013790558 -275.75072748968523 0 -275.75072748968523 85.706743948430812 0 0 0 0 -722.7539072493164 -97.006634308479988 0 -97.006634308479988 137.92280519209453 0 0 0 0 -147.75714356657409 776.90468766141566 0 776.90468766141566 -2065.2108896182326 0 0 0 0 -30.653478484835915 11.243128379838225 0 11.243128379838225 -6.3904719750609615 0 0 0 0 -3530.1304607219427 1644.4006243281729 0 1644.4006243281729 -608.23715727879608 0 0 0 0 -1146.1351862924203 1002.8036007394039 0 1002.8036007394039 -435.5803372114533 0 0 0 0 -2084.1056182733009 895.11918397375121 0 895.11918397375121 66.111955865097116 0 0 0 0 -1139.548531767141 908.27926211865997 0 908.27926211865997 -181.10857156536804 0 0 0 0 -1068.8697384488187 1069.9410356224307 0 1069.9410356224307 -196.56981988625193 0 0 0 0 -240.37088773740106 856.16947056533536 0 856.16947056533536 -777.40452753813588 0 0 0 0 -292.53536652150433 356.91796914629413 0 356.91796914629413 -34.924159142159624 0 0 0 0 -165.86231047999172 210.08639953265811 0 210.08639953265811 -11.255083173804451 0 0 0 0 -45.197122394822145 43.248837139040006 0 43.248837139040006 -594.59011228624149 0 0 0 0 286.38167509330378 162.35368029621895 0 162.35368029621895 -154.19715531627298 0 0 0 0 225.17652572022052 97.896319317558664 0 97.896319317558664 -215.03953573190665 0 0 0 0 197.78013965435093 126.18676512684033 0 126.18676512684033 -26.565302347982652 0 0 0 0 178.44754339708015 114.37503213826858 0 114.37503213826858 -315.58153959362244 0 0 0 0 17.44819862494478 -30.385201511333435 0 -30.385201511333435 -159.07225846656365 0 0 0 0 160.31756802365999 42.531644959861296 0 42.531644959861296 -8.9994999494520016 0 0 0 0 452.43383225504658 13.519055416909396 0 13.519055416909396 -184.33613341239106 0 0 0 0 415.43434835924563 -100.99630812400028 0 -100.99630812400028 70.85125001007691 0 0 0 0 407.86555031775424 -33.571492673414468 0 -33.571492673414468 43.322255586157553 0 0 0 0 345.7321552283538 -162.16741167443979 0 -162.16741167443979 540.70965199972852 0 0 0 0 36.361595347349066 177.93879128061235 0 177.93879128061235 168.31977402040502 0 0 0 0 -154.90349071094533 410.8896282541391 0 410.8896282541391 -95.441699917661026 0 0 0 0 43.499094419166795 181.81100188429991 0 181.81100188429991 158.18245957518229 0 0 0 0 -101.75054153669043 494.20526366149716 0 494.20526366149716 -124.26588893835287 0 0 0 0 -131.76059655888821 542.67047212334001 0 542.67047212334001 77.547772296220501 0 0 0 0 -9.0851303686358733 291.56063578325848 0 291.56063578325848 477.25892181470408 0 0 0 0 -920.38425417931285 -1214.2883344215224 0 -1214.2883344215224 -1127.9231284062262 0 0 0 0 3641.1785964326846 -256.29197364107677 0 -256.29197364107677 821.62059375486569 0 0 0 0 1852.1632633262489 700.5666679204005 0 700.5666679204005 2104.5617930621083 0 0 0 0 2479.7829356381517 179.41775707315173 0 179.41775707315173 4.6622957278741524 0 0 0 0 2427.5238928839099 763.17746635878575 0 763.17746635878575 211.41116822115146 0 0 0 0 869.84092416103522 -64.053177645277174 0 -64.053177645277174 -104.66256849630736 0 0 0 0 730.45424972477485 -250.80416839412646 0 -250.80416839412646 183.34286793056526 0 0 0 0 538.96722368017072 1606.7819876204594 0 1606.7819876204594 -1077.6025269319653 0 0 0 0 1416.9834910912905 1433.6028206294868 0 1433.6028206294868 921.18739423936495 0 0 0 0 1135.0269092888921 797.85972509651037 0 797.85972509651037 -38.767970887507545 0 0 0 0 1045.156351694226 2017.0694620986033 0 2017.0694620986033 445.5621838177176 0 0 0 0 2768.3355589536513 1361.2420265230467 0 1361.2420265230467 -197.42548422756954 0 0 0 0 214.45568499732326 816.58858817202417 0 816.58858817202417 310.35851773625473 0 0 0 0 847.57032801218156 1324.3376599997646 0 1324.3376599997646 331.03679341616225 0 0 0 0 1886.3487372229865 230.8618577975576 0 230.8618577975576 549.38384792624856 0 0 0 0 533.2639351551552 1009.2700371130468 0 1009.2700371130468 737.57107401831308 0 0 0 0 -2717.6270960316178 353.68495018542308 0 353.68495018542308 -574.5394194102264 0 0 0 0 -7.1843652715521813 9.2730537206246595 0 9.2730537206246595 -11.851039290718177 0 0 0 0 726.74871043139137 379.70950419987639 0 379.70950419987639 -320.14921645540744 0 0 0 0 -2535.0442672363133 -101.1113978431822 0 -101.1113978431822 190.02144149411833 0 0 0 0 -24.573561370280316 36.577649388721255 0 36.577649388721255 -4.6504055494237377 0 0 0 0 2750.5561559265916 2134.182631075666 0 2134.182631075666 313.79109836366115 0 0 0 0 410.665649310562 162.32636233800804 0 162.32636233800804 -215.15120612073224 0 0 0 0 754.73811604868388 46.410890219951398 0 46.410890219951398 -179.2152321584872 0 0 0 0 342.61042105624074 691.15604802640337 0 691.15604802640337 -439.85608702086029 0 0 0 0 452.51644821511582 167.34487875983177 0 167.34487875983177 -247.69590207646252 0 0 0 0 164.12543064606143 390.10936317715095 0 390.10936317715095 -416.22354740626179 0 0 0 0 -715.94546269671991 718.57167646696325 0 718.57167646696325 -167.71863097658934 0 0 0 0 57.266712432377972 378.35285711711913 0 378.35285711711913 -117.28464181744494 0 0 0 0 -698.07158014943707 1233.4171247782069 0 1233.4171247782069 -694.32826054922771 0 0 0 0 -2611.9627156866482 1150.7065472723916 0 1150.7065472723916 196.33414614983485 0 0 0 0 -2808.2992517561815 -1437.3809649748073 0 -1437.3809649748073 1359.6688446128974 0 0 0 0 -586.91080670792144 84.176421821073745 0 84.176421821073745 757.07252650108421 0 0 0 0 -618.68676581095497 -88.032042427148554 0 -88.032042427148554 316.80497705229209 0 0 0 0 86.41251418236061 -251.22291259840131 0 -251.22291259840131 335.89138545155583 0 0 0 0 -254.0728459043894 210.78631542401854 0 210.78631542401854 184.40898227769867 0 0 0 0 -144.24108299343789 239.28780637311866 0 239.28780637311866 190.75991145079024 0 0 0 0 229.688647767558 1256.7636793180282 0 1256.7636793180282 138.1193965243001 0 0 0 0 466.01528696546666 378.8424817526402 0 378.8424817526402 1510.420264348737 0 0 0 0 301.66918687183352 -996.21419632348989 0 -996.21419632348989 353.35981032019481 0 0 0 0 22.266395869664848 1020.7174031825416 0 1020.7174031825416 1315.8785780627368 0 0 0 0 320.39823235390941 1046.7138368932792 0 1046.7138368932792 283.99113341135671 0 0 0 0 225.61155839779531 1356.0177106808987 0 1356.0177106808987 613.15155041206162 0 0 0 0 1146.2317273726367 -857.60426828515483 0 -857.60426828515483 -85.709919501154218 0 0 0 0 339.96183223632397 970.328874773797 0 970.328874773797 403.55886950055719 0 0 0 0 -39.248456521635291 37.206927218774325 0 37.206927218774325 22.242000885885432 0 0 0 0 77.355649882129683 73.760673590840497 0 73.760673590840497 77.012212999834446 0 0 0 0 -3.0178386038946314 3.8120996411247745 0 3.8120996411247745 -0.10864201894122516 0 0 0 0 360.71667083405646 -126.79274275767193 0 -126.79274275767193 53.536693368951092 0 0 0 0 -6.1423849420098122 154.39438785545644 0 154.39438785545644 30.032200921938056 0 0 0 0 40.102378322797449 93.662277302584698 0 93.662277302584698 72.995380014792318 0 0 0 0 -37.225885987585059 46.050688877979297 0 46.050688877979297 -17.529211991690772 0 0 0 0 -81.360475764173316 82.550708310271148 0 82.550708310271148 192.61131655504869 0 0 0 0 16.258587015545345 95.728734120362788 0 95.728734120362788 190.8149356302747 0 0 0 0 -208.94443365233019 -39.271769820988993 0 -39.271769820988993 241.15021222212818 0 0 0 0 77.075028682800621 -53.139319476620585 0 -53.139319476620585 219.51384763745591 0 0 0 0 -16.14790464026737 39.523496775698732 0 39.523496775698732 139.6495009373466 0 0 0 0 -11.992627481611635 278.96687418559941 0 278.96687418559941 120.82172204578819 0 0 0 0 -33.754843210044783 76.097290945272107 0 76.097290945272107 21.168605350077996 0 0 0 0 -20.042455493170127 61.447655412878134 0 61.447655412878134 0.047151523461195666 0 0 0 0 -13.792104072162857 43.938771985861109 0 43.938771985861109 -37.035297075003172 0 0 0 0 -94.46421302757517 98.161364228915772 0 98.161364228915772 -120.5282160993811 0 0 0 0 -742.11633521017211 102.1611294397153 0 102.1611294397153 113.58050465416272 0 0 0 0 -425.7753324485675 -104.56438416995297 0 -104.56438416995297 9.6490617092640605 0 0 0 0 -71.453064863402687 43.831200023962339 0 43.831200023962339 -15.661995884237967 0 0 0 0 -680.93588999903477 -149.14550093953585 0 -149.14550093953585 3.6861120362736983 0 0 0 0 -143.06091736226517 130.82055072398362 0 130.82055072398362 -71.60270909301471 0 0 0 0 -18.308612459800521 10.630079364307505 0 10.630079364307505 2.9660482118897562 0 0 0 0 154.85569928000041 165.36107027967955 0 165.36107027967955 83.117567453839001 0 0 0 0 312.16057151032146 201.32873359986843 0 201.32873359986843 -119.16569697556406 0 0 0 0 -21.534526064293459 402.64445066174085 0 402.64445066174085 -217.45128415874206 0 0 0 0 -203.50121156457641 160.45394882723105 0 160.45394882723105 64.099612504956895 0 0 0 0 -392.69911634642631 32.186634842702915 0 32.186634842702915 142.78289603232406 0 0 0 0 -122.44711563515011 210.0955224180434 0 210.0955224180434 86.848140649541165 0 0 0 0 41.872063481197983 116.55331324841245 0 116.55331324841245 209.25440020742826 0 0 0 0 42.59625464452256 311.22612859230139 0 311.22612859230139 191.9889622937626 0 0 0 0 -105.59230084657611 177.30369134548164 0 177.30369134548164 95.46808349530329 0 0 0 0 112.76521640007559 213.26012741074373 0 213.26012741074373 -25.129560046872939 0 0 0 0 216.09652973926859 290.43298684569163 0 290.43298684569163 10.41915644898836 0 0 0 0 -9.140162139560049 12.125755568899933 0 12.125755568899933 23.240285179546333 0 0 0 0 -161.16307290810391 116.15037295310731 0 116.15037295310731 176.51908569835359 0 0 0 0 -485.60700226470362 8.4575794723787112 0 8.4575794723787112 298.98867598749348 0 0 0 0 186.73776026623091 261.82516398742155 0 261.82516398742155 78.859717318395269 0 0 0 0 -19.925978411846643 35.151335189586234 0 35.151335189586234 -18.814033669101093 0 0 0 0 -153.62609309525578 -26.669054470861738 0 -26.669054470861738 -57.221097587011172 0 0 0 0 -1388.3620172575902 1602.1987090061448 0 1602.1987090061448 411.68615425117605 0 0 0 0 -91.11673808460182 770.59284125816339 0 770.59284125816339 -819.18796396317339 0 0 0 0 -1886.5035900271978 -501.89132302378857 0 -501.89132302378857 87.229803562804591 0 0 0 0 -7.4343031503641726 8.4824508951683981 0 8.4824508951683981 -11.445774671829327 0 0 0 0 -200.71762908590608 507.30965479979932 0 507.30965479979932 367.96329869608235 0 0 0 0 -94.175783318874892 761.75806117075263 0 761.75806117075263 708.75718781995238 0 0 0 0 -136.33574077251251 428.68535120053275 0 428.68535120053275 449.79750924298423 0 0 0 0 -218.45864032115787 763.7767318955739 0 763.7767318955739 977.01581942211487 0 0 0 0 136.56328813245636 875.73420370595704 0 875.73420370595704 521.79232774357661 0 0 0 0 112.74096880832803 980.54074887764 0 980.54074887764 965.11917177651776 0 0 0 0 400.70663009269629 982.1389692067969 0 982.1389692067969 564.64337532233912 0 0 0 0 278.60598722196301 789.35862772572 0 789.35862772572 414.99759136253851 0 0 0 0 855.6646258442197 941.90334840085416 0 941.90334840085416 427.75131160599994 0 0 0 0 311.34697214170592 1061.8641101302856 0 1061.8641101302856 505.26138607639587 0 0 0 0 100.19219442029134 947.90753456063976 0 947.90753456063976 612.50714391289512 0 0 0 0 446.78382173416321 1051.0308059543895 0 1051.0308059543895 463.56580152235983 0 0 0 0 343.62640818729415 892.53503878072661 0 892.53503878072661 254.67484474557568 0 0 0 0 -61.975656827853527 706.30916055348644 0 706.30916055348644 418.35631617892068 0 0 0 0 277.25914595587528 736.85933046604623 0 736.85933046604623 -31.05183050929918 0 0 0 0 -666.20684453871218 624.22872208378976 0 624.22872208378976 888.5324499678818 0 0 0 0 1363.1675594479602 1251.6621994254965 0 1251.6621994254965 385.01455124095082 0 0 0 0 288.83184088068083 1426.6133152463881 0 1426.6133152463881 834.24850408799648 0 0 0 0 453.59063398244325 1071.6408054603671 0 1071.6408054603671 437.58062221467844 0 0 0 0 649.76945142933982 568.88483465947502 0 568.88483465947502 400.55940651692435 0 0 0 0 1.8857208398949989 1.0133850069439632 0 1.0133850069439632 25.204554257202517 0 0 0 0 1255.7907005307916 529.54565515666945 0 529.54565515666945 395.0334226891282 0 0 0 0 3599.2119669045787 1408.2720661839267 0 1408.2720661839267 24.923238353265333 0 0 0 0 -1404.0726556307345 -229.92978004695033 0 -229.92978004695033 1697.5697233816318 0 0 0 0 -608.100808719611 692.2813421033934 0 692.2813421033934 80.49513635711628 0 0 0 0 685.59869870977036 605.73479787348765 0 605.73479787348765 287.79119900736259 0 0 0 0 -12.468135691846058 23.696469337920888 0 23.696469337920888 68.926993243841025 0 0 0 0 620.65050560727832 535.09844418018474 0 535.09844418018474 237.32405512662081 0 0 0 0 -15.921222359646919 54.9396364261641 0 54.9396364261641 -65.669418598542961 0 0 0 0 -45.435851465474116 160.10234015530295 0 160.10234015530295 -38.769780873288255 0 0 0 0 48.039203781983815 240.53275349829346 0 240.53275349829346 -136.14201285631862 0 0 0 0 -1.4195093041625455 5.2284424268377023 0 5.2284424268377023 -5.1200473114983538 0 0 0 0 518.34209143498447 132.2702384487784 0 132.2702384487784 -473.99617924855556 0 0 0 0 206.41760347783566 -323.2609374577296 0 -323.2609374577296 -272.87504196466034 0 0 0 0 911.04362366750138 525.77358840384113 0 525.77358840384113 114.36140302359127 0 0 0 0 788.75705261137409 906.32173605287971 0 906.32173605287971 971.54464659071527 0 0 0 0 806.69748629783862 606.04488485442198 0 606.04488485442198 132.86542853171704 0 0 0 0 817.55544188932981 536.00672574882628 0 536.00672574882628 558.42633429769194 0 0 0 0 923.66067332966486 555.38841314458114 0 555.38841314458114 -7.8953437331074383 0 0 0 0 20.605779709701892 229.50712358330202 0 229.50712358330202 617.98033931080136 0 0 0 0 -749.62814144211006 -541.55531238333788 0 -541.55531238333788 584.03329393747845 0 0 0 0 -575.28745415934827 208.28416812089563 0 208.28416812089563 1807.152157480421 0 0 0 0 -54.55397460104723 179.29853505160645 0 179.29853505160645 585.94647015363444 0 0 0 0 59.268187532637967 980.3877593416255 0 980.3877593416255 1755.2473068330728 0 0 0 0 1.5406154743875504 84.787514705120884 0 84.787514705120884 19.063859817368211 0 0 0 0 -5.4817084798625899 11.403930435635658 0 11.403930435635658 -2.5101693296975895 0 0 0 0 -106.66633900560555 -8.2134931000837241 0 -8.2134931000837241 44.647642937066848 0 0 0 0 -74.16504025660106 21.058139889457379 0 21.058139889457379 -1.2327669468068052 0 0 0 0 -117.72535731832613 23.707051186676836 0 23.707051186676836 111.57994656773008 0 0 0 0 -28.303246220049914 83.015946483297739 0 83.015946483297739 79.955323251786467 0 0 0 0 -44.542661339888582 156.27355008827726 0 156.27355008827726 -59.446986035000009 0 0 0 0 -26.929159068095032 53.445048029956524 0 53.445048029956524 -13.088052514802257 0 0 0 0 -8.4620835510586403 48.423938661625186 0 48.423938661625186 7.8684038699523455 0 0 0 0 -287.54207975030295 369.21697583312925 0 369.21697583312925 -232.30889639696761 0 0 0 0 557.78050572428037 290.21131676690129 0 290.21131676690129 469.85781251782919 0 0 0 0 932.5777435830064 190.62101390289536 0 190.62101390289536 457.90082692155556 0 0 0 0 971.94247787966003 1116.3313873223524 0 1116.3313873223524 1066.2680319442297 0 0 0 0 1123.8160269199871 784.62572703650221 0 784.62572703650221 1470.8648223437194 0 0 0 0 1358.1433375391643 199.96619370728149 0 199.96619370728149 1754.5495389235439 0 0 0 0 1952.3014512094524 2946.0397536840901 0 2946.0397536840901 1228.6891212617629 0 0 0 0 -1672.3481410170862 40.94554121973124 0 40.94554121973124 1165.9620789129985 0 0 0 0 1.6164496631181677 -3.9748834558407395 0 -3.9748834558407395 11.271719867484705 0 0 0 0 -647.87607489756192 650.40045353627647 0 650.40045353627647 942.23587283270899 0 0 0 0 -1538.2351862408395 394.6195356960452 0 394.6195356960452 2048.4633315141546 0 0 0 0 -721.38896791596198 688.51423606365279 0 688.51423606365279 2152.4966168936007 0 0 0 0 -941.33334120009386 181.79511964655831 0 181.79511964655831 2042.7753316779417 0 0 0 0 -717.24490689025265 165.82096457112993 0 165.82096457112993 1796.3506965784472 0 0 0 0 -683.20192090636192 671.87211754601049 0 671.87211754601049 1980.3242192799662 0 0 0 0 -169.71857078443281 377.40592470346746 0 377.40592470346746 -521.00265114799549 0 0 0 0 157.711924191055 1193.1158674330618 0 1193.1158674330618 499.49397659536771 0 0 0 0 -958.24605867423816 64.018337980087381 0 64.018337980087381 -79.377564928057836 0 0 0 0 1520.0898682885345 -1123.4807946697947 0 -1123.4807946697947 -410.64195895586454 0 0 0 0 578.39183225076704 1105.2452570767928 0 1105.2452570767928 -1210.0630645114506 0 0 0 0 -1656.4604301703512 1616.9859295129718 0 1616.9859295129718 -833.77755664333381 0 0 0 0 -8.1606863066284632 48.090191450944587 0 48.090191450944587 -50.475067960420859 0 0 0 0 1180.9655254523968 1914.9212215475491 0 1914.9212215475491 1370.4570512234641 0 0 0 0 -1231.1395885899838 1153.663846944226 0 1153.663846944226 1785.4174483547686 0 0 0 0 -403.67437782115303 -96.759960437761038 0 -96.759960437761038 112.86882926925318 0 0 0 0 -1483.6518174728262 -643.0734629357903 0 -643.0734629357903 1094.687561382656 0 0 0 0 -21.396709880558234 20.816346788768271 0 20.816346788768271 -3.9420628197387941 0 0 0 0 -197.72411543971975 -124.47129608622345 0 -124.47129608622345 -350.50274090032326 0 0 0 0 -42.356546397999011 68.285505689646413 0 68.285505689646413 -38.699501238460456 0 0 0 0 -33.554982865316489 40.555933538444094 0 40.555933538444094 -39.848756113431762 0 0 0 0 -75.256239025844025 30.601657707318509 0 30.601657707318509 18.961881291790633 0 0 0 0 -73.788090641314426 68.365398945073139 0 68.365398945073139 8.9286270772071532 0 0 0 0 -254.60508512538217 -40.551095845436066 0 -40.551095845436066 -15.288491379989864 0 0 0 0 -360.49694210298549 287.85338274683454 0 287.85338274683454 -75.197608661343111 0 0 0 0 100.367668399791 52.090888163511408 0 52.090888163511408 -48.638687832411961 0 0 0 0 9.6280148587256917 -3.6818412910126881 0 -3.6818412910126881 -4.3680630510498304 0 0 0 0 115.24480415895232 118.85122098107968 0 118.85122098107968 -13.700793863594299 0 0 0 0 28.060918152987142 87.641065924726718 0 87.641065924726718 65.799197390835616 0 0 0 0 92.225640978147567 183.73373231612277 0 183.73373231612277 122.82127607516304 0 0 0 0 150.96833851934935 176.55807752524197 0 176.55807752524197 71.084279075119412 0 0 0 0 45.129801450733794 178.41321656872969 0 178.41321656872969 145.02360491659419 0 0 0 0 191.46917834191117 288.6481476275444 0 288.6481476275444 197.65262066050491 0 0 0 0 91.291659932037874 240.50736642163793 0 240.50736642163793 217.45649661793868 0 0 0 0 32.806863071062253 217.91407388308653 0 217.91407388308653 232.52841780080053 0 0 0 0 79.299499454413308 213.23461406658316 0 213.23461406658316 197.53926897056954 0 0 0 0 41.337448456441052 384.55831242887507 0 384.55831242887507 -169.10639044773779 0 0 0 0 -67.701358312636927 78.802601795870245 0 78.802601795870245 -19.389544859068963 0 0 0 0 -731.49837167770602 597.01356825493167 0 597.01356825493167 153.73687645047175 0 0 0 0 -475.2310390752391 -444.69542007789278 0 -444.69542007789278 46.125746303646338 0 0 0 0 -16.272677396314151 25.13546971911282 0 25.13546971911282 -16.648712635506953 0 0 0 0 565.03402108470618 -1480.2670792293211 0 -1480.2670792293211 758.04090732831719 0 0 0 0 -579.94093877995329 -475.62646842508457 0 -475.62646842508457 1016.3329339926713 0 0 0 0 -8.8818864425570041 9.565694078680707 0 9.565694078680707 -10.456287605344045 0 0 0 0 -202.17016569618136 314.23374211879491 0 314.23374211879491 5.3390921803656965 0 0 0 0 -39.525412133053067 64.981035787850402 0 64.981035787850402 -59.227848323460634 0 0 0 0 -15.825773927186162 30.390274488086334 0 30.390274488086334 -41.291236844659949 0 0 0 0 17.963063265648088 320.28055639644299 0 320.28055639644299 -341.38337866986694 0 0 0 0 -7.4287456812180821 49.697709296008867 0 49.697709296008867 -85.151422734420521 0 0 0 0 384.46491416615027 241.70173399132909 0 241.70173399132909 -112.61395286668267 0 0 0 0 -23.495833711596788 -54.274980971087643 0 -54.274980971087643 -136.06542525843906 0 0 0 0 190.10257473477395 67.231166512421623 0 67.231166512421623 -277.78612320170214 0 0 0 0 -19.65641614212015 14.211253874307715 0 14.211253874307715 37.299961825029357 0 0 0 0 757.93589410268032 318.91066296737699 0 318.91066296737699 126.70037503555068 0 0 0 0 673.95153461460723 208.37132620687771 0 208.37132620687771 -18.640250307646056 0 0 0 0 -34.070200076765296 83.543859985944437 0 83.543859985944437 67.28182518341967 0 0 0 0 8.6171220250980696 137.85270803056119 0 137.85270803056119 49.034283271503227 0 0 0 0 -11.826582625042647 144.48472599207525 0 144.48472599207525 103.44395773795623 0 0 0 0 2.1385910141797098 13.420873928475487 0 13.420873928475487 15.60444867197134 0 0 0 0 103.77957895274449 26.716411898280057 0 26.716411898280057 111.22407394171023 0 0 0 0 -31.54851890144208 7.0932277414226377 0 7.0932277414226377 6.8272371334826261 0 0 0 0 -298.36471427220749 492.7227313949661 0 492.7227313949661 365.49244090115826 0 0 0 0 -974.95718177027447 110.16132623134035 0 110.16132623134035 509.69591023577232 0 0 0 0 125.64586456672077 865.2484207784255 0 865.2484207784255 196.48700734073645 0 0 0 0 -476.54722194635178 244.0086351062746 0 244.0086351062746 13.580077128513949 0 0 0 0 -407.40625968756103 276.41401146580756 0 276.41401146580756 -27.677211482063285 0 0 0 0 -520.98050001828233 87.101291248647613 0 87.101291248647613 108.98703656699035 0 0 0 0 -3.1458962265896844 73.613196092257567 0 73.613196092257567 -48.088148425871623 0 0 0 0 5.1182884608546431 61.370595543892421 0 61.370595543892421 31.022792137285478 0 0 0 0 -2.8628728904150194 139.58744799753549 0 139.58744799753549 52.499337010849558 0 0 0 0 -6.2358233290251519 89.473954841021168 0 89.473954841021168 2.768394908256596 0 0 0 0 -25.306112142206985 128.06322828381963 0 128.06322828381963 -82.232308717320848 0 0 0 0 0.50181046173014465 43.196071050716917 0 43.196071050716917 -0.44980053723035951 0 0 0 0 -18.966007031573099 93.154012006038101 0 93.154012006038101 -52.177529295739077 0 0 0 0 0.2836987378395861 119.34868391577766 0 119.34868391577766 -79.266039864491177 0 0 0 0 -540.18042840031558 1142.4523187888844 0 1142.4523187888844 214.70040204769066 0 0 0 0 -46.83575007141107 56.482168306711401 0 56.482168306711401 -21.635820459316889 0 0 0 0 -64.117228278453808 71.555127252010294 0 71.555127252010294 2.9755724261212322 0 0 0 0 -30.004094823241758 65.036860218613583 0 65.036860218613583 24.833113112108549 0 0 0 0 -23.463237365384487 62.178318195029703 0 62.178318195029703 -15.694219745427233 0 0 0 0 -48.57321424847396 59.190133723021063 0 59.190133723021063 -108.88424542706343 0 0 0 0 -55.665044012304861 112.00453497753915 0 112.00453497753915 -61.180728353647282 0 0 0 0 -27.089522728012525 111.9198180079984 0 111.9198180079984 -132.66413373907562 0 0 0 0 -25.357860325253569 53.776490899312194 0 53.776490899312194 -149.26192093129794 0 0 0 0 -72.416613071560278 111.50019721903891 0 111.50019721903891 -30.713925786141772 0 0 0 0 -12.275635705664172 99.313212056942575 0 99.313212056942575 -33.522281622019364 0 0 0 0 -41.333111242667655 117.02496236408479 0 117.02496236408479 -44.308381998933328 0 0 0 0 19.761911643174244 183.25957111860771 0 183.25957111860771 67.872092496312689 0 0 0 0 61.363927089580102 106.73829006530286 0 106.73829006530286 20.111901612457586 0 0 0 0 -26.043632685134071 63.981901595390809 0 63.981901595390809 16.950718548643636 0 0 0 0 -2.2745094697311288 99.234450821401424 0 99.234450821401424 41.919672557865852 0 0 0 0 -22.156734256786876 134.15378655941458 0 134.15378655941458 13.755724112364987 0 0 0 0 -17.497763359933742 108.51093059214327 0 108.51093059214327 15.165487703910912 0 0 0 0 -10.030806398392542 150.79174235769847 0 150.79174235769847 1.396372111456003 0 0 0 0 -11.648451466928236 129.66547094671114 0 129.66547094671114 27.67399661053787 0 0 0 0 2.12833101634169 175.04473898308788 0 175.04473898308788 33.199983666245316 0 0 0 0 -7.7135479568535175 196.43721146685641 0 196.43721146685641 126.91173255006288 0 0 0 0 -7.7517192405405098 158.7189781047332 0 158.7189781047332 103.21917376173951 0 0 0 0 162.97413348741247 202.35154666507879 0 202.35154666507879 110.9365672508593 0 0 0 0 -16.508657240774482 222.826109665697 0 222.826109665697 196.3285431159602 0 0 0 0 68.268625894997967 149.03384002613893 0 149.03384002613893 98.984265211427555 0 0 0 0 2.6471855980780674 78.102376010338048 0 78.102376010338048 76.456976731024042 0 0 0 0 38.038746996084228 87.588146376037912 0 87.588146376037912 182.19695295073325 0 0 0 0 57.732096520503546 229.85089386788331 0 229.85089386788331 263.17842486088193 0 0 0 0 -22.256208813310231 6.9600787009440666 0 6.9600787009440666 2.1383265087147549 0 0 0 0 228.47301685946877 265.19998984216363 0 265.19998984216363 165.78731917476034 0 0 0 0 96.131602786692383 175.18582316138964 0 175.18582316138964 106.33066506429168 0 0 0 0 -122.16760592297305 29.902502939710075 0 29.902502939710075 188.84671354375314 0 0 0 0 -101.49383073324992 47.237493202504226 0 47.237493202504226 25.785309008567822 0 0 0 0 -99.572315879217058 130.73019062459935 0 130.73019062459935 64.397359089081874 0 0 0 0 -101.88400509502208 14.567552630178511 0 14.567552630178511 0.33091997817973606 0 0 0 0 567.53104551722845 262.01395048459653 0 262.01395048459653 80.370095787831815 0 0 0 0 -100.05221299111773 53.67003465231825 0 53.67003465231825 30.727452183497064 0 0 0 0 -157.65510109167008 61.868808595827431 0 61.868808595827431 73.730162742853281 0 0 0 0 -58.616823045820638 170.02852490631813 0 170.02852490631813 143.87166384919692 0 0 0 0 -20.046894181536782 13.765518660043412 0 13.765518660043412 32.077701082092688 0 0 0 0 -175.44633852982952 229.11325968777601 0 229.11325968777601 214.22356490050879 0 0 0 0 -191.96281695469679 519.04350402181717 0 519.04350402181717 250.33581159733876 0 0 0 0 178.44296509076958 383.94811494012902 0 383.94811494012902 66.124836958468222 0 0 0 0 194.96190387754905 453.86849382709988 0 453.86849382709988 115.98698459348088 0 0 0 0 626.77252545725059 80.044791600612371 0 80.044791600612371 141.42128399789726 0 0 0 0 144.94186828294551 592.7460469698799 0 592.7460469698799 -64.422506618422631 0 0 0 0 593.20139195287265 372.74077082227086 0 372.74077082227086 214.65512118802872 0 0 0 0 496.30758667592272 73.350255637767987 0 73.350255637767987 -298.22596296179836 0 0 0 0 516.39261186922158 413.89418647647699 0 413.89418647647699 220.14086453851996 0 0 0 0 -112.16120929305907 248.03251391976119 0 248.03251391976119 113.54213308084218 0 0 0 0 322.99586920007823 -135.55582183235219 0 -135.55582183235219 -337.31868947862677 0 0 0 0 -0.68099967776229242 8.3893727057038845 0 8.3893727057038845 5.5433147473225404 0 0 0 0 -396.7685835856355 3.6166827840515907 0 3.6166827840515907 116.59641826697043 0 0 0 0 1563.7252099335092 105.52155968753505 0 105.52155968753505 -156.59162957971421 0 0 0 0 -292.34916232009346 22.816880689528261 0 22.816880689528261 49.437154453367839 0 0 0 0 1329.6443822464425 336.03473919803582 0 336.03473919803582 -272.93006072362186 0 0 0 0 -0.4006241333779812 12.766212530265335 0 12.766212530265335 16.840108178660671 0 0 0 0 -166.32982109308796 75.222953642933135 0 75.222953642933135 -7.6230862159791286 0 0 0 0 -95.703692989009141 66.317102401055308 0 66.317102401055308 4.5201098492507299 0 0 0 0 -154.18609824921441 48.906936202853103 0 48.906936202853103 46.967833910323861 0 0 0 0 -177.06407921591745 13.487860746419756 0 13.487860746419756 -25.604891240393044 0 0 0 0 -28.720073246809832 66.782856175720596 0 66.782856175720596 36.625045894516205 0 0 0 0 -1.0646473770320881 88.531164993190032 0 88.531164993190032 137.04526752863694 0 0 0 0 57.094618722864197 39.418233196963115 0 39.418233196963115 28.075356521072536 0 0 0 0 -5.0181355285293989 13.156088140258746 0 13.156088140258746 2.6133063935859866 0 0 0 0 -7.4429456858877234 68.699772287306118 0 68.699772287306118 32.945514485212193 0 0 0 0 53.017455884320043 125.62496286391411 0 125.62496286391411 -58.498350440913782 0 0 0 0 22.917238353162247 46.960433782915061 0 46.960433782915061 46.979091322975364 0 0 0 0 -73.620529111442011 89.714704002487451 0 89.714704002487451 59.486998741441312 0 0 0 0 -171.49484879871306 66.415305525137228 0 66.415305525137228 54.198109589571686 0 0 0 0 231.70276821377047 253.64033768024365 0 253.64033768024365 53.148333527853538 0 0 0 0 -205.55427906823388 127.37869580152073 0 127.37869580152073 195.41914498157348 0 0 0 0 -74.460719620095915 75.920169098403903 0 75.920169098403903 121.07120395875927 0 0 0 0 -14.969779807086866 7.2903539218620708 0 7.2903539218620708 0.20605037793361891 0 0 0 0 1.1222167574121933 72.961234061238159 0 72.961234061238159 29.621869454529811 0 0 0 0 -6.4044567896380613 137.76792875235333 0 137.76792875235333 2.273711784923762 0 0 0 0 58.700332075008191 27.589992804016219 0 27.589992804016219 -44.402326076027748 0 0 0 0 71.481635138925412 7.5604847825600245 0 7.5604847825600245 -52.817520133279686 0 0 0 0 -266.09072084637228 -213.7770014755497 0 -213.7770014755497 6.5413936435470532 0 0 0 0 38.805171076655824 -76.992430345401317 0 -76.992430345401317 210.11653993279106 0 0 0 0 42.908889045305841 -50.655382162507976 0 -50.655382162507976 -0.42068492416001391 0 0 0 0 442.19282058473618 -37.612248020419429 0 -37.612248020419429 -53.130101734417622 0 0 0 0 -24.188070138036721 40.590785940504958 0 40.590785940504958 -23.506636715153945 0 0 0 0 357.10972502387085 768.39997527365585 0 768.39997527365585 -417.02014076212072 0 0 0 0 1.9146869058749871 68.317915585550509 0 68.317915585550509 -19.669963911559535 0 0 0 0 -33.542040650908035 47.356359908192388 0 47.356359908192388 13.368546728799657 0 0 0 0 109.64184980771461 62.415168482524678 0 62.415168482524678 -135.77509551263938 0 0 0 0 -5.1562858057369212 61.628097772346905 0 61.628097772346905 -86.578997966649439 0 0 0 0 49.930867307251901 187.23866015691601 0 187.23866015691601 -90.504826918888284 0 0 0 0 22.12421769480369 40.232706539116208 0 40.232706539116208 -48.685847388375691 0 0 0 0 3.8367739436932311 5.1881193467393842 0 5.1881193467393842 -16.752370671881753 0 0 0 0 -71.383671335538097 83.459925422187268 0 83.459925422187268 -28.54142984543823 0 0 0 0 356.04878433524573 -253.02790019165514 0 -253.02790019165514 -527.69633437932498 0 0 0 0 66.061465575112379 71.450852790592762 0 71.450852790592762 -61.28292182579753 0 0 0 0 -73.861240434474894 -192.12488343219229 0 -192.12488343219229 546.02346760697765 0 0 0 0 -218.41148508008337 79.531492704512857 0 79.531492704512857 832.09837326872912 0 0 0 0 -1891.1903759431298 285.90389234594841 0 285.90389234594841 1087.6371739748029 0 0 0 0 112.2663106204609 949.23231890496413 0 949.23231890496413 -271.4276252982545 0 0 0 0 872.8969040174361 523.21285651986682 0 523.21285651986682 -221.8663296260147 0 0 0 0 -9.8816515449735292 12.214704346090457 0 12.214704346090457 -0.22764250977870404 0 0 0 0 200.25364958398131 -24.516183786616239 0 -24.516183786616239 332.95861567549582 0 0 0 0 142.84130465075577 107.09176647696768 0 107.09176647696768 58.316033767947374 0 0 0 0 63.570640255667968 225.06159215193838 0 225.06159215193838 357.35800585435209 0 0 0 0 -19.800701677188044 190.17912407945187 0 190.17912407945187 247.62899994507461 0 0 0 0 -9.8980213684385205 1.0085352082128338 0 1.0085352082128338 4.546853610377191 0 0 0 0 173.22261763125539 -101.58012031278514 0 -101.58012031278514 162.45509377670533 0 0 0 0 24.86652242357377 61.243667188475229 0 61.243667188475229 -216.67236673027401 0 0 0 0 -107.53394194245629 287.35455450471272 0 287.35455450471272 -148.21721195011742 0 0 0 0 -52.5701174233036 100.48101676929127 0 100.48101676929127 68.350399825451632 0 0 0 0 -21.629104245163035 146.6221374701372 0 146.6221374701372 78.326368657810235 0 0 0 0 -156.83611117348119 -89.615326703325991 0 -89.615326703325991 501.67437959150266 0 0 0 0 2.8861679094649162 -3.6612834560818435 0 -3.6612834560818435 -5.5033394638142408 0 0 0 0 -574.10401174815343 828.49876040747688 0 828.49876040747688 -829.11245549409955 0 0 0 0 -608.87953333375481 593.11616403518042 0 593.11616403518042 -700.40059404400358 0 0 0 0 -194.99195498944755 202.39286406820838 0 202.39286406820838 -331.95542220628499 0 0 0 0 -479.71999272397079 621.90645333741691 0 621.90645333741691 -84.933057934007593 0 0 0 0 -487.80566811103927 472.23577930472675 0 472.23577930472675 277.4145385908887 0 0 0 0 -613.57644287431322 277.05233445142403 0 277.05233445142403 226.84579274441603 0 0 0 0 -274.52245752426825 264.39243800939857 0 264.39243800939857 212.00819359351954 0 0 0 0 -229.10785112678423 349.81709025859709 0 349.81709025859709 133.78348011197795 0 0 0 0 1204.7406837521976 749.48458496922785 0 749.48458496922785 -641.15407634159692 0 0 0 0 9.7598885545448866 -660.00917219222811 0 -660.00917219222811 -1113.1398893832848 0 0 0 0 -207.51182867839339 623.05476291890341 0 623.05476291890341 -270.60509613290924 0 0 0 0 19.261544722205144 167.86280521973322 0 167.86280521973322 -689.58955815936088 0 0 0 0 1166.5994823638757 813.32385399540726 0 813.32385399540726 -1695.6574809981612 0 0 0 0 556.94578327459749 -51.338571985575982 0 -51.338571985575982 -1800.6845437946322 0 0 0 0 -66.917681431493833 78.689825742929685 0 78.689825742929685 -33.946000372280665 0 0 0 0 -723.20432795189117 -230.15451717784163 0 -230.15451717784163 577.29534129105377 0 0 0 0 439.12796894539497 1220.4339941104517 0 1220.4339941104517 592.66287518560421 0 0 0 0 -22.705027766143537 12.659220043780408 0 12.659220043780408 5.6294376790962559 0 0 0 0 9.133375535889428 36.821377620922348 0 36.821377620922348 -5.3712355035517492 0 0 0 0 137.34601201637997 287.61630741143142 0 287.61630741143142 -1125.7206322762886 0 0 0 0 10.286495537649898 540.5217493595369 0 540.5217493595369 722.09141095956102 0 0 0 0 327.74626037277994 460.64814794248446 0 460.64814794248446 75.108201257929068 0 0 0 0 -47.766638749411314 76.979337672397591 0 76.979337672397591 -39.682059383644372 0 0 0 0 -102.06001612276305 433.75173934941085 0 433.75173934941085 -1039.3927979893936 0 0 0 0 776.69783106513569 739.69909690089116 0 739.69909690089116 -1506.0854000697973 0 0 0 0 475.79728074363084 261.68223438386485 0 261.68223438386485 -3046.1777960810405 0 0 0 0 -3.3926609370204801 -4.5129221247345797 0 -4.5129221247345797 1.2580963550345354 0 0 0 0 -178.30938437689744 865.23432079922759 0 865.23432079922759 -1595.5852325734731 0 0 0 0 223.25600440606286 945.20676406957614 0 945.20676406957614 -593.24774656323325 0 0 0 0 -56.530493073150865 677.58584534018746 0 677.58584534018746 1549.4440828717925 0 0 0 0 99.225527255723136 326.9549854738043 0 326.9549854738043 -135.54585167526147 0 0 0 0 -214.38788618952094 602.9131492094366 0 602.9131492094366 -648.73205078308683 0 0 0 0 -385.70829368916384 995.03223759769355 0 995.03223759769355 -895.72088174666487 0 0 0 0 -178.5984590860304 640.11677795609376 0 640.11677795609376 -792.30786517268734 0 0 0 0 -142.12680223095231 642.75280257401948 0 642.75280257401948 -806.13311426768473 0 0 0 0 -619.0804993018246 823.24173842114715 0 823.24173842114715 -516.35101102674548 0 0 0 0 -577.29186129846494 410.0795731359492 0 410.0795731359492 -280.15701923798315 0 0 0 0 -505.31601716245495 672.56878372398171 0 672.56878372398171 -605.02982241279278 0 0 0 0 -368.83744573620788 978.4439902764193 0 978.4439902764193 -1461.208047792421 0 0 0 0 -1002.3125734516143 1087.4672696725088 0 1087.4672696725088 -677.76740650990723 0 0 0 0 -659.6178818870394 677.31014386824563 0 677.31014386824563 -904.36752327624527 0 0 0 0 -358.42858748734943 244.84121571772971 0 244.84121571772971 -858.03010009739592 0 0 0 0 -873.68055177165661 31.908314959414383 0 31.908314959414383 -631.45084896549679 0 0 0 0 -404.69510028333389 420.52936552172923 0 420.52936552172923 -320.4056971625796 0 0 0 0 -269.03777655354497 -14.30475889374793 0 -14.30475889374793 60.780722190750566 0 0 0 0 287.57587547530784 124.51315572813246 0 124.51315572813246 -614.94188767134801 0 0 0 0 -25.567491155547032 504.06238507435773 0 504.06238507435773 -707.84708422425683 0 0 0 0 -41.868407296962687 655.0736032695736 0 655.0736032695736 -861.31286611870019 0 0 0 0 299.77453899270222 124.75449134112034 0 124.75449134112034 -574.86070442860364 0 0 0 0 346.54739233722376 299.30492101588493 0 299.30492101588493 -609.41658477773672 0 0 0 0 66.595994049283036 127.57345716874443 0 127.57345716874443 -176.98358655992342 0 0 0 0 16.316453083622037 163.78927687030955 0 163.78927687030955 260.11709400171048 0 0 0 0 266.45996628822468 72.09524853527364 0 72.09524853527364 -453.68999657335644 0 0 0 0 2.4661300773107371 12.765512861437049 0 12.765512861437049 15.483855468625343 0 0 0 0 68.080006763746496 212.11203508711333 0 212.11203508711333 23.970893646147488 0 0 0 0 270.07203272083279 62.539765786760199 0 62.539765786760199 -113.61044917803156 0 0 0 0 34.003887570951413 16.191221315357467 0 16.191221315357467 -7.9120609444000394 0 0 0 0 -188.71476381887624 358.83962558993153 0 358.83962558993153 -385.82687950438321 0 0 0 0 196.90973747167857 70.591730609971648 0 70.591730609971648 13.24947732470136 0 0 0 0 215.35689135880966 -44.477604523992341 0 -44.477604523992341 -277.54091338669423 0 0 0 0 -232.65432342320855 236.54416307131578 0 236.54416307131578 84.236858044185453 0 0 0 0 297.38314762833761 478.29804526655334 0 478.29804526655334 -554.53457134109703 0 0 0 0 176.0385198065087 266.07022436613443 0 266.07022436613443 -731.92853633888808 0 0 0 0 -42.654130985116353 69.994552805869716 0 69.994552805869716 -119.95837427270544 0 0 0 0 50.125754721872497 31.019531525487 0 31.019531525487 20.729331875417849 0 0 0 0 8.5957614410144743 -36.465940091552511 0 -36.465940091552511 -7.5609623684895269 0 0 0 0 108.35827356899972 39.879258781397311 0 39.879258781397311 -99.266316689489031 0 0 0 0 -22.762972924509086 57.431360465075159 0 57.431360465075159 -15.096914208479575 0 0 0 0 -44.3020338321694 -38.676753979983005 0 -38.676753979983005 -55.866794515170113 0 0 0 0 -222.66716972149879 75.760957206124658 0 75.760957206124658 -11.18488202306844 0 0 0 0 106.84898530384817 24.928625120476227 0 24.928625120476227 -60.282150719345282 0 0 0 0 41.576495477882418 54.400888972666507 0 54.400888972666507 -13.346454355401875 0 0 0 0 155.44007225270343 133.63879764493822 0 133.63879764493822 -31.581445522137074 0 0 0 0 77.221233073629264 112.86866067745086 0 112.86866067745086 -61.991370981821092 0 0 0 0 72.541182097261057 55.351431697989561 0 55.351431697989561 24.802737079579508 0 0 0 0 14.969371690225625 20.934757932050573 0 20.934757932050573 -35.020458019981341 0 0 0 0 -665.62744463550916 568.17132851044266 0 568.17132851044266 -444.91816340342916 0 0 0 0 -999.86933233690922 580.72238384347372 0 580.72238384347372 -335.26251532675133 0 0 0 0 -0.65926029906113648 3.2601281272388434 0 3.2601281272388434 -13.550490031113167 0 0 0 0 359.45814634556154 -425.53023152137484 0 -425.53023152137484 -1037.1297320898002 0 0 0 0 -2557.3394523367242 1800.1827592417667 0 1800.1827592417667 -1240.7737835800399 0 0 0 0 402.73163990287139 295.34859905994153 0 295.34859905994153 -1934.5294229928149 0 0 0 0 -245.01044350636948 4.6027386949681386 0 4.6027386949681386 -49.651298499265749 0 0 0 0 23.22311729156354 415.76015423714671 0 415.76015423714671 -644.11799291319767 0 0 0 0 -737.5270274921204 1396.7871807132933 0 1396.7871807132933 -1500.274576791734 0 0 0 0 -47.273599960113643 773.58258474307513 0 773.58258474307513 -959.94468182062337 0 0 0 0 -1645.9449906846348 524.82916382721623 0 524.82916382721623 -657.07898128254055 0 0 0 0 -908.15244580189756 88.485624276035196 0 88.485624276035196 -2280.6970009941319 0 0 0 0 -699.45471513846132 683.51916383601383 0 683.51916383601383 -350.92730700947686 0 0 0 0 -662.79468118303157 763.10755988188293 0 763.10755988188293 -630.02933596769071 0 0 0 0 -289.32191932365822 981.96119569761504 0 981.96119569761504 -814.02289757434482 0 0 0 0 -60.56463258335134 744.87402279286744 0 744.87402279286744 -568.31178796365566 0 0 0 0 22.433475625060964 854.17639797865741 0 854.17639797865741 -776.43153391845317 0 0 0 0 -9.2548645580973243 809.96256500679237 0 809.96256500679237 -621.80026865971377 0 0 0 0 -5.7889773107890505 801.79799064078361 0 801.79799064078361 -813.57822695736286 0 0 0 0 -47.212430994673923 792.98294096728182 0 792.98294096728182 -759.92890468687619 0 0 0 0 -128.24435716676817 709.56425775522985 0 709.56425775522985 -695.837088876493 0 0 0 0 111.7742469682853 452.87880984586081 0 452.87880984586081 -433.50353735993849 0 0 0 0 42.214349687215872 688.4167229248269 0 688.4167229248269 -925.59636283126747 0 0 0 0 -321.08022349944804 530.38805592517747 0 530.38805592517747 -235.46672565847712 0 0 0 0 -556.91978042805567 673.48846743726244 0 673.48846743726244 -319.61292061130735 0 0 0 0 -248.0927439070656 553.08353440276551 0 553.08353440276551 -296.88331040687262 0 0 0 0 -115.68059967532463 606.34999621946554 0 606.34999621946554 -362.10107706883718 0 0 0 0 -259.29754458316893 758.62287700093566 0 758.62287700093566 -515.95774184019683 0 0 0 0 -347.5658675477971 355.15797753955212 0 355.15797753955212 -33.460636231113313 0 0 0 0 -415.72360970333102 640.9707286653138 0 640.9707286653138 -206.56202125570599 0 0 0 0 -204.7460702695389 480.06567637037551 0 480.06567637037551 -200.1915564650626 0 0 0 0 -370.21552763337968 594.64542535341388 0 594.64542535341388 -239.71905427318598 0 0 0 0 -398.0541300497498 960.50751312529974 0 960.50751312529974 -492.04353577554139 0 0 0 0 -748.93356387017411 829.27178209659178 0 829.27178209659178 -186.72481222423085 0 0 0 0 -419.53908871235035 636.34718020528635 0 636.34718020528635 -188.3061512200693 0 0 0 0 -320.63219474111975 888.64911369901711 0 888.64911369901711 -470.09297962694109 0 0 0 0 -141.90134159726585 974.28551571355547 0 974.28551571355547 -811.30140350752117 0 0 0 0 124.31441792332043 901.68003747839066 0 901.68003747839066 -816.02852989426594 0 0 0 0 -630.90967144432943 1165.2952420338224 0 1165.2952420338224 -539.41336611673887 0 0 0 0 -697.25152838976646 1235.0023869089691 0 1235.0023869089691 -382.825181886059 0 0 0 0 -1415.9581533016317 1035.7460362499987 0 1035.7460362499987 -109.08062417200563 0 0 0 0 -698.3313391097181 736.41051680693636 0 736.41051680693636 -23.208458738159607 0 0 0 0 -951.64171119499952 631.43049103193152 0 631.43049103193152 54.601558801663487 0 0 0 0 -636.95443269543466 463.04231362755309 0 463.04231362755309 83.090809398059719 0 0 0 0 -459.7712733616645 341.97034552615878 0 341.97034552615878 97.382099452566763 0 0 0 0 -774.78341182761505 335.53366396293677 0 335.53366396293677 160.60582746939326 0 0 0 0 -1045.7168490241238 451.21102877993462 0 451.21102877993462 -79.941484220616985 0 0 0 0 -675.28016107683652 453.55216295328864 0 453.55216295328864 34.629289228800189 0 0 0 0 -1219.0099170136964 373.5267342949046 0 373.5267342949046 95.03538825906071 0 0 0 0 277.0611171250348 -268.21824387921151 0 -268.21824387921151 558.38537512186213 0 0 0 0 -175.63924418410897 -265.96638256719598 0 -265.96638256719598 -91.188540178678522 0 0 0 0 -1180.0565441800863 6.3905122188552923 0 6.3905122188552923 175.63572629307964 0 0 0 0 -519.90456364190322 29.043542475821596 0 29.043542475821596 -1.3798340932371502 0 0 0 0 37.296935357917391 -398.42596313831746 0 -398.42596313831746 174.35160359760994 0 0 0 0 -468.91962660280478 -29.125308973031679 0 -29.125308973031679 27.312253568874439 0 0 0 0 -207.05966765417543 -272.99332001632138 0 -272.99332001632138 183.20244020387508 0 0 0 0 88.841901787614916 -446.65989060101674 0 -446.65989060101674 -25.820891999543164 0 0 0 0 374.50225242845772 82.986035998361331 0 82.986035998361331 -128.67080695684854 0 0 0 0 -316.34723113065411 461.48830080679363 0 461.48830080679363 81.628295067603176 0 0 0 0 -223.31051036888675 140.81599789418556 0 140.81599789418556 -444.25236359689643 0 0 0 0 -348.07342432315636 449.18510433958136 0 449.18510433958136 -520.91257266727189 0 0 0 0 -255.44265890156385 326.7794421191993 0 326.7794421191993 -1029.0956781160198 0 0 0 0 -467.49875733924273 464.22060361260264 0 464.22060361260264 -520.8970785131969 0 0 0 0 -403.18705328606302 366.98565687720065 0 366.98565687720065 -403.18007530153318 0 0 0 0 -522.49849385107518 422.7260592277853 0 422.7260592277853 -231.69056238694566 0 0 0 0 -447.21075427459436 365.94851112514618 0 365.94851112514618 -237.58021119997784 0 0 0 0 -321.2549484524352 227.89475920104815 0 227.89475920104815 -178.6528129352871 0 0 0 0 26.747935012157939 18.505518097994567 0 18.505518097994567 12.286534827992643 0 0 0 0 -2.8328903633810114 -350.09927821372003 0 -350.09927821372003 720.85890464142722 0 0 0 0 427.83180887773415 -319.44652419585736 0 -319.44652419585736 488.37662371039642 0 0 0 0 -312.46733504970325 256.69284474931646 0 256.69284474931646 -114.0354229359466 0 0 0 0 -292.40355430234922 177.98072480155406 0 177.98072480155406 -176.58611571806432 0 0 0 0 -553.61039404495386 359.48864045057417 0 359.48864045057417 94.996838720850064 0 0 0 0 -1.5899578705562476 -1.0495543048477813 0 -1.0495543048477813 -0.079536376568373868 0 0 0 0 -449.67653222327499 429.62630200068315 0 429.62630200068315 9.0420705095420999 0 0 0 0 -689.40841945807915 538.59233050948023 0 538.59233050948023 -21.278379604100337 0 0 0 0 -537.42858035449171 415.11790099802965 0 415.11790099802965 116.25666875986099 0 0 0 0 -756.46906701607804 365.72413013037476 0 365.72413013037476 150.57987931578646 0 0 0 0 -1095.7878382274212 1044.8096485703281 0 1044.8096485703281 -54.295375728473914 0 0 0 0 -1117.2769554816769 441.09360886048307 0 441.09360886048307 -829.61763967536899 0 0 0 0 -2372.4286025165929 1890.9809408719357 0 1890.9809408719357 -440.02131408678542 0 0 0 0 -3277.8852550934826 243.50554606572405 0 243.50554606572405 -772.17219241061866 0 0 0 0 -567.76492840811261 2266.0899696362903 0 2266.0899696362903 -1923.4512603669373 0 0 0 0 -144.89444960325636 996.8824490356742 0 996.8824490356742 -931.99428142518809 0 0 0 0 93.714535349878133 1446.5332374634863 0 1446.5332374634863 -1310.3007837128753 0 0 0 0 -1059.9476496715506 1674.7283416582395 0 1674.7283416582395 -860.24777986632762 0 0 0 0 -1298.8049637224758 1275.8370780509267 0 1275.8370780509267 -115.61697183057549 0 0 0 0 -618.68927362079557 1210.8877654800699 0 1210.8877654800699 -457.69544395634875 0 0 0 0 -289.57499387866119 932.66097330455159 0 932.66097330455159 -919.16776213307821 0 0 0 0 11.016100647808543 5.0740698595093932 0 5.0740698595093932 1.4767220934707233 0 0 0 0 505.83509160741232 -569.05486301311976 0 -569.05486301311976 -8.2175674537938903 0 0 0 0 -1.7315250537435816 -0.9346150103949924 0 -0.9346150103949924 0.58202280454722555 0 0 0 0 -526.29920101474272 1158.2640370396221 0 1158.2640370396221 -894.20677116420075 0 0 0 0 -21.673672785676899 -207.96487325657836 0 -207.96487325657836 346.6960526245457 0 0 0 0 206.61167410676717 -261.91038783111799 0 -261.91038783111799 127.30777113029308 0 0 0 0 -217.10597883303126 706.07233629373513 0 706.07233629373513 -1088.5436516794414 0 0 0 0 -375.91128023760393 859.86678338322236 0 859.86678338322236 -862.95435598117183 0 0 0 0 -503.41014232521411 685.19828218113344 0 685.19828218113344 -464.41414832421651 0 0 0 0 -365.23770218697609 545.76826014213293 0 545.76826014213293 -829.25144651425694 0 0 0 0 -528.99005198630039 490.18991755590503 0 490.18991755590503 -221.44850589494217 0 0 0 0 -543.875158065508 579.88431576771882 0 579.88431576771882 -455.44283858715244 0 0 0 0 -775.70816092198947 691.32112615880658 0 691.32112615880658 -66.848138571749814 0 0 0 0 -640.0867676732305 678.05483549622227 0 678.05483549622227 -304.96638959120446 0 0 0 0 -615.25986851562629 604.76488526713001 0 604.76488526713001 -146.07758488488116 0 0 0 0 -684.99639252017369 978.10325510130997 0 978.10325510130997 -493.02403124481134 0 0 0 0 -590.71989664150169 800.58005387435333 0 800.58005387435333 -277.45987539677481 0 0 0 0 -521.25502220173075 752.53665408752249 0 752.53665408752249 -691.2458325901498 0 0 0 0 -417.41997048765188 914.02106583420937 0 914.02106583420937 -628.21883959483239 0 0 0 0 -409.30187544141518 968.45206983935009 0 968.45206983935009 -633.56119878210302 0 0 0 0 -720.78687152499333 1047.4290974286059 0 1047.4290974286059 -465.33831303841896 0 0 0 0 -972.03835900209378 892.1711440624249 0 892.1711440624249 11.131301373054157 0 0 0 0 -898.91075174786965 754.41323559841112 0 754.41323559841112 -47.078077107358695 0 0 0 0 -773.23782816964376 570.16346713107782 0 570.16346713107782 178.89461248126827 0 0 0 0 -890.87760111296666 434.23721469892735 0 434.23721469892735 326.58877087697783 0 0 0 0 -755.20596793011646 433.99649652744824 0 433.99649652744824 244.00693747440948 0 0 0 0 -1024.7722528446029 339.44517352313824 0 339.44517352313824 405.1665858410197 0 0 0 0 -912.62692771831644 529.36279653420752 0 529.36279653420752 182.23550074524792 0 0 0 0 -1370.5547740879701 621.54910675986866 0 621.54910675986866 310.34990166368516 0 0 0 0 -1044.9245268489467 985.11561435893054 0 985.11561435893054 -103.18745639923509 0 0 0 0 -1325.8789591940003 1147.9786976943869 0 1147.9786976943869 -182.3103114479818 0 0 0 0 -1715.2115993939806 804.32616609461547 0 804.32616609461547 230.64584710487179 0 0 0 0 -482.4941024780419 352.74460763274828 0 352.74460763274828 243.87150733068574 0 0 0 0 -478.58878128986544 365.21400020224291 0 365.21400020224291 283.57696151506207 0 0 0 0 -725.86989725142485 436.63921588126641 0 436.63921588126641 288.15831797633473 0 0 0 0 -527.48169140888785 298.15350094502213 0 298.15350094502213 267.95558864218378 0 0 0 0 -663.40464681851881 508.09432650141093 0 508.09432650141093 99.407245776853415 0 0 0 0 -735.24656974193931 476.0465010018429 0 476.0465010018429 242.73057474698908 0 0 0 0 -636.7876405536008 421.39533750521559 0 421.39533750521559 213.16582993669272 0 0 0 0 -658.73732693521015 401.00542423086335 0 401.00542423086335 321.86259309194975 0 0 0 0 -716.73828268088982 416.89945587122656 0 416.89945587122656 310.83880162187597 0 0 0 0 -706.28189743560506 421.60526306360953 0 421.60526306360953 177.32945307409136 0 0 0 0 -687.05051225527131 490.13141038224205 0 490.13141038224205 86.176866745705411 0 0 0 0 -742.72201566418516 551.27433233895295 0 551.27433233895295 107.6529304835633 0 0 0 0 -657.76757788355462 560.58354469667529 0 560.58354469667529 -142.55831706455598 0 0 0 0 -725.48437850219489 469.15596534155929 0 469.15596534155929 186.56130875173221 0 0 0 0 -677.39748828791198 470.37676848951287 0 470.37676848951287 -1.2860212897043937 0 0 0 0 -653.79366469578235 503.15293511299774 0 503.15293511299774 -0.45659073202796208 0 0 0 0 -582.81372688963893 485.2100892885187 0 485.2100892885187 -221.16006002714408 0 0 0 0 -660.6382747139869 410.38415488096189 0 410.38415488096189 136.9187030241992 0 0 0 0 -680.12941269828298 348.29994562308184 0 348.29994562308184 215.53953368115981 0 0 0 0 -724.20059416768345 397.54091044974598 0 397.54091044974598 272.94563144468339 0 0 0 0 -714.27803009355921 400.62794772650818 0 400.62794772650818 135.36833685860984 0 0 0 0 -781.9848636235929 342.46775430650587 0 342.46775430650587 335.64707599884423 0 0 0 0 -790.52275803831981 285.2027081408504 0 285.2027081408504 254.90262944890492 0 0 0 0 -754.33144764557073 340.45839500903094 0 340.45839500903094 339.49330169351197 0 0 0 0 -761.84857871150598 350.78640896084653 0 350.78640896084653 335.54238891465138 0 0 0 0 -743.70158761797938 355.95386646978022 0 355.95386646978022 257.31110226093188 0 0 0 0 -731.61273033439647 392.1210976617449 0 392.1210976617449 358.98263952396883 0 0 0 0 -655.49891768212547 381.13723459921493 0 381.13723459921493 282.32834894142707 0 0 0 0 -644.65453354750935 414.06267805929656 0 414.06267805929656 362.48228542931247 0 0 0 0 -681.58898400604812 423.51783516165415 0 423.51783516165415 360.22013643962055 0 0 0 0 -561.38238764570269 352.5665648866725 0 352.5665648866725 321.61940666674218 0 0 0 0 -520.14356747498823 444.92127075763847 0 444.92127075763847 373.81911863742425 0 0 0 0 -493.09652877651388 366.35075640728246 0 366.35075640728246 280.44425482155657 0 0 0 0 -486.2399480882159 391.76679796857206 0 391.76679796857206 336.82798536141127 0 0 0 0 -283.09714347841509 372.12655009857008 0 372.12655009857008 283.23412391917009 0 0 0 0 -270.04699540656293 278.90701434057291 0 278.90701434057291 -109.01655183704656 0 0 0 0 -222.93431402898568 200.64508570436919 0 200.64508570436919 0.19816234119753062 0 0 0 0 -228.50660866696853 182.21032762045161 0 182.21032762045161 -38.545416837915582 0 0 0 0 -133.38198074304091 252.71720784772185 0 252.71720784772185 -105.4720729252806 0 0 0 0 60.790367070021603 170.21173392152355 0 170.21173392152355 -99.347197700364632 0 0 0 0 -382.153639948825 237.86669594232831 0 237.86669594232831 -0.82753259626520048 0 0 0 0 -389.57310173743281 276.568441242098 0 276.568441242098 -44.239176799328561 0 0 0 0 -389.38158586755162 259.2543008008679 0 259.2543008008679 -34.567905216823419 0 0 0 0 -453.1378061104042 340.9547337678473 0 340.9547337678473 -138.85919625074553 0 0 0 0 -588.91620913811494 391.32426686220833 0 391.32426686220833 0.034640291441519366 0 0 0 0 -571.8619018032914 427.03056742540116 0 427.03056742540116 -49.049958303211952 0 0 0 0 -470.80318264296511 332.09353799843734 0 332.09353799843734 -73.873403455904736 0 0 0 0 -602.78641465771943 421.43784598213188 0 421.43784598213188 -48.364421705610198 0 0 0 0 -548.00447558988526 325.46379111424994 0 325.46379111424994 62.968145309294414 0 0 0 0 -678.60911648010369 349.5804500637696 0 349.5804500637696 164.59280593080257 0 0 0 0 -540.3608356147015 290.23150015728788 0 290.23150015728788 61.295566353267532 0 0 0 0 -447.26278962295328 230.96480668598269 0 230.96480668598269 95.281648105102249 0 0 0 0 -620.08192335566855 233.31870580452323 0 233.31870580452323 181.32003931337749 0 0 0 0 -692.5086568477127 302.77803907561974 0 302.77803907561974 239.06941109442869 0 0 0 0 -689.71417012206803 301.03919594109175 0 301.03919594109175 190.86365461449805 0 0 0 0 -537.0851379702508 185.74030154650427 0 185.74030154650427 196.1808719848832 0 0 0 0 -499.43470498044917 38.973548120093596 0 38.973548120093596 113.76252380854021 0 0 0 0 -444.859315395679 186.49699283581944 0 186.49699283581944 31.942221254148535 0 0 0 0 -215.07099380902946 99.064051437144371 0 99.064051437144371 51.970457254737084 0 0 0 0 -452.99980834137386 50.583040617815641 0 50.583040617815641 113.10255662258419 0 0 0 0 -537.7531726654488 -23.027083680999567 0 -23.027083680999567 188.89442630345366 0 0 0 0 -432.33903875516262 -98.377152625653252 0 -98.377152625653252 -85.925893112060294 0 0 0 0 -460.97976262470911 -199.16070396888608 0 -199.16070396888608 118.23318647171982 0 0 0 0 -1005.4556391545848 -141.00893256862673 0 -141.00893256862673 189.96728583615004 0 0 0 0 -863.10619868357026 72.402128449766678 0 72.402128449766678 193.98666627053717 0 0 0 0 -1405.9443852261902 133.67769009285985 0 133.67769009285985 112.30063552077627 0 0 0 0 -1139.0589778529684 -20.21704015935029 0 -20.21704015935029 178.12543709263809 0 0 0 0 -778.82758549394202 250.16690540855052 0 250.16690540855052 310.56636719001108 0 0 0 0 -824.33822782094649 113.14946058613168 0 113.14946058613168 221.34817682520952 0 0 0 0 -1048.9488191774581 198.27193326422275 0 198.27193326422275 309.87432870263729 0 0 0 0 -857.85549976796028 210.55144434673821 0 210.55144434673821 305.5170009825888 0 0 0 0 -911.52369635069044 329.58499036367721 0 329.58499036367721 357.0779377697354 0 0 0 0 -1062.384968735787 382.56499587958024 0 382.56499587958024 316.40107418889966 0 0 0 0 -762.04053094415576 386.89840437016392 0 386.89840437016392 307.03965555004834 0 0 0 0 -419.81088030737737 342.08977916223739 0 342.08977916223739 290.78673508130669 0 0 0 0 -731.40340050245868 345.26325582419668 0 345.26325582419668 332.80258210314059 0 0 0 0 -565.47500381426653 498.63588112740581 0 498.63588112740581 257.04216982698563 0 0 0 0 -343.98179380684451 572.6642982830881 0 572.6642982830881 -80.019295488116768 0 0 0 0 -670.7790285746014 383.56708954497844 0 383.56708954497844 241.67581992315172 0 0 0 0 -970.80938689643517 218.05234857400501 0 218.05234857400501 246.88189878809499 0 0 0 0 -1183.8947741593201 299.68532126652212 0 299.68532126652212 215.9480791371534 0 0 0 0 -712.20532715268928 487.0000753065824 0 487.0000753065824 112.39664474200254 0 0 0 0 -1306.9841196710186 622.34192013749998 0 622.34192013749998 84.377869386553357 0 0 0 0 -1380.1786877639097 139.81535907213402 0 139.81535907213402 92.277895265156985 0 0 0 0 -1451.8828088351147 1188.478208856206 0 1188.478208856206 -1064.1284219353947 0 0 0 0 -2522.3843006231255 50.136767872732889 0 50.136767872732889 -131.73960291523326 0 0 0 0 -473.42124343562318 497.05929710194687 0 497.05929710194687 -579.74775174262686 0 0 0 0 -440.21799101779379 270.70698660634253 0 270.70698660634253 -6.4313274079431721 0 0 0 0 -191.15739258995745 167.20884027304601 0 167.20884027304601 -126.88485437710187 0 0 0 0 -99.539577702315 44.007646658266367 0 44.007646658266367 -595.53967653718428 0 0 0 0 163.270980401001 209.07572337439888 0 209.07572337439888 -1625.6805403540238 0 0 0 0 -20.889246564709424 6.991210475097958 0 6.991210475097958 -0.34560933174068964 0 0 0 0 -2627.490715590422 -532.65587289879477 0 -532.65587289879477 -37.755282667943902 0 0 0 0 -2900.5669476742714 1212.3171558596557 0 1212.3171558596557 -361.00722739123012 0 0 0 0 -844.13586735102581 569.78877302842011 0 569.78877302842011 -1791.8367316550539 0 0 0 0 -770.62938059486623 227.33158923216661 0 227.33158923216661 -239.89134460507194 0 0 0 0 -168.30342218071746 28.065190439900107 0 28.065190439900107 -740.62204365115758 0 0 0 0 -974.52402360103588 -414.2577455671435 0 -414.2577455671435 -202.42886810834534 0 0 0 0 -969.67080839601113 41.384720252855914 0 41.384720252855914 -151.05221024213824 0 0 0 0 -1385.9712893636315 -598.41348675255722 0 -598.41348675255722 -1109.4237511075189 0 0 0 0 -1185.7759045507773 177.2700126334239 0 177.2700126334239 -119.67779039134621 0 0 0 0 173.36093368499132 392.12165976105643 0 392.12165976105643 380.98186315190469 0 0 0 0 -112.45307975861942 112.19870290115159 0 112.19870290115159 36.301066969350813 0 0 0 0 -22.804697633942936 45.280692756047912 0 45.280692756047912 -43.295312598139319 0 0 0 0 -375.11872747853704 148.12355159275285 0 148.12355159275285 38.765078271360835 0 0 0 0 1807.7870873284865 822.33209507789888 0 822.33209507789888 -436.73474330393219 0 0 0 0 211.85363281323953 -59.678225022531478 0 -59.678225022531478 -568.09512069268749 0 0 0 0 -2.4616374144860771 12.942323569550098 0 12.942323569550098 -14.079900543082644 0 0 0 0 80.93107466812944 -135.70003661568808 0 -135.70003661568808 -415.86658897237612 0 0 0 0 -118.9177064184114 229.30619587370529 0 229.30619587370529 -648.3558800541482 0 0 0 0 -148.01623304905661 307.47458816991093 0 307.47458816991093 188.38452035029695 0 0 0 0 531.38834138256789 431.34647191004115 0 431.34647191004115 -53.532202073238295 0 0 0 0 608.924868634218 246.98758538351285 0 246.98758538351285 225.27542154016919 0 0 0 0 -29.416763103334233 573.3427376554755 0 573.3427376554755 249.10599479009943 0 0 0 0 -133.46033207607979 315.02100255991627 0 315.02100255991627 130.13606261169843 0 0 0 0 -323.3923659609427 533.26247121766755 0 533.26247121766755 344.52564843586424 0 0 0 0 766.2125698805612 751.11209096115817 0 751.11209096115817 290.02429457018297 0 0 0 0 431.34536798696081 554.26464698775351 0 554.26464698775351 483.95983429457556 0 0 0 0 389.03308904609003 314.58297012320691 0 314.58297012320691 238.67541651513238 0 0 0 0 307.13165542265051 595.69876613779797 0 595.69876613779797 174.1935458523767 0 0 0 0 90.875458748691017 6.7257346466100785 0 6.7257346466100785 -48.576795947830988 0 0 0 0 -27.667462346858457 53.677657959690336 0 53.677657959690336 -47.261999004477417 0 0 0 0 1438.2631252613282 990.00881757512889 0 990.00881757512889 92.485047122720061 0 0 0 0 73.147019591251592 166.47644077900804 0 166.47644077900804 -157.89306613644658 0 0 0 0 -44.940358724772523 104.24915920218291 0 104.24915920218291 17.621785291647939 0 0 0 0 -63.568268038114184 39.511865496582232 0 39.511865496582232 -166.33519835419338 0 0 0 0 -15.852806773720658 5.3083086070282661 0 5.3083086070282661 20.723059496860198 0 0 0 0 -86.806382400303846 60.114911366502078 0 60.114911366502078 -10.432744817264275 0 0 0 0 -86.743517294817138 59.121684474395984 0 59.121684474395984 -44.404501664224519 0 0 0 0 -72.240354568319162 54.124627350102401 0 54.124627350102401 -66.227014708826118 0 0 0 0 -70.929480252785652 48.000637285351871 0 48.000637285351871 -53.918404827868017 0 0 0 0 -72.180354640244332 63.562778075853203 0 63.562778075853203 -67.151313067819501 0 0 0 0 -18.541384522453882 39.579061349280209 0 39.579061349280209 -69.208258719128025 0 0 0 0 -6.2375352702983946 59.165151964390816 0 59.165151964390816 -82.078796069525197 0 0 0 0 -5.6866237386839202 55.731882757932141 0 55.731882757932141 -59.283398717214368 0 0 0 0 -10.575657750843675 26.20610600344753 0 26.20610600344753 -50.007520747319631 0 0 0 0 -29.916287709852455 55.358198253123462 0 55.358198253123462 -40.192457145342793 0 0 0 0 76.575988414188032 278.74144071632179 0 278.74144071632179 -142.39266586648409 0 0 0 0 126.80450461500004 62.362831234476289 0 62.362831234476289 -95.049876557739481 0 0 0 0 14.891337141452823 39.851202219961124 0 39.851202219961124 -74.169877657810957 0 0 0 0 33.849454145034542 103.89044721841174 0 103.89044721841174 -79.390249494880663 0 0 0 0 -64.972620948006806 46.817174647548654 0 46.817174647548654 2.7790339215953281 0 0 0 0 -115.2699593056459 104.73558196976774 0 104.73558196976774 -38.144437706244389 0 0 0 0 -6.8228844652928728 12.929271566723372 0 12.929271566723372 -2.9742993427918911 0 0 0 0 18.883335906219145 -64.136788070648436 0 -64.136788070648436 158.36499322126883 0 0 0 0 -42.72433576343181 34.693078935937208 0 34.693078935937208 -24.375986872053822 0 0 0 0 -49.351408224401318 60.181440199585083 0 60.181440199585083 -24.2434163189819 0 0 0 0 8.7222005005314713 75.283027397294063 0 75.283027397294063 4.2995117681675765 0 0 0 0 82.932657934710733 98.213054088952049 0 98.213054088952049 10.873498276501778 0 0 0 0 63.489652752097754 135.87667485735074 0 135.87667485735074 -2.029311250342289 0 0 0 0 -34.75327756853693 38.183870554923701 0 38.183870554923701 -9.4575779323926383 0 0 0 0 -26.704959592418163 67.406138154250584 0 67.406138154250584 -68.276819694090591 0 0 0 0 -29.754855378286237 40.862548959924609 0 40.862548959924609 -32.996503813249461 0 0 0 0 -20.021730937369284 61.72876683937011 0 61.72876683937011 -82.550170158871879 0 0 0 0 -33.064297999953851 331.56737274188072 0 331.56737274188072 245.02869868030575 0 0 0 0 -270.50657035599943 434.26804804541098 0 434.26804804541098 330.77949103960054 0 0 0 0 21.485370039197733 426.58773287919576 0 426.58773287919576 214.78740316573021 0 0 0 0 60.862573526137567 322.15395287558249 0 322.15395287558249 283.89017228627199 0 0 0 0 5.8847865102870855 464.52942827231618 0 464.52942827231618 284.17257390834493 0 0 0 0 260.91959767552908 366.97943922770719 0 366.97943922770719 173.11362958183418 0 0 0 0 1141.7054428006086 610.35741614925701 0 610.35741614925701 38.824623253274694 0 0 0 0 263.47789100979571 341.64976683117857 0 341.64976683117857 276.01648366684458 0 0 0 0 587.65395652713778 473.07824929631988 0 473.07824929631988 98.293295048264554 0 0 0 0 530.52455182056292 332.65048654910242 0 332.65048654910242 234.54695802113929 0 0 0 0 812.77511582980515 146.90553776914476 0 146.90553776914476 202.81523601066147 0 0 0 0 434.4221140051668 351.20767487344528 0 351.20767487344528 217.62749385865834 0 0 0 0 153.60467102622351 71.666574929348599 0 71.666574929348599 -51.084089509939076 0 0 0 0 -32.263247415210415 54.609585848402105 0 54.609585848402105 -22.816932308490426 0 0 0 0 507.2993034349638 374.45206361352029 0 374.45206361352029 56.428423914067025 0 0 0 0 452.8755772257573 394.8872188913283 0 394.8872188913283 137.96855356775268 0 0 0 0 339.09615785322967 328.89825447528705 0 328.89825447528705 58.839977405848543 0 0 0 0 425.91865951476939 342.98939339851199 0 342.98939339851199 47.134941127640559 0 0 0 0 447.66291389647085 413.16903559613866 0 413.16903559613866 78.979323763218417 0 0 0 0 265.07939256468671 370.84024060751835 0 370.84024060751835 147.51504655020562 0 0 0 0 437.70697238008142 348.59344682542269 0 348.59344682542269 140.06114295170846 0 0 0 0 404.91229641989048 408.5914260625118 0 408.5914260625118 130.67632760202832 0 0 0 0 20.271604523994029 372.79945967702952 0 372.79945967702952 224.35747491519578 0 0 0 0 268.28603477723664 331.94366929718444 0 331.94366929718444 117.16633572029332 0 0 0 0 347.21590338850365 245.7694222086256 0 245.7694222086256 53.6551092582622 0 0 0 0 101.31981620119768 310.14824042167174 0 310.14824042167174 132.36731769156268 0 0 0 0 86.269485391234412 210.2971851432697 0 210.2971851432697 152.05475468332952 0 0 0 0 -164.70392093335977 221.02133206832627 0 221.02133206832627 188.97834784662064 0 0 0 0 -509.33613312529633 318.06932173815949 0 318.06932173815949 266.79517336352376 0 0 0 0 -198.89856380899437 146.12796460329491 0 146.12796460329491 234.50691835208409 0 0 0 0 -232.48772866121726 266.5908783998384 0 266.5908783998384 229.36108662467859 0 0 0 0 -212.45042512033251 312.01646138689375 0 312.01646138689375 223.70699205325036 0 0 0 0 8.5689016100623121 299.38861819723502 0 299.38861819723502 199.15143455940233 0 0 0 0 -239.92578532834887 375.62792338238523 0 375.62792338238523 276.42078226272179 0 0 0 0 -247.60032899337239 329.14052676769461 0 329.14052676769461 259.68266994577971 0 0 0 0 -895.07186070438183 152.6079585374564 0 152.6079585374564 313.37771851950856 0 0 0 0 -38.411238741246052 30.680005001175232 0 30.680005001175232 6.3418369523678848 0 0 0 0 -225.01716164694517 -77.037946229931549 0 -77.037946229931549 340.27483436478997 0 0 0 0 -803.10027071934019 66.550175857278646 0 66.550175857278646 388.90705447657456 0 0 0 0 -536.07217137512635 221.22479117787236 0 221.22479117787236 304.76875188155651 0 0 0 0 -559.7816054671348 174.0292330296013 0 174.0292330296013 304.52117069253472 0 0 0 0 -155.51451969408663 0.044462312481300614 0 0.044462312481300614 275.78915867719297 0 0 0 0 -139.86695183700431 83.131755824363381 0 83.131755824363381 202.2518100558791 0 0 0 0 481.62403410320985 -100.70635094043428 0 -100.70635094043428 165.93748143784705 0 0 0 0 196.79843925780733 48.351720166719133 0 48.351720166719133 142.99695426633843 0 0 0 0 418.7789498049824 177.68772100212891 0 177.68772100212891 39.077282577177357 0 0 0 0 264.27060568993329 252.62583574699192 0 252.62583574699192 78.244104058542234 0 0 0 0 763.52072395519644 316.69737465555318 0 316.69737465555318 88.759664208328104 0 0 0 0 372.61583232961129 557.36471020030649 0 557.36471020030649 455.29326287738945 0 0 0 0 455.93783854949288 -797.63550340165784 0 -797.63550340165784 788.37617888547538 0 0 0 0 -4.4667479399708725 12.437050744255444 0 12.437050744255444 -2.942948602435246 0 0 0 0 12.939976652809975 23.874158729108181 0 23.874158729108181 -22.587440855521468 0 0 0 0 21.284935846048739 19.46524982644096 0 19.46524982644096 -25.952153818695383 0 0 0 0 7.2463581720949151 43.337530881557541 0 43.337530881557541 -36.98407004128785 0 0 0 0 10.468942416484424 28.887451604849502 0 28.887451604849502 -48.104622313181608 0 0 0 0 -5.27520606252466 36.962310760469954 0 36.962310760469954 -35.0307550710816 0 0 0 0 6.9778251781093843 32.593956536443073 0 32.593956536443073 -9.2831728293952835 0 0 0 0 224.20304487875546 113.49499370871627 0 113.49499370871627 121.90893106220847 0 0 0 0 -16.636083849297734 40.594735361935967 0 40.594735361935967 -7.1334711135335809 0 0 0 0 11.136658590781735 31.441312986707999 0 31.441312986707999 6.358935720360023 0 0 0 0 500.82300739377388 323.78363725926829 0 323.78363725926829 14.991079578418066 0 0 0 0 512.78554561663077 281.21891301376252 0 281.21891301376252 137.48353461661463 0 0 0 0 -57.973948793340242 -36.723653421498966 0 -36.723653421498966 -2.0014606639051635 0 0 0 0 145.40561073807476 65.921329856439115 0 65.921329856439115 -324.28652275193599 0 0 0 0 -105.991185404102 -176.41785797930152 0 -176.41785797930152 -380.73135098830608 0 0 0 0 -740.91282271841192 776.31971758461623 0 776.31971758461623 -888.12814355480805 0 0 0 0 -17.970050614067645 9.0607845638864433 0 9.0607845638864433 -4.0225704921652436 0 0 0 0 -587.1660289169231 666.04972755933341 0 666.04972755933341 -1165.472817209371 0 0 0 0 -0.99119609308843337 7.0686960382551831 0 7.0686960382551831 -11.051803351476337 0 0 0 0 -1560.0129529466649 459.98186003797446 0 459.98186003797446 177.63445248673906 0 0 0 0 -574.05209844128694 649.6800664300099 0 649.6800664300099 -876.86148554172178 0 0 0 0 -555.17225168388177 818.75483449369494 0 818.75483449369494 -1144.3291550977519 0 0 0 0 -524.0794739779376 816.53023755244431 0 816.53023755244431 -1252.405537517403 0 0 0 0 -622.18543707084609 884.95526051007619 0 884.95526051007619 -1220.2934541529539 0 0 0 0 -430.23165717965003 982.67308021660347 0 982.67308021660347 -1047.3410161678476 0 0 0 0 -513.14625041029649 880.14917965104178 0 880.14917965104178 -1153.1631136270389 0 0 0 0 -433.77352283315849 825.61747760696744 0 825.61747760696744 -1206.8403372562752 0 0 0 0 36.801949103923107 94.484998032683507 0 94.484998032683507 -19.238837572018383 0 0 0 0 -34.405203409342519 57.488831950946548 0 57.488831950946548 -39.474488105553036 0 0 0 0 -27.769082413221952 61.508758120813482 0 61.508758120813482 -17.792849616655786 0 0 0 0 57.443710212544829 130.89738537608719 0 130.89738537608719 -16.128251461846958 0 0 0 0 54.640096199137588 100.10247299944604 0 100.10247299944604 -4.2640197880973574 0 0 0 0 49.448748305774643 52.680525295112602 0 52.680525295112602 -4.3370840488653357 0 0 0 0 -18.159093373207725 74.918312893398252 0 74.918312893398252 -32.992600341531215 0 0 0 0 -18.706815720834129 48.039925935052452 0 48.039925935052452 -11.263616834497952 0 0 0 0 -24.150555273405189 60.200574199246148 0 60.200574199246148 -37.292941873070959 0 0 0 0 2.1624002841793724 32.81966700259261 0 32.81966700259261 -36.638104815613374 0 0 0 0 -18.628978012366133 70.596470521179072 0 70.596470521179072 -69.246036484611977 0 0 0 0 -30.116854728941689 62.814058555395604 0 62.814058555395604 -31.992599715951656 0 0 0 0 -0.087593995323985041 41.295929201751733 0 41.295929201751733 -79.322901543314259 0 0 0 0 68.256448410429584 120.97790131827787 0 120.97790131827787 -99.213265430182219 0 0 0 0 -0.3022158960822523 39.370840305519948 0 39.370840305519948 -78.894992250681298 0 0 0 0 124.5270356700139 82.813393205641319 0 82.813393205641319 -283.36686081754306 0 0 0 0 31.504746714090288 46.578326595797989 0 46.578326595797989 -53.997838884743032 0 0 0 0 2.103490209617263 47.65731200783128 0 47.65731200783128 -69.502603599630092 0 0 0 0 21.836987693786796 45.44311422642204 0 45.44311422642204 -596.0176743152042 0 0 0 0 62.31232062984418 132.88693014327873 0 132.88693014327873 -103.7906577098147 0 0 0 0 70.444602150975697 107.73052916500092 0 107.73052916500092 -75.715242929729357 0 0 0 0 -7.9076585566224935 67.550869923283514 0 67.550869923283514 -62.469732410784957 0 0 0 0 14.713837007530941 75.840931201794191 0 75.840931201794191 -85.57063756438771 0 0 0 0 24.354096794989125 85.397112044818755 0 85.397112044818755 -54.135101629872139 0 0 0 0 32.054647324502767 53.93066220313802 0 53.93066220313802 -78.071722476613616 0 0 0 0 6.2028533751931505 4.4782391102879444 0 4.4782391102879444 -12.00593488289995 0 0 0 0 60.774056059581198 511.96570192091167 0 511.96570192091167 154.1587107576197 0 0 0 0 62.503151191418738 134.7799103461748 0 134.7799103461748 -109.83411918851198 0 0 0 0 287.68941767224533 237.33989241303061 0 237.33989241303061 -585.29203441410209 0 0 0 0 -331.28179099403496 -95.4542589384655 0 -95.4542589384655 -127.00380489556119 0 0 0 0 -14.640944706193 43.834866911500924 0 43.834866911500924 -42.523650319750686 0 0 0 0 16.75002471154221 70.977910513371171 0 70.977910513371171 -43.512675213161856 0 0 0 0 39.027772507109788 31.332799674137419 0 31.332799674137419 -110.64476713802003 0 0 0 0 89.552368605916854 118.26632454277296 0 118.26632454277296 -107.69198871712433 0 0 0 0 7.8997678408341017 265.98321154671976 0 265.98321154671976 -221.69422037811091 0 0 0 0 -26.982242688703142 130.02670456597698 0 130.02670456597698 -90.074583654445291 0 0 0 0 -9.9292908599012435 99.348091122754113 0 99.348091122754113 -122.57905068604947 0 0 0 0 5.038996071190212 74.898058913081798 0 74.898058913081798 -51.188405225199247 0 0 0 0 4.9405040998535696 145.10728526303137 0 145.10728526303137 -113.09666929917876 0 0 0 0 -1.2259496343322098 148.31642882362939 0 148.31642882362939 58.528274229785893 0 0 0 0 -52.299511839747026 92.481316300029334 0 92.481316300029334 -26.039929818080612 0 0 0 0 -38.945066272814955 140.16799164429057 0 140.16799164429057 -15.710921488978897 0 0 0 0 15.294258023464863 120.64219514879369 0 120.64219514879369 -18.323045839322731 0 0 0 0 -33.196589885104913 144.5707400526735 0 144.5707400526735 63.754483976023039 0 0 0 0 -120.05335949206008 166.18525569811112 0 166.18525569811112 140.41864998858873 0 0 0 0 -2.3435348490112915 72.077153074453875 0 72.077153074453875 -19.106629391556226 0 0 0 0 8.3307354158823728 73.950716712046415 0 73.950716712046415 -25.39856846787734 0 0 0 0 33.217421719974823 57.865824312810545 0 57.865824312810545 -109.59885785536707 0 0 0 0 23.615719665162032 114.56366227721446 0 114.56366227721446 -21.749282825330738 0 0 0 0 23.875241605448537 115.68469486391405 0 115.68469486391405 -24.090648828365374 0 0 0 0 18.476741977530764 115.14998292358359 0 115.14998292358359 -10.64906349015655 0 0 0 0 -6.2148771194329413 65.058679728197887 0 65.058679728197887 -45.775626945343902 0 0 0 0 8.1434622562337324 47.181250358966878 0 47.181250358966878 -67.681296412674499 0 0 0 0 -10.599312160455156 57.76699910275056 0 57.76699910275056 -8.6383301395762828 0 0 0 0 -2.1243850200553425 42.346383081749082 0 42.346383081749082 13.819291966297897 0 0 0 0 -11.755606728973135 29.055797207062042 0 29.055797207062042 -6.8559061362064995 0 0 0 0 738.64573549865099 939.35055908956019 0 939.35055908956019 305.99422316718847 0 0 0 0 -19.12526132965435 55.098173384621532 0 55.098173384621532 5.1116151478345273 0 0 0 0 -4.5581871409740415 70.686955620752997 0 70.686955620752997 -0.67241166972598876 0 0 0 0 -45.954818587895716 19.435679140733555 0 19.435679140733555 225.73846397321176 0 0 0 0 147.88490560454375 70.543759020772995 0 70.543759020772995 -65.094882481760578 0 0 0 0 -35.876754155761688 50.172724736969947 0 50.172724736969947 61.891935700477688 0 0 0 0 -1.7805307465501414 9.0517385537432205 0 9.0517385537432205 2.9820474053511816 0 0 0 0 -710.94141330770071 63.928530238554231 0 63.928530238554231 207.04709883163741 0 0 0 0 -20.546301068440588 17.342989643099088 0 17.342989643099088 23.663282039960222 0 0 0 0 30.542792142507096 497.70037712599151 0 497.70037712599151 433.93863699077338 0 0 0 0 58.00907778842884 515.69809720769263 0 515.69809720769263 1287.8375673443516 0 0 0 0 706.97826800127336 540.23307641481915 0 540.23307641481915 319.49997243646067 0 0 0 0 -1819.2465864362457 704.50860364620348 0 704.50860364620348 853.70190509437816 0 0 0 0 -565.59812113834778 57.147614983572566 0 57.147614983572566 417.21722635275364 0 0 0 0 -419.52821084379684 581.9284280173124 0 581.9284280173124 523.20075944724158 0 0 0 0 -1742.1776966095204 992.54629568336713 0 992.54629568336713 452.82359295599599 0 0 0 0 -284.42027286838857 1008.5708638582146 0 1008.5708638582146 -1064.6516923210984 0 0 0 0 -280.48179283327772 1255.991850218601 0 1255.991850218601 -715.64283846360922 0 0 0 0 -465.67418830806855 1004.7626560586141 0 1004.7626560586141 -1056.1167323846457 0 0 0 0 -2482.3992083437988 1601.6234965095946 0 1601.6234965095946 -805.94796685954498 0 0 0 0 -499.65315108839422 1333.4064105464131 0 1333.4064105464131 -448.17793136987166 0 0 0 0 -645.53152282313386 1075.8206259576273 0 1075.8206259576273 -816.61935930920299 0 0 0 0 -2112.5302719094325 317.18280717980815 0 317.18280717980815 -429.13467789719266 0 0 0 0 -542.92668209783733 1239.6572081585982 0 1239.6572081585982 -574.3271027602168 0 0 0 0 -257.09326592095022 -24.082204733485923 0 -24.082204733485923 211.31472151019807 0 0 0 0 180.0050580377283 -16.473988542275038 0 -16.473988542275038 -824.29081981383206 0 0 0 0 105.51656019757502 -2.5898027135517623 0 -2.5898027135517623 -431.32547444351076 0 0 0 0 -42.759349718786808 85.268207192143478 0 85.268207192143478 -68.488247402074592 0 0 0 0 -87.289773984331987 103.31385536731977 0 103.31385536731977 36.830896425584797 0 0 0 0 232.28205794955284 476.68609610684416 0 476.68609610684416 -187.50820864403795 0 0 0 0 439.8858675215306 260.76867665702775 0 260.76867665702775 -633.94432541644619 0 0 0 0 -33.075859435033038 128.10407600092958 0 128.10407600092958 -190.77693959775183 0 0 0 0 91.775999307262282 562.4778607926437 0 562.4778607926437 29.815801392542198 0 0 0 0 -664.77941731140891 414.42284725875652 0 414.42284725875652 782.59104502262198 0 0 0 0 -546.96401154124032 -56.676396824324911 0 -56.676396824324911 228.31884998528767 0 0 0 0 -26.17111620525408 43.538624707695625 0 43.538624707695625 26.716571085056557 0 0 0 0 -95.913720224307582 28.520179301595547 0 28.520179301595547 -64.292882905107831 0 0 0 0 -531.91764464658627 -516.31976876932458 0 -516.31976876932458 -1031.3138833700286 0 0 0 0 21.911624313745364 169.949763389635 0 169.949763389635 -97.720303680236981 0 0 0 0 -289.76159810754359 -154.48688930843662 0 -154.48688930843662 112.97426825895673 0 0 0 0 -1481.5282638130811 -163.75939532599295 0 -163.75939532599295 196.32264098047744 0 0 0 0 -8.3418321484107452 9.4020200577809234 0 9.4020200577809234 -12.650853196432195 0 0 0 0 677.07296805029546 664.00475426004778 0 664.00475426004778 189.75903006858425 0 0 0 0 -544.6129279856832 567.96473969965882 0 567.96473969965882 366.80373434530338 0 0 0 0 437.17588128053467 -355.91843452943795 0 -355.91843452943795 -251.58372128437622 0 0 0 0 -792.88394808222256 -165.33098110330684 0 -165.33098110330684 623.7624355123844 0 0 0 0 469.96918404462485 -483.98162483822671 0 -483.98162483822671 -621.21336447336944 0 0 0 0 -446.51682222046111 566.26739836350316 0 566.26739836350316 739.57529553826316 0 0 0 0 -3216.7245348434153 -172.52650333782731 0 -172.52650333782731 24.286577297942131 0 0 0 0 -571.09756069634386 303.03550961807923 0 303.03550961807923 -32.382965428201715 0 0 0 0 -6.9605233096851613 6.5785205155365389 0 6.5785205155365389 -12.80978780877706 0 0 0 0 -1009.214057472338 1098.7186803340519 0 1098.7186803340519 671.46209997878759 0 0 0 0 165.46117160007816 488.63552850131964 0 488.63552850131964 -96.734437999228248 0 0 0 0 -1364.8475124641552 -665.74991755002429 0 -665.74991755002429 163.86191899108235 0 0 0 0 238.06485010147571 974.23142963851933 0 974.23142963851933 530.27397564199055 0 0 0 0 2280.8679586607614 1205.0095131299167 0 1205.0095131299167 543.28065320116002 0 0 0 0 -751.95533043790056 -189.86540991571383 0 -189.86540991571383 85.426445434975903 0 0 0 0 1898.3479413330788 1122.1479792535247 0 1122.1479792535247 638.28239830990788 0 0 0 0 -8.652473325630087 -1.9972259460884985 0 -1.9972259460884985 3.2072259221842501 0 0 0 0 23.800077865184903 89.644332922793183 0 89.644332922793183 -169.38793018530123 0 0 0 0 -310.44832599066103 286.80532776976906 0 286.80532776976906 1272.6396649247617 0 0 0 0 -8.3403913557740132 12.92832239392812 0 12.92832239392812 4.4542546709682256 0 0 0 0 672.19138554806341 563.96163930925832 0 563.96163930925832 621.43324979953468 0 0 0 0 2076.1741050386245 1256.1532449566366 0 1256.1532449566366 -362.78845677262871 0 0 0 0 1471.1229920144215 68.785706861119252 0 68.785706861119252 -101.21059512684587 0 0 0 0 559.1823846064799 -219.13985625481291 0 -219.13985625481291 -921.06711735199679 0 0 0 0 584.8169503014451 1158.2211918543835 0 1158.2211918543835 -1067.0676584622706 0 0 0 0 -595.16441578705508 661.14340751939199 0 661.14340751939199 51.23347622185247 0 0 0 0 -771.91288313922905 188.78148453314134 0 188.78148453314134 411.72267595521407 0 0 0 0 -483.85339262103844 780.89986650115497 0 780.89986650115497 344.50777400948573 0 0 0 0 610.29622256860603 184.49857276162948 0 184.49857276162948 270.88420084332392 0 0 0 0 556.49375100417637 181.15692244187812 0 181.15692244187812 554.07869217367261 0 0 0 0 415.82904039058485 468.02570550021483 0 468.02570550021483 166.35458160399867 0 0 0 0 1105.2562207908786 -78.922818852493947 0 -78.922818852493947 155.20720076636644 0 0 0 0 1758.8099044675073 893.91288173538487 0 893.91288173538487 220.31313339264307 0 0 0 0 -1941.0248014056961 -493.74375541325571 0 -493.74375541325571 213.76377845461684 0 0 0 0 -0.12305913093266696 0.60408737395162859 0 0.60408737395162859 -1.5449810617006392 0 0 0 0 1008.2072334572795 1438.0549465571421 0 1438.0549465571421 -292.83155675852322 0 0 0 0 -1687.4872586466008 1171.0972940377833 0 1171.0972940377833 221.72305926444096 0 0 0 0 -4.1091800491648769 4.9067697653390425 0 4.9067697653390425 -5.2486143818716187 0 0 0 0 -1636.3873317422585 1020.4632255566394 0 1020.4632255566394 -160.47767407228821 0 0 0 0 -1867.2620579561608 441.45819120175292 0 441.45819120175292 33.243400932959048 0 0 0 0 -418.32803197768953 1115.950416359512 0 1115.950416359512 328.33814305907435 0 0 0 0 -680.00096727620621 534.69442510393856 0 534.69442510393856 -778.22678850006196 0 0 0 0 -10.84471584535207 0.91254706176414402 0 0.91254706176414402 7.2808837967671707 0 0 0 0 -800.54411141727815 1526.6510694086173 0 1526.6510694086173 82.158318940855679 0 0 0 0 -663.64126633096021 2024.1850574684431 0 2024.1850574684431 -915.14752295089784 0 0 0 0 -659.35173824271806 711.90773738213466 0 711.90773738213466 -1067.5998843157067 0 0 0 0 -826.60234699826833 16.285339582682354 0 16.285339582682354 858.89877517997229 0 0 0 0 1327.6563245237103 -35.324248597164114 0 -35.324248597164114 -226.2138025624638 0 0 0 0 -1455.7858655612399 808.60743103449204 0 808.60743103449204 346.1849129293696 0 0 0 0 -1162.8190023793322 326.91550268041829 0 326.91550268041829 767.69168066373095 0 0 0 0 -0.045271769953085794 2.9091825182495228 0 2.9091825182495228 10.177823184211888 0 0 0 0 -238.00257324487757 553.46862752495508 0 553.46862752495508 -552.8939201956091 0 0 0 0 -209.4996188599016 267.60396896377642 0 267.60396896377642 -334.70533291745232 0 0 0 0 -374.16666669855476 513.04710806938238 0 513.04710806938238 -62.475148073971468 0 0 0 0 27.0966717340998 163.27170654767906 0 163.27170654767906 -48.498474175474257 0 0 0 0 574.4596852609684 584.12347040382156 0 584.12347040382156 34.102538550650934 0 0 0 0 -63.326073850897956 90.493415236902365 0 90.493415236902365 227.32164208414906 0 0 0 0 -53.375868531154993 148.99542596510946 0 148.99542596510946 -200.65309236165194 0 0 0 0 -35.147447987531166 20.482030806692961 0 20.482030806692961 0.3790214962559304 0 0 0 0 -287.31482514478557 159.19586470921058 0 159.19586470921058 -51.441830464430495 0 0 0 0 -887.52567777487275 1257.3027780051561 0 1257.3027780051561 -1602.7311902627707 0 0 0 0 -13.772431803112482 7.5579619704178356 0 7.5579619704178356 -2.021893589308501 0 0 0 0 -461.43999114097096 -58.203883681882871 0 -58.203883681882871 452.06282905334956 0 0 0 0 -1833.1071671713996 1210.0472335608222 0 1210.0472335608222 -177.64810275399941 0 0 0 0 -1809.1650824974568 743.35199739080417 0 743.35199739080417 169.29019344427797 0 0 0 0 -1243.5094008191154 816.37285323033575 0 816.37285323033575 -168.15763135506063 0 0 0 0 -1341.6060488936419 371.6126353749205 0 371.6126353749205 184.35546101838008 0 0 0 0 -1208.1794788890948 950.44223596499432 0 950.44223596499432 -626.90152406203561 0 0 0 0 -20.044163804532616 -0.40415196888864102 0 -0.40415196888864102 12.347814818632287 0 0 0 0 -1238.5471525531975 1300.3378871107125 0 1300.3378871107125 -279.29923079320724 0 0 0 0 -204.54626825829473 628.9615003791987 0 628.9615003791987 -921.42240169548313 0 0 0 0 -13.095332844228807 -0.32386718025634309 0 -0.32386718025634309 7.3795493372414285 0 0 0 0 -1077.4463302623262 390.22272518205864 0 390.22272518205864 521.42318529276235 0 0 0 0 -1598.6491567473713 1705.3846330574088 0 1705.3846330574088 -746.23937738620953 0 0 0 0 -93.28395441664361 -369.84012537573108 0 -369.84012537573108 178.75302262819605 0 0 0 0 -1757.1871855131922 699.3592951456767 0 699.3592951456767 184.53686304525763 0 0 0 0 -1363.6827345477686 738.92130863999046 0 738.92130863999046 -174.29945509257959 0 0 0 0 -251.55167388168775 688.98083919470082 0 688.98083919470082 -410.21148850025202 0 0 0 0 -237.64732147688119 782.60389817732357 0 782.60389817732357 46.228970875934465 0 0 0 0 -1030.4643119981556 985.55412277977302 0 985.55412277977302 519.86003975797212 0 0 0 0 -467.98024481145876 458.95489662124237 0 458.95489662124237 461.48083377460716 0 0 0 0 -680.47480154527148 1076.3581508961797 0 1076.3581508961797 -66.840636403627286 0 0 0 0 -1445.6255295728479 1869.2289661005634 0 1869.2289661005634 -1355.7224924165894 0 0 0 0 35.635307424963003 182.44938765318045 0 182.44938765318045 -134.35418188297174 0 0 0 0 -469.87642951317684 522.10211230368441 0 522.10211230368441 -100.80203150854504 0 0 0 0 922.41852843511879 -337.08859145252609 0 -337.08859145252609 438.60201835334283 0 0 0 0 42.452535179787418 183.88065373848949 0 183.88065373848949 -138.33758701939661 0 0 0 0 -1393.8404603861636 615.07989592633112 0 615.07989592633112 872.05723491313802 0 0 0 0 -908.63378288920649 781.49502841479989 0 781.49502841479989 119.30797167673154 0 0 0 0 -1194.2732718129118 619.70580581356626 0 619.70580581356626 439.79910708466196 0 0 0 0 -333.55219521260972 1170.336653136219 0 1170.336653136219 712.60495814350725 0 0 0 0 41.126214731077198 32.03229336919685 0 32.03229336919685 1414.2271463935122 0 0 0 0 34.150771757645884 179.9116007492317 0 179.9116007492317 -136.8032093453856 0 0 0 0 -77.811439472605315 21.93259663564838 0 21.93259663564838 4.5074330377462291 0 0 0 0 2.8366258938185638 23.967495843258803 0 23.967495843258803 -1673.9448433642501 0 0 0 0 27.072995468352019 530.70063860981554 0 530.70063860981554 -1980.2555742267577 0 0 0 0 -950.76371589866903 -409.73531213181195 0 -409.73531213181195 -567.4568728422928 0 0 0 0 150.5454758774722 342.92826516282366 0 342.92826516282366 1116.2018244690698 0 0 0 0 629.65601567273552 168.99975785036349 0 168.99975785036349 383.00478471007227 0 0 0 0 159.72333732701372 -158.74156103746009 0 -158.74156103746009 255.92733949834656 0 0 0 0 185.61774385490571 -225.37589738170573 0 -225.37589738170573 359.34731504315278 0 0 0 0 305.41147201826243 -1.2455220651700074 0 -1.2455220651700074 436.90403487878939 0 0 0 0 189.20365014727577 -23.003584926733311 0 -23.003584926733311 547.87893114746112 0 0 0 0 397.90646268850105 375.91272140564251 0 375.91272140564251 844.84513937232987 0 0 0 0 0.38276031021834456 -0.12900588422172632 0 -0.12900588422172632 -0.70760155150993853 0 0 0 0 289.48087497398956 143.43925490364563 0 143.43925490364563 358.99856374868614 0 0 0 0 329.98246732004918 -37.737928008256858 0 -37.737928008256858 777.69004667044828 0 0 0 0 248.96240637226947 193.27872344705429 0 193.27872344705429 551.23055918596219 0 0 0 0 45.194475804035392 88.907379275100766 0 88.907379275100766 515.87023610921824 0 0 0 0 278.93742731877137 -84.0938743259685 0 -84.0938743259685 327.11181177131766 0 0 0 0 481.35554677384789 -449.98463725795227 0 -449.98463725795227 807.54746776575121 0 0 0 0 251.54418866769993 101.47623695463062 0 101.47623695463062 647.4292777120063 0 0 0 0 610.34349338866014 -177.32627989222237 0 -177.32627989222237 351.16279901026428 0 0 0 0 1.4733574585385796 -1.9752255272843371 0 -1.9752255272843371 -18.113625997891091 0 0 0 0 -2618.5686369233154 2397.7207133454831 0 2397.7207133454831 -3590.4762912798687 0 0 0 0 -3535.8525878518667 334.58769212456792 0 334.58769212456792 1419.1102429774328 0 0 0 0 -3573.7818174900476 3265.1330448726485 0 3265.1330448726485 -1678.8863766555769 0 0 0 0 -30.864942208147141 9.3737755022522222 0 9.3737755022522222 -3.4798063133581367 0 0 0 0 -486.89067643466115 2044.9461857470633 0 2044.9461857470633 -3911.9602616369993 0 0 0 0 -1137.1971846878587 43.664175720452477 0 43.664175720452477 1483.2773758602443 0 0 0 0 -327.85996774263913 -355.981935519123 0 -355.981935519123 253.85336153968001 0 0 0 0 -2073.0103233688569 863.46720753532645 0 863.46720753532645 882.47215381729984 0 0 0 0 393.15322443112382 -355.06201370994177 0 -355.06201370994177 454.86935998764966 0 0 0 0 -322.61879431796842 -65.974456019790523 0 -65.974456019790523 424.17684962595013 0 0 0 0 76.269134544498229 -354.00880912884622 0 -354.00880912884622 12.012017633562209 0 0 0 0 -1276.8368716702971 187.56065904280695 0 187.56065904280695 93.543751263950981 0 0 0 0 -617.72915923463006 -262.2762333272949 0 -262.2762333272949 129.51971944541219 0 0 0 0 -2355.0610524912336 472.77543476728533 0 472.77543476728533 84.731856827533193 0 0 0 0 -1285.7418830122369 120.99816379788354 0 120.99816379788354 -284.79387536249124 0 0 0 0 -3039.0864966531808 1986.9000660865913 0 1986.9000660865913 -382.7999056257504 0 0 0 0 -2212.6183755200891 1972.743919398134 0 1972.743919398134 -705.26741039145782 0 0 0 0 -117.65329447550175 1249.8111963940946 0 1249.8111963940946 -1232.2261970833533 0 0 0 0 153.3309603003363 652.47588177749094 0 652.47588177749094 -693.46230302511685 0 0 0 0 500.99437538490747 749.20398711153393 0 749.20398711153393 -1047.7369403732237 0 0 0 0 -73.722570022677246 1748.2616560993074 0 1748.2616560993074 -2071.5832742562216 0 0 0 0 1273.8898123810686 483.6380841251771 0 483.6380841251771 -1376.4549487550394 0 0 0 0 332.07506731591275 281.95588335759112 0 281.95588335759112 -631.02986676040382 0 0 0 0 313.60699258476234 148.38230934060175 0 148.38230934060175 212.89345473124558 0 0 0 0 31.286231345649867 415.00025519765495 0 415.00025519765495 125.11470597294101 0 0 0 0 74.563007781580382 413.79585114281872 0 413.79585114281872 -308.81665897541552 0 0 0 0 -37.190534523811948 543.59036644838989 0 543.59036644838989 -274.65369803940121 0 0 0 0 195.840037561793 646.11757465778919 0 646.11757465778919 -782.43251739619882 0 0 0 0 29.722291995392879 827.15330386820187 0 827.15330386820187 -723.71452119132664 0 0 0 0 -180.01801180558687 494.21269560871315 0 494.21269560871315 -365.56525648957461 0 0 0 0 -172.47171063315182 755.17474669446165 0 755.17474669446165 -539.43560166317275 0 0 0 0 -441.49824642069143 491.46470625372513 0 491.46470625372513 -94.006091733173889 0 0 0 0 -129.9398869454817 325.38242718160109 0 325.38242718160109 291.49064228753014 0 0 0 0 3.4816311663598754 208.72296493418662 0 208.72296493418662 3.3265606114855473 0 0 0 0 -174.39067960374814 408.81766309486648 0 408.81766309486648 124.82906153617841 0 0 0 0 162.26159012877179 230.98692328053858 0 230.98692328053858 221.00127734840771 0 0 0 0 -115.05921218014555 410.0841623138781 0 410.0841623138781 124.58793830569994 0 0 0 0 -1.9924949343380547 -4.1939269596343181 0 -4.1939269596343181 -4.3295287389011534 0 0 0 0 -362.73299909789785 -56.996275803660865 0 -56.996275803660865 204.67453615431077 0 0 0 0 505.10731429194857 398.08568179210488 0 398.08568179210488 184.87045410352948 0 0 0 0 263.81397812124487 227.42988161586254 0 227.42988161586254 39.333522139962042 0 0 0 0 85.963549814370396 151.59227500901977 0 151.59227500901977 -117.22592835454539 0 0 0 0 -75.892587438269402 458.56447770785599 0 458.56447770785599 560.55784618741018 0 0 0 0 73.191490780406951 160.56826021561432 0 160.56826021561432 -130.20363700026834 0 0 0 0 -63.187610998982564 228.64987077135447 0 228.64987077135447 370.72985581086687 0 0 0 0 2.3573672472543876 68.241438261397292 0 68.241438261397292 -3.8835913607314865 0 0 0 0 4.3844017009361167 67.688715085271483 0 67.688715085271483 19.465311150486755 0 0 0 0 467.39025360104279 707.08020096577275 0 707.08020096577275 308.47723488239717 0 0 0 0 302.18496487437005 416.03613322093588 0 416.03613322093588 95.289759827530361 0 0 0 0 127.95488730832585 481.38109337847254 0 481.38109337847254 279.05495266699836 0 0 0 0 16.674594175624357 90.421682626564504 0 90.421682626564504 42.761792621077859 0 0 0 0 -202.32711631422535 182.54098343162559 0 182.54098343162559 38.082533645920194 0 0 0 0 -328.45692397950916 236.10529627328651 0 236.10529627328651 87.856393761258289 0 0 0 0 39.518121397296291 94.585899442665252 0 94.585899442665252 70.137768026829818 0 0 0 0 131.96746253695528 199.2189498151356 0 199.2189498151356 -36.334785258339252 0 0 0 0 -15.608367466091295 194.28506513193133 0 194.28506513193133 88.217284054990159 0 0 0 0 -31.809696978709326 106.64969857724054 0 106.64969857724054 194.56341289493139 0 0 0 0 221.22594313702575 202.9967500116818 0 202.9967500116818 117.59282291496493 0 0 0 0 100.87315345934985 77.171735002707464 0 77.171735002707464 -11.27418731985199 0 0 0 0 6.6763978710587253 49.702089269038879 0 49.702089269038879 62.239411416081566 0 0 0 0 96.549808524228865 65.64961687106279 0 65.64961687106279 -8.296575809146816 0 0 0 0 97.749208621215075 26.449269456328693 0 26.449269456328693 31.134874466184556 0 0 0 0 249.70496864815277 19.95426684182496 0 19.95426684182496 -135.9208063982951 0 0 0 0 -3.4668390257211286 -45.548539517399149 0 -45.548539517399149 -19.225942332121122 0 0 0 0 -220.23421136260731 48.807929414648243 0 48.807929414648243 -52.129631243581571 0 0 0 0 -82.319334600615548 147.60880050264268 0 147.60880050264268 9.4191199673405208 0 0 0 0 148.16096785000991 87.592905549157877 0 87.592905549157877 25.032392057477409 0 0 0 0 277.67576172018744 345.41954244003136 0 345.41954244003136 197.40157769784764 0 0 0 0 118.8763551859447 207.09729073354174 0 207.09729073354174 282.88636751702143 0 0 0 0 152.72900898056105 144.95272212697273 0 144.95272212697273 122.99203564214622 0 0 0 0 157.6100945056387 141.49173685956339 0 141.49173685956339 17.412232791371935 0 0 0 0 152.76911328626738 216.38702584662133 0 216.38702584662133 194.75669435620148 0 0 0 0 116.45335585848079 151.19811377711903 0 151.19811377711903 141.38577166826508 0 0 0 0 42.628745998546947 11.938511623384329 0 11.938511623384329 108.91103294428285 0 0 0 0 11.81910779662212 117.17966565394363 0 117.17966565394363 44.554751118190325 0 0 0 0 42.906570384200677 73.097400473005109 0 73.097400473005109 103.69534996271068 0 0 0 0 14.732408278766393 78.018778637737441 0 78.018778637737441 17.111413373777737 0 0 0 0 -342.30468276827014 173.68755571606198 0 173.68755571606198 -139.72994644285973 0 0 0 0 -448.17558115049178 169.70273858105429 0 169.70273858105429 62.74731296113896 0 0 0 0 -613.15901089768158 485.11845235875899 0 485.11845235875899 -292.48859105413248 0 0 0 0 25.49817795914521 171.76679164811003 0 171.76679164811003 -115.3579635460213 0 0 0 0 -1352.2838856399831 620.05133865904645 0 620.05133865904645 -38.518255490169395 0 0 0 0 -724.46497645720956 457.67469108950354 0 457.67469108950354 -284.228212766453 0 0 0 0 -581.97587354089774 262.69908810028028 0 262.69908810028028 -18.677863372729917 0 0 0 0 39.015771059638404 121.15865148053551 0 121.15865148053551 -20.152020814749434 0 0 0 0 191.26106789828918 225.59843868048483 0 225.59843868048483 44.417317982264649 0 0 0 0 129.81865202607332 236.20259961933812 0 236.20259961933812 120.41746644887098 0 0 0 0 89.355421116139041 539.23514568405517 0 539.23514568405517 319.86802141512453 0 0 0 0 159.61268856294478 134.40819899791234 0 134.40819899791234 -117.41421391001313 0 0 0 0 -114.95020624122117 403.65156278041832 0 403.65156278041832 267.69243871916115 0 0 0 0 10.338616352884799 0.39020274817915634 0 0.39020274817915634 -11.227925602353366 0 0 0 0 -211.59813881406444 48.54534757915826 0 48.54534757915826 140.24375236019114 0 0 0 0 79.418584587358055 252.07956965427002 0 252.07956965427002 484.02496949744818 0 0 0 0 302.44427836805698 159.06662217060511 0 159.06662217060511 94.186507357604569 0 0 0 0 258.83553920528357 236.31640512339436 0 236.31640512339436 80.933931703562848 0 0 0 0 135.99512651228565 126.62756414657218 0 126.62756414657218 -100.70109730494565 0 0 0 0 188.2650928073017 223.574187631727 0 223.574187631727 95.707482108580734 0 0 0 0 111.57017486402944 143.57879944475906 0 143.57879944475906 -123.47889098584369 0 0 0 0 18.713328066081729 41.040510700102999 0 41.040510700102999 44.105545765235064 0 0 0 0 340.58822863794194 310.26101766312422 0 310.26101766312422 117.17683965535252 0 0 0 0 425.72327091258194 434.00754282614071 0 434.00754282614071 -9.4931284815247636 0 0 0 0 27.628866923496076 68.709683331980756 0 68.709683331980756 53.940118745539905 0 0 0 0 438.98600237656501 216.56409854973026 0 216.56409854973026 -6.9106134448735475 0 0 0 0 448.11289619813761 275.09943199465852 0 275.09943199465852 -414.71598118825932 0 0 0 0 204.65820822799287 458.07866081228713 0 458.07866081228713 -7.8322562877438031 0 0 0 0 629.78548859992588 364.91435581224505 0 364.91435581224505 -540.8477361764817 0 0 0 0 436.65458643229795 289.52248610352399 0 289.52248610352399 -352.01409756076464 0 0 0 0 569.65324431553017 402.86920286310487 0 402.86920286310487 -462.20680735851056 0 0 0 0 439.20330936706159 293.54706841613734 0 293.54706841613734 -569.49929056628025 0 0 0 0 -81.932905953683075 469.87853364028706 0 469.87853364028706 -240.62230637200264 0 0 0 0 -94.999831325156265 322.49616875837819 0 322.49616875837819 -751.75296479364624 0 0 0 0 -120.41434248090081 520.88818158064532 0 520.88818158064532 -523.95638913555013 0 0 0 0 517.51475743819174 158.81059551523504 0 158.81059551523504 -620.46997877312242 0 0 0 0 23.787325289595472 50.544516885126512 0 50.544516885126512 -9.9595668906830497 0 0 0 0 1042.5150891816447 377.48549981870747 0 377.48549981870747 -870.45202367048478 0 0 0 0 -881.35836453824595 1043.7329612827161 0 1043.7329612827161 -750.47350833694509 0 0 0 0 -1661.4219061471631 896.84023792893458 0 896.84023792893458 28.117110605671769 0 0 0 0 -135.32080683372351 410.14780821474324 0 410.14780821474324 -230.18548294340144 0 0 0 0 -838.3181141436653 253.4687756352796 0 253.4687756352796 -249.04706095622532 0 0 0 0 -747.93824146707811 862.94671767624095 0 862.94671767624095 -573.2075131861202 0 0 0 0 -341.83585125993704 694.3310155638319 0 694.3310155638319 -1091.8607289233478 0 0 0 0 -16.221209222640027 285.85959068853845 0 285.85959068853845 -714.14099483697282 0 0 0 0 -882.25310339109274 724.039420679248 0 724.039420679248 -378.47196646837256 0 0 0 0 -422.76401298593555 456.35701869484183 0 456.35701869484183 -339.01294696434343 0 0 0 0 -1.0691625344833824 4.0717705925870362 0 4.0717705925870362 -32.144110615221848 0 0 0 0 1232.1744984223042 811.23617474657658 0 811.23617474657658 66.703077616965857 0 0 0 0 512.58878796829958 194.77278868146823 0 194.77278868146823 15.184312019642675 0 0 0 0 531.42258990403934 870.56812389681727 0 870.56812389681727 29.527594900573604 0 0 0 0 -274.71538074387354 -0.13045086602141964 0 -0.13045086602141964 92.368130564398598 0 0 0 0 134.02376880445809 101.25316717565147 0 101.25316717565147 17.605663758236915 0 0 0 0 -124.70678765996126 119.82967449627176 0 119.82967449627176 228.16088029056846 0 0 0 0 16.638153715077351 443.09903971398035 0 443.09903971398035 494.15998082347505 0 0 0 0 -3.9102992754669685 209.83961382252892 0 209.83961382252892 458.12860930440002 0 0 0 0 139.96032203010691 477.73997808243439 0 477.73997808243439 314.8245411191383 0 0 0 0 188.30553645666078 508.12572789312253 0 508.12572789312253 48.086370884411735 0 0 0 0 214.5922986231617 338.25693245653383 0 338.25693245653383 -131.266208912406 0 0 0 0 2.130789687136712 161.04085889461567 0 161.04085889461567 -78.604472460385296 0 0 0 0 -185.18122824006059 425.589898260685 0 425.589898260685 -924.43570378313598 0 0 0 0 -264.37837877903075 426.3174085576029 0 426.3174085576029 -142.3536048580645 0 0 0 0 455.07497668712313 696.7914399312067 0 696.7914399312067 -535.5675392478588 0 0 0 0 -1.0856869977587706 4.8547978122417064 0 4.8547978122417064 -10.299606645771746 0 0 0 0 -870.63035922520066 284.6481352783303 0 284.6481352783303 1024.4559241443058 0 0 0 0 1230.5241067146781 523.64584507227119 0 523.64584507227119 -531.76094639962685 0 0 0 0 866.40114093011653 1119.4181569017383 0 1119.4181569017383 -673.34895246688393 0 0 0 0 601.74906688776537 748.00685858552606 0 748.00685858552606 -38.677669936005259 0 0 0 0 -819.50926913823059 1340.5432352275748 0 1340.5432352275748 2691.9366359281848 0 0 0 0 10.929540007739035 5.568771348560233 0 5.568771348560233 0.21347680812071701 0 0 0 0 -803.41152169100678 200.56132282532781 0 200.56132282532781 -61.497796903557173 0 0 0 0 -0.45343031070024153 4.199061855999922 0 4.199061855999922 -9.9810472525154523 0 0 0 0 1490.183650386818 594.359253666531 0 594.359253666531 -16.471788520182599 0 0 0 0 799.21568402535922 181.46333384398895 0 181.46333384398895 83.281977202330154 0 0 0 0 778.96949631598545 502.2527687271795 0 502.2527687271795 299.9899273828396 0 0 0 0 33.877548121841926 18.007712684907318 0 18.007712684907318 -2.6348269148644228 0 0 0 0 -4.3083704807966114 2.1431596159307276 0 2.1431596159307276 2.5525379659498526 0 0 0 0 -158.3302819787059 295.0022162961759 0 295.0022162961759 13.503980416469858 0 0 0 0 145.0342450895987 168.20721844464424 0 168.20721844464424 -402.56342252279865 0 0 0 0 28.909450228999049 -24.626180679371828 0 -24.626180679371828 141.32503397852997 0 0 0 0 -262.02073169729556 291.08909771789331 0 291.08909771789331 618.20242862695886 0 0 0 0 -27.912184682484849 18.617322018305344 0 18.617322018305344 -3.3675712139493541 0 0 0 0 -5.0613085240038345 275.66196127091825 0 275.66196127091825 -1172.7779506859388 0 0 0 0 278.69495222139085 119.82329060831398 0 119.82329060831398 -1068.1390783810784 0 0 0 0 193.13649690563034 906.81821621677955 0 906.81821621677955 255.88737730374123 0 0 0 0 533.22818959479628 461.6113322466299 0 461.6113322466299 611.47805040689127 0 0 0 0 936.76561327339732 855.81426875906618 0 855.81426875906618 827.10522896241309 0 0 0 0 409.25394269361277 508.78621574127465 0 508.78621574127465 -2764.8115133119536 0 0 0 0 177.97719879407668 596.32789454055455 0 596.32789454055455 1615.8184851370897 0 0 0 0 216.08669789219857 -56.9033533873735 0 -56.9033533873735 542.56306431183839 0 0 0 0 -8.396877285358471 10.102974823471015 0 10.102974823471015 -1.6662022634792102 0 0 0 0 -255.77988564704822 -5.7925343541238306 0 -5.7925343541238306 -1331.7796721673803 0 0 0 0 -243.89481248236552 487.24018771822739 0 487.24018771822739 -990.43072819276131 0 0 0 0 -27.719968280929606 1389.9152572115854 0 1389.9152572115854 -1314.9514019551279 0 0 0 0 -87.437099822287564 1.7902762649464421 0 1.7902762649464421 -487.72423863935546 0 0 0 0 407.35039528917696 -166.66237504804303 0 -166.66237504804303 -567.4454039216871 0 0 0 0 213.88322300980508 70.50754878900625 0 70.50754878900625 -621.52902082615765 0 0 0 0 61.849270023471036 162.17197125223902 0 162.17197125223902 -672.15979543827416 0 0 0 0 -25.275538614368998 121.47867877290992 0 121.47867877290992 -664.61481509610167 0 0 0 0 20.066082511340937 313.06203220602401 0 313.06203220602401 -624.90888321999228 0 0 0 0 -140.8197142911522 435.03878641434858 0 435.03878641434858 -706.89908157586615 0 0 0 0 5.6042037337610964 480.37639796287112 0 480.37639796287112 -683.85725179203655 0 0 0 0 -31.854429312545108 400.95034138218034 0 400.95034138218034 -707.8137838070943 0 0 0 0 -15.759764345255007 161.33070312507016 0 161.33070312507016 -942.77371317773941 0 0 0 0 -36.342615911577013 435.44499315703433 0 435.44499315703433 -760.94503650083789 0 0 0 0 -254.29830490202963 313.81302329179664 0 313.81302329179664 -945.14494778829976 0 0 0 0 -51.129405990664964 293.52834577024623 0 293.52834577024623 -953.75847286028147 0 0 0 0 -470.26038173714187 364.04955039810011 0 364.04955039810011 95.302913941253792 0 0 0 0 -765.1567833085428 528.75652775274648 0 528.75652775274648 33.004838486813242 0 0 0 0 -129.32860120097757 307.62694193338393 0 307.62694193338393 85.668615708018478 0 0 0 0 -126.21920674959256 12.91288402356804 0 12.91288402356804 386.31015538284555 0 0 0 0 -4.3803276389988923 5.8439459804533556 0 5.8439459804533556 -3.5137578246641397 0 0 0 0 49.177719792140124 591.25221187232637 0 591.25221187232637 341.00011262032785 0 0 0 0 -906.57154408426868 782.52733572227407 0 782.52733572227407 106.28521261710557 0 0 0 0 -346.06461144180503 399.74166881271231 0 399.74166881271231 347.25738854715746 0 0 0 0 -746.67147059850686 254.14354538339103 0 254.14354538339103 857.32343251742714 0 0 0 0 -525.18152635691513 356.09567493012219 0 356.09567493012219 344.08865189811331 0 0 0 0 -507.37237681013357 352.50006402459258 0 352.50006402459258 91.839978352363687 0 0 0 0 -250.13870574950124 289.85412305877981 0 289.85412305877981 98.726753534254385 0 0 0 0 -65.277222796197748 519.85938413249096 0 519.85938413249096 280.44917256152166 0 0 0 0 -337.55318861735941 387.56416406957032 0 387.56416406957032 288.38287565621431 0 0 0 0 311.47735890980402 170.54166672257998 0 170.54166672257998 -36.656813137014979 0 0 0 0 205.80737662354659 597.43784132307337 0 597.43784132307337 -37.937551219813002 0 0 0 0 858.46258699144528 -15.6593044236688 0 -15.6593044236688 43.583048370492179 0 0 0 0 265.43258588181925 428.65813037962653 0 428.65813037962653 439.62057079298393 0 0 0 0 843.19193704436475 694.58246116520604 0 694.58246116520604 91.911026938563737 0 0 0 0 395.48094153045531 113.44998635994125 0 113.44998635994125 108.38155508195632 0 0 0 0 -3.947393262741798 13.559245148378601 0 13.559245148378601 -23.78738391880978 0 0 0 0 903.12705842916603 1505.88387731991 0 1505.88387731991 -833.45652092189994 0 0 0 0 -183.82307943919295 1169.9122367403343 0 1169.9122367403343 1113.0095577742904 0 0 0 0 655.45263839520339 -601.94483590594609 0 -601.94483590594609 203.71331006989203 0 0 0 0 900.47324262675829 282.5993300873597 0 282.5993300873597 -1182.2547748567886 0 0 0 0 1544.1908114822363 -96.987968150417146 0 -96.987968150417146 -968.86821687004704 0 0 0 0 -0.77734777750858086 5.6794054706458326 0 5.6794054706458326 -16.167056880901839 0 0 0 0 -749.02951874680002 736.58396532174811 0 736.58396532174811 -22.832361012831825 0 0 0 0 -546.29047754874773 602.55955141840241 0 602.55955141840241 238.00265063368715 0 0 0 0 -234.843619049876 215.06209547663457 0 215.06209547663457 313.20396970526781 0 0 0 0 -296.02640154102846 977.7540827356388 0 977.7540827356388 -917.31739415776974 0 0 0 0 -366.00624747089751 591.50249083934978 0 591.50249083934978 -520.09771667457244 0 0 0 0 -289.3532266715265 730.71615781685978 0 730.71615781685978 -453.29686212801607 0 0 0 0 -273.76293284033636 652.14958485202988 0 652.14958485202988 -778.69766610511579 0 0 0 0 5.0803943765966437 -0.36072763791980833 0 -0.36072763791980833 -17.639763326991499 0 0 0 0 -365.95943581590109 448.77007512045748 0 448.77007512045748 -452.48808161870693 0 0 0 0 -966.1248223411967 198.27924109926244 0 198.27924109926244 -498.68324488714279 0 0 0 0 325.48176567112023 -51.445949496759567 0 -51.445949496759567 -812.17434651318035 0 0 0 0 -93.03784210376034 480.40547395667818 0 480.40547395667818 -1053.2406911373255 0 0 0 0 3.6968299366965596 -2.9602520693325403 0 -2.9602520693325403 -22.444475465499181 0 0 0 0 -375.9645004210106 86.047382313037815 0 86.047382313037815 55.136746299171136 0 0 0 0 121.27122670157405 786.0936491045577 0 786.0936491045577 -1149.0306934059336 0 0 0 0 -403.4706208715038 760.47237706225405 0 760.47237706225405 -234.85676593246171 0 0 0 0 -159.20436497572518 453.26504793429194 0 453.26504793429194 -27.112055340890947 0 0 0 0 -166.32177177709309 450.94427619726957 0 450.94427619726957 59.290027873037616 0 0 0 0 -79.305141320932307 1084.6363264100946 0 1084.6363264100946 -1490.6460031876768 0 0 0 0 291.42185530360439 1112.4152473422582 0 1112.4152473422582 -1492.1090528820932 0 0 0 0 85.472886445990298 1316.1620278311893 0 1316.1620278311893 -1497.0179514783231 0 0 0 0 -90.956029254273744 971.34894698380231 0 971.34894698380231 -1078.7312442330731 0 0 0 0 -565.02260025560099 1260.4226111449607 0 1260.4226111449607 -1218.5522376471199 0 0 0 0 -14.46656508295564 1476.2458432279818 0 1476.2458432279818 -2999.063270351442 0 0 0 0 -0.35917214674540787 -1.8025189707749121 0 -1.8025189707749121 -10.315548547427966 0 0 0 0 1105.7520761119376 -478.87017369215755 0 -478.87017369215755 -200.60016183378139 0 0 0 0 717.71913978725206 614.66804573914123 0 614.66804573914123 -943.41085001228203 0 0 0 0 -655.09971669051447 2436.2200071953412 0 2436.2200071953412 -2257.1117369729327 0 0 0 0 0.66938921245099436 8.4429111062263473 0 8.4429111062263473 -0.28446935056260259 0 0 0 0 -989.94826011389523 1799.7880985668726 0 1799.7880985668726 -3289.5184983109211 0 0 0 0 -138.5120941442583 897.76036861927423 0 897.76036861927423 115.7830095293757 0 0 0 0 -4.2552776975207962 1309.0768807567765 0 1309.0768807567765 -264.39451049428317 0 0 0 0 196.42273868015036 819.622424200963 0 819.622424200963 -911.74912658271205 0 0 0 0 19.243147476438025 529.34389625210679 0 529.34389625210679 -513.28237650319352 0 0 0 0 125.1696590219799 785.57669545880344 0 785.57669545880344 -300.92483939620433 0 0 0 0 -666.93829489369091 593.18428372574272 0 593.18428372574272 -1030.9120752240196 0 0 0 0 115.6190334703424 349.31825078473048 0 349.31825078473048 -467.03730965370778 0 0 0 0 143.06478456303012 420.75540958464262 0 420.75540958464262 -377.40720985732332 0 0 0 0 93.96779583094758 313.78283016321075 0 313.78283016321075 -241.09583739667141 0 0 0 0 64.018293900269782 301.47341467239312 0 301.47341467239312 -275.32157411548542 0 0 0 0 98.904073803513711 397.22438331510784 0 397.22438331510784 -370.81912116528838 0 0 0 0 47.035154648881871 344.79130935083958 0 344.79130935083958 -306.38926463463577 0 0 0 0 27.492127284276648 424.99256764211168 0 424.99256764211168 -433.4152638000196 0 0 0 0 57.885492007917492 308.39756274942192 0 308.39756274942192 -427.22582560906812 0 0 0 0 14.421410010152613 337.53764457488433 0 337.53764457488433 -413.59559893945698 0 0 0 0 31.607373165694298 392.21006073896569 0 392.21006073896569 -536.11177622381365 0 0 0 0 65.932820423826342 355.18397487762559 0 355.18397487762559 -411.59924102357763 0 0 0 0 75.273752494278597 447.78795575939876 0 447.78795575939876 -484.63922623897088 0 0 0 0 15.821100351997302 416.29058062261902 0 416.29058062261902 -501.2615741227637 0 0 0 0 16.175188097839452 485.62092861623387 0 485.62092861623387 -564.60143998573767 0 0 0 0 76.926466162505676 425.66336981122731 0 425.66336981122731 -574.6208685132151 0 0 0 0 -69.814848742011236 458.43616408711387 0 458.43616408711387 -575.36050784261897 0 0 0 0 24.846239812824933 405.57051482447423 0 405.57051482447423 -481.06251885052188 0 0 0 0 143.34962281896151 360.52483941318496 0 360.52483941318496 -607.84197693852184 0 0 0 0 73.547870911628706 353.61686900248969 0 353.61686900248969 -446.29816763513372 0 0 0 0 256.25540013132559 206.65791928768158 0 206.65791928768158 -693.56839030679112 0 0 0 0 344.6275519257797 377.3872746876259 0 377.3872746876259 -418.09918737251428 0 0 0 0 205.58599255820445 382.29508373339922 0 382.29508373339922 -413.05837450630497 0 0 0 0 250.53705076540064 395.30843394927797 0 395.30843394927797 -281.36788881206303 0 0 0 0 169.1262258984716 347.63255318668598 0 347.63255318668598 -37.729261561136809 0 0 0 0 176.72268559712757 260.25117366683844 0 260.25117366683844 -403.80652404308785 0 0 0 0 177.79476540119504 232.8347794636793 0 232.8347794636793 -91.556992754471139 0 0 0 0 176.36098203465735 344.67260116508623 0 344.67260116508623 89.680057284829672 0 0 0 0 220.6939003957159 220.60392736961148 0 220.60392736961148 56.137099232262699 0 0 0 0 301.24097397871083 243.72598480417219 0 243.72598480417219 62.42567365643481 0 0 0 0 306.49598135517772 346.50208139645656 0 346.50208139645656 81.370954564859858 0 0 0 0 -350.07311587303411 1088.7647758106032 0 1088.7647758106032 -218.55801231715304 0 0 0 0 -3.831191766235122 10.03313329661637 0 10.03313329661637 -3.1702575083956361 0 0 0 0 -223.8841024726571 483.66557022588313 0 483.66557022588313 1212.8533373294194 0 0 0 0 -132.42599056131439 991.49630144788534 0 991.49630144788534 -2554.7106814222789 0 0 0 0 -74.569012640364235 811.01341904306901 0 811.01341904306901 -2252.5121289003 0 0 0 0 -358.46918028949585 149.29068666382955 0 149.29068666382955 23.284044653039018 0 0 0 0 5.0378900130745023 103.45025353785604 0 103.45025353785604 577.71807519433787 0 0 0 0 -7.026539450870132 16.318153640486571 0 16.318153640486571 -2.1359369509654371 0 0 0 0 -145.3282574112236 67.586569723935099 0 67.586569723935099 -67.141295722467476 0 0 0 0 -209.44460633829294 57.127154605128453 0 57.127154605128453 74.913011408578313 0 0 0 0 -4.5088468320027459 228.34488539374433 0 228.34488539374433 540.20583897778852 0 0 0 0 30.179670565092238 -38.753989611388533 0 -38.753989611388533 -5.1942390251642792 0 0 0 0 141.84662424663838 182.66704565819964 0 182.66704565819964 50.863160389446421 0 0 0 0 141.07997220518882 390.3655585719971 0 390.3655585719971 326.21969427433214 0 0 0 0 97.687845571024809 80.213167375739431 0 80.213167375739431 223.27841031552816 0 0 0 0 126.84879917209037 4.9447053672629409 0 4.9447053672629409 176.10062346642371 0 0 0 0 73.108193185085838 156.14030974662455 0 156.14030974662455 62.863773092045449 0 0 0 0 116.48214004235342 24.154300694295671 0 24.154300694295671 95.699757859300007 0 0 0 0 239.74998602661071 63.669304078444839 0 63.669304078444839 104.36479222739581 0 0 0 0 105.91324010057724 257.81910591453197 0 257.81910591453197 66.991024080576608 0 0 0 0 177.34812085577869 298.56804713174643 0 298.56804713174643 -252.80730323839816 0 0 0 0 137.26370650346507 205.49042243913573 0 205.49042243913573 -105.54428708145861 0 0 0 0 86.23530949675478 299.45066216461419 0 299.45066216461419 -106.2355972759251 0 0 0 0 126.78072140165023 338.27339084471896 0 338.27339084471896 -40.520184420485748 0 0 0 0 -14.407115785419592 91.435718696156982 0 91.435718696156982 -175.61385368755145 0 0 0 0 17.899206049594795 229.69895537538105 0 229.69895537538105 -236.47687217537896 0 0 0 0 37.645454498459003 204.58479276523576 0 204.58479276523576 -390.96726044864045 0 0 0 0 46.39841491705738 234.47926657827338 0 234.47926657827338 -321.04161531372301 0 0 0 0 109.30350628707674 304.19878655203502 0 304.19878655203502 -280.00477670517284 0 0 0 0 80.980701364169363 227.25174875889206 0 227.25174875889206 -189.72972192271845 0 0 0 0 43.842395062296418 261.8266583156219 0 261.8266583156219 -160.29951068534865 0 0 0 0 24.365153903781902 147.92355036415393 0 147.92355036415393 -101.31255898845848 0 0 0 0 6.8509436477615964 167.59643462249369 0 167.59643462249369 -111.77638377377298 0 0 0 0 95.846181997214444 127.50907910603564 0 127.50907910603564 -30.321972939414991 0 0 0 0 71.440734475414502 240.86872589969425 0 240.86872589969425 -38.353476011543535 0 0 0 0 35.699893269396853 84.368489323765971 0 84.368489323765971 -16.839830026088748 0 0 0 0 57.765164618671406 181.07742165164382 0 181.07742165164382 -68.735984143218957 0 0 0 0 101.23765539686428 109.85251904447796 0 109.85251904447796 -7.9620981137850322 0 0 0 0 35.367703755211551 129.27668562874896 0 129.27668562874896 -137.94776886480395 0 0 0 0 25.18145962478593 3.5864103569183499 0 3.5864103569183499 -89.03436171944486 0 0 0 0 2.0273988863482373 141.30590559682605 0 141.30590559682605 -254.4578189731983 0 0 0 0 58.775656837557108 35.548987958964972 0 35.548987958964972 -1.0846485789661529 0 0 0 0 -4.8439585930282476 8.9138188664856273 0 8.9138188664856273 -0.064744603630138897 0 0 0 0 -1.3971527429464459 15.089923629209409 0 15.089923629209409 1.4004273008634129 0 0 0 0 -40.899049059604295 -29.806087179516908 0 -29.806087179516908 151.97908046771772 0 0 0 0 -0.51746327751183685 1.2573924664304741 0 1.2573924664304741 -0.7839347186958463 0 0 0 0 -17.767900195962284 75.324716816132423 0 75.324716816132423 491.22087778686546 0 0 0 0 -6.1160571345414212 12.699690959501567 0 12.699690959501567 -2.6018590266319563 0 0 0 0 -0.23661202398943715 18.705473814537982 0 18.705473814537982 17.158738742808055 0 0 0 0 -43.278386078396579 23.295338245137827 0 23.295338245137827 40.130788653048512 0 0 0 0 -21.850017234915867 98.245920165558346 0 98.245920165558346 -38.659164148280979 0 0 0 0 -12.583715670523816 7.0529899369503255 0 7.0529899369503255 32.742974072636571 0 0 0 0 7.1097695869305539 10.98430826094804 0 10.98430826094804 0.55383542010747533 0 0 0 0 -111.58813953903154 23.540038823790383 0 23.540038823790383 57.338260416698176 0 0 0 0 -16.072067508819515 18.479838078420556 0 18.479838078420556 -3.1146105399999158 0 0 0 0 -0.87800762750819672 6.4332438167879502 0 6.4332438167879502 -2.3712468475730759 0 0 0 0 19.506865910298075 191.1484396092419 0 191.1484396092419 -981.29438438724901 0 0 0 0 -91.583774861130223 295.73208251668257 0 295.73208251668257 -674.14513090674882 0 0 0 0 -105.32277721147693 301.60879539669259 0 301.60879539669259 -834.5536725831189 0 0 0 0 -79.416734646612895 328.17221630766289 0 328.17221630766289 -848.06935165197501 0 0 0 0 -57.408080994297052 121.0800859366791 0 121.0800859366791 -169.66541278059594 0 0 0 0 -4.4622047767334152 30.130387222801801 0 30.130387222801801 -330.08401629365108 0 0 0 0 -4.8509580408863258 60.315606682706857 0 60.315606682706857 -732.03676399221877 0 0 0 0 -53.241089498944348 328.80861295596696 0 328.80861295596696 -667.43194602815493 0 0 0 0 -9.3744437193672638 299.09459728111688 0 299.09459728111688 -648.36561771918787 0 0 0 0 16.699968023400288 253.86315747568733 0 253.86315747568733 -506.59532918361947 0 0 0 0 -11.702465990267228 285.42129632861179 0 285.42129632861179 -465.83708739925351 0 0 0 0 16.947716147376923 316.88517620353377 0 316.88517620353377 -536.36679506790824 0 0 0 0 -21.899647806247231 409.21423751914699 0 409.21423751914699 -505.8804431965109 0 0 0 0 -21.696001099480782 472.23440574793494 0 472.23440574793494 -521.93889012314321 0 0 0 0 -19.652640206741125 409.29043188378091 0 409.29043188378091 -628.52217425382696 0 0 0 0 -74.571311797961243 452.55766849986685 0 452.55766849986685 -580.80115367264079 0 0 0 0 -65.901936701557133 379.70567206735723 0 379.70567206735723 -574.28794458589982 0 0 0 0 -64.228100663342047 387.92675875987334 0 387.92675875987334 -721.69074425318104 0 0 0 0 -125.92238755410654 351.17318593633536 0 351.17318593633536 -751.75871099065989 0 0 0 0 -111.16695100237121 419.71583949586056 0 419.71583949586056 -768.14195702510187 0 0 0 0 -119.62181480040454 407.84035710722674 0 407.84035710722674 -652.748668593209 0 0 0 0 -71.115412240018486 451.1980867421953 0 451.1980867421953 -694.23226026631892 0 0 0 0 -129.00792994734365 489.91864340064058 0 489.91864340064058 -623.38648539179121 0 0 0 0 -156.39953928951581 515.10788299066189 0 515.10788299066189 -572.56086852200679 0 0 0 0 -83.324426728970138 480.50165318892687 0 480.50165318892687 -624.21059378176869 0 0 0 0 -86.425490672940214 488.50900461573292 0 488.50900461573292 -587.48906186272507 0 0 0 0 6.5674656748888083 465.49497314050677 0 465.49497314050677 -596.33197624233071 0 0 0 0 -29.455653701712436 489.56327415538544 0 489.56327415538544 -591.48837882961379 0 0 0 0 -29.758981954923001 454.05660615621855 0 454.05660615621855 -551.07603514497168 0 0 0 0 -33.089257283951156 478.70821648083802 0 478.70821648083802 -621.66723756054125 0 0 0 0 -344.87445349285053 462.99075227994399 0 462.99075227994399 -462.75072302440822 0 0 0 0 -321.62544677262485 573.60875658365694 0 573.60875658365694 -598.98559491839114 0 0 0 0 -132.00930088651148 515.67275074026293 0 515.67275074026293 -787.15296155682881 0 0 0 0 -165.3293030247587 442.61449659090431 0 442.61449659090431 -506.82871418489958 0 0 0 0 -86.997986599737487 414.93798636893189 0 414.93798636893189 -821.63046676068916 0 0 0 0 -125.43961670313729 407.07047458889429 0 407.07047458889429 -774.03148823619813 0 0 0 0 -575.04277656933118 731.68495121439628 0 731.68495121439628 -695.44371333139861 0 0 0 0 -106.06268034901586 507.06533910818689 0 507.06533910818689 -1230.8155572773467 0 0 0 0 -48.511673707951559 230.24444943945855 0 230.24444943945855 -1059.7770142369409 0 0 0 0 45.748824590162258 160.97963450498355 0 160.97963450498355 -975.38286326357047 0 0 0 0 -59.967954675379588 278.46878177636609 0 278.46878177636609 -971.45236089819809 0 0 0 0 -132.60400695462158 224.59233684229548 0 224.59233684229548 -969.94682866611402 0 0 0 0 -92.351550077488355 365.09143301130098 0 365.09143301130098 -931.64169467467582 0 0 0 0 221.5321684799128 81.079356969872606 0 81.079356969872606 74.50365979536582 0 0 0 0 -104.31547793374557 -70.66094919896932 0 -70.66094919896932 5.6008670702576637 0 0 0 0 -10.681863496120485 14.924188269213829 0 14.924188269213829 -6.5425290952037756 0 0 0 0 170.95809840150469 179.31569954092265 0 179.31569954092265 -115.2383896583633 0 0 0 0 644.31854203405237 186.02686295531748 0 186.02686295531748 -116.13538064142904 0 0 0 0 72.794432899398089 549.11951988696092 0 549.11951988696092 697.51514519802004 0 0 0 0 -453.8451321124594 1255.067295834524 0 1255.067295834524 -248.56093975959084 0 0 0 0 -820.13496752232459 1401.9832188596483 0 1401.9832188596483 -680.33941210568628 0 0 0 0 -349.45886656009679 1430.2110569664146 0 1430.2110569664146 -1235.4623175132001 0 0 0 0 -818.51170943860416 1072.1166085436489 0 1072.1166085436489 -1454.633501893979 0 0 0 0 -793.67350811077995 1205.3862265191201 0 1205.3862265191201 -1258.2113130625748 0 0 0 0 -967.37674890997368 1072.5855874835179 0 1072.5855874835179 -959.49012565321755 0 0 0 0 -117.55723393963854 619.8339186612684 0 619.8339186612684 -2666.0699138628261 0 0 0 0 -2.5140788787628026 8.6071167721908637 0 8.6071167721908637 -4.327431732326545 0 0 0 0 988.59991490860739 173.92182888215029 0 173.92182888215029 -599.50487524495293 0 0 0 0 5.095143706052589 7.7416410410349386 0 7.7416410410349386 5.6371401522762312 0 0 0 0 -245.41817683607951 445.84382217017992 0 445.84382217017992 -509.2826315587663 0 0 0 0 -1196.0031082043279 908.79621036393655 0 908.79621036393655 -1327.3591267340962 0 0 0 0 -1536.8527578916692 858.9394515148233 0 858.9394515148233 -1082.0913468048093 0 0 0 0 -624.84141091909078 601.55154354354454 0 601.55154354354454 -250.49260297622823 0 0 0 0 18.065036274170936 17.826317940051752 0 17.826317940051752 9.2808923070087985 0 0 0 0 -408.05926652196467 669.00495942313319 0 669.00495942313319 -328.66166369355051 0 0 0 0 -604.49866072304712 721.52271250143622 0 721.52271250143622 -342.43034221038397 0 0 0 0 -427.08209570578038 729.02747042295232 0 729.02747042295232 -409.35151785537801 0 0 0 0 369.08512413816607 928.95102026443055 0 928.95102026443055 -385.6436906674935 0 0 0 0 -415.64938611945763 853.97462057775556 0 853.97462057775556 3.9633986753760837 0 0 0 0 -585.17164571940521 501.56880994802668 0 501.56880994802668 -418.98760896448221 0 0 0 0 -569.17867830257092 568.45215893811837 0 568.45215893811837 -139.78808845666936 0 0 0 0 -461.40371758166293 476.72932302684785 0 476.72932302684785 -290.99310985130433 0 0 0 0 -602.74018450772201 493.97252906557696 0 493.97252906557696 -313.73937381268479 0 0 0 0 -608.46050182464023 497.94027477303462 0 497.94027477303462 -287.86492104479839 0 0 0 0 -454.09139793293514 607.41530020810978 0 607.41530020810978 -104.6933238102647 0 0 0 0 -392.57163518916423 375.10070585822541 0 375.10070585822541 -191.93720288363693 0 0 0 0 24.191862261000765 22.524914793611885 0 22.524914793611885 13.99214244963423 0 0 0 0 -519.0932013483216 557.59720498901879 0 557.59720498901879 -880.77994711934844 0 0 0 0 -668.04434256019522 480.90628838907287 0 480.90628838907287 -266.12686580675654 0 0 0 0 -667.98358361616374 440.14860284128008 0 440.14860284128008 -155.6931158737425 0 0 0 0 -650.68018415360712 584.73950970851729 0 584.73950970851729 -256.24354644037157 0 0 0 0 -711.78723085170077 691.22663776449008 0 691.22663776449008 -426.26838169252733 0 0 0 0 -687.69213851557697 562.12603462548304 0 562.12603462548304 -251.28472098633938 0 0 0 0 -923.82937477103769 839.97408821954741 0 839.97408821954741 -271.19261463674229 0 0 0 0 -436.1420603782135 548.11958573899756 0 548.11958573899756 -553.26407949757413 0 0 0 0 -388.93250711885776 483.60233813014929 0 483.60233813014929 -579.26953121113547 0 0 0 0 -482.93576395142918 661.94072944964137 0 661.94072944964137 -656.18600858957507 0 0 0 0 -525.63940131811887 761.65399394144697 0 761.65399394144697 -854.23956252422067 0 0 0 0 -582.70989514846224 807.30946691097779 0 807.30946691097779 -767.87744210301025 0 0 0 0 -314.73377341165724 516.15254045766051 0 516.15254045766051 -682.38515361075406 0 0 0 0 -402.39981085465843 781.78475931223511 0 781.78475931223511 -1273.1668975802604 0 0 0 0 -1.3349580543413992 8.0755445077545289 0 8.0755445077545289 -0.80259201217425868 0 0 0 0 -527.31994796479921 884.6961546245002 0 884.6961546245002 -715.60286248096054 0 0 0 0 -354.69506912152065 710.24261493451195 0 710.24261493451195 -210.65703847432997 0 0 0 0 -654.25936461465744 891.95471512740914 0 891.95471512740914 -527.89630694950756 0 0 0 0 8.5346877086041886 16.442270551614058 0 16.442270551614058 15.603883216948702 0 0 0 0 213.44149626276158 178.33113609979773 0 178.33113609979773 119.55487999624165 0 0 0 0 -937.52505301017663 570.18441658232041 0 570.18441658232041 -1170.6386561277104 0 0 0 0 -1228.7241910139974 1255.9622885675626 0 1255.9622885675626 -836.34949478591443 0 0 0 0 -655.33811460281322 1058.5913022619497 0 1058.5913022619497 -910.16457293543499 0 0 0 0 -832.81267733273489 801.70497309272469 0 801.70497309272469 -697.84262527839746 0 0 0 0 -166.02907796565887 900.06555245578056 0 900.06555245578056 -782.10629155114293 0 0 0 0 -1961.8377496635912 1510.4024674436369 0 1510.4024674436369 -285.39053148146195 0 0 0 0 -1797.7157698326855 890.10674734684198 0 890.10674734684198 -137.36153418599861 0 0 0 0 -1676.9466927960748 1295.4237641964792 0 1295.4237641964792 -185.43589147155581 0 0 0 0 -1404.0749973931183 42.912594837531287 0 42.912594837531287 484.97169072633551 0 0 0 0 -11.363677075894316 2.4040861880497175 0 2.4040861880497175 -1.0816154643120726 0 0 0 0 -1173.4628885474958 1296.8996531934681 0 1296.8996531934681 -1407.3365183702845 0 0 0 0 -26.714925108833626 22.242086313591017 0 22.242086313591017 6.022416560501842 0 0 0 0 -109.29826482253702 162.76265092834365 0 162.76265092834365 52.485553416704533 0 0 0 0 -116.25834807257343 52.270711491786642 0 52.270711491786642 35.749526730476646 0 0 0 0 36.494799648437038 68.056702839647187 0 68.056702839647187 -240.56808601348894 0 0 0 0 158.83155375529896 202.89895325755424 0 202.89895325755424 -162.74855660402682 0 0 0 0 78.821963641654293 10.324285187307396 0 10.324285187307396 -142.03328802611395 0 0 0 0 -37.119007449480705 158.95620210081688 0 158.95620210081688 150.24316476549029 0 0 0 0 107.12110360233237 223.77598706908157 0 223.77598706908157 -75.499634629391949 0 0 0 0 -53.884668412603787 141.76869485739007 0 141.76869485739007 -88.062640269039548 0 0 0 0 55.69839162811401 38.852057813607502 0 38.852057813607502 7.1577334434036288 0 0 0 0 -115.07875933840114 149.66401756017149 0 149.66401756017149 175.09644870976626 0 0 0 0 -95.45682590083743 232.39518382088863 0 232.39518382088863 -361.47113553679264 0 0 0 0 -45.350411050686489 34.262888400083597 0 34.262888400083597 3.4855653189932099 0 0 0 0 49.546971021895459 46.155423515677882 0 46.155423515677882 8.1000420727339133 0 0 0 0 -71.176392614532233 273.09099622844622 0 273.09099622844622 -467.83784131653374 0 0 0 0 -49.930888869130285 335.62448266289721 0 335.62448266289721 -428.46888186511933 0 0 0 0 -15.26840166022339 175.91612511225685 0 175.91612511225685 -520.08863045991166 0 0 0 0 -48.141087265605165 383.34497314839973 0 383.34497314839973 -678.34719647770544 0 0 0 0 -25.13194157743601 435.41524035194561 0 435.41524035194561 -612.07547764468472 0 0 0 0 -50.87796217968571 489.37504752878158 0 489.37504752878158 -592.49032007515052 0 0 0 0 -37.26665297641739 472.52448612846638 0 472.52448612846638 -626.06589181494201 0 0 0 0 -105.3993017731118 465.31684369614231 0 465.31684369614231 -524.44084181959624 0 0 0 0 -132.69548887363635 433.50911085218104 0 433.50911085218104 -534.63837287064234 0 0 0 0 -177.61678792743169 326.27389008610771 0 326.27389008610771 -264.50623355337302 0 0 0 0 -303.29487920414249 482.79194726186688 0 482.79194726186688 -416.5989982235551 0 0 0 0 -542.94967597606728 86.057509653560373 0 86.057509653560373 -73.558166678514681 0 0 0 0 -290.21089900787774 453.80130106869183 0 453.80130106869183 -467.90648385200257 0 0 0 0 33.105046316378008 28.377517638584465 0 28.377517638584465 21.822990440801277 0 0 0 0 -112.08449872954588 204.0205108562659 0 204.0205108562659 -157.61911306182446 0 0 0 0 -72.825404913091063 191.72850351294767 0 191.72850351294767 -319.57679253228707 0 0 0 0 33.985884279332993 43.549027323835446 0 43.549027323835446 28.629581349703074 0 0 0 0 -238.54694590334839 554.3524773693407 0 554.3524773693407 -339.75053899016712 0 0 0 0 -0.29547272656054702 331.39494909029236 0 331.39494909029236 -299.74428417246236 0 0 0 0 16.073199323090591 10.187781961692849 0 10.187781961692849 7.157766735337546 0 0 0 0 0.19124978040053975 311.70935660353643 0 311.70935660353643 102.85645073361957 0 0 0 0 41.038769289385527 112.21944511928086 0 112.21944511928086 -176.7394895434827 0 0 0 0 -177.19970577702043 290.65230861825148 0 290.65230861825148 -96.940133490199514 0 0 0 0 -242.58672214398393 206.10109515785734 0 206.10109515785734 -38.319971928747691 0 0 0 0 -10.440588091901532 12.639262704024929 0 12.639262704024929 5.1845380746003045 0 0 0 0 42.337901819390936 31.032430555834338 0 31.032430555834338 13.095714233559114 0 0 0 0 70.187858841440175 262.70711865954036 0 262.70711865954036 -496.99941078052871 0 0 0 0 22.400961409946149 28.544599755574115 0 28.544599755574115 -7.981352926972896 0 0 0 0 11.239022259193007 132.47144292047233 0 132.47144292047233 -670.20590298777825 0 0 0 0 20.849875019383035 97.683475215896578 0 97.683475215896578 -580.18936375760677 0 0 0 0 713.17724890290992 851.61287816335243 0 851.61287816335243 965.2082648826763 0 0 0 0 2.7374163669474001 3.9869560905000299 0 3.9869560905000299 -6.4209796860865964 0 0 0 0 236.21418285142863 296.67132443358605 0 296.67132443358605 -624.7540929402312 0 0 0 0 142.2149322652549 371.94674420165393 0 371.94674420165393 -531.44893026026148 0 0 0 0 132.85332668721094 353.6262072034533 0 353.6262072034533 -560.86440982189742 0 0 0 0 432.31928788858932 429.0066196254138 0 429.0066196254138 -603.13880840402362 0 0 0 0 112.89555022284912 417.58292194238311 0 417.58292194238311 -268.28619827377042 0 0 0 0 453.10003957927984 699.75966106879969 0 699.75966106879969 -302.01219782764019 0 0 0 0 1085.8496424821788 620.06708341788362 0 620.06708341788362 -221.56449748237264 0 0 0 0 198.10288950446557 794.72177850526805 0 794.72177850526805 -208.53163429804772 0 0 0 0 3.7431959251698572 3845.4450300260069 0 3845.4450300260069 -272.37223159825407 0 0 0 0 -150.18422586246743 1003.432217665114 0 1003.432217665114 1853.6450325524565 0 0 0 0 -9.5973475776659143 12.791614296711259 0 12.791614296711259 -12.997238172420857 0 0 0 0 1133.6398709603818 919.42680079940692 0 919.42680079940692 -1828.0832944094591 0 0 0 0 0.47833550175851741 205.76645261902257 0 205.76645261902257 273.33805307874718 0 0 0 0 -25.452590085842417 33.278617346601209 0 33.278617346601209 -36.473464718169183 0 0 0 0 308.07714191965533 576.51760754647842 0 576.51760754647842 385.63469050339063 0 0 0 0 251.40486385289114 294.23457363043008 0 294.23457363043008 304.42525059424543 0 0 0 0 -0.011518612882355228 397.62951866266349 0 397.62951866266349 401.51241907012354 0 0 0 0 163.57890347228386 310.22085481677067 0 310.22085481677067 115.24527211733846 0 0 0 0 128.9668696515655 332.37621597844168 0 332.37621597844168 395.21856941806254 0 0 0 0 0.04722620637039654 520.77433539948447 0 520.77433539948447 -82.523458648245196 0 0 0 0 590.3243013859028 757.53421966789801 0 757.53421966789801 2.4714342876430919 0 0 0 0 -35.857116798368281 46.302688088021455 0 46.302688088021455 -50.991944938519978 0 0 0 0 639.30588060394803 1022.9803810362437 0 1022.9803810362437 365.67115408556856 0 0 0 0 326.59481508453609 340.72357620338789 0 340.72357620338789 317.6205795691294 0 0 0 0 1036.0448907051323 830.58740034837683 0 830.58740034837683 329.06450347369355 0 0 0 0 360.299985480131 636.56833767912758 0 636.56833767912758 351.84396267978991 0 0 0 0 -194.02273573717684 627.16782900524049 0 627.16782900524049 669.19504653969045 0 0 0 0 -434.76467152393889 -1077.2577788846002 0 -1077.2577788846002 1996.8591376816639 0 0 0 0 -411.08108708396321 900.99245300126313 0 900.99245300126313 1373.378663632222 0 0 0 0 -1373.1712110035587 -410.2002958181838 0 -410.2002958181838 -356.29170423517553 0 0 0 0 604.42795883703366 112.98106005400132 0 112.98106005400132 -475.70871423186327 0 0 0 0 348.5038134984934 222.7142137967312 0 222.7142137967312 644.20673860699003 0 0 0 0 -422.38049671544286 906.87359669610851 0 906.87359669610851 32.761290405281215 0 0 0 0 -249.28737527594058 1310.2972588865423 0 1310.2972588865423 20.263474713212418 0 0 0 0 319.14555103304156 577.07582432360732 0 577.07582432360732 -96.25826947200585 0 0 0 0 -487.34352253733505 1608.3545059748635 0 1608.3545059748635 -1548.0597420673839 0 0 0 0 188.01961969105469 686.72069061595721 0 686.72069061595721 407.14788510413928 0 0 0 0 -673.50770399585599 452.48859540810736 0 452.48859540810736 -105.70510560775347 0 0 0 0 -26.745267637901065 32.314358937382593 0 32.314358937382593 -44.822152386301582 0 0 0 0 -660.9361372954445 536.80484983776751 0 536.80484983776751 222.84234620931602 0 0 0 0 -2863.6898469241132 522.66493500083197 0 522.66493500083197 288.21724800994889 0 0 0 0 -9.8284062799395997 12.808579655643996 0 12.808579655643996 -16.320270898375711 0 0 0 0 810.74618697032565 794.61376941079561 0 794.61376941079561 -1152.0777763214319 0 0 0 0 200.94597651778167 130.48099971723786 0 130.48099971723786 177.64290921672728 0 0 0 0 -7.5440245428617345 860.15898031608504 0 860.15898031608504 -153.54462266676273 0 0 0 0 -530.80877056685858 1841.540128859755 0 1841.540128859755 -1298.1361243130232 0 0 0 0 -2570.1788677086806 1547.7187665186666 0 1547.7187665186666 569.12158458491831 0 0 0 0 -412.81563987839036 461.69169172487 0 461.69169172487 466.70814120098657 0 0 0 0 -842.30716278351611 572.74023389427384 0 572.74023389427384 885.29301166673395 0 0 0 0 -538.80312409880571 999.81533245587252 0 999.81533245587252 -189.57803831862839 0 0 0 0 -969.8075047848979 903.32794264418408 0 903.32794264418408 377.97509816635647 0 0 0 0 -615.53720528102713 549.07822206229321 0 549.07822206229321 381.51756752726141 0 0 0 0 -488.043458436121 479.19926196470124 0 479.19926196470124 -353.5964816837477 0 0 0 0 -390.98642891923373 208.1183872890897 0 208.1183872890897 288.21082449240748 0 0 0 0 7.6710223546674001 26.569739218468783 0 26.569739218468783 37.625414663261949 0 0 0 0 -755.25381376330915 1340.6474949927324 0 1340.6474949927324 -2065.7993845797382 0 0 0 0 -650.80982910876628 552.28372639522604 0 552.28372639522604 455.37520887545361 0 0 0 0 1.0427831373333447 8.4936906550130686 0 8.4936906550130686 14.882115121406272 0 0 0 0 -408.00672984959965 1254.0832068842301 0 1254.0832068842301 -894.50081640403187 0 0 0 0 84.401654294502805 639.92519261118377 0 639.92519261118377 -827.27927282458768 0 0 0 0 -816.26345344716719 878.95225332270991 0 878.95225332270991 -1262.6446599390183 0 0 0 0 -252.06673430545197 360.91738166523101 0 360.91738166523101 -845.71508852793465 0 0 0 0 -382.29202259011799 80.915656512814166 0 80.915656512814166 -1149.8968897526381 0 0 0 0 -59.449597604903829 169.09172806761353 0 169.09172806761353 -1242.7959936101288 0 0 0 0 174.74208525715221 138.91753562700296 0 138.91753562700296 -1016.1553989209133 0 0 0 0 -4.7867789108131547 -17.481473245870802 0 -17.481473245870802 -738.35088842949699 0 0 0 0 158.93741365105961 1098.3899684685857 0 1098.3899684685857 2280.2486647414589 0 0 0 0 3.8885687074189264 21.710973679011968 0 21.710973679011968 -10.016075924523079 0 0 0 0 91.285962712659966 49.213907181027025 0 49.213907181027025 1160.2428588152725 0 0 0 0 697.90960810982506 689.18508308362289 0 689.18508308362289 908.18426298083796 0 0 0 0 -898.57865208690055 1710.5371391489462 0 1710.5371391489462 2759.8199625088982 0 0 0 0 -883.49385381950378 1725.2794768119402 0 1725.2794768119402 -1711.1314539984596 0 0 0 0 -1176.0827293668699 1808.5267355378182 0 1808.5267355378182 -1611.7376824205057 0 0 0 0 -744.07895144469512 1656.9099889153949 0 1656.9099889153949 -3967.4173834663998 0 0 0 0 16.540666543693021 41.410721364481958 0 41.410721364481958 64.783591797205645 0 0 0 0 -334.27080153272254 545.5554468122391 0 545.5554468122391 -1929.1355860350641 0 0 0 0 -1.6108867610657285 10.119136172941666 0 10.119136172941666 -4.3334386413795016 0 0 0 0 -529.93403163988842 446.99628835027033 0 446.99628835027033 -311.49366279065418 0 0 0 0 -549.11688951021642 604.98819402217441 0 604.98819402217441 -296.53686326907155 0 0 0 0 -576.88225715249428 521.1144980003246 0 521.1144980003246 -334.57525071569671 0 0 0 0 -1649.8147737842446 1329.2520458360086 0 1329.2520458360086 5.8036567130766343 0 0 0 0 -686.96963141966262 735.4659543108354 0 735.4659543108354 -564.97655225804272 0 0 0 0 -809.23103552711837 546.73293724026155 0 546.73293724026155 -305.39905803281539 0 0 0 0 23.000435141058688 73.387376619540788 0 73.387376619540788 44.103163218674737 0 0 0 0 -636.71290844667237 372.41409294333556 0 372.41409294333556 -414.32794163640733 0 0 0 0 27.327858548934955 170.48079201598793 0 170.48079201598793 -136.66622928939941 0 0 0 0 -678.48414075288019 426.2481860145358 0 426.2481860145358 -252.63910549286902 0 0 0 0 -585.10470187029568 465.54845031276818 0 465.54845031276818 -153.56868855565517 0 0 0 0 -337.58410664297116 308.6647283115235 0 308.6647283115235 -185.17236244122614 0 0 0 0 -429.57656099897576 260.80991930025266 0 260.80991930025266 -194.13231663894658 0 0 0 0 -206.7198869456588 257.81397273879656 0 257.81397273879656 -172.42749845872095 0 0 0 0 -331.74854732824315 458.60470213938606 0 458.60470213938606 -89.905283750433227 0 0 0 0 -446.90946040961717 388.26947826546348 0 388.26947826546348 -126.93087048649977 0 0 0 0 -440.15550379559863 543.02350851263327 0 543.02350851263327 -46.366285826572494 0 0 0 0 -504.56478524718113 567.39409541245686 0 567.39409541245686 -55.265519758126175 0 0 0 0 -623.32226562546566 527.41408251446501 0 527.41408251446501 -146.87309672915217 0 0 0 0 -551.87055926819448 497.56000631587267 0 497.56000631587267 -141.88688804328058 0 0 0 0 -562.46009815804427 487.38399585441312 0 487.38399585441312 -99.251497834960901 0 0 0 0 -550.24392710032407 597.72256819524773 0 597.72256819524773 16.507583967535538 0 0 0 0 -538.45923815207789 566.97178262790658 0 566.97178262790658 -298.84678334324781 0 0 0 0 -626.62856257082603 614.20765922952614 0 614.20765922952614 14.014503395545034 0 0 0 0 -511.12390355495154 679.00328191724839 0 679.00328191724839 44.230547597082477 0 0 0 0 -308.72284795239102 708.36345085130779 0 708.36345085130779 14.471690111349744 0 0 0 0 -329.15365962122451 596.52289934259898 0 596.52289934259898 -29.058560009962093 0 0 0 0 -375.07652210081869 630.32504804401106 0 630.32504804401106 -53.504984217928723 0 0 0 0 -137.24276927692699 440.49271277827938 0 440.49271277827938 -44.949181718002365 0 0 0 0 -78.623821233738909 388.13396831167847 0 388.13396831167847 1.2601686200068798 0 0 0 0 -83.568242595531046 634.03299495503416 0 634.03299495503416 -462.79164683988711 0 0 0 0 -246.04996087376639 456.30809753276844 0 456.30809753276844 51.6422731925486 0 0 0 0 -196.66021916197496 394.40317887424135 0 394.40317887424135 120.48771655018936 0 0 0 0 -127.28960646003543 435.76083666279374 0 435.76083666279374 104.91249666005206 0 0 0 0 -268.56749347334335 352.13729935066567 0 352.13729935066567 116.62518702223315 0 0 0 0 -23.790907095710281 323.42156292989239 0 323.42156292989239 72.774148049604264 0 0 0 0 49.365826516070229 105.74745714925848 0 105.74745714925848 500.67228063156654 0 0 0 0 41.268924001749838 107.07248608418195 0 107.07248608418195 551.79722144824336 0 0 0 0 34.609123971458757 73.987693941624457 0 73.987693941624457 492.46558709928831 0 0 0 0 14.579068604598831 12.299568504262822 0 12.299568504262822 7.0490168940085312 0 0 0 0 126.13556208579394 316.12209041888855 0 316.12209041888855 288.27461250937267 0 0 0 0 -270.06299652770394 410.70547350777633 0 410.70547350777633 185.27933927031518 0 0 0 0 -103.78216709369735 519.63675395690188 0 519.63675395690188 255.22767266724259 0 0 0 0 -68.337704121766365 286.08255711928655 0 286.08255711928655 351.49825122999027 0 0 0 0 -27.359233207738725 363.24410720595552 0 363.24410720595552 424.96694275956543 0 0 0 0 -147.03065069642071 358.34650135730976 0 358.34650135730976 31.381307635227131 0 0 0 0 -41.24540651946154 499.79822596929625 0 499.79822596929625 151.18987907005067 0 0 0 0 -122.7852483602328 515.27283580603034 0 515.27283580603034 7.941726354889397 0 0 0 0 -257.14942671899553 415.13864641911323 0 415.13864641911323 -66.142709203595587 0 0 0 0 -22.687577402175521 389.63765038040037 0 389.63765038040037 -198.35633436237086 0 0 0 0 -544.07363300918951 597.73461347794 0 597.73461347794 -320.71197940253114 0 0 0 0 -118.48784757201065 361.8368072789217 0 361.8368072789217 -191.72973836169695 0 0 0 0 -161.08464202855976 379.67367351890061 0 379.67367351890061 31.910451382103929 0 0 0 0 22.086606826254865 297.18041048579107 0 297.18041048579107 56.422616344693779 0 0 0 0 -166.36543611867819 280.9519149302796 0 280.9519149302796 914.61886402125674 0 0 0 0 -265.56904428153939 419.68695274198035 0 419.68695274198035 453.13646936925215 0 0 0 0 72.38700913649518 219.50046297912195 0 219.50046297912195 501.19767280803717 0 0 0 0 -191.14156405717222 351.49297538511837 0 351.49297538511837 155.96685675433764 0 0 0 0 -1595.5015941949532 -450.89507371170839 0 -450.89507371170839 817.92759480586392 0 0 0 0 -192.04457189935056 623.95594504325618 0 623.95594504325618 988.66965281582816 0 0 0 0 -367.33473751154088 289.62448465112993 0 289.62448465112993 880.25814054915827 0 0 0 0 763.102935519928 2339.2508470824141 0 2339.2508470824141 -815.7920885617641 0 0 0 0 13.948088163251839 4.9187919436105858 0 4.9187919436105858 4.7452208409079475 0 0 0 0 -227.42683643722557 -108.03473041161124 0 -108.03473041161124 1630.8630627087259 0 0 0 0 136.16944778244215 -112.6397573544109 0 -112.6397573544109 757.83896129782806 0 0 0 0 -282.63762597049208 451.79672325800857 0 451.79672325800857 108.71192677813087 0 0 0 0 -147.5335648858163 446.47475789535383 0 446.47475789535383 -112.52532849620547 0 0 0 0 158.03731244454684 278.55096824587781 0 278.55096824587781 -65.998350562629639 0 0 0 0 -552.07047274307115 1248.5056739161191 0 1248.5056739161191 -800.04307853451883 0 0 0 0 -194.27482319863338 668.31539141815847 0 668.31539141815847 113.32909919507074 0 0 0 0 -708.20881608501077 1340.8785007489751 0 1340.8785007489751 1220.0166458641688 0 0 0 0 -545.80528125775163 855.91752251302751 0 855.91752251302751 -149.81454687489895 0 0 0 0 -370.42166381701827 582.54794702063373 0 582.54794702063373 162.58565807030209 0 0 0 0 -583.1422693617933 600.19027671714321 0 600.19027671714321 452.51738393240157 0 0 0 0 -497.63429692707723 312.18699021662542 0 312.18699021662542 451.79284105735053 0 0 0 0 -428.06665976435761 313.38008990325397 0 313.38008990325397 139.52753560857673 0 0 0 0 -306.64843733505404 381.44027651020224 0 381.44027651020224 164.60477673982314 0 0 0 0 -554.93819879995135 275.15254275884581 0 275.15254275884581 149.291239419048 0 0 0 0 -411.43516492149502 248.88022720280696 0 248.88022720280696 -147.11181271888563 0 0 0 0 -528.01525321757072 396.48579600663652 0 396.48579600663652 149.95763071891088 0 0 0 0 -405.36824713944952 318.29130308083495 0 318.29130308083495 -113.66763489584264 0 0 0 0 -547.39859184461238 173.04117537958518 0 173.04117537958518 -162.55931991494526 0 0 0 0 -495.83972555068613 473.37324805816706 0 473.37324805816706 -726.27656173367723 0 0 0 0 -570.30015391494089 293.36315413132979 0 293.36315413132979 -100.91716887775965 0 0 0 0 -527.30900466103776 398.07075340213828 0 398.07075340213828 -429.5465706746545 0 0 0 0 -705.66563012783445 452.17635568570677 0 452.17635568570677 -192.1771408325294 0 0 0 0 -632.41700772057811 514.93826551336133 0 514.93826551336133 -323.72436611319154 0 0 0 0 -587.3487616260536 523.87776027895143 0 523.87776027895143 -151.8600962598457 0 0 0 0 168.18975551737822 197.45595656137539 0 197.45595656137539 -205.29349151727092 0 0 0 0 9.6885422005502022 54.020275533679609 0 54.020275533679609 -33.838209328459939 0 0 0 0 -5.8737104411047625 -13.495307005506675 0 -13.495307005506675 0.88637462109877418 0 0 0 0 -1298.18328667061 801.05023786125821 0 801.05023786125821 -382.56699676081371 0 0 0 0 450.64668353939123 -73.420588875077556 0 -73.420588875077556 -289.50802988126088 0 0 0 0 130.42541032309236 249.5149479597294 0 249.5149479597294 -614.19013320914837 0 0 0 0 -36.203090224626067 160.75948708652777 0 160.75948708652777 -226.84210401484415 0 0 0 0 -175.06249127307092 271.72245911921982 0 271.72245911921982 -198.17436877159656 0 0 0 0 -242.97255908285297 131.71330232624064 0 131.71330232624064 -192.40213196296281 0 0 0 0 -36.817069046170218 174.67591217565951 0 174.67591217565951 -231.44103308830017 0 0 0 0 -4.8621135757857701 82.454203429029803 0 82.454203429029803 -63.454005983197931 0 0 0 0 30.700212593545132 167.35196636859229 0 167.35196636859229 -126.29764914204353 0 0 0 0 -23.596447505631659 147.81608340835396 0 147.81608340835396 -212.67111502423722 0 0 0 0 -127.95113376824884 212.29803467375314 0 212.29803467375314 431.2530573605618 0 0 0 0 -48.532731460829382 205.73366008487938 0 205.73366008487938 -260.41535153244831 0 0 0 0 -415.58888308474707 106.17001923707471 0 106.17001923707471 -229.23824959213107 0 0 0 0 -237.19809708948014 658.76578454994888 0 658.76578454994888 356.82134633482201 0 0 0 0 25.629469754404113 170.46180037960949 0 170.46180037960949 -123.63327343197307 0 0 0 0 -34.312156708641851 8.7600248601556814 0 8.7600248601556814 -55.362589120151824 0 0 0 0 -273.48962788477365 -40.282177605869947 0 -40.282177605869947 199.96760963892302 0 0 0 0 -56.452391871571308 -3.1753175259218551 0 -3.1753175259218551 58.926644809980644 0 0 0 0 80.011443339200923 153.09907927339373 0 153.09907927339373 81.658886293707837 0 0 0 0 -171.32413629638177 38.113113524708751 0 38.113113524708751 -26.70452421499067 0 0 0 0 -86.410159421648132 -20.345097586570773 0 -20.345097586570773 -118.19813953738776 0 0 0 0 -433.28087332947507 360.73822164638068 0 360.73822164638068 -217.22483266428753 0 0 0 0 -151.27683294685266 304.47577359356364 0 304.47577359356364 -367.98087138302071 0 0 0 0 18.130853845690353 161.03032561035198 0 161.03032561035198 -118.08921583675072 0 0 0 0 11.908173932665136 59.603982808748839 0 59.603982808748839 -20.24889864120712 0 0 0 0 147.26850001624553 134.15995252627181 0 134.15995252627181 -279.34851349599194 0 0 0 0 -288.69998685084283 297.98682737037598 0 297.98682737037598 -126.62435743113224 0 0 0 0 282.54382899493794 376.18119959935575 0 376.18119959935575 -50.20501635884284 0 0 0 0 702.97132515466365 -41.562077015776595 0 -41.562077015776595 -630.11600897149765 0 0 0 0 1588.5446503667044 851.59106840418826 0 851.59106840418826 -115.21292905133714 0 0 0 0 -356.68766068038531 2337.1425218320001 0 2337.1425218320001 -698.90372085566923 0 0 0 0 -419.3261243441375 1219.3149093179964 0 1219.3149093179964 -353.44442651543068 0 0 0 0 174.90940709228744 1039.1056304621161 0 1039.1056304621161 -340.8943896004148 0 0 0 0 -56.874299512652215 134.08501544554019 0 134.08501544554019 -1619.413875018312 0 0 0 0 -7.5080179599417249 4.2580643723739513 0 4.2580643723739513 3.3897873757066463 0 0 0 0 1115.4618894390587 397.20290610674419 0 397.20290610674419 50.524490304174833 0 0 0 0 -6.7381905960168496 3.3935771330675948 0 3.3935771330675948 6.572648112550894 0 0 0 0 -9.5374946539041616 13.433596287959858 0 13.433596287959858 -7.97670311066247 0 0 0 0 -80.405798350286204 87.441587140274351 0 87.441587140274351 -0.43279181505931774 0 0 0 0 3.6271969598601572 34.857577535636665 0 34.857577535636665 -84.352906213520328 0 0 0 0 33.992511475895299 551.00493211364665 0 551.00493211364665 517.41323283227393 0 0 0 0 -21.32215663714959 19.099076563489589 0 19.099076563489589 -4.951559136056062 0 0 0 0 -27.44903659900956 15.470362766514882 0 15.470362766514882 -16.43977230481687 0 0 0 0 -53.174866832850967 13.254720187367639 0 13.254720187367639 -11.430969620108954 0 0 0 0 -88.22503375337692 75.039293805704801 0 75.039293805704801 -55.88259383152274 0 0 0 0 -860.96258109351038 395.34606392586284 0 395.34606392586284 245.57771338588645 0 0 0 0 -1143.0206210557226 873.71454963968426 0 873.71454963968426 -214.49491586403747 0 0 0 0 -649.32782985527592 735.77809957901991 0 735.77809957901991 -990.01933199532505 0 0 0 0 -710.29744306717839 -215.03086433364115 0 -215.03086433364115 2.3098701816634275 0 0 0 0 -189.39186550150043 443.34231940281461 0 443.34231940281461 -1591.0367674269219 0 0 0 0 -6.5271879736152982 7.1788987693538218 0 7.1788987693538218 -5.7892321108402314 0 0 0 0 34.835544309295074 -42.957723063456797 0 -42.957723063456797 -536.8865161256399 0 0 0 0 -599.31202105189732 490.17114701851824 0 490.17114701851824 -459.22165565173782 0 0 0 0 -1271.1513293294702 911.18182083929423 0 911.18182083929423 -630.50825335022819 0 0 0 0 15.515817951294594 767.04743367304036 0 767.04743367304036 -832.96258975153251 0 0 0 0 -558.64546660581254 758.5882881034413 0 758.5882881034413 -441.6275602774549 0 0 0 0 -1120.2801301225409 208.50646544576011 0 208.50646544576011 -815.17571787755878 0 0 0 0 -1466.024617937077 279.84567458829042 0 279.84567458829042 -447.56880758338957 0 0 0 0 -1180.82306753585 430.76165076665347 0 430.76165076665347 -400.98060430644182 0 0 0 0 -1195.4437373645196 303.53001742319611 0 303.53001742319611 -509.47044179082877 0 0 0 0 -919.04786808896006 379.81151650206652 0 379.81151650206652 -508.86013395244663 0 0 0 0 -105.64730676017643 646.22951533013111 0 646.22951533013111 -673.68831328727538 0 0 0 0 -909.75530622223414 592.1467789670869 0 592.1467789670869 -400.12466823638533 0 0 0 0 -508.97052525337494 462.47431950126338 0 462.47431950126338 -652.35653348559572 0 0 0 0 -99.908746821442037 429.55613224802801 0 429.55613224802801 -401.60031781893122 0 0 0 0 24.515694071538746 799.04263011623698 0 799.04263011623698 -608.29169033741346 0 0 0 0 569.29676720034331 625.5371103623329 0 625.5371103623329 -544.33044512000924 0 0 0 0 943.17482595852925 506.47695717822353 0 506.47695717822353 -425.10038775301655 0 0 0 0 363.43936720905185 138.53908937341839 0 138.53908937341839 -399.53045648260741 0 0 0 0 1185.0954381828578 -568.34832176788768 0 -568.34832176788768 -85.330415862408699 0 0 0 0 2007.2136383027137 -544.36343297513849 0 -544.36343297513849 -604.91276839764032 0 0 0 0 -1408.2164686890756 1039.8026964032688 0 1039.8026964032688 -146.6558258470759 0 0 0 0 0.18683528505982849 -0.30518446691147005 0 -0.30518446691147005 -3.8109694073094715 0 0 0 0 429.50901676279318 237.79470122204657 0 237.79470122204657 -374.54524758040498 0 0 0 0 234.76694995025537 -71.358396619700216 0 -71.358396619700216 212.27986561100988 0 0 0 0 121.40483281448542 166.15850486682029 0 166.15850486682029 -377.03980808280176 0 0 0 0 -456.45234676296241 625.03278072844114 0 625.03278072844114 -516.87355175621451 0 0 0 0 -194.54190492759517 589.82337874155564 0 589.82337874155564 -808.10670420333918 0 0 0 0 -45.07518437741237 719.43446760420193 0 719.43446760420193 -921.21473247147514 0 0 0 0 68.585604209958547 547.50814019851714 0 547.50814019851714 -1115.021870457902 0 0 0 0 -265.96503255542484 471.07345443053782 0 471.07345443053782 -1107.1644548856102 0 0 0 0 -102.95216824339877 755.12476076415624 0 755.12476076415624 -2093.2458237868414 0 0 0 0 2.4499620064978558 14.629501488393998 0 14.629501488393998 0.9538067749086423 0 0 0 0 -6.3877854094243958 643.81979583606153 0 643.81979583606153 -1157.2910849644104 0 0 0 0 -419.43475581318489 844.79866037424654 0 844.79866037424654 -1981.2281146560199 0 0 0 0 0.79616983095718297 14.634308672421213 0 14.634308672421213 1.0450967198630821 0 0 0 0 -96.253301891076262 349.21109066878853 0 349.21109066878853 -1439.7344073968634 0 0 0 0 -738.95549314371601 839.42557983716688 0 839.42557983716688 -928.42556179301027 0 0 0 0 -120.87622936330445 563.0171667323084 0 563.0171667323084 -1139.6780601879727 0 0 0 0 147.26335391651082 490.97438308031269 0 490.97438308031269 -1149.9119851331052 0 0 0 0 -771.9197590964468 967.04383599317953 0 967.04383599317953 -1422.2553869784124 0 0 0 0 -574.45925141645421 776.11622653069935 0 776.11622653069935 -1396.0553360434569 0 0 0 0 -0.89108874981360486 8.1671909886484002 0 8.1671909886484002 -0.22955978123439991 0 0 0 0 -763.356908124857 1745.6128038652314 0 1745.6128038652314 -3292.2981529143726 0 0 0 0 -971.53925911039551 1705.8610515379878 0 1705.8610515379878 -1814.9277565156808 0 0 0 0 -441.8173362752641 1200.2836704384663 0 1200.2836704384663 -1255.1182344247645 0 0 0 0 -981.06177729737828 101.79262542013021 0 101.79262542013021 -1050.1197297199087 0 0 0 0 -20.776074395951582 559.86605309678998 0 559.86605309678998 -1019.9471940171352 0 0 0 0 -432.78855594487686 470.84543972104439 0 470.84543972104439 119.47029572989413 0 0 0 0 -346.54929548570362 691.34224486126914 0 691.34224486126914 -700.20093563027785 0 0 0 0 -446.06275748485132 360.34991688542323 0 360.34991688542323 -971.12270609929692 0 0 0 0 -1615.0712365943473 184.10191847581154 0 184.10191847581154 -634.17760313332838 0 0 0 0 -1988.7151478437881 348.21453212123015 0 348.21453212123015 -750.3750898838116 0 0 0 0 -1325.1811229184677 632.82218738732627 0 632.82218738732627 -629.67097805435333 0 0 0 0 -1086.487769395113 430.22892399812918 0 430.22892399812918 -985.20731210842496 0 0 0 0 -789.53213083511218 906.26301762970979 0 906.26301762970979 -804.10635190337416 0 0 0 0 -1409.02422363402 896.82277192304537 0 896.82277192304537 -794.67205181343888 0 0 0 0 -1200.4844773591321 505.19705557914858 0 505.19705557914858 -499.85243524311227 0 0 0 0 -1684.3634465821087 1366.7843255810149 0 1366.7843255810149 -3413.0389922390023 0 0 0 0 -3980.6934987070708 2405.9003219346814 0 2405.9003219346814 -3875.5244814135367 0 0 0 0 -2.1772387263225141 4.328066182298187 0 4.328066182298187 -0.84107416372609123 0 0 0 0 -1598.7050880096504 -250.82774526944559 0 -250.82774526944559 -1878.3217581761419 0 0 0 0 -1080.0806437572464 -132.11620000183029 0 -132.11620000183029 -4309.3307896561164 0 0 0 0 -685.68047151528299 519.83828836610701 0 519.83828836610701 -3153.6578600129578 0 0 0 0 -1108.4342438326858 588.8720870497782 0 588.8720870497782 -2278.697252154212 0 0 0 0 -3587.7599472702568 2645.0674374702539 0 2645.0674374702539 -1256.9703244452976 0 0 0 0 -1025.7812647497922 2076.6272353016611 0 2076.6272353016611 -2467.7196641228256 0 0 0 0 -1087.9331821657761 2582.0236429652487 0 2582.0236429652487 -5232.1891105007962 0 0 0 0 -2107.1929978374465 460.55449566287643 0 460.55449566287643 103.82855313461914 0 0 0 0 -958.13271050542244 2004.5774044685095 0 2004.5774044685095 -3910.5723609127331 0 0 0 0 -714.82796529616462 532.15576584188966 0 532.15576584188966 -2169.8824563558737 0 0 0 0 -20.65496284255147 19.775332394994464 0 19.775332394994464 -23.459976500644018 0 0 0 0 -391.69740437506698 -398.99963117814332 0 -398.99963117814332 252.97313337709056 0 0 0 0 -954.03404039316229 -260.60386438791465 0 -260.60386438791465 379.5387480113277 0 0 0 0 -524.85102119090152 109.32418153363687 0 109.32418153363687 -2.5094517730467487 0 0 0 0 -1666.0165548876685 849.05143010899337 0 849.05143010899337 161.98452129178622 0 0 0 0 -1207.3590592744877 838.02998790416314 0 838.02998790416314 -104.25246191216138 0 0 0 0 -2057.271913098768 2297.684877099804 0 2297.684877099804 -780.46370676986407 0 0 0 0 -165.5210572410142 333.70293777970073 0 333.70293777970073 475.87772661609051 0 0 0 0 31.028122342075221 32.485925326020151 0 32.485925326020151 105.77152904977265 0 0 0 0 -234.95397670721286 401.00039658142487 0 401.00039658142487 154.55022807535715 0 0 0 0 -172.16476965582115 66.329884543498338 0 66.329884543498338 68.478657388594002 0 0 0 0 -567.14792574991588 486.33583579912374 0 486.33583579912374 143.36355660087429 0 0 0 0 1.3006044824819014 9.5145471067165133 0 9.5145471067165133 5.9149203208612704 0 0 0 0 -6.8058249260031403 19.497090360935715 0 19.497090360935715 -8.7603570351138842 0 0 0 0 -49.995379699055263 55.483491567560122 0 55.483491567560122 -38.542370814011491 0 0 0 0 -485.87175037397537 64.387075329068466 0 64.387075329068466 775.2635894396517 0 0 0 0 -263.83957304095384 -7.8095229776226915 0 -7.8095229776226915 54.544472184235929 0 0 0 0 -208.69204386213096 110.7156855937792 0 110.7156855937792 309.28340621484676 0 0 0 0 -82.927974612335674 250.63732818359858 0 250.63732818359858 340.86476306529948 0 0 0 0 734.06262527103536 -1880.6195687600994 0 -1880.6195687600994 376.83758242968906 0 0 0 0 755.94519365702581 -3.797323267946922 0 -3.797323267946922 -319.71195226466807 0 0 0 0 3.1112068534611126 2.9785192058805166 0 2.9785192058805166 -4.7852882909637486 0 0 0 0 3.1889015939086676 92.081056567054475 0 92.081056567054475 0.32881296973209828 0 0 0 0 411.00697075715289 -329.23394003600697 0 -329.23394003600697 21.40074945082597 0 0 0 0 -101.4302293905057 199.30017079104437 0 199.30017079104437 -3521.9811005221381 0 0 0 0 -57.391203269486141 -9.1612795196688239 0 -9.1612795196688239 19.751618924579816 0 0 0 0 3.8269785834061736 7.631631134880692 0 7.631631134880692 -18.223940148368001 0 0 0 0 108.68890518840635 775.82597852101026 0 775.82597852101026 -3186.5075133866339 0 0 0 0 262.7669005789794 69.369532340089791 0 69.369532340089791 -1372.7260331593716 0 0 0 0 234.07858361542458 -538.93799879531434 0 -538.93799879531434 -1898.2605557600909 0 0 0 0 -61.865617351897527 -47.015376226030639 0 -47.015376226030639 -1406.0029346570664 0 0 0 0 -119.42803402450227 -825.61856629719841 0 -825.61856629719841 329.21098812160199 0 0 0 0 -55.676492022932507 -273.94130643282551 0 -273.94130643282551 -443.46413025239599 0 0 0 0 -206.84686706622597 33.813454026763793 0 33.813454026763793 -3.8487430388340726 0 0 0 0 75.175132404023316 200.50193763184507 0 200.50193763184507 -1390.696316481437 0 0 0 0 -638.65863725492818 1047.0036098173005 0 1047.0036098173005 -1922.2517738151655 0 0 0 0 -158.42385223988094 459.38230204049978 0 459.38230204049978 -1213.0523026174342 0 0 0 0 -211.10657640516001 1049.3150353390574 0 1049.3150353390574 -2490.634941695811 0 0 0 0 -96.270605093071936 1009.1899540584782 0 1009.1899540584782 -2708.3428408575128 0 0 0 0 -214.85142090500449 1812.1671094082194 0 1812.1671094082194 -3000.7677485555105 0 0 0 0 -1289.2161023773951 2097.883770434375 0 2097.883770434375 -3074.7101092604426 0 0 0 0 -415.2649805546389 1685.804193959455 0 1685.804193959455 -4103.8367547524285 0 0 0 0 -440.6994116914575 1207.9325843599945 0 1207.9325843599945 -2628.0402346348128 0 0 0 0 -708.90612290034187 1569.7621935100469 0 1569.7621935100469 -3117.9402721916704 0 0 0 0 10.732410774729658 0.85415393416892016 0 0.85415393416892016 -9.7481568116600386 0 0 0 0 -620.06832895366824 2368.2546223307654 0 2368.2546223307654 -3450.6850231341559 0 0 0 0 -378.04528586744345 265.87196521535043 0 265.87196521535043 -268.35048094176454 0 0 0 0 -611.58842878826727 374.12916525435594 0 374.12916525435594 -261.99225811586075 0 0 0 0 -123.34909165542922 338.59696947006887 0 338.59696947006887 -455.53995269238658 0 0 0 0 -682.53509196850064 673.01850617767195 0 673.01850617767195 -442.61824056948535 0 0 0 0 -834.14677401813969 632.05538937623351 0 632.05538937623351 -357.66034076060168 0 0 0 0 -237.81727755531028 473.7161918332622 0 473.7161918332622 -665.50908075649932 0 0 0 0 -1173.2247968984884 616.02731184736331 0 616.02731184736331 -400.23341149313637 0 0 0 0 -1181.3592598760315 404.80140608900456 0 404.80140608900456 -522.39662453738856 0 0 0 0 -1212.5803921862389 357.01713991826546 0 357.01713991826546 -444.30823831372254 0 0 0 0 -901.77486577472882 426.659443239354 0 426.659443239354 -599.70513057743665 0 0 0 0 -1189.0098201251749 358.41684066734388 0 358.41684066734388 -448.7265997632785 0 0 0 0 -843.78636451681086 574.6708379741176 0 574.6708379741176 -515.26260438118334 0 0 0 0 -928.84559908443771 599.60662860451703 0 599.60662860451703 -445.6984301423945 0 0 0 0 -890.89149747150077 776.27620734725861 0 776.27620734725861 -287.73090111972124 0 0 0 0 -796.5167727462358 652.88098921476376 0 652.88098921476376 -337.98142890063173 0 0 0 0 -792.58421440236998 670.19290065725545 0 670.19290065725545 -559.0394693131675 0 0 0 0 -759.79094017550233 803.96899109885271 0 803.96899109885271 -464.98380209403695 0 0 0 0 -835.78879442406469 808.5742345616527 0 808.5742345616527 -364.87797008949565 0 0 0 0 -855.78193207344157 677.2202277087199 0 677.2202277087199 -408.94457614661951 0 0 0 0 -423.26858673719835 685.49083580334627 0 685.49083580334627 -416.7911554563907 0 0 0 0 -775.25343069677183 1014.4007782864865 0 1014.4007782864865 -124.93201912567019 0 0 0 0 -583.82147707304102 976.79096608996406 0 976.79096608996406 -273.37762232089881 0 0 0 0 -732.33435647480655 843.15608579888067 0 843.15608579888067 -362.98650624402671 0 0 0 0 -977.69615388444799 941.30220332489262 0 941.30220332489262 -151.00163722527213 0 0 0 0 -981.22183750108525 397.19604891680501 0 397.19604891680501 -305.40615259336482 0 0 0 0 -1157.4253153409518 770.3346657082875 0 770.3346657082875 -204.30008125577297 0 0 0 0 -845.58318007760681 718.63698558733086 0 718.63698558733086 -287.93988352312954 0 0 0 0 -9.0233335583212124 134.34705137576219 0 134.34705137576219 -56.456885855388521 0 0 0 0 -571.41033368480566 447.19786987600673 0 447.19786987600673 -340.89162036400376 0 0 0 0 -452.33979826385621 68.251005994439765 0 68.251005994439765 -192.97945213703497 0 0 0 0 -5.2878337356028737 116.91832094920264 0 116.91832094920264 -89.428674216665115 0 0 0 0 -934.17004884472408 635.55520625726695 0 635.55520625726695 849.36507436325337 0 0 0 0 25.503188570524799 63.271537679680478 0 63.271537679680478 168.34769968056753 0 0 0 0 -149.72156787377753 199.44711211962567 0 199.44711211962567 874.37483727349172 0 0 0 0 298.80512478468881 678.9115423842577 0 678.9115423842577 666.81028395605244 0 0 0 0 -17.283379541011527 327.93151789468175 0 327.93151789468175 1332.7250123846898 0 0 0 0 -62.906765234278282 145.21286592027172 0 145.21286592027172 1055.2125338479564 0 0 0 0 159.29870248240331 737.06116235191166 0 737.06116235191166 1532.7622731861702 0 0 0 0 -70.004310304648243 340.40388992464432 0 340.40388992464432 954.65814575568947 0 0 0 0 207.5682468200248 541.1564498008629 0 541.1564498008629 213.57935674254259 0 0 0 0 3.9154205459495302 122.62982396623889 0 122.62982396623889 -82.235519606472579 0 0 0 0 225.32792278427223 15.990428585750124 0 15.990428585750124 29.36219457466359 0 0 0 0 12.214573649456725 77.688211027474608 0 77.688211027474608 -290.38999771530143 0 0 0 0 152.96813600456517 526.09832203382939 0 526.09832203382939 -2500.5617217021281 0 0 0 0 16.353401887648829 -12.400418126139016 0 -12.400418126139016 -56.770295099636584 0 0 0 0 -43.464182909876399 222.37065671906203 0 222.37065671906203 -2644.7871982773504 0 0 0 0 283.58380640856922 507.72949387749213 0 507.72949387749213 -2396.4020229680173 0 0 0 0 618.24377838047803 295.38897128477765 0 295.38897128477765 -2688.028928538537 0 0 0 0 501.10445184193668 775.46652595927299 0 775.46652595927299 -2658.4713110845187 0 0 0 0 -265.8586785257794 669.6937198817177 0 669.6937198817177 -2549.6301255694925 0 0 0 0 -287.19176543020114 1861.1569466460585 0 1861.1569466460585 -3397.846479930362 0 0 0 0 12.086394476372675 85.744947856519445 0 85.744947856519445 -310.81683582239202 0 0 0 0 -210.11466122290585 19.908019855218299 0 19.908019855218299 -199.84043429313533 0 0 0 0 21.672628430493262 -9.764779289885638 0 -9.764779289885638 -16.547086316833486 0 0 0 0 -1276.342358965223 1309.4465304791029 0 1309.4465304791029 -2421.9919603426242 0 0 0 0 275.77680651893024 952.18260709531023 0 952.18260709531023 -3216.3458084647791 0 0 0 0 -54.935179598513059 1206.6996608508052 0 1206.6996608508052 -2342.4219346581813 0 0 0 0 679.01692016630841 592.23401554466182 0 592.23401554466182 -2179.6207636999752 0 0 0 0 341.170353667374 786.01613021812227 0 786.01613021812227 -1165.6996263206202 0 0 0 0 -106.73268672052654 1061.4806004597303 0 1061.4806004597303 -1495.33121726838 0 0 0 0 731.1468491674168 436.33538487213809 0 436.33538487213809 -1349.3777936482402 0 0 0 0 880.35265865619294 430.63278958933006 0 430.63278958933006 -1030.8394793567568 0 0 0 0 289.05559396918397 763.62990081722091 0 763.62990081722091 -2035.4874014582201 0 0 0 0 411.59049282662454 1249.4555544635368 0 1249.4555544635368 -2497.5801233292659 0 0 0 0 118.41499582980759 1061.8830879633169 0 1061.8830879633169 -681.40138556966849 0 0 0 0 -110.37006940052379 163.22831100832991 0 163.22831100832991 -376.43977542090579 0 0 0 0 -41.45085226953961 -94.978205842315219 0 -94.978205842315219 -416.68071647319812 0 0 0 0 -72.222899367450736 -94.914635719396756 0 -94.914635719396756 -93.93049983617675 0 0 0 0 -24.491254861106427 9.2638957710942123 0 9.2638957710942123 -170.66538477601716 0 0 0 0 -235.05733215658984 -88.206151298658369 0 -88.206151298658369 -93.852094770001713 0 0 0 0 -95.966291781165637 51.417350892792456 0 51.417350892792456 23.893550370703451 0 0 0 0 80.990039326774422 -83.248893568190397 0 -83.248893568190397 -109.40833233174635 0 0 0 0 13.853649622062221 -119.11563797111739 0 -119.11563797111739 5.7058195652643917 0 0 0 0 34.565209987718845 79.533887915516971 0 79.533887915516971 -292.37373794641462 0 0 0 0 -17.611381570506637 -82.351433263944273 0 -82.351433263944273 -87.815827202546643 0 0 0 0 -18.413819577908725 42.869837715323229 0 42.869837715323229 -317.50696909990802 0 0 0 0 248.13926893289317 744.27085668081418 0 744.27085668081418 68.619593214942142 0 0 0 0 1191.5004437856842 843.12085124671285 0 843.12085124671285 55.424343260521709 0 0 0 0 0.60113104235057335 -1.4185615949709955 0 -1.4185615949709955 0.9629784346644783 0 0 0 0 -17.03324639148218 16.968882933244174 0 16.968882933244174 -8.0248955790696073 0 0 0 0 677.82655701437034 1265.2976339863162 0 1265.2976339863162 976.89542691057432 0 0 0 0 14.672400003284565 120.73926627681431 0 120.73926627681431 90.056847165746149 0 0 0 0 -20.693381775121452 38.445350056597817 0 38.445350056597817 23.874792676753714 0 0 0 0 -17.11972018078086 24.364348381932359 0 24.364348381932359 -9.8651504484732868 0 0 0 0 -13.721280354919145 43.6912622016971 0 43.6912622016971 22.274577491276432 0 0 0 0 143.7164744278416 -63.148712354086456 0 -63.148712354086456 20.159148307342548 0 0 0 0 -11.8535222187665 15.589432301762542 0 15.589432301762542 27.751029945000624 0 0 0 0 107.55151261237916 267.96359139974811 0 267.96359139974811 229.82047341117868 0 0 0 0 218.48788611321652 170.40130477119237 0 170.40130477119237 154.49098117585527 0 0 0 0 7.6621608749264851 42.092062826748588 0 42.092062826748588 77.640150102131884 0 0 0 0 42.227308797300793 170.09659372022725 0 170.09659372022725 202.75327329459833 0 0 0 0 -113.34257224260364 4.0202634412635234 0 4.0202634412635234 88.458945480757393 0 0 0 0 38.669339904925437 39.839610016373626 0 39.839610016373626 68.481509971432388 0 0 0 0 510.66704048580141 1459.5554373118503 0 1459.5554373118503 1028.3492918576012 0 0 0 0 170.77891568583436 1201.256260529306 0 1201.256260529306 1476.9561139104917 0 0 0 0 6.3149576825671829 963.45262117686798 0 963.45262117686798 1179.9116669569157 0 0 0 0 137.22869574275683 937.59136699131341 0 937.59136699131341 989.67235176112445 0 0 0 0 153.41738221040578 991.3463536870986 0 991.3463536870986 990.07333388954248 0 0 0 0 -7.3888220109074609 29.771441089960717 0 29.771441089960717 21.436955825382029 0 0 0 0 -25.039725423442746 21.365725584615305 0 21.365725584615305 -17.144221470979687 0 0 0 0 253.25782302510925 806.37175778135133 0 806.37175778135133 1031.6446488832098 0 0 0 0 815.79218145139384 590.9936074674597 0 590.9936074674597 252.781716856407 0 0 0 0 421.76730894471984 764.3901634169888 0 764.3901634169888 176.5479292228556 0 0 0 0 631.17015094452654 600.62014514992916 0 600.62014514992916 -771.67978095692524 0 0 0 0 486.52750110268244 964.76077179676213 0 964.76077179676213 269.58588464681634 0 0 0 0 345.85568260285072 986.17109697809065 0 986.17109697809065 266.50830613047583 0 0 0 0 1046.7607243982202 884.73493155174947 0 884.73493155174947 -975.68515978234063 0 0 0 0 593.88243361550849 689.97197193749162 0 689.97197193749162 -949.47010215255432 0 0 0 0 824.42548354240716 484.7203225190824 0 484.7203225190824 -1731.419625239927 0 0 0 0 571.70869909036264 743.90502239198395 0 743.90502239198395 -824.02920739003457 0 0 0 0 743.18238664226374 372.6057433799142 0 372.6057433799142 -1769.300120457483 0 0 0 0 488.25086032252875 726.9891164722867 0 726.9891164722867 -1933.0602194581988 0 0 0 0 459.22227500984445 456.9063080765518 0 456.9063080765518 -2505.6880479590909 0 0 0 0 586.94082424242515 515.29691744200682 0 515.29691744200682 -1735.3217652541061 0 0 0 0 765.50560900963319 440.18135446489759 0 440.18135446489759 -2387.0176868311246 0 0 0 0 406.69183066018741 239.50353140086372 0 239.50353140086372 -2429.437886980344 0 0 0 0 830.34871434984962 342.75815441021405 0 342.75815441021405 -2500.8866998338781 0 0 0 0 19.520240956248017 203.20222799626208 0 203.20222799626208 -2456.1071133361002 0 0 0 0 742.9194892529631 158.2556694530067 0 158.2556694530067 -2489.0439313146526 0 0 0 0 -14.626801052509109 606.39182160990822 0 606.39182160990822 -1498.4833787382377 0 0 0 0 470.92098571825773 566.2407637150136 0 566.2407637150136 -1751.2099943256035 0 0 0 0 810.01786098460434 862.42290691394737 0 862.42290691394737 -1095.8665275513122 0 0 0 0 843.36866413836833 399.04892345976987 0 399.04892345976987 -1681.4374229809837 0 0 0 0 714.37461689955671 587.59266008888153 0 587.59266008888153 -668.01432182893041 0 0 0 0 2056.0929241601261 1426.8879096499222 0 1426.8879096499222 -322.38080172447371 0 0 0 0 779.86194374569459 -207.00086274274508 0 -207.00086274274508 -204.70986621652992 0 0 0 0 -151.93096308081294 363.51368640606233 0 363.51368640606233 -537.83169755029303 0 0 0 0 787.29998084872659 -45.270624667035861 0 -45.270624667035861 -1036.7149185158341 0 0 0 0 -343.02344838820864 1026.0397864387778 0 1026.0397864387778 2645.0536214088497 0 0 0 0 3064.2928878546227 299.54896713103517 0 299.54896713103517 -265.70695857398096 0 0 0 0 5.5202096322233274 3.4874400956182967 0 3.4874400956182967 1.4829467789982687 0 0 0 0 1197.6391129461699 2285.8666967146128 0 2285.8666967146128 2040.559040473323 0 0 0 0 -649.02713018513896 607.89609604828183 0 607.89609604828183 2294.2858033641241 0 0 0 0 2026.7255609252607 2697.5763873578253 0 2697.5763873578253 1714.922468265373 0 0 0 0 757.24495155381737 2122.192966371942 0 2122.192966371942 3565.7817280253221 0 0 0 0 170.0313762879814 1134.4592293109745 0 1134.4592293109745 1931.3527488311811 0 0 0 0 678.18238389826729 1190.8695846043593 0 1190.8695846043593 401.63604951389425 0 0 0 0 1775.1284638372017 2316.4061834881286 0 2316.4061834881286 1179.1624854659167 0 0 0 0 -360.50020281921024 379.44074304730748 0 379.44074304730748 -237.74095617071725 0 0 0 0 0.3325343694887124 830.40759800600426 0 830.40759800600426 149.0242736552209 0 0 0 0 -532.97070472312043 229.6097974607037 0 229.6097974607037 258.17312614322873 0 0 0 0 -370.07366147424909 832.07579365597849 0 832.07579365597849 -359.33508491069006 0 0 0 0 7.5296855717090239 5.5989396129558031 0 5.5989396129558031 1.7139514753481535 0 0 0 0 -126.18878549143756 88.082538126243435 0 88.082538126243435 -420.69545014062896 0 0 0 0 -0.69985130561690312 593.00291459048822 0 593.00291459048822 -784.47517264795169 0 0 0 0 -314.54463690705597 8.7524022762409004 0 8.7524022762409004 -1241.1615566883484 0 0 0 0 0.16436946540488862 1155.8875287722476 0 1155.8875287722476 -1965.0820342952138 0 0 0 0 5.2316405228459075 1.8205377137508663 0 1.8205377137508663 -3.7574062190315942 0 0 0 0 -327.12808454714832 750.50733643199419 0 750.50733643199419 -869.57497613724627 0 0 0 0 53.497467253344439 119.80950155157961 0 119.80950155157961 -1978.1718083001615 0 0 0 0 -371.44206807718729 794.25949536306871 0 794.25949536306871 -2404.5458252633107 0 0 0 0 394.08202479335887 -78.806713297781243 0 -78.806713297781243 -3918.9348169138175 0 0 0 0 -184.3563334859773 -214.02368935778622 0 -214.02368935778622 -3694.4624153004625 0 0 0 0 -3.1008179646159988 1052.859877954048 0 1052.859877954048 -4693.4535462518143 0 0 0 0 -5.5334780330902049 7.9032580031028896 0 7.9032580031028896 -11.800868541887098 0 0 0 0 351.60235524750897 -1324.470104504504 0 -1324.470104504504 -7140.3475536416736 0 0 0 0 0.54906913444881389 412.28646457612462 0 412.28646457612462 700.59375611959695 0 0 0 0 40.347582446731394 476.28736811558338 0 476.28736811558338 763.24182333371573 0 0 0 0 122.37198035325855 569.79935891072091 0 569.79935891072091 770.27338900348695 0 0 0 0 -653.96781152258336 -537.92629717933596 0 -537.92629717933596 -3566.8111686668271 0 0 0 0 226.20160885470978 -734.54277498687952 0 -734.54277498687952 -4206.0579282338913 0 0 0 0 -159.98795167947537 -467.90107960469322 0 -467.90107960469322 -2935.9674113650472 0 0 0 0 676.59727496365667 108.77030642539466 0 108.77030642539466 -3244.2228000062896 0 0 0 0 -44.518676004643567 55.050602132878709 0 55.050602132878709 -38.287756992851321 0 0 0 0 170.32112934852194 -54.854557445993123 0 -54.854557445993123 -2421.7749015908339 0 0 0 0 293.27844282082515 212.44754529596321 0 212.44754529596321 184.50657474922627 0 0 0 0 311.16350402438547 399.05701181683798 0 399.05701181683798 367.74976968529518 0 0 0 0 -22.193439368771578 28.715584530849856 0 28.715584530849856 -21.997530907271269 0 0 0 0 784.66038987252978 434.39447664231557 0 434.39447664231557 -431.52746204872528 0 0 0 0 19.26939329301797 13.517402886264506 0 13.517402886264506 13.322167728694922 0 0 0 0 1108.6273873567989 940.54799178491157 0 940.54799178491157 19.582072618861275 0 0 0 0 -206.47731595777441 165.42286962656726 0 165.42286962656726 -94.26599624402661 0 0 0 0 53.489796909120003 53.312042706152027 0 53.312042706152027 -22.785476019103314 0 0 0 0 -48.361316011782037 -77.73012156504592 0 -77.73012156504592 -8.6080859320209129 0 0 0 0 604.27093763608718 978.11143160595384 0 978.11143160595384 1829.320735905465 0 0 0 0 -197.97370113554643 -63.101194338491041 0 -63.101194338491041 1184.1060815425117 0 0 0 0 -575.81408120668721 1160.0451232221108 0 1160.0451232221108 2086.604788051045 0 0 0 0 -313.41840997076361 280.9274171955858 0 280.9274171955858 4055.0561928087845 0 0 0 0 1552.1947248993965 273.42060336274881 0 273.42060336274881 -1571.4781752607305 0 0 0 0 252.44723372242879 2194.97358852459 0 2194.97358852459 2943.745232052177 0 0 0 0 -586.05393551931866 167.36194738614159 0 167.36194738614159 1028.7755601777026 0 0 0 0 2007.3662696755782 2054.9762994432058 0 2054.9762994432058 -293.04818321225321 0 0 0 0 -38.80595810743398 -122.0956626495572 0 -122.0956626495572 -253.77186707672445 0 0 0 0 -769.0586385953211 -892.3319089579818 0 -892.3319089579818 2267.0129525203738 0 0 0 0 -154.23371963911632 -80.965338086109114 0 -80.965338086109114 875.95910129738331 0 0 0 0 -0.50818404168239795 433.94989580972651 0 433.94989580972651 811.95060236994323 0 0 0 0 -96.455852985411184 454.10064420766139 0 454.10064420766139 977.68744959672404 0 0 0 0 -189.59931253711693 601.28857739242267 0 601.28857739242267 792.95140631086542 0 0 0 0 179.57196941893199 1328.4852700536649 0 1328.4852700536649 2168.7005838719615 0 0 0 0 6.0295409327954985 54.976611875375966 0 54.976611875375966 63.796099290982056 0 0 0 0 -23.201303456880851 60.746491597237764 0 60.746491597237764 64.547072761989511 0 0 0 0 0.0068375057162484154 55.155225096605136 0 55.155225096605136 58.986672156999703 0 0 0 0 -0.0044122476829215884 60.890262289722159 0 60.890262289722159 132.28826802413096 0 0 0 0 -7.5041684748139232 34.325820106067113 0 34.325820106067113 102.24717838772631 0 0 0 0 -8.2754694978939369 49.415342416155909 0 49.415342416155909 138.92373423975368 0 0 0 0 20.054643455794292 49.834510141849137 0 49.834510141849137 86.914967103857236 0 0 0 0 -29.823724106235829 -11.504338617188523 0 -11.504338617188523 31.428332370966473 0 0 0 0 -1800.5058954926499 742.81319837521005 0 742.81319837521005 -488.52361790899886 0 0 0 0 3.2592037520552708 14.479708543892087 0 14.479708543892087 16.97382164691345 0 0 0 0 -1626.4502827932592 -112.73707142291823 0 -112.73707142291823 1745.0636702619086 0 0 0 0 595.20270845876075 1044.3061859578665 0 1044.3061859578665 252.02504953700554 0 0 0 0 -1434.8546409089176 -1191.538766761194 0 -1191.538766761194 642.75323810884584 0 0 0 0 -1428.7538568054442 -1273.8134166245727 0 -1273.8134166245727 1386.3965348077327 0 0 0 0 -795.93801323404477 -1056.8693576750447 0 -1056.8693576750447 -613.9265209211444 0 0 0 0 982.51351915074338 203.68089880804473 0 203.68089880804473 -402.87442840574658 0 0 0 0 4.075137055751668 -3.420948663933018 0 -3.420948663933018 -1.9229656493641301 0 0 0 0 -309.73663668846712 47.802755204727873 0 47.802755204727873 486.33312674594526 0 0 0 0 18.563357219609316 34.531608970875823 0 34.531608970875823 473.25111921079224 0 0 0 0 109.84120633560815 575.6799083985461 0 575.6799083985461 964.50932865682989 0 0 0 0 -251.03663682483602 106.45830725386622 0 106.45830725386622 719.31152939786261 0 0 0 0 -29.197472824889701 128.11056614725385 0 128.11056614725385 215.08447056025034 0 0 0 0 -133.41151959190029 478.30366454237083 0 478.30366454237083 22.010608370706905 0 0 0 0 -53.509257999336114 464.08172092239693 0 464.08172092239693 -201.61988303947146 0 0 0 0 -45.063601258880226 340.34088641864946 0 340.34088641864946 -320.62632088056125 0 0 0 0 -138.15010202440317 350.40149318589101 0 350.40149318589101 -135.55356982714147 0 0 0 0 -157.98989174098824 422.37153364619007 0 422.37153364619007 359.28212706322665 0 0 0 0 -177.87838964092953 529.04044738416269 0 529.04044738416269 -64.284739359354717 0 0 0 0 -119.91851361762383 587.73391921592702 0 587.73391921592702 -103.40841942386032 0 0 0 0 -1508.3235884367023 1004.8381183334204 0 1004.8381183334204 619.44072493615386 0 0 0 0 184.44489496304595 -610.68863844485895 0 -610.68863844485895 1362.8528060700919 0 0 0 0 -1069.2172427242476 267.1522945629149 0 267.1522945629149 1480.9727136031579 0 0 0 0 16.116197133035769 26.828623430721393 0 26.828623430721393 47.311064185691635 0 0 0 0 -14.29113087526639 27.714050731072348 0 27.714050731072348 16.1743650114513 0 0 0 0 5.765961677025814 6.548164286854103 0 6.548164286854103 15.733937058995082 0 0 0 0 -0.052384728667675517 44.954544382686436 0 44.954544382686436 2.6106998860595922 0 0 0 0 109.80234076888883 -2389.9232634968139 0 -2389.9232634968139 2784.6410294902889 0 0 0 0 6.7579869154578773 1893.4969299077711 0 1893.4969299077711 -453.78637200222875 0 0 0 0 -334.38515175138309 1073.1761098815768 0 1073.1761098815768 -1169.9104342557403 0 0 0 0 -16.672681098669841 16.856058980310323 0 16.856058980310323 -20.591383321131644 0 0 0 0 -866.46039165161346 755.15728330189836 0 755.15728330189836 750.50738136575092 0 0 0 0 -921.41340724521433 1907.556031080112 0 1907.556031080112 265.93953611238976 0 0 0 0 -2.9310170274548 1229.9907683618731 0 1229.9907683618731 744.69602370168286 0 0 0 0 -368.03592949016456 1148.1018135993309 0 1148.1018135993309 782.54580502053432 0 0 0 0 -100.7078797078575 1095.2597694535907 0 1095.2597694535907 808.89954252036114 0 0 0 0 -321.89886654221482 1274.6893578815416 0 1274.6893578815416 1111.5861076900328 0 0 0 0 -539.39855790842557 889.25349344121332 0 889.25349344121332 1322.9266469669674 0 0 0 0 -551.35590240615784 782.76319184255271 0 782.76319184255271 890.69672646364779 0 0 0 0 -9.0253107141409714 24.024811196781513 0 24.024811196781513 16.02001223682197 0 0 0 0 2675.5006496234801 1111.0995524353241 0 1111.0995524353241 378.34728241272387 0 0 0 0 -71.485083044826752 28.257360880124907 0 28.257360880124907 2295.13503136488 0 0 0 0 -102.34671248955783 -368.71681645712943 0 -368.71681645712943 1153.0937794145721 0 0 0 0 2968.1013183167379 1665.5908815967996 0 1665.5908815967996 801.60832975132507 0 0 0 0 2697.237081675521 1608.6921166182919 0 1608.6921166182919 1295.8438476390438 0 0 0 0 2854.7254783217795 1227.04201476663 0 1227.04201476663 2190.4844788018963 0 0 0 0 2883.7616960629784 1664.8280859686029 0 1664.8280859686029 822.26006397299352 0 0 0 0 1108.6897591949673 2287.2226187322231 0 2287.2226187322231 2614.1210266819144 0 0 0 0 357.96465003467165 1174.3194774354706 0 1174.3194774354706 1040.5661333940952 0 0 0 0 914.10437888966408 1799.6243768419954 0 1799.6243768419954 1237.3059747933548 0 0 0 0 1035.6994319356163 887.46020528151712 0 887.46020528151712 509.24243300886883 0 0 0 0 684.12618196310359 1135.7080686877598 0 1135.7080686877598 670.40119585569846 0 0 0 0 2503.9736486667243 792.43238406055752 0 792.43238406055752 29.884044445920154 0 0 0 0 -46.862197683940622 58.125947041543618 0 58.125947041543618 -36.454403399843699 0 0 0 0 -42.289252540751477 293.68502327938404 0 293.68502327938404 34.05016814157716 0 0 0 0 759.49035112661659 369.81402803431411 0 369.81402803431411 32.108548939609534 0 0 0 0 -47.532361387148342 55.575655051463798 0 55.575655051463798 71.539086242587757 0 0 0 0 -151.88305238259636 193.50649198745668 0 193.50649198745668 -84.421451648522634 0 0 0 0 -3.634668334876153 2.7665421559241423 0 2.7665421559241423 25.840811053027466 0 0 0 0 116.12548697539023 53.829054340567382 0 53.829054340567382 135.58028269419447 0 0 0 0 -140.74712291587093 259.36573510210474 0 259.36573510210474 102.66284888438531 0 0 0 0 -85.82176966854604 66.793168546340894 0 66.793168546340894 89.797538867360345 0 0 0 0 -119.92427717633836 184.3266566723978 0 184.3266566723978 -233.45005075703375 0 0 0 0 125.70297434756503 -22.398566581501655 0 -22.398566581501655 -406.20989558921428 0 0 0 0 98.490550086280564 123.7755349293584 0 123.7755349293584 -1106.4808045487589 0 0 0 0 80.265820844331756 398.92422661638557 0 398.92422661638557 -723.30602998797258 0 0 0 0 -133.1771449551452 266.91191148147482 0 266.91191148147482 -258.46468585383263 0 0 0 0 77.674619178578723 333.57992931982881 0 333.57992931982881 -328.02307101452607 0 0 0 0 -186.69052526645828 352.7141270077409 0 352.7141270077409 -327.91899177132291 0 0 0 0 -408.80675378697924 252.21133405868022 0 252.21133405868022 -215.69322285984526 0 0 0 0 -650.75953730085166 254.83417803402699 0 254.83417803402699 67.462774851344875 0 0 0 0 2.7487254832637404 5.2134514868648694 0 5.2134514868648694 7.0121914310314537 0 0 0 0 -21.323813033814076 65.473533168340509 0 65.473533168340509 85.710519947277135 0 0 0 0 -18.22558160306653 62.122471296403091 0 62.122471296403091 69.293666566001775 0 0 0 0 -501.5992730481521 432.04004025269387 0 432.04004025269387 -282.5893601681455 0 0 0 0 -7.787009570733062 13.831058174764621 0 13.831058174764621 22.38347647890987 0 0 0 0 6.045379486999451 20.585086568755344 0 20.585086568755344 38.030621110142704 0 0 0 0 19.034864084329456 -0.93612858116102871 0 -0.93612858116102871 62.12562180590885 0 0 0 0 -20.015235390565238 14.121280685745191 0 14.121280685745191 6.9851655481816977 0 0 0 0 -9.2948762041633017 37.094719178850937 0 37.094719178850937 59.32875717265415 0 0 0 0 -277.3782699550211 169.68578505265032 0 169.68578505265032 -9.0668645650730468 0 0 0 0 -268.48259517905535 172.9022747464478 0 172.9022747464478 -74.240348292369163 0 0 0 0 0.48499045670715191 14.118825215145819 0 14.118825215145819 40.978135044507781 0 0 0 0 -146.0215192354226 170.82392611181422 0 170.82392611181422 -9.5670084906778357 0 0 0 0 0.37756285618200991 29.320646211990493 0 29.320646211990493 51.900951796506433 0 0 0 0 -7.9691058235621313 76.103317994016834 0 76.103317994016834 62.258998611367133 0 0 0 0 -28.93801929023175 27.567259560377085 0 27.567259560377085 5.4777128878122312 0 0 0 0 -16.019742048469197 26.054861913631612 0 26.054861913631612 41.353929194840021 0 0 0 0 109.01110703879385 74.38492022898572 0 74.38492022898572 54.808723648646264 0 0 0 0 -100.73286719343741 -60.136845566630655 0 -60.136845566630655 53.598490880787722 0 0 0 0 81.28021607681876 -97.873289321643824 0 -97.873289321643824 -44.962600900238613 0 0 0 0 -30.906136084023103 18.597555661301673 0 18.597555661301673 -12.485478578114098 0 0 0 0 -13.597109877038747 63.69103155260018 0 63.69103155260018 68.601967091308325 0 0 0 0 -334.95040992545546 255.30365755117964 0 255.30365755117964 199.27587781074544 0 0 0 0 1.3897419382119551 67.076043811804993 0 67.076043811804993 10.8335111723718 0 0 0 0 -35.528894543412719 36.225904020944597 0 36.225904020944597 -9.5412356510862537 0 0 0 0 -17.483263344707666 52.894266910305305 0 52.894266910305305 67.675238633570189 0 0 0 0 126.3355470955139 479.91933396892273 0 479.91933396892273 369.75817987734627 0 0 0 0 45.397772104013711 -501.38465594960144 0 -501.38465594960144 666.34999599424191 0 0 0 0 -124.53007691993844 193.77122145501198 0 193.77122145501198 2066.5766533261267 0 0 0 0 49.446162082702358 95.215896894169418 0 95.215896894169418 24.613925877929432 0 0 0 0 -24.494130826430705 21.165652415096815 0 21.165652415096815 2.0021434229035009 0 0 0 0 40.591620021441486 49.485947437555296 0 49.485947437555296 24.44185498447041 0 0 0 0 -0.44871626171516255 75.1704002081824 0 75.1704002081824 44.131349441900966 0 0 0 0 -27.10510713095141 50.090440663578818 0 50.090440663578818 36.041256480794061 0 0 0 0 -19.771051123345387 70.842468256218126 0 70.842468256218126 43.625695728187566 0 0 0 0 -11.161808535258558 9.111528568723017 0 9.111528568723017 18.483286447774191 0 0 0 0 0.60042223198979627 44.813389046616066 0 44.813389046616066 25.965703894442413 0 0 0 0 -13.053607527486747 50.85777333045553 0 50.85777333045553 29.124594004264509 0 0 0 0 -143.45225601061247 168.50806676485809 0 168.50806676485809 246.48589819582412 0 0 0 0 -11.214208120189141 34.660763769323239 0 34.660763769323239 32.691600950623979 0 0 0 0 -1.22875553513677 1.3900438839586613 0 1.3900438839586613 -1.1090869408101298 0 0 0 0 27.528440501366276 -0.98553442757111043 0 -0.98553442757111043 -5.779571477236459 0 0 0 0 267.94928016737686 -147.08593616005965 0 -147.08593616005965 8.9386715564469341 0 0 0 0 10.321758587204386 20.003216881923436 0 20.003216881923436 -3.3750174585438799 0 0 0 0 -48.866390181428869 123.20853331177932 0 123.20853331177932 101.03272041803575 0 0 0 0 -35.194373098569656 19.275016576147479 0 19.275016576147479 -9.6886772809434945 0 0 0 0 65.978648646385409 53.694580665352987 0 53.694580665352987 -41.503002662182553 0 0 0 0 -80.507236415973239 194.06007863569357 0 194.06007863569357 -57.609452633449109 0 0 0 0 -43.33615764920205 36.168137900943314 0 36.168137900943314 -8.561861034897106 0 0 0 0 39.915523322008085 62.184229428741673 0 62.184229428741673 -4.3054298973147525 0 0 0 0 -37.226604745694203 30.848594388640777 0 30.848594388640777 -5.3954414365161938 0 0 0 0 -15.495321438429528 102.48751088250719 0 102.48751088250719 156.37673315133725 0 0 0 0 1.071761021434213 5.5472177452757023 0 5.5472177452757023 -8.3311938230181113 0 0 0 0 100.04406142421067 133.4033777617442 0 133.4033777617442 66.024059122300969 0 0 0 0 -9.2334149996677297 8.50511833424207 0 8.50511833424207 90.227040790341562 0 0 0 0 68.544630919124756 157.72899113060157 0 157.72899113060157 99.164964518458873 0 0 0 0 126.01511714809749 196.86020200978237 0 196.86020200978237 103.01444347645884 0 0 0 0 308.03395274175273 314.5307153085887 0 314.5307153085887 149.04280210328398 0 0 0 0 371.70755397656831 338.18411631428853 0 338.18411631428853 58.83965281987912 0 0 0 0 779.34526454366278 626.28246638031851 0 626.28246638031851 260.60733866444207 0 0 0 0 152.70067365875002 123.84032294403733 0 123.84032294403733 68.948592810142145 0 0 0 0 625.4127173966408 -52.929662001923134 0 -52.929662001923134 -72.645131581200985 0 0 0 0 209.97361536473545 25.536304584745267 0 25.536304584745267 3.4834621673508082 0 0 0 0 -133.0232527127373 364.92672906212829 0 364.92672906212829 -190.23715912553598 0 0 0 0 -492.02848125397577 487.24328802287346 0 487.24328802287346 -160.66813445146545 0 0 0 0 -378.35876199608902 219.31956017865741 0 219.31956017865741 7.7703741951099801 0 0 0 0 -357.22578047751449 389.83896834131156 0 389.83896834131156 -237.80298282224976 0 0 0 0 -368.18335480542737 247.87963330220373 0 247.87963330220373 -153.22826615446684 0 0 0 0 -381.81092929949227 394.56710559887142 0 394.56710559887142 19.761039483186323 0 0 0 0 -384.81875434296671 51.190378614577639 0 51.190378614577639 391.94080823434706 0 0 0 0 -187.61035411569173 388.42538449955464 0 388.42538449955464 157.23711536679184 0 0 0 0 -260.30969106877455 280.57682204221055 0 280.57682204221055 -41.886337659911078 0 0 0 0 -802.76969588188513 448.26754063355474 0 448.26754063355474 82.160041625902522 0 0 0 0 5.3437054857627118 13.131926393945037 0 13.131926393945037 28.741981965582625 0 0 0 0 -740.67748469233629 -40.919114657754108 0 -40.919114657754108 792.1241612881131 0 0 0 0 -309.1262864017699 636.08215331009342 0 636.08215331009342 1126.5964577464911 0 0 0 0 -257.06107825023355 57.112691350412206 0 57.112691350412206 354.17797622730723 0 0 0 0 -240.58384509841562 282.10225561232073 0 282.10225561232073 238.86984823187231 0 0 0 0 12.555750131291518 12.261742413100933 0 12.261742413100933 11.572539027698667 0 0 0 0 -462.81086049598525 165.70161324761284 0 165.70161324761284 1508.2693967327832 0 0 0 0 82.62744089026819 923.29686041412424 0 923.29686041412424 1180.5703929959855 0 0 0 0 -517.6409673969174 406.49773297669526 0 406.49773297669526 997.45512191207672 0 0 0 0 -422.71539562515682 200.47960077090829 0 200.47960077090829 918.48497817686984 0 0 0 0 698.77475890927599 -253.43878225475055 0 -253.43878225475055 563.07160693405604 0 0 0 0 693.1008860191796 786.13146809930913 0 786.13146809930913 527.37051229048666 0 0 0 0 436.30527376689133 174.06360172433233 0 174.06360172433233 18.41989599756198 0 0 0 0 60.233865089830942 -106.76467369825696 0 -106.76467369825696 567.40900745052932 0 0 0 0 233.80212069291156 276.3058927191596 0 276.3058927191596 378.57306581032753 0 0 0 0 128.63904269724299 288.16775344732559 0 288.16775344732559 1302.3072359996731 0 0 0 0 1036.7584551682521 1005.2526534644421 0 1005.2526534644421 804.82647340853146 0 0 0 0 319.05384516553931 477.53268462596725 0 477.53268462596725 422.25776936893817 0 0 0 0 1646.3847481029807 348.69403233024059 0 348.69403233024059 83.380560735287872 0 0 0 0 0.41862072449197285 3.1966597543303692 0 3.1966597543303692 13.141541857512152 0 0 0 0 55.471268148423405 323.83425110823373 0 323.83425110823373 287.55838319918985 0 0 0 0 2.3134744861983592 -2.8594468304379745 0 -2.8594468304379745 -0.80124875983733546 0 0 0 0 -28.101711763447383 269.24357068738755 0 269.24357068738755 586.12107641432522 0 0 0 0 104.1984951874183 193.39593585986586 0 193.39593585986586 58.228445336972072 0 0 0 0 317.35105822223886 492.59342935209816 0 492.59342935209816 343.96143501542974 0 0 0 0 -211.33043315581745 -164.29674313379655 0 -164.29674313379655 288.40104101477846 0 0 0 0 30.130724415132136 76.400293079437688 0 76.400293079437688 6.5763317053206265 0 0 0 0 -76.48047021144157 8.3490829049005697 0 8.3490829049005697 62.356184230615327 0 0 0 0 -2.9332472808181365 -1.0616362060557378 0 -1.0616362060557378 0.83992379395232319 0 0 0 0 -353.34942161804065 -28.844024098631053 0 -28.844024098631053 162.36000727280043 0 0 0 0 -24.921626041352283 110.80372857436578 0 110.80372857436578 31.545327906089369 0 0 0 0 -17.257185890659457 5.0449603762535844 0 5.0449603762535844 -13.207291392303887 0 0 0 0 157.30063319926558 -20.036707925712108 0 -20.036707925712108 -13.761319379969791 0 0 0 0 -64.405461528938019 52.387609480516275 0 52.387609480516275 -34.421636720163036 0 0 0 0 -88.488039700983791 155.80822133993206 0 155.80822133993206 78.768541573226685 0 0 0 0 -8.8375044604532604 1.0347497715801381 0 1.0347497715801381 8.0138412497481397 0 0 0 0 -323.70646542799659 -185.4451500113646 0 -185.4451500113646 421.15905037890479 0 0 0 0 -162.86547990399413 42.414034062276187 0 42.414034062276187 -477.88976223557256 0 0 0 0 287.22689586345223 213.27633651887299 0 213.27633651887299 -624.70154599798843 0 0 0 0 -175.80447058842401 123.7961466426641 0 123.7961466426641 81.315709339702153 0 0 0 0 -196.16001757635968 32.523229560902109 0 32.523229560902109 -82.305459835770307 0 0 0 0 -301.99743377059349 206.83333462323208 0 206.83333462323208 -33.769747810767512 0 0 0 0 -150.40417245864228 40.275249426507798 0 40.275249426507798 14.253370056707354 0 0 0 0 -196.27651526211412 -29.117969818133133 0 -29.117969818133133 7.9068728630973055 0 0 0 0 -127.12166025888291 49.004472126995097 0 49.004472126995097 -5.3216831388854189 0 0 0 0 -215.69663712108741 77.723481338878628 0 77.723481338878628 127.87129604778602 0 0 0 0 -237.86367212518235 266.89309022575617 0 266.89309022575617 188.07579508021445 0 0 0 0 -296.59807488486695 210.36927608257974 0 210.36927608257974 -40.203014126382186 0 0 0 0 -740.44774235543446 169.99490569846967 0 169.99490569846967 285.51294234729721 0 0 0 0 -308.63464509377081 150.49320893614095 0 150.49320893614095 132.09387714495824 0 0 0 0 70.996531287280959 156.37896809421727 0 156.37896809421727 110.33445212694642 0 0 0 0 255.51078644842346 364.69825018081974 0 364.69825018081974 241.38277450221358 0 0 0 0 158.32109796737495 335.28805212373118 0 335.28805212373118 233.92765541631525 0 0 0 0 148.11557919102779 452.21560323878657 0 452.21560323878657 340.03676853456273 0 0 0 0 348.87062006678389 482.58822086777172 0 482.58822086777172 216.57735718997719 0 0 0 0 265.19189717732661 396.89573806017142 0 396.89573806017142 132.98245158419377 0 0 0 0 414.43140499226865 432.41251136412757 0 432.41251136412757 138.74004393792347 0 0 0 0 94.98461846761893 384.92280821290478 0 384.92280821290478 464.79154432316136 0 0 0 0 276.93115856214717 290.17875089846348 0 290.17875089846348 110.59352123233839 0 0 0 0 1208.4061396552279 501.44732721398032 0 501.44732721398032 158.11471209950832 0 0 0 0 -54.347557447908912 372.92655992899381 0 372.92655992899381 889.87703139489895 0 0 0 0 5.0001218311400635 4.5508827822937405 0 4.5508827822937405 7.3111117168841133 0 0 0 0 -36.56953393042204 103.91379250232421 0 103.91379250232421 184.24642850482633 0 0 0 0 32.119463907016325 141.73101686263135 0 141.73101686263135 33.087291834555799 0 0 0 0 -58.260819144925335 109.0121533853453 0 109.0121533853453 32.356503969134565 0 0 0 0 -3.3311200461343446 27.093472499198526 0 27.093472499198526 9.0221331083872656 0 0 0 0 339.16737460927106 105.76982191458956 0 105.76982191458956 -253.65858300613763 0 0 0 0 995.66181425773539 -311.1068618059071 0 -311.1068618059071 -48.34641569366795 0 0 0 0 237.6798888596968 90.037522159746004 0 90.037522159746004 -100.86626291564608 0 0 0 0 536.05438309708552 381.09493956601182 0 381.09493956601182 -43.083250192081323 0 0 0 0 316.80067533202237 171.6304440494132 0 171.6304440494132 -164.85895674012136 0 0 0 0 271.04305634064804 171.29215360681701 0 171.29215360681701 7.228121041378472 0 0 0 0 152.43599034560611 31.899276463445858 0 31.899276463445858 71.309397516572062 0 0 0 0 -1340.6422004886408 1383.0539719943663 0 1383.0539719943663 -366.84444641682785 0 0 0 0 -1.5148037655644089 4.3396422446323584 0 4.3396422446323584 5.5970668496863141 0 0 0 0 -265.1497028915328 775.5482124031405 0 775.5482124031405 -216.50376276903262 0 0 0 0 -793.20514137622376 491.66291666815596 0 491.66291666815596 306.63261599784892 0 0 0 0 763.52274314084025 890.63447253049617 0 890.63447253049617 164.4692838628107 0 0 0 0 -417.1424299319915 307.16411525953299 0 307.16411525953299 11.260113861884747 0 0 0 0 -1380.4329550788534 399.01941750562401 0 399.01941750562401 205.0520937295405 0 0 0 0 -341.82971248581271 669.2131389225051 0 669.2131389225051 -616.29242527084716 0 0 0 0 -483.81854031105468 193.40376786405977 0 193.40376786405977 -55.956866308421013 0 0 0 0 -6.964070405185339 -180.75313458775781 0 -180.75313458775781 928.25355235704774 0 0 0 0 -401.1516906668694 363.78726267111051 0 363.78726267111051 290.64335817979008 0 0 0 0 -373.78706172382226 -74.185661838655506 0 -74.185661838655506 395.60275125734915 0 0 0 0 329.43932324508205 255.41020631798165 0 255.41020631798165 130.5753253677849 0 0 0 0 -566.04394208107624 272.03505605729879 0 272.03505605729879 204.02270324605342 0 0 0 0 -901.42945867634262 383.76555237872162 0 383.76555237872162 -342.54870947457675 0 0 0 0 -1067.2966716937663 256.84729515137587 0 256.84729515137587 337.41161963193008 0 0 0 0 -1061.384204489892 314.23425973009398 0 314.23425973009398 310.79453425125394 0 0 0 0 -2.595792509074613 2.6138973784222514 0 2.6138973784222514 6.6002188097305918 0 0 0 0 -1062.1205273313317 939.56414943455457 0 939.56414943455457 -787.59447349389666 0 0 0 0 -1518.3003558628843 1048.1508248037353 0 1048.1508248037353 -132.3918661452517 0 0 0 0 -2.0712545176819503 6.742275929579165 0 6.742275929579165 11.560788703522036 0 0 0 0 -1275.3717439655811 1066.9909751049454 0 1066.9909751049454 -448.62802500986436 0 0 0 0 -1185.2645770178497 903.98651355191396 0 903.98651355191396 -533.52911574198515 0 0 0 0 -1540.1305805526426 1067.7338095783743 0 1067.7338095783743 -608.70068821386667 0 0 0 0 -1420.2856972169102 780.88605949765042 0 780.88605949765042 -176.44761086985454 0 0 0 0 -364.64075972284809 750.66445568533709 0 750.66445568533709 -271.13579563707754 0 0 0 0 -345.86578445638588 613.5207132026153 0 613.5207132026153 -798.72336639633431 0 0 0 0 -760.09389127546456 1313.3289542780258 0 1313.3289542780258 -359.91117837400088 0 0 0 0 -1184.2204532142023 874.9953954125308 0 874.9953954125308 -55.896965739739244 0 0 0 0 49.27676246741612 195.24563038579072 0 195.24563038579072 339.56163801073126 0 0 0 0 -797.92347190527653 1085.55083970333 0 1085.55083970333 1837.9616930528937 0 0 0 0 -244.9006798127084 1153.8554058101126 0 1153.8554058101126 -3076.3824935305165 0 0 0 0 -3.802271372824805 10.79648320110357 0 10.79648320110357 -2.6388353821718482 0 0 0 0 -856.27976240296266 780.45845931739677 0 780.45845931739677 -728.29488908089479 0 0 0 0 -976.57321177066478 1019.5291591464265 0 1019.5291591464265 -684.12534894394048 0 0 0 0 -876.7407997183509 949.63194736687387 0 949.63194736687387 -760.25821989064571 0 0 0 0 -60.298762382148027 36.32721372875848 0 36.32721372875848 -15.189503920071999 0 0 0 0 45.879123067163164 1097.0481383981605 0 1097.0481383981605 3017.246536886727 0 0 0 0 -906.60548328509321 186.45469506876361 0 186.45469506876361 441.4284937830671 0 0 0 0 -1023.330637159539 396.2455590337413 0 396.2455590337413 146.66128598818614 0 0 0 0 -656.97405385399179 304.08314979266288 0 304.08314979266288 169.83017719389318 0 0 0 0 -891.0333543780232 325.20860115200503 0 325.20860115200503 273.13928551130812 0 0 0 0 -972.24928489279409 451.99325560761645 0 451.99325560761645 363.75941989194325 0 0 0 0 -905.39263267819115 445.62509590301852 0 445.62509590301852 215.92599846409576 0 0 0 0 -679.68051947696949 324.80026417725458 0 324.80026417725458 80.500244811897574 0 0 0 0 -664.30599398872437 366.05106787608929 0 366.05106787608929 177.95739929152478 0 0 0 0 -1018.8934752303758 547.58875797429209 0 547.58875797429209 89.501477253659687 0 0 0 0 -929.82318176258559 240.83041635517293 0 240.83041635517293 -111.67364034733328 0 0 0 0 -89.717918736045249 151.39316002163832 0 151.39316002163832 388.79175024254073 0 0 0 0 -20.609097488223796 12.906381018479351 0 12.906381018479351 -6.1241970414200466 0 0 0 0 -69.791760477048342 52.084653072706317 0 52.084653072706317 -29.576148637251919 0 0 0 0 -192.84331084694713 546.13777238811599 0 546.13777238811599 -251.42092768862494 0 0 0 0 -405.09925307132653 316.51206560909486 0 316.51206560909486 -140.45150810701307 0 0 0 0 -447.6108198313741 602.75144337936217 0 602.75144337936217 -255.38267207772878 0 0 0 0 198.67315257556038 432.10007239888364 0 432.10007239888364 -437.60730095926556 0 0 0 0 -73.953824391588569 254.47306528191257 0 254.47306528191257 -346.77937446552096 0 0 0 0 -238.89091321370506 277.39297670736414 0 277.39297670736414 174.34655813106656 0 0 0 0 -52.161503967984174 32.550361124759917 0 32.550361124759917 -18.641384551685576 0 0 0 0 256.96999749905081 3.5305652383976849 0 3.5305652383976849 40.741560172435129 0 0 0 0 350.73990940116346 -141.33355928740639 0 -141.33355928740639 247.16223389323568 0 0 0 0 -2462.7613475840626 1551.7900776974566 0 1551.7900776974566 781.18837921107479 0 0 0 0 -2472.1909708331077 1643.0250240101232 0 1643.0250240101232 -80.554450836702017 0 0 0 0 -506.25474686491361 1233.9554199257182 0 1233.9554199257182 -951.24518778947822 0 0 0 0 -1050.1566478190216 1916.7535494974436 0 1916.7535494974436 -611.14924874596909 0 0 0 0 969.55552213570627 1412.8979213750063 0 1412.8979213750063 -845.65811081976426 0 0 0 0 477.88783154315752 966.10505216886668 0 966.10505216886668 -259.92160001103184 0 0 0 0 177.08039569802349 1821.0719220803294 0 1821.0719220803294 -791.46931061465875 0 0 0 0 545.22978538696771 761.05744002952997 0 761.05744002952997 -266.62416301373742 0 0 0 0 492.10822117282805 1096.3507440761714 0 1096.3507440761714 317.05931154428981 0 0 0 0 716.11417212902961 500.64940086466231 0 500.64940086466231 1087.3470926966111 0 0 0 0 964.73434337355138 1399.435647366292 0 1399.435647366292 100.14426657378499 0 0 0 0 640.11353321318165 -525.44525696030178 0 -525.44525696030178 1825.7501486229885 0 0 0 0 -3620.2130263491708 3393.0601446333458 0 3393.0601446333458 -7.550791639223462 0 0 0 0 -71.381264529469888 50.621197965405173 0 50.621197965405173 -26.831808298775755 0 0 0 0 1701.2195990967157 739.54979682574049 0 739.54979682574049 -1122.0757492901757 0 0 0 0 -594.87223928833555 2512.7725068064901 0 2512.7725068064901 -997.54712855178514 0 0 0 0 -294.83850187167991 242.60696588231076 0 242.60696588231076 -111.32844959908107 0 0 0 0 -282.78896243256713 263.28776437429951 0 263.28776437429951 -88.741387099114945 0 0 0 0 900.97446476260666 1092.9719380919341 0 1092.9719380919341 -365.73004503727134 0 0 0 0 88.907027616354753 1401.4104793418155 0 1401.4104793418155 -487.12883293617051 0 0 0 0 236.75253912733751 1263.3469435121442 0 1263.3469435121442 -409.19061575528758 0 0 0 0 202.55670037371965 1409.6461582822558 0 1409.6461582822558 -589.23795251836418 0 0 0 0 62.206553712207096 1084.3390140039955 0 1084.3390140039955 -718.52909347080276 0 0 0 0 862.95230903725314 1229.8044651724922 0 1229.8044651724922 -665.75518879969604 0 0 0 0 -6.4393867006450165 11.128455787007951 0 11.128455787007951 -10.793328396846391 0 0 0 0 -2618.8066298032136 583.22106183756114 0 583.22106183756114 86.335050384761416 0 0 0 0 -143.10957440620405 -9.4144339600024978 0 -9.4144339600024978 291.54910656106949 0 0 0 0 386.16848549160932 134.4663483780314 0 134.4663483780314 -126.69456726427597 0 0 0 0 437.85437981272844 609.92235134194925 0 609.92235134194925 532.323017557399 0 0 0 0 289.79720177385025 112.97159665815707 0 112.97159665815707 140.83150051401026 0 0 0 0 864.74305157048366 303.36417895589329 0 303.36417895589329 44.418429652738268 0 0 0 0 408.80152129611815 325.96690523202778 0 325.96690523202778 92.331757166743046 0 0 0 0 152.02090694736762 188.8723810794545 0 188.8723810794545 -21.556830959307263 0 0 0 0 240.47384170555597 60.005011921311961 0 60.005011921311961 -99.980826437153155 0 0 0 0 -9.6862564371956381 20.236285613220886 0 20.236285613220886 -41.367517417091392 0 0 0 0 65.92197835733532 -8.8215219020785298 0 -8.8215219020785298 -40.522985833646089 0 0 0 0 3.6783148419034291 41.499705457929352 0 41.499705457929352 -70.683826843923725 0 0 0 0 -224.86037044006298 103.62762038757865 0 103.62762038757865 125.60472152188595 0 0 0 0 69.663100619611214 89.587356746451405 0 89.587356746451405 -103.19312736938809 0 0 0 0 126.32680820334645 121.25325595011236 0 121.25325595011236 -119.07366302332957 0 0 0 0 43.828873965854029 57.23551486582727 0 57.23551486582727 17.803688100936995 0 0 0 0 43.511107049191196 65.580008345219539 0 65.580008345219539 -6.6788170914078364 0 0 0 0 1612.8739542212643 -83.612979544770496 0 -83.612979544770496 -201.1433278828772 0 0 0 0 34.238792973306886 11.142381653229165 0 11.142381653229165 -11.592678235521134 0 0 0 0 1023.1502500060014 49.32135127481888 0 49.32135127481888 -223.11355686854222 0 0 0 0 557.29340393263192 1195.7787561108526 0 1195.7787561108526 -59.963980722503038 0 0 0 0 1075.0579154884763 1017.4949049286079 0 1017.4949049286079 -8.0344148907024646 0 0 0 0 2659.8295471360907 2098.8604963064718 0 2098.8604963064718 526.32703682353167 0 0 0 0 381.46970959981627 1970.2392699336015 0 1970.2392699336015 2886.6235702405393 0 0 0 0 2974.5351714323842 1497.1314264684261 0 1497.1314264684261 1667.6483003843314 0 0 0 0 -113.5952486959286 971.30590211450181 0 971.30590211450181 3063.9654359409396 0 0 0 0 1776.2368924239054 2624.5070778783484 0 2624.5070778783484 1685.669156230404 0 0 0 0 530.69145389458572 1252.2061990900111 0 1252.2061990900111 2940.0518643329706 0 0 0 0 -11.609577798920611 14.731356077988607 0 14.731356077988607 -10.862729131088258 0 0 0 0 1008.1707385846385 -145.04787934168417 0 -145.04787934168417 -3194.1062458594606 0 0 0 0 1662.2043246276444 1932.7535676982661 0 1932.7535676982661 -1668.4021736607974 0 0 0 0 2316.4774789928124 1481.5659744750519 0 1481.5659744750519 1.2813642103719758 0 0 0 0 531.83145953109852 1138.961400105447 0 1138.961400105447 -506.658370215795 0 0 0 0 782.10174726012337 557.70172334360541 0 557.70172334360541 -245.30551238001499 0 0 0 0 1.0441485498384822 -3.0673280338372706 0 -3.0673280338372706 -3.7768293431124675 0 0 0 0 128.90748344393796 9.966592705110088 0 9.966592705110088 -19.550025564385578 0 0 0 0 -10.908503347614896 75.368815455993172 0 75.368815455993172 0.082431336464364499 0 0 0 0 7.528585442825019 3.3019020831349621 0 3.3019020831349621 6.838140279035656 0 0 0 0 5765.8952958470982 -846.94926863056753 0 -846.94926863056753 -237.01876484748209 0 0 0 0 1528.1429309634577 128.54371451484212 0 128.54371451484212 -345.85960675735259 0 0 0 0 2608.2989419198857 618.72716805011441 0 618.72716805011441 -429.49703753653557 0 0 0 0 3609.9251163389345 -628.60457632981706 0 -628.60457632981706 -480.90583317613346 0 0 0 0 -924.0435607258114 -358.48678972156631 0 -358.48678972156631 3.5356093427690212 0 0 0 0 12.499006663830272 18.331997527804049 0 18.331997527804049 18.81483961799313 0 0 0 0 50.675361736837658 80.941145946286269 0 80.941145946286269 -19.550025564292287 0 0 0 0 12.29138510839789 6.1266351848701106 0 6.1266351848701106 -5.1493188400020244 0 0 0 0 1984.3455684770161 791.18146465056634 0 791.18146465056634 -107.03705084142348 0 0 0 0 6.4435705044624001 14.594916985481163 0 14.594916985481163 8.4695074983046652 0 0 0 0 17.883069551406194 30.560222278749109 0 30.560222278749109 24.149015955002085 0 0 0 0 46.195498918525118 35.554663853501552 0 35.554663853501552 19.170360192918452 0 0 0 0 1588.2968413867275 2076.1974171359288 0 2076.1974171359288 88.97576143531478 0 0 0 0 2447.4747873033775 1098.3928262072732 0 1098.3928262072732 -1564.1701472243512 0 0 0 0 84.442334819526877 317.91310373247688 0 317.91310373247688 1179.261617500888 0 0 0 0 7.9404787299012298 32.459144448810207 0 32.459144448810207 -6.2776844576949884 0 0 0 0 65.317265559744556 54.80155156319961 0 54.80155156319961 -1.5265883143874817 0 0 0 0 43.388389972096775 44.571340949536534 0 44.571340949536534 23.641195723990677 0 0 0 0 723.93331775651313 849.36442583153257 0 849.36442583153257 -1060.1668388217222 0 0 0 0 687.77769573607657 571.49254841007314 0 571.49254841007314 -212.93683219637023 0 0 0 0 1134.6498803501308 -113.81480723770801 0 -113.81480723770801 -628.09654444648186 0 0 0 0 1108.2537416825653 145.93815477230237 0 145.93815477230237 -1104.1710739401133 0 0 0 0 8.8311532340707117 8.4889015895333273 0 8.4889015895333273 9.2307987592471932 0 0 0 0 908.25001857329335 -169.05260285316035 0 -169.05260285316035 61.836849953706405 0 0 0 0 471.09866862732451 337.44668716857268 0 337.44668716857268 417.25971343755373 0 0 0 0 -69.346515119512333 -105.93689443357289 0 -105.93689443357289 58.35938172000715 0 0 0 0 -176.64757100061979 14.566434657324862 0 14.566434657324862 399.51968955993652 0 0 0 0 -140.41338206705404 144.75587740309857 0 144.75587740309857 859.02624171579373 0 0 0 0 -169.57859498032485 385.34427650105499 0 385.34427650105499 632.46486466459464 0 0 0 0 16.86668418849149 558.01531346073898 0 558.01531346073898 897.6703889236378 0 0 0 0 -83.607586267404258 364.08991759040509 0 364.08991759040509 537.81119685695739 0 0 0 0 -1363.7524597147421 465.86949666255532 0 465.86949666255532 1153.5200409930549 0 0 0 0 292.13256759411888 -381.64650556753622 0 -381.64650556753622 -136.88854777232336 0 0 0 0 780.1218591347133 534.74064994527726 0 534.74064994527726 33.481620217178715 0 0 0 0 -31.348241692292504 -66.400626907605329 0 -66.400626907605329 -245.72356355120428 0 0 0 0 -50.470349212890142 179.18745807401137 0 179.18745807401137 -257.65112671945826 0 0 0 0 280.11495800662669 80.447208777142805 0 80.447208777142805 -255.71756775106769 0 0 0 0 306.08788281388115 276.3660375525069 0 276.3660375525069 -69.815448375738924 0 0 0 0 221.81051860406296 -13.002068535730359 0 -13.002068535730359 -379.74730540905148 0 0 0 0 -211.14164260873804 155.19114924085443 0 155.19114924085443 366.67509012525261 0 0 0 0 -187.58701211320295 168.15823126847681 0 168.15823126847681 -0.30646875191564832 0 0 0 0 310.45175571273285 101.95874139452462 0 101.95874139452462 -399.09081072892877 0 0 0 0 -1.8905258335818758 3.7223093038315938 0 3.7223093038315938 5.9058843209282372 0 0 0 0 329.8218633421202 145.73682037297476 0 145.73682037297476 -425.48676986031933 0 0 0 0 -1180.33735617403 -182.85619451601815 0 -182.85619451601815 -59.863594511116389 0 0 0 0 -333.86548636032967 534.59934512675682 0 534.59934512675682 -0.58967698675498015 0 0 0 0 60.308526251857984 177.73482730756223 0 177.73482730756223 0.05683032181696035 0 0 0 0 344.99929805216379 189.73086345389311 0 189.73086345389311 -196.7776204951515 0 0 0 0 327.85945786960656 201.30989773603505 0 201.30989773603505 -141.9009865707485 0 0 0 0 95.684607950854115 37.386812199591077 0 37.386812199591077 -191.65175349672791 0 0 0 0 -187.17215505367494 61.757785350215272 0 61.757785350215272 -16.783728921378497 0 0 0 0 -218.52528724725266 360.26654835656177 0 360.26654835656177 742.74123115531984 0 0 0 0 -639.56200271412672 -170.29113298312586 0 -170.29113298312586 452.32186726409418 0 0 0 0 -2.1192061815372085 3.7003325843908215 0 3.7003325843908215 6.3602782805147626 0 0 0 0 481.60940300847869 323.19151454035455 0 323.19151454035455 -90.517591106530745 0 0 0 0 362.99199634914112 140.56792894106184 0 140.56792894106184 -197.28979647495726 0 0 0 0 312.28539540368365 568.8997239718592 0 568.8997239718592 491.64360670454334 0 0 0 0 468.03060056571849 402.59016776172211 0 402.59016776172211 379.99082600977272 0 0 0 0 0.32061108538817962 9.7102834270721701 0 9.7102834270721701 -1.1358637043736053 0 0 0 0 183.56119815265993 -24.518814107541402 0 -24.518814107541402 -10.637206859712023 0 0 0 0 384.58803110104793 130.67745779200845 0 130.67745779200845 -19.690288228914142 0 0 0 0 382.60902501844976 391.03909789471072 0 391.03909789471072 169.26717171029304 0 0 0 0 -41.325494269112824 485.52710165460303 0 485.52710165460303 650.59496103276615 0 0 0 0 75.18920104551944 253.11646795373235 0 253.11646795373235 -200.94562872955731 0 0 0 0 32.282508685780783 24.344472739676519 0 24.344472739676519 9.4546454605281269 0 0 0 0 98.288122959100292 63.467432677702163 0 63.467432677702163 -200.34311615876504 0 0 0 0 214.03358307571034 100.72968209486862 0 100.72968209486862 -121.990953333996 0 0 0 0 62.156806514860364 149.53132571524475 0 149.53132571524475 108.31302825964667 0 0 0 0 -31.238072898093378 84.15550047220313 0 84.15550047220313 -110.57248721001088 0 0 0 0 98.189785537513671 -5.7725783627756755 0 -5.7725783627756755 -93.376266696344828 0 0 0 0 73.036035948753124 20.211228541418677 0 20.211228541418677 -14.448898657165955 0 0 0 0 10.835550999778206 27.921438691701042 0 27.921438691701042 -101.13025505820406 0 0 0 0 69.303073140166816 46.808270594367059 0 46.808270594367059 -182.77214626781642 0 0 0 0 28.583986944518983 121.8415598795691 0 121.8415598795691 -184.59882575973461 0 0 0 0 18.238527907856621 51.426147778659356 0 51.426147778659356 -5.7834346002358217 0 0 0 0 3.1852866126064328 69.816396048448951 0 69.816396048448951 -71.825879989919486 0 0 0 0 48.80881657246897 28.621680213648972 0 28.621680213648972 -53.467359645166766 0 0 0 0 81.375449846556876 80.217890633415664 0 80.217890633415664 17.396633677999489 0 0 0 0 33.71640257764183 51.860019971564782 0 51.860019971564782 -8.4341328901980432 0 0 0 0 29.059189854020872 55.962661418359929 0 55.962661418359929 -12.99723585921987 0 0 0 0 -1.1271903775684677 105.74424451362199 0 105.74424451362199 -68.424016487537642 0 0 0 0 49.129281298997739 119.80626911997206 0 119.80626911997206 13.067904480034485 0 0 0 0 35.325436231447384 82.517941032594535 0 82.517941032594535 -30.567282437055837 0 0 0 0 49.129281298781279 119.80626911955187 0 119.80626911955187 13.067904480267316 0 0 0 0 86.605613667168655 100.54827495542122 0 100.54827495542122 39.853133736294694 0 0 0 0 31.21837142486072 64.947491394925493 0 64.947491394925493 -5.390691901952664 0 0 0 0 49.129281298966816 119.80626911988838 0 119.80626911988838 13.067904479219578 0 0 0 0 13.985140625743441 98.107190888925913 0 98.107190888925913 -30.393316228498747 0 0 0 0 36.985594797735246 95.535066427027033 0 95.535066427027033 -35.762535382247677 0 0 0 0 54.771313425277185 152.00282264736052 0 152.00282264736052 31.002806097996654 0 0 0 0 -36.767381905743321 51.94527697121768 0 51.94527697121768 8.9547709997741549 0 0 0 0 3.5372716546698939 94.253824359810096 0 94.253824359810096 -23.50324996677864 0 0 0 0 78.638347757369047 112.73067884446209 0 112.73067884446209 12.447122974495869 0 0 0 0 -4.6030070515337229 72.684711055204716 0 72.684711055204716 -23.965589915719022 0 0 0 0 -60.6989560823733 74.913863629735559 0 74.913863629735559 46.785564136926268 0 0 0 0 35.732133698184043 97.017958770273253 0 97.017958770273253 65.714890574992751 0 0 0 0 80.53639224152343 89.564446249197431 0 89.564446249197431 16.695291881003314 0 0 0 0 97.871195685977 184.30577751320379 0 184.30577751320379 -25.342233053008385 0 0 0 0 70.616496245958842 155.83767804544186 0 155.83767804544186 33.10061582151684 0 0 0 0 44.885212757013505 168.20587990670901 0 168.20587990670901 27.431031639280263 0 0 0 0 112.78350543040142 144.06509423610987 0 144.06509423610987 -2.8936923432920594 0 0 0 0 67.434844111587154 153.52077146773809 0 153.52077146773809 111.13354083092418 0 0 0 0 59.027668225447997 104.35749840839708 0 104.35749840839708 -236.86034876188205 0 0 0 0 16.816443277198175 10.345999650558156 0 10.345999650558156 0.40849288112396209 0 0 0 0 30.521962536244246 112.10963939139037 0 112.10963939139037 -231.25666060982621 0 0 0 0 -71.482504387706285 90.89896258560475 0 90.89896258560475 5.3017362605896778 0 0 0 0 7.9038541519840919 -3.157954519330076 0 -3.157954519330076 -1.3041646780551588 0 0 0 0 -88.310650703904685 -76.903811013849918 0 -76.903811013849918 -106.0942714966659 0 0 0 0 144.78051752637839 31.730127572111087 0 31.730127572111087 -650.44089601369342 0 0 0 0 99.20251972579419 87.103777368190094 0 87.103777368190094 39.530747764666842 0 0 0 0 88.128372251521796 142.01705009015859 0 142.01705009015859 -438.55993731063791 0 0 0 0 19.837101436263765 64.764714847100549 0 64.764714847100549 9.174402777251089 0 0 0 0 -439.2204860963393 1222.7417732205795 0 1222.7417732205795 460.76121291957679 0 0 0 0 45.842004431702492 60.251078819613269 0 60.251078819613269 33.382970304541914 0 0 0 0 -69.517025167268002 -243.75354327872628 0 -243.75354327872628 -417.85679165477632 0 0 0 0 -66.569112159239012 228.5460914680516 0 228.5460914680516 -117.78611461722176 0 0 0 0 184.48588666749129 154.58691137289861 0 154.58691137289861 -126.19111495867583 0 0 0 0 30.301410433940887 22.717435349128806 0 22.717435349128806 -24.783884950473464 0 0 0 0 69.775606387003791 117.29540646314854 0 117.29540646314854 -109.11750984618266 0 0 0 0 213.94187144496391 125.46169258979717 0 125.46169258979717 -160.65406325746153 0 0 0 0 82.702289845736232 251.06459207339503 0 251.06459207339503 -21.321694798214594 0 0 0 0 36.678914262985927 222.56931101161899 0 222.56931101161899 110.13977783732116 0 0 0 0 16.851211598797818 221.01498936310236 0 221.01498936310236 196.96632665325888 0 0 0 0 55.755541017715586 194.87563382231019 0 194.87563382231019 36.909618616860826 0 0 0 0 70.608603166547255 278.68739758656011 0 278.68739758656011 117.92905619229714 0 0 0 0 52.069942848334904 198.21583226838266 0 198.21583226838266 119.08608315918536 0 0 0 0 232.84170961273776 155.42558571543486 0 155.42558571543486 -7.7181393417122308 0 0 0 0 23.652843948482769 204.05077718166285 0 204.05077718166285 39.874109920405317 0 0 0 0 102.57735173237234 212.32076808398779 0 212.32076808398779 38.019730799540412 0 0 0 0 145.14121264760615 292.64034252536658 0 292.64034252536658 140.08905882641557 0 0 0 0 136.47044875225401 272.25099567516008 0 272.25099567516008 414.29344334387861 0 0 0 0 139.89572963050159 213.48048417097016 0 213.48048417097016 184.58003200446547 0 0 0 0 72.976618393789977 282.68908973518774 0 282.68908973518774 212.5909470730985 0 0 0 0 -250.50603112672979 176.1388991556305 0 176.1388991556305 190.90047511816556 0 0 0 0 -68.629190357782704 48.326965872091819 0 48.326965872091819 -28.172819342783725 0 0 0 0 -13.94790927339821 1.524291766800232 0 1.524291766800232 10.63663572276522 0 0 0 0 -243.68163913337048 32.772822962346254 0 32.772822962346254 149.48727191099897 0 0 0 0 -48.201850930463223 29.342392976072823 0 29.342392976072823 -9.2629981761446061 0 0 0 0 -143.71851419813902 157.67402020932423 0 157.67402020932423 73.927517812160659 0 0 0 0 81.03506364376517 179.00980274725589 0 179.00980274725589 47.400234650725906 0 0 0 0 -22.615404279683389 26.812226540960538 0 26.812226540960538 -22.47781814865067 0 0 0 0 -5.0860026779118925 65.160798316210276 0 65.160798316210276 28.19928903906839 0 0 0 0 22.896466295132996 45.42148192737659 0 45.42148192737659 125.61850107088685 0 0 0 0 11.951040757558076 62.721042876786669 0 62.721042876786669 27.853986583633741 0 0 0 0 -21.038920584134459 33.171861780296737 0 33.171861780296737 -25.420681153282146 0 0 0 0 -20.841719899251871 38.861184116493298 0 38.861184116493298 -34.894704924904175 0 0 0 0 31.00387852791755 34.492120521430479 0 34.492120521430479 -15.12186471928726 0 0 0 0 -125.66386260540457 -122.20031792571535 0 -122.20031792571535 -207.61308193468722 0 0 0 0 -62.141632863043924 -25.266688315146894 0 -25.266688315146894 -188.78476232811227 0 0 0 0 -197.68155677546019 -44.272395311802029 0 -44.272395311802029 -101.942580148665 0 0 0 0 -229.25305675109848 -200.76145190343959 0 -200.76145190343959 -234.48745008873811 0 0 0 0 -90.597283955466992 -34.487595902748581 0 -34.487595902748581 96.715502453167574 0 0 0 0 -71.337881644198205 -78.776377791677078 0 -78.776377791677078 -235.48416984619689 0 0 0 0 90.421754929499002 -215.14876787397225 0 -215.14876787397225 -124.72764226084109 0 0 0 0 -388.81851966827526 -244.81644930636685 0 -244.81644930636685 -141.94276380244992 0 0 0 0 -331.53348037443357 -136.35224909137469 0 -136.35224909137469 -109.61088235399529 0 0 0 0 -39.007924109204652 46.691745773543886 0 46.691745773543886 16.73483252476359 0 0 0 0 25.429643449402647 105.41196886318357 0 105.41196886318357 41.38682840729598 0 0 0 0 -10.095683013525559 144.16028849659051 0 144.16028849659051 116.04301614820724 0 0 0 0 3.8410170626625586 42.071374753488115 0 42.071374753488115 -58.132914607114145 0 0 0 0 -39.508106747787679 -174.71584201438964 0 -174.71584201438964 -247.8679909525199 0 0 0 0 45.317509146261727 93.547894670628011 0 93.547894670628011 -23.49133482776233 0 0 0 0 61.724366874666885 113.29598836883088 0 113.29598836883088 67.40064718517533 0 0 0 0 -5.6327050549645037 40.858835391993829 0 40.858835391993829 -34.595015508273718 0 0 0 0 47.234584714286029 194.72820027021226 0 194.72820027021226 134.65058390295599 0 0 0 0 55.320312822281267 215.23062145346194 0 215.23062145346194 59.711482737562619 0 0 0 0 -128.39622811059235 140.66725957446033 0 140.66725957446033 166.64705822719407 0 0 0 0 -66.284206746316329 40.953382861918442 0 40.953382861918442 -0.93880323442732561 0 0 0 0 -3.2210670049137207 32.160183716202837 0 32.160183716202837 -31.684872564778033 0 0 0 0 53.046527451733709 216.70789504112327 0 216.70789504112327 120.56589604998589 0 0 0 0 -10.447511835631701 2.0787682067323203 0 2.0787682067323203 12.716840880921296 0 0 0 0 204.83554666140117 208.22082642366877 0 208.22082642366877 16.373534167152684 0 0 0 0 57.574992495385231 127.5866802582168 0 127.5866802582168 62.495226211845875 0 0 0 0 69.213084722054191 224.73288124438477 0 224.73288124438477 -406.96804134593549 0 0 0 0 55.636591427585927 60.795549620512787 0 60.795549620512787 19.3495512655997 0 0 0 0 92.715304661876871 2.1676891014212742 0 2.1676891014212742 -266.01227791711426 0 0 0 0 31.093309506417427 127.50425932656253 0 127.50425932656253 -21.440000008529751 0 0 0 0 -4.2640963030630132 62.765995846631093 0 62.765995846631093 -44.769194617220762 0 0 0 0 -23.491663243814401 -6.652703959648079 0 -6.652703959648079 -228.80512439829181 0 0 0 0 120.90094056338421 4.5455632477351173 0 4.5455632477351173 16.91210777334345 0 0 0 0 232.75066616485128 -12.691919232776854 0 -12.691919232776854 -239.17545002834595 0 0 0 0 380.04956013799529 20.547785151204152 0 20.547785151204152 -335.42313744901548 0 0 0 0 99.910686759511009 216.94762962404275 0 216.94762962404275 30.388842422929883 0 0 0 0 -130.08605964240996 548.27397756878599 0 548.27397756878599 -68.371072730376909 0 0 0 0 39.201066238781436 32.393320981300832 0 32.393320981300832 28.896468313569756 0 0 0 0 210.65729521209141 98.42942016422603 0 98.42942016422603 -157.10286990788882 0 0 0 0 826.06125843396876 155.4429836397685 0 155.4429836397685 -156.73802903015167 0 0 0 0 43.670578479788674 89.082307929187664 0 89.082307929187664 -52.129920293635223 0 0 0 0 -18.717605259951938 121.87864591748433 0 121.87864591748433 -26.204656531219371 0 0 0 0 -17.966726928643766 181.28040445339138 0 181.28040445339138 -106.7993674564932 0 0 0 0 -8.683651757761254 98.15685816318728 0 98.15685816318728 -49.196317790076137 0 0 0 0 20.564452182937657 86.145863868949846 0 86.145863868949846 19.959377274634384 0 0 0 0 -6.2405175497697201 123.61603484780426 0 123.61603484780426 9.6690699399332516 0 0 0 0 -210.9726491014153 200.60612676836172 0 200.60612676836172 -42.70488243404543 0 0 0 0 -388.68959377222927 -446.68585635724594 0 -446.68585635724594 526.10360050787131 0 0 0 0 -44.495266874495428 403.48949127926608 0 403.48949127926608 14.403190467855893 0 0 0 0 269.40689705127443 172.39256157596537 0 172.39256157596537 -44.947703620680841 0 0 0 0 -117.28953061970242 281.38950412180202 0 281.38950412180202 -31.883025805014768 0 0 0 0 -384.97406007471727 245.691584377666 0 245.691584377666 -1.1714069971203571 0 0 0 0 -1.6537181386445354 14.165100764910321 0 14.165100764910321 27.044925238508597 0 0 0 0 -31.649143921211362 499.91421237894974 0 499.91421237894974 -181.79743143651285 0 0 0 0 77.571944413648453 103.79164532723371 0 103.79164532723371 -453.67030894343043 0 0 0 0 10.913138961826917 91.699299692350905 0 91.699299692350905 -144.65470674878452 0 0 0 0 27.194277934202887 59.038582423805508 0 59.038582423805508 -7.4598168905598925 0 0 0 0 -16.418702651048079 147.51508339353313 0 147.51508339353313 -39.514116164718871 0 0 0 0 8.6810177631195984 91.222301733116183 0 91.222301733116183 4.13383928478288 0 0 0 0 -11.80236992291384 160.0949863501753 0 160.0949863501753 -42.054268327337923 0 0 0 0 -18.550699406417095 77.316328662696236 0 77.316328662696236 -26.889692300585693 0 0 0 0 20.483413845970063 98.739617055238341 0 98.739617055238341 -1.6762257278169272 0 0 0 0 19.988572814851068 94.60476100489177 0 94.60476100489177 -31.986808557499899 0 0 0 0 21.135111843960033 81.491071565007076 0 81.491071565007076 -12.610308808474002 0 0 0 0 5.9150245671044104 128.49161409625958 0 128.49161409625958 -21.477236607234772 0 0 0 0 26.67637157975696 75.442784199432936 0 75.442784199432936 -23.923933467827737 0 0 0 0 11.642790864989138 70.106629699356574 0 70.106629699356574 -32.480227410920463 0 0 0 0 32.795836530334782 87.135806820537255 0 87.135806820537255 -18.505665475560818 0 0 0 0 25.187879350048206 65.629526108974261 0 65.629526108974261 -57.605787593844852 0 0 0 0 27.031381037451865 81.224486700934904 0 81.224486700934904 -11.835115681926254 0 0 0 0 38.272989455868696 69.999910861653404 0 69.999910861653404 -86.162688749180504 0 0 0 0 19.606351055990672 95.069923591683619 0 95.069923591683619 13.134717022861878 0 0 0 0 -7.6870826996557753 35.103835424095564 0 35.103835424095564 -20.364002278571547 0 0 0 0 51.437606669525849 64.375392658665078 0 64.375392658665078 2.3924303892017633 0 0 0 0 2.4068977015174369 38.181302956396664 0 38.181302956396664 -44.27062295775022 0 0 0 0 48.02325520679733 80.807363357853319 0 80.807363357853319 2.7768515747739002 0 0 0 0 29.512437865312677 34.534768570796587 0 34.534768570796587 -31.080192880894174 0 0 0 0 33.762090010142856 55.072772345183694 0 55.072772345183694 -21.425857651192928 0 0 0 0 -3.4114759139897046 18.584385875755984 0 18.584385875755984 -36.376060560080305 0 0 0 0 -58.286825693430728 -25.083065378756146 0 -25.083065378756146 23.252240043395432 0 0 0 0 7.2974003749259282 34.134834744065301 0 34.134834744065301 -18.070182118681259 0 0 0 0 27.863992238329956 73.362274838897065 0 73.362274838897065 20.154940104635898 0 0 0 0 16.274269563931739 73.363571444104309 0 73.363571444104309 22.825751241209218 0 0 0 0 -34.086344184827794 49.065131660115128 0 49.065131660115128 -24.291049041147573 0 0 0 0 -17.719699611933038 30.906630842227386 0 30.906630842227386 -20.493715460916064 0 0 0 0 -20.290529040087677 51.766596046884729 0 51.766596046884729 -3.7596092735877278 0 0 0 0 -63.073852319677826 -9.710726536490256 0 -9.710726536490256 58.681724056572421 0 0 0 0 0.20433651498626659 3.1696932655499381 0 3.1696932655499381 9.862832107354734 0 0 0 0 35.558083888725378 275.32273482922756 0 275.32273482922756 -289.23634006749489 0 0 0 0 -130.88321245826228 -72.047447287099203 0 -72.047447287099203 92.431147900177166 0 0 0 0 -469.31136903498555 380.02378408095683 0 380.02378408095683 -170.50358916576079 0 0 0 0 150.96662600309355 656.51004496718815 0 656.51004496718815 871.03518117032945 0 0 0 0 -298.06604133979999 201.48212281595625 0 201.48212281595625 -135.55351754449657 0 0 0 0 15.429091637546662 48.778765817376552 0 48.778765817376552 -16.228141171624884 0 0 0 0 9.5472874904288574 21.163674207512315 0 21.163674207512315 -10.010853026126597 0 0 0 0 -1.2639494084268961 12.212262591532323 0 12.212262591532323 -22.666063906389013 0 0 0 0 -106.04271058398444 130.55627540327259 0 130.55627540327259 134.51640122482786 0 0 0 0 -237.28460503992392 285.35813591232727 0 285.35813591232727 -333.63391187367961 0 0 0 0 -360.43287677582703 235.33112154167611 0 235.33112154167611 -320.76456887036329 0 0 0 0 -577.34606275678379 251.55227833584649 0 251.55227833584649 -198.02765210025245 0 0 0 0 -3458.8632888769498 845.06088159375213 0 845.06088159375213 64.7884348162479 0 0 0 0 -3.5722137941065455 3.4313100127415481 0 3.4313100127415481 -9.7322819734389441 0 0 0 0 415.16915693719056 293.91827937906055 0 293.91827937906055 -0.090853056317428127 0 0 0 0 373.53569272527238 295.10267431546163 0 295.10267431546163 68.273388054512907 0 0 0 0 -2279.2319721709646 2861.5730941931688 0 2861.5730941931688 -1.5019464906856799 0 0 0 0 -2259.8929656524706 2112.9944820421224 0 2112.9944820421224 -732.03472727107874 0 0 0 0 -2442.5804851042049 2095.1609617449285 0 2095.1609617449285 -553.1672351375455 0 0 0 0 -2145.5267330362112 1732.1893039938441 0 1732.1893039938441 -503.33348414378634 0 0 0 0 -1550.4990204091446 2327.6282832834549 0 2327.6282832834549 -800.46723064593971 0 0 0 0 -839.82299273797253 2256.1760646151706 0 2256.1760646151706 -2469.9776271457376 0 0 0 0 -2137.4929646927048 1548.339251395184 0 1548.339251395184 -1720.6246714059089 0 0 0 0 -1044.6063496362622 2069.6364829659142 0 2069.6364829659142 -1931.5638116872578 0 0 0 0 -994.33712849742733 1948.5807727684878 0 1948.5807727684878 -1672.8665561932721 0 0 0 0 -1006.9406942728019 1889.3604645530177 0 1889.3604645530177 -1461.3933053359506 0 0 0 0 -1661.9955253846711 1852.6753139105131 0 1852.6753139105131 -1162.9907047742745 0 0 0 0 -1569.8204922989535 456.26015642238781 0 456.26015642238781 -36.204856471304083 0 0 0 0 -15.071246049315675 11.668438304712296 0 11.668438304712296 9.3384317132536694 0 0 0 0 -58.264370650929777 -5.2094855391042074 0 -5.2094855391042074 -850.99023272964405 0 0 0 0 -327.69333812588593 -733.00484895647969 0 -733.00484895647969 342.91190348236705 0 0 0 0 -60.976531379809671 55.054073326522712 0 55.054073326522712 21.562764590727113 0 0 0 0 42.66601562872529 729.78265718501643 0 729.78265718501643 -1258.5303309807787 0 0 0 0 -844.82811719726305 1046.8371513570892 0 1046.8371513570892 -607.59799185139127 0 0 0 0 -84.162165273563005 216.86278757674154 0 216.86278757674154 587.23426622635452 0 0 0 0 1.9501006557181881 -7.7418767747633979 0 -7.7418767747633979 11.967962923061563 0 0 0 0 -97.81747350061778 315.710611202172 0 315.710611202172 -128.24213328032783 0 0 0 0 -93.293372967047617 48.643785741995089 0 48.643785741995089 87.22504756168928 0 0 0 0 -17.834301496749504 118.42799135130872 0 118.42799135130872 143.9996717881877 0 0 0 0 -731.93056517187506 1301.4091122260579 0 1301.4091122260579 -1617.7210308215144 0 0 0 0 -78.977742233138997 158.89435885378043 0 158.89435885378043 403.81871340241923 0 0 0 0 -58.714588503971015 45.562420620967885 0 45.562420620967885 23.668648345526208 0 0 0 0 -969.28995159256738 1651.7009204856877 0 1651.7009204856877 -1789.2215235824115 0 0 0 0 -1105.0124448133283 1568.3715228064975 0 1568.3715228064975 -1152.1599360145628 0 0 0 0 -880.03730241605081 1556.2285938707064 0 1556.2285938707064 -1726.9528823299224 0 0 0 0 -376.1135484710685 1148.7650688342401 0 1148.7650688342401 -1557.6745780853671 0 0 0 0 -6.090217142671861 11.985648429329956 0 11.985648429329956 -12.732759924667874 0 0 0 0 -625.68185004795669 1296.3013359797187 0 1296.3013359797187 -1644.0130625320598 0 0 0 0 -257.32802465044369 1424.1830939552237 0 1424.1830939552237 -2151.0907809983473 0 0 0 0 -372.17993048176868 1633.7046993143013 0 1633.7046993143013 -2383.5078115478973 0 0 0 0 -334.8499482115767 1949.6926112356596 0 1949.6926112356596 -5386.6775268374913 0 0 0 0 -886.39984636983718 2914.8398190852822 0 2914.8398190852822 -3370.4230777844277 0 0 0 0 -1353.1641447587899 2484.2942566850979 0 2484.2942566850979 -1958.6635859219678 0 0 0 0 -1222.3776904344413 2545.0281449395625 0 2545.0281449395625 -2652.2531673429985 0 0 0 0 -1848.7099837969217 3468.3451648236423 0 3468.3451648236423 -1555.0059682298452 0 0 0 0 -1910.4743276769987 3324.5217067853446 0 3324.5217067853446 -1605.786265254239 0 0 0 0 2.7892326700530248 4520.43092898943 0 4520.43092898943 -2335.1575916985748 0 0 0 0 -1659.0330669918621 4491.7674328987632 0 4491.7674328987632 1.0581570885697147 0 0 0 0 -1025.9895781119994 2956.1049499010624 0 2956.1049499010624 -4441.2734371853294 0 0 0 0 -813.64865824740264 4068.960213419261 0 4068.960213419261 -2959.9299098145057 0 0 0 0 -1064.7833531212964 2267.9024085741112 0 2267.9024085741112 -5598.0190335061197 0 0 0 0 -362.14247104401875 3832.3895953702886 0 3832.3895953702886 -6093.4095288547396 0 0 0 0 269.20148941849766 3271.2259785191563 0 3271.2259785191563 -9228.6579908054264 0 0 0 0 -3.3786722415825352 1790.1937697484645 0 1790.1937697484645 -4641.1418803121196 0 0 0 0 -1149.6264238579606 65.693069245127845 0 65.693069245127845 2354.3491791145061 0 0 0 0 -4.6234541092366044 1.3502600926619266 0 1.3502600926619266 36.934546672135525 0 0 0 0 -52.1950684037256 351.61742016322205 0 351.61742016322205 -2178.7594113552623 0 0 0 0 -158.82169142812199 1331.4842075327324 0 1331.4842075327324 335.35979320345359 0 0 0 0 56.195838558001185 86.575380109256429 0 86.575380109256429 30.330495280231077 0 0 0 0 736.3643738355313 820.30869789298595 0 820.30869789298595 -1543.0094430413301 0 0 0 0 -322.22851654881379 1128.3614617244602 0 1128.3614617244602 -73.018097154097632 0 0 0 0 -322.22851654900296 1128.3614617242711 0 1128.3614617242711 -73.018097154155839 0 0 0 0 -322.22851654884289 1128.3614617244166 0 1128.3614617244166 -73.018097153981216 0 0 0 0 -14.341642939891585 14.504004666735625 0 14.504004666735625 -1.3031328695809918 0 0 0 0 323.40227450896055 -364.27066684031161 0 -364.27066684031161 754.69924344993342 0 0 0 0 -526.86889555962989 106.13760534912581 0 106.13760534912581 1139.2128644179465 0 0 0 0 -41.681450005566489 39.647217111381337 0 39.647217111381337 5.9374320957181652 0 0 0 0 442.93868935479259 665.01581126382644 0 665.01581126382644 250.79804830273497 0 0 0 0 -306.02738709043479 607.79519683557737 0 607.79519683557737 100.55797105257886 0 0 0 0 25.309870352619328 262.65737177553819 0 262.65737177553819 363.36838730068848 0 0 0 0 221.96626707332325 -62.9933757037943 0 -62.9933757037943 106.08152798793162 0 0 0 0 65.743808779341634 140.80754022722977 0 140.80754022722977 68.891119849531606 0 0 0 0 280.74929676257307 351.47996756571956 0 351.47996756571956 -736.4734053491411 0 0 0 0 43.015379949395538 86.377472736703879 0 86.377472736703879 29.914982982173129 0 0 0 0 -431.58847826547571 -257.83162509184331 0 -257.83162509184331 -452.90344558970537 0 0 0 0 3.1616366296075284 67.087526891186826 0 67.087526891186826 193.15720993526338 0 0 0 0 -35.16272758525156 224.49973721668357 0 224.49973721668357 3.9785807306325296 0 0 0 0 -443.05863966114703 632.30959337539389 0 632.30959337539389 168.00250062577106 0 0 0 0 307.42424571546144 388.93099003578936 0 388.93099003578936 82.877922258951003 0 0 0 0 -490.09368294070191 94.672974208870301 0 94.672974208870301 198.54751277572359 0 0 0 0 -39.813170686389071 5.8876859983217003 0 5.8876859983217003 120.12391078986539 0 0 0 0 -99.569355522457045 -44.516356090523914 0 -44.516356090523914 103.07797206765099 0 0 0 0 -4.9911956631985959 53.750325105211232 0 53.750325105211232 166.13627490949875 0 0 0 0 27.031449392437935 68.65877967637789 0 68.65877967637789 135.84233706544728 0 0 0 0 0.28672363801160827 43.481997560062155 0 43.481997560062155 157.34303618560079 0 0 0 0 -18.536680093850009 38.783337335131364 0 38.783337335131364 257.03267068069545 0 0 0 0 -0.026467053015949205 60.510118057471118 0 60.510118057471118 184.03101187615539 0 0 0 0 -39.280761549310512 -2.6468655067545512 0 -2.6468655067545512 130.10531212290999 0 0 0 0 31.178091988331289 87.475373967885389 0 87.475373967885389 173.16012375523314 0 0 0 0 -17.308274226103094 29.643996129634615 0 29.643996129634615 176.46704538475024 0 0 0 0 144.84849485361519 574.68171912289472 0 574.68171912289472 159.48855162983818 0 0 0 0 24.884391796764248 417.01551319807186 0 417.01551319807186 293.21723587332235 0 0 0 0 21.508980419121144 457.42634363563229 0 457.42634363563229 101.60608864137612 0 0 0 0 25.653177152089484 498.80432828496123 0 498.80432828496123 355.41910869285493 0 0 0 0 100.86156032091822 583.31046471001537 0 583.31046471001537 13.966859186446527 0 0 0 0 26.674648913933197 544.49822462774318 0 544.49822462774318 153.50934275582586 0 0 0 0 61.384834557033173 559.73661816550521 0 559.73661816550521 43.060127106044092 0 0 0 0 -233.10660658188499 367.82629358879058 0 367.82629358879058 203.82382089985185 0 0 0 0 -185.82827467207971 352.77647494068515 0 352.77647494068515 166.26216474772082 0 0 0 0 -508.96652874656866 259.10557480339776 0 259.10557480339776 370.8769084270607 0 0 0 0 -349.19778279288948 237.30485806626166 0 237.30485806626166 373.5934737801872 0 0 0 0 168.75842497579288 367.60189907607128 0 367.60189907607128 203.37803222573393 0 0 0 0 -304.62124703444715 154.45450506873021 0 154.45450506873021 430.58169842071948 0 0 0 0 -173.1019783501979 335.71126430496224 0 335.71126430496224 948.43548627400014 0 0 0 0 552.48537133319041 522.77352336419426 0 522.77352336419426 308.45565016627916 0 0 0 0 321.58672770650264 17.885344119416914 0 17.885344119416914 450.79167998493358 0 0 0 0 -240.25485388813104 78.553592616099195 0 78.553592616099195 284.51620768089197 0 0 0 0 -658.71899701619259 287.08509741514354 0 287.08509741514354 505.58515619099489 0 0 0 0 -573.92629173860769 234.65167040525557 0 234.65167040525557 672.23252851465077 0 0 0 0 95.870032078022632 403.63233887725437 0 403.63233887725437 372.16747073296574 0 0 0 0 213.6276071793327 181.17430154930844 0 181.17430154930844 229.21181566175073 0 0 0 0 -555.75234622399148 -342.71285326930229 0 -342.71285326930229 791.53178952465532 0 0 0 0 -249.45389532580157 231.86684481300472 0 231.86684481300472 376.56687111579231 0 0 0 0 698.49665071269555 542.63907534821919 0 542.63907534821919 328.49017865421774 0 0 0 0 493.92656721787353 688.76993484639388 0 688.76993484639388 468.32036579773558 0 0 0 0 -22.047949859800926 14.09612619214144 0 14.09612619214144 4.2271408846819156 0 0 0 0 48.447794861596776 -56.872163202227966 0 -56.872163202227966 52.099731093854643 0 0 0 0 -96.215835449322185 -102.20842331784661 0 -102.20842331784661 486.25923164911364 0 0 0 0 -67.53444547898107 218.77515909324575 0 218.77515909324575 376.86739347083494 0 0 0 0 -28.073389065227161 71.882903513841939 0 71.882903513841939 -48.298916558164997 0 0 0 0 -216.57661430353619 112.70065906656964 0 112.70065906656964 862.86622622440336 0 0 0 0 84.938977241981775 646.1910881361764 0 646.1910881361764 764.71597234935325 0 0 0 0 -52.493385534908157 397.17875191861822 0 397.17875191861822 325.26119495139937 0 0 0 0 -11.380459423380671 336.90968447502382 0 336.90968447502382 406.62427083231159 0 0 0 0 -14.443607558682089 77.105452397783893 0 77.105452397783893 -35.226020008826424 0 0 0 0 -97.748643583945523 152.65935742779402 0 152.65935742779402 319.93586148130271 0 0 0 0 45.438496828552161 149.90769086429646 0 149.90769086429646 0.033385038794222055 0 0 0 0 -39.344301279488718 147.42342839474804 0 147.42342839474804 193.87343993870309 0 0 0 0 19.084755103009684 -19.719496247075767 0 -19.719496247075767 -160.80697351056733 0 0 0 0 -150.13777705431858 54.241649170813616 0 54.241649170813616 180.55925885595207 0 0 0 0 -2.6542406632340771 75.004713776651499 0 75.004713776651499 -44.146027097965344 0 0 0 0 2.5899214008818774 12.834809058263886 0 12.834809058263886 15.759355162936913 0 0 0 0 27.221145051931671 171.52693570285919 0 171.52693570285919 82.938721544978762 0 0 0 0 60.855979305114943 143.99545687196655 0 143.99545687196655 32.991899884800659 0 0 0 0 17.792050673007907 188.8032473432977 0 188.8032473432977 223.83212914770411 0 0 0 0 -24.390302072708437 276.82645408576354 0 276.82645408576354 139.06458811697667 0 0 0 0 -18.140126039837924 69.939059957396239 0 69.939059957396239 -21.105869298102334 0 0 0 0 9.8431439822124958 63.742914340487914 0 63.742914340487914 -94.013325991589227 0 0 0 0 -18.223674885619403 67.949482338008238 0 67.949482338008238 -38.879598231957061 0 0 0 0 19.389879471498208 24.979813800632627 0 24.979813800632627 -43.421094349005273 0 0 0 0 -19.575329383176722 64.107915567365126 0 64.107915567365126 -38.437593262351584 0 0 0 0 -17.33746464237629 61.760240141942631 0 61.760240141942631 -45.350010935857426 0 0 0 0 -17.731660441691929 61.937673569191247 0 61.937673569191247 -45.429615694971289 0 0 0 0 -17.989725591934985 61.641544220969081 0 61.641544220969081 -45.11036661855178 0 0 0 0 -16.014273144886829 61.443209599136026 0 61.443209599136026 -53.350922402809374 0 0 0 0 -17.694814137736103 61.504887350776698 0 61.504887350776698 -45.047168363875244 0 0 0 0 -17.611936861670983 65.568608934583608 0 65.568608934583608 -42.608877483464312 0 0 0 0 -14.249715081015893 71.477909054330667 0 71.477909054330667 -34.979131137020886 0 0 0 0 -14.996261748793586 76.710882269149806 0 76.710882269149806 -24.787667540018447 0 0 0 0 -14.496767774504406 71.700038868904812 0 71.700038868904812 -34.188438521028729 0 0 0 0 -16.030766518379096 61.035027630627155 0 61.035027630627155 -56.198717683670111 0 0 0 0 13.845942319596361 51.302061045098526 0 51.302061045098526 -55.357966021896573 0 0 0 0 26.712906389694126 21.653679156176622 0 21.653679156176622 -110.79225007651257 0 0 0 0 220.53653006760578 100.22199098138663 0 100.22199098138663 -4.5149615818663733 0 0 0 0 59.013102415487765 114.65035300594877 0 114.65035300594877 -232.04737984867825 0 0 0 0 -15.347727956869754 41.493080601652863 0 41.493080601652863 -34.276937417500704 0 0 0 0 116.30671445251937 133.20532216216088 0 133.20532216216088 -5.3099957747981534 0 0 0 0 36.534033834826253 35.678285530759723 0 35.678285530759723 -38.116746893516122 0 0 0 0 -17.428964597223967 51.216007005074061 0 51.216007005074061 -58.135023137263488 0 0 0 0 -101.62159974727183 -9.3179410113880294 0 -9.3179410113880294 160.35987239536189 0 0 0 0 -31.412991687250248 51.626517173717161 0 51.626517173717161 -13.431046485466936 0 0 0 0 -14.444362562753668 58.06483347620815 0 58.06483347620815 -59.305469819053542 0 0 0 0 -15.671859905487509 58.933563161990605 0 58.933563161990605 -58.786635008873418 0 0 0 0 52.793289880100019 -53.828781138952763 0 -53.828781138952763 110.45502992867841 0 0 0 0 -104.24559356823738 -84.240371466439683 0 -84.240371466439683 104.91913528376608 0 0 0 0 167.78851351273988 -137.60028107100516 0 -137.60028107100516 90.920736444546492 0 0 0 0 -139.1842830067817 -8.5263493455786374 0 -8.5263493455786374 160.64030599220132 0 0 0 0 -14.704781589258346 55.969950722181238 0 55.969950722181238 -57.950694101804402 0 0 0 0 -15.744152657971426 60.119248951290501 0 60.119248951290501 -53.253601626842283 0 0 0 0 -17.458402527900944 58.153978232716327 0 58.153978232716327 -43.404896172927693 0 0 0 0 -17.799556136007595 55.791304834419861 0 55.791304834419861 -51.26827960004448 0 0 0 0 -6.7981977527082265 7.7883163280732504 0 7.7883163280732504 -19.228593086983523 0 0 0 0 -446.72829269863723 264.87442106262461 0 264.87442106262461 -89.112522781266307 0 0 0 0 -252.56529632807451 121.91609470424282 0 121.91609470424282 33.262413545744494 0 0 0 0 -220.87170266174007 -139.75681507967874 0 -139.75681507967874 197.41185161381145 0 0 0 0 115.14630015851435 339.85374076795415 0 339.85374076795415 -371.20335159177193 0 0 0 0 -456.17683107778066 385.09191057707358 0 385.09191057707358 -159.57741231872205 0 0 0 0 105.95758938344079 479.34809857165237 0 479.34809857165237 288.61956370390544 0 0 0 0 682.59219286535154 425.66332954316749 0 425.66332954316749 -106.92314075745526 0 0 0 0 57.889869291407194 211.18498184157579 0 211.18498184157579 -153.16971888013359 0 0 0 0 420.09918839693637 1280.8466985943087 0 1280.8466985943087 1025.7065331700142 0 0 0 0 17.553524647312358 -10.383768239802194 0 -10.383768239802194 -39.404885521643109 0 0 0 0 31.129443661554888 -1625.4273795824538 0 -1625.4273795824538 -1640.7055803031544 0 0 0 0 1068.5014246466417 945.15014263071498 0 945.15014263071498 227.42461722847656 0 0 0 0 917.58737437295895 1214.1134685199722 0 1214.1134685199722 475.26390556164552 0 0 0 0 79.319915369775117 338.54782016901117 0 338.54782016901117 -8.7235001377994195 0 0 0 0 87.035685307673702 379.78553163239849 0 379.78553163239849 187.59685148106291 0 0 0 0 141.1298183679537 318.83076185036043 0 318.83076185036043 -71.385357739927713 0 0 0 0 139.91372869937913 472.64087037584977 0 472.64087037584977 19.526328845375247 0 0 0 0 115.35545551912946 269.90749721851898 0 269.90749721851898 -162.96506845697877 0 0 0 0 197.38882551756251 522.36768068036872 0 522.36768068036872 -212.10392195488384 0 0 0 0 131.83945494861109 435.32875734315166 0 435.32875734315166 32.369377601440647 0 0 0 0 120.38113368836639 500.28271955742821 0 500.28271955742821 74.158772916685848 0 0 0 0 121.47260153569368 463.4536670540183 0 463.4536670540183 57.684634728546371 0 0 0 0 151.55919100863684 443.54163245528616 0 443.54163245528616 58.795517971602749 0 0 0 0 142.9602301804407 508.99081904208288 0 508.99081904208288 112.72926864111469 0 0 0 0 196.12997515230381 407.8877153571193 0 407.8877153571193 81.484666694232146 0 0 0 0 169.84337325452472 355.83905981274904 0 355.83905981274904 36.50048674219579 0 0 0 0 108.08570158801376 433.59659766400728 0 433.59659766400728 194.2510007143137 0 0 0 0 83.312027160496655 365.87751775433571 0 365.87751775433571 166.47629940138722 0 0 0 0 169.3334197592776 313.30051495523367 0 313.30051495523367 198.24716755851114 0 0 0 0 65.330834711712669 290.88144548246055 0 290.88144548246055 187.5708887826695 0 0 0 0 14.17836677281457 282.53003815902593 0 282.53003815902593 205.38321273948532 0 0 0 0 99.873349188721477 220.39099729982263 0 220.39099729982263 271.21594341722084 0 0 0 0 317.10840790033762 257.05907506444782 0 257.05907506444782 95.291544706866262 0 0 0 0 382.25803154001551 689.74781954831269 0 689.74781954831269 158.64214671147056 0 0 0 0 318.86219156275183 775.83314391494787 0 775.83314391494787 415.27748642110964 0 0 0 0 277.35225273233118 697.67652290980186 0 697.67652290980186 550.60962688751169 0 0 0 0 415.18249477438076 960.85118471791793 0 960.85118471791793 684.75101750816975 0 0 0 0 412.60071421903558 877.13321541128244 0 877.13321541128244 540.73856129994965 0 0 0 0 331.43083734819083 653.14003323862562 0 653.14003323862562 344.25410708748677 0 0 0 0 727.08964650698181 664.16588058327034 0 664.16588058327034 171.70574079505968 0 0 0 0 397.56553240841367 549.07944762744228 0 549.07944762744228 229.12401518807746 0 0 0 0 324.72640797693379 398.50365483954977 0 398.50365483954977 218.30952549177164 0 0 0 0 111.88668786927883 436.14371416779613 0 436.14371416779613 257.74185566112283 0 0 0 0 -16.390182874950824 451.51587984533217 0 451.51587984533217 203.53045035988907 0 0 0 0 134.7087832318357 391.72626929997205 0 391.72626929997205 225.1595561485301 0 0 0 0 -164.9035991330893 472.48926336423028 0 472.48926336423028 246.57235669229703 0 0 0 0 135.71724694350632 637.57401159996516 0 637.57401159996516 199.47854147218459 0 0 0 0 275.69054747100745 558.20113445578318 0 558.20113445578318 17.884162091038888 0 0 0 0 167.23848850033028 717.69452166165138 0 717.69452166165138 1.4011384646828446 0 0 0 0 263.57974227699469 862.531909230569 0 862.531909230569 -317.29480066803808 0 0 0 0 251.29145922514454 729.59148805041696 0 729.59148805041696 160.80947094471776 0 0 0 0 764.49881415821801 821.47792239293267 0 821.47792239293267 -644.89844881337194 0 0 0 0 298.63306776260652 1308.9231274639606 0 1308.9231274639606 -485.50771936867386 0 0 0 0 -321.72528308497931 687.54191788147364 0 687.54191788147364 159.52460526046343 0 0 0 0 -507.62322608882459 1040.1460618027049 0 1040.1460618027049 -61.04584989407158 0 0 0 0 24.04973702312418 826.91036338453705 0 826.91036338453705 -29.821958280779654 0 0 0 0 -381.26464504182513 641.25666698810528 0 641.25666698810528 125.95059188603773 0 0 0 0 -824.04872516277101 1020.4766673690901 0 1020.4766673690901 6.1617593691989896 0 0 0 0 -919.09787093342675 1399.5702766504874 0 1399.5702766504874 -626.3199115289608 0 0 0 0 -895.89207492375863 959.38393109651224 0 959.38393109651224 -45.77611901430646 0 0 0 0 -649.02857672836808 1806.9516591488682 0 1806.9516591488682 -714.01955869652738 0 0 0 0 -1369.648842407543 1838.3436799362571 0 1838.3436799362571 -567.50005867188156 0 0 0 0 421.42766688296069 533.09059018396147 0 533.09059018396147 366.54128323298937 0 0 0 0 557.96527311675163 220.76654517363204 0 220.76654517363204 161.69709955703729 0 0 0 0 -68.213140450170613 -14.912865811395022 0 -14.912865811395022 536.5403391844302 0 0 0 0 -236.76424838605089 269.78736771614058 0 269.78736771614058 388.95978649798781 0 0 0 0 -498.83503726834169 524.14908002900484 0 524.14908002900484 237.791979897891 0 0 0 0 1.0186949560503393 4.3812775378936664 0 4.3812775378936664 -6.4542065076928168 0 0 0 0 -1141.5339737846807 1134.5850190479541 0 1134.5850190479541 6.5102944573445711 0 0 0 0 -812.45909070883135 589.53812131341328 0 589.53812131341328 468.17823755599966 0 0 0 0 -128.79801557517203 814.71697871165816 0 814.71697871165816 -753.89260189048582 0 0 0 0 -631.92725400865129 512.71555456210626 0 512.71555456210626 366.78641136965598 0 0 0 0 241.74319101593574 135.07015032407071 0 135.07015032407071 -52.253355891789397 0 0 0 0 306.85355070746664 357.91003468631243 0 357.91003468631243 631.22331615153234 0 0 0 0 313.29225792043144 22.249858888557355 0 22.249858888557355 -93.413291069904517 0 0 0 0 2.1605698200143877 5.1204452318675067 0 5.1204452318675067 3.3824441885457901 0 0 0 0 96.669994065974606 262.15489611971134 0 262.15489611971134 634.45390087701526 0 0 0 0 -1.1470035046295379 163.41973684606637 0 163.41973684606637 538.34503618608869 0 0 0 0 319.3522238503574 303.76957380319072 0 303.76957380319072 212.28923223795573 0 0 0 0 81.49386929582397 262.55812468424119 0 262.55812468424119 313.98384229236399 0 0 0 0 560.42716771083724 201.20400824367607 0 201.20400824367607 427.56541757595915 0 0 0 0 376.69116686446068 440.3373298836741 0 440.3373298836741 436.88194983852009 0 0 0 0 0.060737915315300484 7.5371407845345004 0 7.5371407845345004 -9.6786687291174758 0 0 0 0 222.46543181852758 294.8785861551587 0 294.8785861551587 329.5859591941562 0 0 0 0 358.43372026927864 289.81591547828793 0 289.81591547828793 -254.05944856526185 0 0 0 0 2.830908988142312 4.052500866995274 0 4.052500866995274 -6.8633015611448513 0 0 0 0 -199.77945826771611 655.53639801566169 0 655.53639801566169 320.18493815028341 0 0 0 0 93.031368569249025 662.45259194569371 0 662.45259194569371 -220.30010192642658 0 0 0 0 -267.71980667220487 566.39222885446361 0 566.39222885446361 43.850321945565611 0 0 0 0 252.30019048861868 491.83406615240528 0 491.83406615240528 -37.742668648406834 0 0 0 0 -423.20879365692235 494.72144354771444 0 494.72144354771444 142.6315640171606 0 0 0 0 -428.19977580139494 483.34902868402241 0 483.34902868402241 371.15866340114735 0 0 0 0 -206.28477419843693 425.64416278774297 0 425.64416278774297 -147.72087950464629 0 0 0 0 -131.7470242311756 667.57264810299239 0 667.57264810299239 -185.59444764938689 0 0 0 0 -276.99859520508744 709.7355415067932 0 709.7355415067932 -64.099197065632325 0 0 0 0 -274.18356995216436 717.42094546106364 0 717.42094546106364 -108.31849975264049 0 0 0 0 -80.164366233126202 394.18659741435113 0 394.18659741435113 -126.33212995935173 0 0 0 0 -169.12387950949778 399.2520849216744 0 399.2520849216744 259.04807812377112 0 0 0 0 -116.81248156339279 444.73427298387833 0 444.73427298387833 -182.91967630694489 0 0 0 0 -11.366978975681377 63.883705802916211 0 63.883705802916211 109.54771004630311 0 0 0 0 -24.562669879975147 140.15889200472157 0 140.15889200472157 -10.617274246018496 0 0 0 0 3.8852763707964186 197.14998190844017 0 197.14998190844017 -283.11892982166319 0 0 0 0 -68.655836369405733 160.42752650844341 0 160.42752650844341 -345.18823454601079 0 0 0 0 31.966344036733062 38.181191708299593 0 38.181191708299593 -201.24749937636079 0 0 0 0 -1.2651498592840653 317.55052134036032 0 317.55052134036032 -1461.0486382692179 0 0 0 0 -17.17717380860995 149.08358005351329 0 149.08358005351329 -380.34569716086116 0 0 0 0 -49.328908309062172 459.25025669323441 0 459.25025669323441 -784.9116545386496 0 0 0 0 -347.67570305673871 870.38751733104436 0 870.38751733104436 -301.81426423053199 0 0 0 0 -347.62852752576146 800.36353035224602 0 800.36353035224602 -713.7800042076633 0 0 0 0 -798.95658809260931 869.5373440211697 0 869.5373440211697 -665.77295768495242 0 0 0 0 -1.6779585326270876 7.4507276837867948 0 7.4507276837867948 -4.3890673865099785 0 0 0 0 -927.52113951203137 1158.9340634348919 0 1158.9340634348919 -1315.7137948330492 0 0 0 0 -208.22164202894783 687.85053060195423 0 687.85053060195423 -2064.1226853329135 0 0 0 0 -326.05142449696723 1082.875175575231 0 1082.875175575231 -1997.647634034518 0 0 0 0 -685.93728853542416 1404.7334779199828 0 1404.7334779199828 -2183.1534386501444 0 0 0 0 -359.83607827464584 1205.7057998953969 0 1205.7057998953969 -2337.3168575622112 0 0 0 0 -79.11499403284688 904.07539048280887 0 904.07539048280887 -3123.6269651112088 0 0 0 0 -5.3196733486778385 13.77735609483139 0 13.77735609483139 -2.9523357543537649 0 0 0 0 -739.62790790166036 995.44765410924447 0 995.44765410924447 2213.1506768046547 0 0 0 0 -25.066225314461008 556.43351151064326 0 556.43351151064326 902.97827775562473 0 0 0 0 119.94668686940167 1050.635091203716 0 1050.635091203716 486.92507319207652 0 0 0 0 -753.36766146446462 869.45648220547082 0 869.45648220547082 770.45692357965527 0 0 0 0 -685.88735407002969 713.05086775206291 0 713.05086775206291 693.93102521680703 0 0 0 0 -721.35105602390831 528.75855803445302 0 528.75855803445302 562.78579694914515 0 0 0 0 -675.31915691740869 793.03451651440264 0 793.03451651440264 84.417111485956411 0 0 0 0 -774.89812604398685 1281.0324084096428 0 1281.0324084096428 69.976542612159392 0 0 0 0 413.18030135806475 624.38013569767645 0 624.38013569767645 -317.56479216209118 0 0 0 0 324.35254480787262 460.85163737068069 0 460.85163737068069 -498.91357578941097 0 0 0 0 377.25991200670251 705.33278092417459 0 705.33278092417459 -628.11693054604984 0 0 0 0 170.65444963914342 559.12675581670192 0 559.12675581670192 -728.50240684800519 0 0 0 0 37.639692048483994 749.79467136391031 0 749.79467136391031 589.07762862187519 0 0 0 0 -23.452801226158044 276.46090094534156 0 276.46090094534156 40.202593163914571 0 0 0 0 121.10689903231105 294.90224758061959 0 294.90224758061959 -712.88780871331255 0 0 0 0 25.684867231477256 968.74485163342251 0 968.74485163342251 -1120.7876442581037 0 0 0 0 -568.55806282098638 1266.275586093052 0 1266.275586093052 -1376.5421852268628 0 0 0 0 73.701241147731707 375.58023836029679 0 375.58023836029679 -1664.4082422221545 0 0 0 0 -10.659964479589803 24.614966897952087 0 24.614966897952087 -4.6947385606422465 0 0 0 0 -93.955481364217121 616.17348545643472 0 616.17348545643472 -861.86605113418045 0 0 0 0 242.63936870278849 956.1450908281804 0 956.1450908281804 487.54807855297258 0 0 0 0 90.287375224485004 609.20078576786182 0 609.20078576786182 -272.0797846520436 0 0 0 0 1018.9842065629637 1404.1914392969702 0 1404.1914392969702 -364.10887455656666 0 0 0 0 -8.9013778392015297 22.902626870057603 0 22.902626870057603 -4.6592650442513666 0 0 0 0 375.75590383176677 552.11067405398353 0 552.11067405398353 -1244.6181540919497 0 0 0 0 -262.43878475973906 385.57519961018988 0 385.57519961018988 -680.88031576351023 0 0 0 0 152.12654386194481 813.64095663095941 0 813.64095663095941 -852.16830743704122 0 0 0 0 -198.07335618046636 218.98880249457943 0 218.98880249457943 -1304.7230571858818 0 0 0 0 -22.7350338484747 13.099580678585795 0 13.099580678585795 -3.7751932926807967 0 0 0 0 665.13538979034638 1077.9768889444094 0 1077.9768889444094 2755.8555069313406 0 0 0 0 -479.23436182254227 527.08273878832551 0 527.08273878832551 -320.23744577614707 0 0 0 0 267.10895203152904 168.23018140759086 0 168.23018140759086 -230.15798122104752 0 0 0 0 -76.890489794728637 621.35977011029172 0 621.35977011029172 -794.85267880558968 0 0 0 0 398.98675420004292 877.88013739361486 0 877.88013739361486 -663.04105210024863 0 0 0 0 402.49832031699771 522.7923784755767 0 522.7923784755767 -514.42873098506243 0 0 0 0 5731.1778329327062 1587.8481601765234 0 1587.8481601765234 -1793.2100952409673 0 0 0 0 661.36371157671238 297.46819673827486 0 297.46819673827486 -967.24368978885468 0 0 0 0 -527.96359834547911 1155.9105218988989 0 1155.9105218988989 5623.7998306994559 0 0 0 0 321.95711533297435 1439.8101480037003 0 1439.8101480037003 2935.7824991761299 0 0 0 0 2806.2366248075414 3385.6046954078192 0 3385.6046954078192 2710.9235921790241 0 0 0 0 24.689441848766535 27.944440883720546 0 27.944440883720546 29.735505880775747 0 0 0 0 -1033.7376279328892 1519.1166391123916 0 1519.1166391123916 3164.6171323414969 0 0 0 0 2900.8839175009052 1217.4375482566466 0 1217.4375482566466 -197.1273643624736 0 0 0 0 2673.2453408177826 4626.5885665258684 0 4626.5885665258684 3108.4372229735582 0 0 0 0 3048.715097941953 2036.2221609037515 0 2036.2221609037515 -239.2261583833606 0 0 0 0 637.88335049361194 1193.1173544402318 0 1193.1173544402318 -421.88456327731546 0 0 0 0 427.87279272353044 2442.6664197934588 0 2442.6664197934588 1127.4272582324047 0 0 0 0 25.652228123544774 1808.89313262418 0 1808.89313262418 739.7846839993872 0 0 0 0 -368.14376861265191 1227.6787739497195 0 1227.6787739497195 575.28597998338046 0 0 0 0 214.62498328776564 2080.8651227719292 0 2080.8651227719292 976.15441427947371 0 0 0 0 -713.79485251479491 786.79092140475768 0 786.79092140475768 -412.30445352859533 0 0 0 0 -1176.7217473718338 454.39728868015663 0 454.39728868015663 1735.3031687810471 0 0 0 0 65.939091583997225 74.08191825940429 0 74.08191825940429 78.757382101711841 0 0 0 0 -845.31314596807351 1089.5344312714478 0 1089.5344312714478 -446.57387023690535 0 0 0 0 -833.30853018631751 752.44187007860455 0 752.44187007860455 -165.80925558912713 0 0 0 0 15.854696137103019 439.02139333123341 0 439.02139333123341 -341.42986425371782 0 0 0 0 -718.23990088084247 501.34683301742189 0 501.34683301742189 -169.16900866611104 0 0 0 0 448.70201262208866 776.037343941789 0 776.037343941789 -387.77287990346667 0 0 0 0 853.42952168716874 -233.59805717155541 0 -233.59805717155541 -598.00465446292947 0 0 0 0 2086.3809294123494 1455.3126951330451 0 1455.3126951330451 68.571984150796197 0 0 0 0 1221.9507965220837 1289.6027753181042 0 1289.6027753181042 608.27223890641471 0 0 0 0 1256.1509745133517 691.89103987961425 0 691.89103987961425 -486.33483730723674 0 0 0 0 948.33290833361389 744.98201889093616 0 744.98201889093616 -520.54704054085596 0 0 0 0 543.70967267690139 664.24156585011224 0 664.24156585011224 -370.4612812474661 0 0 0 0 992.67454482066387 1046.7668763285328 0 1046.7668763285328 -572.47674331345479 0 0 0 0 1143.834875980363 924.36357850095374 0 924.36357850095374 -473.55734683264745 0 0 0 0 1502.891674632996 1355.7425612991065 0 1355.7425612991065 -146.07532967903535 0 0 0 0 1266.195965357183 1361.8634543735461 0 1361.8634543735461 -331.73486125367344 0 0 0 0 915.98886143660638 1099.7154229472362 0 1099.7154229472362 -523.84405918902485 0 0 0 0 1191.7912059697119 930.32807996902557 0 930.32807996902557 -84.325418296444695 0 0 0 0 1362.6687159345493 1746.9346393193373 0 1746.9346393193373 962.42972695518984 0 0 0 0 1026.1863870156376 1153.6562417528112 0 1153.6562417528112 775.25964266405208 0 0 0 0 689.41042551232385 1367.2958134987639 0 1367.2958134987639 1502.2343362803222 0 0 0 0 -1049.8993411368283 635.45128378912341 0 635.45128378912341 209.52321550523629 0 0 0 0 -1001.7282933339402 286.58367715534405 0 286.58367715534405 454.21278780956345 0 0 0 0 -711.67091299691674 67.353791054345493 0 67.353791054345493 523.59137355914572 0 0 0 0 -920.69439147747471 363.96309267669858 0 363.96309267669858 522.20751764856868 0 0 0 0 -675.74718344538269 413.09359198301536 0 413.09359198301536 358.25453536413988 0 0 0 0 -743.20843646525827 342.67784270647826 0 342.67784270647826 524.57111201154476 0 0 0 0 -918.58852656585077 480.94268861153614 0 480.94268861153614 632.04608093277784 0 0 0 0 -812.26527314889972 660.10382470520199 0 660.10382470520199 666.02286488142272 0 0 0 0 -585.80686071954551 672.99837623061649 0 672.99837623061649 564.94838149473071 0 0 0 0 -334.38379229605198 1158.3717876904848 0 1158.3717876904848 714.95209436718142 0 0 0 0 -1027.8498206928634 692.48895548340079 0 692.48895548340079 874.23277402499662 0 0 0 0 -871.61240878064018 846.03898128091078 0 846.03898128091078 55.399746634175244 0 0 0 0 -1065.8875869163967 462.51778558156366 0 462.51778558156366 578.1922479377572 0 0 0 0 -1162.8634686223668 1010.6410511841241 0 1010.6410511841241 -246.46220762614394 0 0 0 0 -1111.3749815447372 738.01622067325025 0 738.01622067325025 -142.99977396095346 0 0 0 0 -1347.3669609360804 895.7346769994474 0 895.7346769994474 51.573718889625525 0 0 0 0 -715.97234378139547 925.79327838563404 0 925.79327838563404 -486.12481590169773 0 0 0 0 170.73907102155499 395.3608355245342 0 395.3608355245342 -708.77855388608896 0 0 0 0 -1290.5986043945013 1260.261461522241 0 1260.261461522241 -675.96829779780819 0 0 0 0 -1359.8178875166777 1197.6862173742848 0 1197.6862173742848 -423.55382895088405 0 0 0 0 -1073.6471829235961 700.88479039187405 0 700.88479039187405 -587.07108401192818 0 0 0 0 -1103.6722121466591 1283.5591027253104 0 1283.5591027253104 -1093.9330026556418 0 0 0 0 -1288.2702726243497 1390.650795666571 0 1390.650795666571 -930.89195871216361 0 0 0 0 -1125.8245554898458 1113.9629830259146 0 1113.9629830259146 -612.61113728621422 0 0 0 0 -1307.5150234338362 1191.0099277384288 0 1191.0099277384288 -467.35009764423012 0 0 0 0 -1715.1429951844621 1286.7053292583296 0 1286.7053292583296 -318.83148526372679 0 0 0 0 -1393.6800175314565 906.85551419016701 0 906.85551419016701 101.22035793821851 0 0 0 0 -1331.7212218884597 763.66677495262411 0 763.66677495262411 230.41341571083467 0 0 0 0 -1190.0648332166456 690.4122598018439 0 690.4122598018439 58.318663730758999 0 0 0 0 -1369.4769643890686 589.76945041770887 0 589.76945041770887 371.15435024653561 0 0 0 0 -1086.3236016621813 381.77150249722035 0 381.77150249722035 336.7607108966331 0 0 0 0 -1156.908128968309 130.769483100652 0 130.769483100652 600.11852737149457 0 0 0 0 -1403.0367398802919 379.30722264810174 0 379.30722264810174 534.73243319644098 0 0 0 0 -674.16208665503655 -86.89455217791874 0 -86.89455217791874 407.41167789440078 0 0 0 0 -1700.929237635989 634.33461004757396 0 634.33461004757396 462.17568707399187 0 0 0 0 -1329.7007635959162 634.90298132116004 0 634.90298132116004 246.73327139242247 0 0 0 0 -2747.1768113926664 1425.6407618487719 0 1425.6407618487719 -32.434530212092795 0 0 0 0 -1515.3301226291223 383.89000484462304 0 383.89000484462304 635.59528163852519 0 0 0 0 -1737.034234691746 94.92791730605677 0 94.92791730605677 497.50374736089725 0 0 0 0 -1829.6926888810704 376.02829905905674 0 376.02829905905674 1073.9251301613112 0 0 0 0 82.120055687359724 174.26351350133095 0 174.26351350133095 -149.04363766150297 0 0 0 0 -33.589301113606467 21.164105361308614 0 21.164105361308614 -8.789127263273727 0 0 0 0 -2671.3461192925561 3889.0564660169903 0 3889.0564660169903 -3286.2822308912582 0 0 0 0 -3804.4916161397359 3484.8613791870857 0 3484.8613791870857 -1955.0717613661545 0 0 0 0 -3377.5582042616734 1218.6764485965978 0 1218.6764485965978 687.55167507100123 0 0 0 0 -847.89502995692601 -1900.2776276523491 0 -1900.2776276523491 -1786.0719607833307 0 0 0 0 -1631.655752772087 2922.8637570352876 0 2922.8637570352876 -804.07796057360247 0 0 0 0 -1206.840450369782 2679.7448655798798 0 2679.7448655798798 -750.98493224976119 0 0 0 0 -1544.3419398490369 274.29443526310206 0 274.29443526310206 -1413.7557717036398 0 0 0 0 -295.06051601334184 1502.645264247265 0 1502.645264247265 -1555.1501883893216 0 0 0 0 69.536535223689384 158.74366024921511 0 158.74366024921511 -159.88760501302153 0 0 0 0 -1960.9290593736223 -54.98554482140753 0 -54.98554482140753 929.26566661977449 0 0 0 0 -994.48391887030448 -220.20202840157435 0 -220.20202840157435 -1396.8003108731064 0 0 0 0 -1471.3037477452308 1143.2648030344062 0 1143.2648030344062 875.39275299518158 0 0 0 0 -600.1205712131341 560.0024567580258 0 560.0024567580258 -1197.8224232243374 0 0 0 0 -871.35649988679506 897.00770307437597 0 897.00770307437597 -859.86562595030409 0 0 0 0 -647.12263753364095 1234.9570557120169 0 1234.9570557120169 -4227.1683892440196 0 0 0 0 -1682.3728805317805 1435.9841040030951 0 1435.9841040030951 -566.99749412223173 0 0 0 0 -1825.9822307686627 1715.7162154098551 0 1715.7162154098551 -840.94091639379621 0 0 0 0 -1002.0958508472831 1432.310498713603 0 1432.310498713603 -1635.233086575281 0 0 0 0 -847.39305730202614 1119.4658486999288 0 1119.4658486999288 -1006.2660425532522 0 0 0 0 -1765.9565463534091 1393.0046519445677 0 1393.0046519445677 -646.74046075191291 0 0 0 0 -1293.9638283022723 1061.9282912608905 0 1061.9282912608905 -414.66049345208012 0 0 0 0 -1039.7385488231866 609.01665754597707 0 609.01665754597707 -457.00179019614006 0 0 0 0 -783.50208192100399 645.34153367760882 0 645.34153367760882 -87.562298550852574 0 0 0 0 75.753049912249935 111.96755610074038 0 111.96755610074038 128.01616540184892 0 0 0 0 24.987104449818528 25.504683183249284 0 25.504683183249284 -9.3407695821486527 0 0 0 0 -758.42042522749398 567.06718436258961 0 567.06718436258961 -120.01984263190388 0 0 0 0 -1320.6843445152772 756.86211241095589 0 756.86211241095589 -11.764726070337929 0 0 0 0 -1154.1816383252735 583.48637783263257 0 583.48637783263257 -30.346336055430584 0 0 0 0 23.598110830305444 106.34169740288149 0 106.34169740288149 31.109694606021549 0 0 0 0 3.5830631846256438 116.19983408135886 0 116.19983408135886 -7.066357397052343 0 0 0 0 33.955541545158525 100.97505624091647 0 100.97505624091647 92.264289187504914 0 0 0 0 -854.33727324615757 773.41409912455129 0 773.41409912455129 -339.59650270104612 0 0 0 0 -939.36655792976671 -397.39244666387094 0 -397.39244666387094 1745.5398814854852 0 0 0 0 45.201394516188884 56.365571182206622 0 56.365571182206622 -2188.8376584937214 0 0 0 0 -0.69099170974095614 92.21440456641831 0 92.21440456641831 -17.448517173832272 0 0 0 0 143.08179781508807 -475.10613736432424 0 -475.10613736432424 -379.87291527309571 0 0 0 0 -586.77527269754501 180.67361793517193 0 180.67361793517193 18.05306223090156 0 0 0 0 -459.58968920045299 -2425.1794444398838 0 -2425.1794444398838 -115.25214671506546 0 0 0 0 -887.90941312050563 516.12554160552099 0 516.12554160552099 -338.39827989574587 0 0 0 0 -1033.8797600371763 806.97550426526141 0 806.97550426526141 -297.50227916025324 0 0 0 0 -65.1586971861596 53.073126599500526 0 53.073126599500526 -28.651974447277837 0 0 0 0 -52.681814674359558 60.108370722569532 0 60.108370722569532 -26.966431470176076 0 0 0 0 -86.700550550572018 34.511107631933839 0 34.511107631933839 -13.458022528746284 0 0 0 0 -2387.1053664551437 136.48383664211724 0 136.48383664211724 172.45357687937212 0 0 0 0 -1711.995458946948 875.47645220923459 0 875.47645220923459 17.646778064314276 0 0 0 0 71.306335997338465 832.477008143891 0 832.477008143891 381.47022086853394 0 0 0 0 -81.57740659904988 41.984370484333823 0 41.984370484333823 -15.870172769908464 0 0 0 0 -397.3118005762808 368.41325396092725 0 368.41325396092725 12.625439824754721 0 0 0 0 427.88949058947037 566.16794830343861 0 566.16794830343861 -82.578694408010051 0 0 0 0 -404.99044268004945 203.45718417486933 0 203.45718417486933 1243.1680556319479 0 0 0 0 -178.60802387108561 688.50849259430834 0 688.50849259430834 -1180.7692599506117 0 0 0 0 -334.62408989526011 348.27830735313182 0 348.27830735313182 -352.09944521894795 0 0 0 0 -1564.3588090037665 -272.20094690818223 0 -272.20094690818223 -260.87537642403913 0 0 0 0 -2067.6997248539774 536.72320389552624 0 536.72320389552624 107.74914096959401 0 0 0 0 -811.74091956723714 2315.3530567657144 0 2315.3530567657144 664.13010067059076 0 0 0 0 429.97161578956866 1391.237247999713 0 1391.237247999713 -3904.7377896775433 0 0 0 0 -312.74836678885822 -789.41104598519269 0 -789.41104598519269 1335.9669806916208 0 0 0 0 653.72258261803563 -764.81311815865593 0 -764.81311815865593 -943.57982493258896 0 0 0 0 -1362.1097450760717 1375.7266193684045 0 1375.7266193684045 1573.6740580662008 0 0 0 0 -1268.0375474298853 1876.2224922211608 0 1876.2224922211608 2177.7709506141255 0 0 0 0 -83.267933338400098 39.836089954645473 0 39.836089954645473 -13.12221472600379 0 0 0 0 -3763.1242980564712 608.80145278037526 0 608.80145278037526 -909.57855233289592 0 0 0 0 -603.8059020145738 2453.8480884130986 0 2453.8480884130986 -2904.0147391620558 0 0 0 0 49.008524757105903 26.590201980368022 0 26.590201980368022 -96.119705526889788 0 0 0 0 687.54767373722279 1346.7448560410703 0 1346.7448560410703 -210.2076717887976 0 0 0 0 781.05621512298239 1282.0835763208088 0 1282.0835763208088 -564.48726476053707 0 0 0 0 1005.0922327640583 1253.1133706716937 0 1253.1133706716937 -718.36796269418846 0 0 0 0 873.93116443871259 1289.0049700514737 0 1289.0049700514737 -581.13217045381316 0 0 0 0 964.8873989177373 1014.717224592423 0 1014.717224592423 -605.27606647626089 0 0 0 0 701.29157037811092 1116.1434232859428 0 1116.1434232859428 -492.66474928738899 0 0 0 0 530.98682178984745 921.93538661964703 0 921.93538661964703 -457.90143972859369 0 0 0 0 552.42361388127028 885.47147895734815 0 885.47147895734815 -488.62566065503052 0 0 0 0 570.09265654665069 1097.6143753327924 0 1097.6143753327924 -493.346905194805 0 0 0 0 730.88150018576562 1306.5742236633159 0 1306.5742236633159 -270.66843811748549 0 0 0 0 370.54382557453937 1181.7178429885607 0 1181.7178429885607 -197.82225693433429 0 0 0 0 128.2685218812403 932.5488013256836 0 932.5488013256836 -329.89546369554591 0 0 0 0 52.252235572654172 1015.567033310901 0 1015.567033310901 -195.87555429537315 0 0 0 0 -305.67586970957927 901.44637476110074 0 901.44637476110074 -185.5624187765934 0 0 0 0 270.3531363082875 1002.3701213276945 0 1002.3701213276945 -311.2638704953788 0 0 0 0 358.8363167439602 652.15254786781952 0 652.15254786781952 -417.67581481824163 0 0 0 0 -84.686693849376752 793.73662258230615 0 793.73662258230615 -287.40700932205073 0 0 0 0 120.53760955582402 781.04369484708877 0 781.04369484708877 -319.12614854375715 0 0 0 0 -694.47234142952948 751.71536476316396 0 751.71536476316396 -150.55831898134784 0 0 0 0 -108.83290721799676 582.62654818503961 0 582.62654818503961 -211.87328910981887 0 0 0 0 -344.74419662859873 715.34973183390684 0 715.34973183390684 -191.35214648540568 0 0 0 0 -763.55216350030969 792.94358649010246 0 792.94358649010246 -57.318380888842512 0 0 0 0 -748.79410778239253 728.67437847753172 0 728.67437847753172 -195.08920677698916 0 0 0 0 -927.42450237041339 656.29877348843729 0 656.29877348843729 -88.078035748563707 0 0 0 0 -799.04659572614764 790.58973765368137 0 790.58973765368137 -131.63589975007926 0 0 0 0 -419.4270950658829 985.70134680518095 0 985.70134680518095 -35.852629599918146 0 0 0 0 -628.74474076906336 697.2367165528849 0 697.2367165528849 -131.21860802068841 0 0 0 0 -985.10872786710388 473.44215521306614 0 473.44215521306614 -48.466731890173833 0 0 0 0 -1050.6749946484233 815.3079791944092 0 815.3079791944092 244.70750416285591 0 0 0 0 -1451.5259045392013 502.46350364020327 0 502.46350364020327 512.9781139024708 0 0 0 0 -55.077701056054423 17.845416399202037 0 17.845416399202037 -4.8136818695393515 0 0 0 0 -165.14977763590286 943.99205694300326 0 943.99205694300326 233.57265727008053 0 0 0 0 -573.5673205362109 1082.4019990872475 0 1082.4019990872475 298.18834949328084 0 0 0 0 -75.009036125295097 984.88022932758031 0 984.88022932758031 284.80025341834516 0 0 0 0 -1164.4292804012657 1038.2201094807533 0 1038.2201094807533 1198.0457183337421 0 0 0 0 -71.657272850822181 46.886972743960712 0 46.886972743960712 -26.770680648195849 0 0 0 0 -50.065906749903661 1012.9868424166525 0 1012.9868424166525 192.67418265045853 0 0 0 0 -55.117175242830854 1042.5017696824325 0 1042.5017696824325 53.762762630940415 0 0 0 0 -446.55062277667457 1032.6146885112685 0 1032.6146885112685 85.231256619983469 0 0 0 0 -453.96595217962749 858.41078211815329 0 858.41078211815329 -57.32872591985506 0 0 0 0 -344.11113627254963 915.91946451086551 0 915.91946451086551 -85.845580181732657 0 0 0 0 8.1390630933274224 1054.1684874036837 0 1054.1684874036837 -72.366227339545731 0 0 0 0 12.93061004075571 1097.1422879503261 0 1097.1422879503261 25.37667408247944 0 0 0 0 466.88359006046085 1282.4251370972488 0 1282.4251370972488 -22.166649860300822 0 0 0 0 315.28181581821991 1101.1412653512671 0 1101.1412653512671 -223.68915924413159 0 0 0 0 537.97401309708948 1193.5125198643364 0 1193.5125198643364 -244.36962771218168 0 0 0 0 337.0226421297848 1176.6805163528625 0 1176.6805163528625 550.38981116720242 0 0 0 0 346.23588570146239 1099.1584124568908 0 1099.1584124568908 113.09682428381348 0 0 0 0 209.26606961360085 1094.0559621505963 0 1094.0559621505963 137.4272245834436 0 0 0 0 213.8356205051241 1110.4680705929932 0 1110.4680705929932 -6.2632043594203424 0 0 0 0 125.91207999974722 1162.2875928655703 0 1162.2875928655703 319.33781803929014 0 0 0 0 178.76318497527973 759.42021294269944 0 759.42021294269944 443.33370383886722 0 0 0 0 67.881589926371817 830.94260871273582 0 830.94260871273582 1477.1194398336229 0 0 0 0 178.3893499969854 692.01343650043418 0 692.01343650043418 1033.8027477709111 0 0 0 0 393.9760524580488 1018.5280244330061 0 1018.5280244330061 473.94359174562851 0 0 0 0 337.30436551492312 1152.4671365222457 0 1152.4671365222457 1114.6737816687673 0 0 0 0 498.28283383292728 1636.6941538018655 0 1636.6941538018655 1565.6251704537426 0 0 0 0 312.86419080547057 1216.167859881607 0 1216.167859881607 952.32555220300128 0 0 0 0 633.06890343289706 1520.3717076370231 0 1520.3717076370231 836.1578948198221 0 0 0 0 1087.2981919868457 1577.2281191641182 0 1577.2281191641182 122.82072189895553 0 0 0 0 532.72977086040191 1218.7203877164284 0 1218.7203877164284 110.08984984786366 0 0 0 0 639.06438136746874 1406.5449097275123 0 1406.5449097275123 117.63718453006004 0 0 0 0 787.31833550691954 1211.6596417614783 0 1211.6596417614783 -107.89442792390764 0 0 0 0 959.61459647263655 -136.59643164789122 0 -136.59643164789122 -730.48366218275623 0 0 0 0 27.733222321927315 381.30155179272697 0 381.30155179272697 -827.87749276054092 0 0 0 0 -182.02639460743376 582.5466856160474 0 582.5466856160474 2230.7741466598527 0 0 0 0 -45.773558274139305 39.161653739516026 0 39.161653739516026 -24.687852555217034 0 0 0 0 -2907.0166864203347 2673.1557153909234 0 2673.1557153909234 -1428.3051825003931 0 0 0 0 -687.94109948484402 -25.60647341189906 0 -25.60647341189906 -42.933436763254576 0 0 0 0 13.118328244687291 689.82895340861432 0 689.82895340861432 1425.190021734219 0 0 0 0 -81.058885444872431 899.8406979887659 0 899.8406979887659 -1771.9603364006471 0 0 0 0 3725.9408690349228 -2307.5613672771142 0 -2307.5613672771142 987.30113046415499 0 0 0 0 -17.016677202289571 7.8177249363454848 0 7.8177249363454848 -3.8287047879045701 0 0 0 0 -1094.4714892857155 1394.8127786558907 0 1394.8127786558907 -1059.4964998910145 0 0 0 0 -791.84799365479557 785.18268200603779 0 785.18268200603779 -478.20215864566853 0 0 0 0 -521.83323255251889 835.06757764844224 0 835.06757764844224 -529.21708389259584 0 0 0 0 -1570.8203529850871 694.97502783616073 0 694.97502783616073 -226.83927793102339 0 0 0 0 -210.24811923685775 245.56250473894761 0 245.56250473894761 -264.74019470363055 0 0 0 0 -462.16547129829996 861.7305870651835 0 861.7305870651835 -904.31802708195755 0 0 0 0 -285.03523679493446 553.94368715550809 0 553.94368715550809 -578.66000313209952 0 0 0 0 320.82406294173416 306.93666315062728 0 306.93666315062728 -950.6773134409159 0 0 0 0 -58.607296752503316 -89.324923254775058 0 -89.324923254775058 -83.68061337916879 0 0 0 0 -808.52447527668846 413.06968725868501 0 413.06968725868501 463.14990274167212 0 0 0 0 -584.9300054962514 447.13736056936614 0 447.13736056936614 -616.66175773509894 0 0 0 0 -868.97406798387965 652.04023663382395 0 652.04023663382395 -220.34747456590412 0 0 0 0 -802.39579959226103 185.03532328980509 0 185.03532328980509 -250.35208133276319 0 0 0 0 -879.09585356152093 564.61431839253783 0 564.61431839253783 -363.85010628640885 0 0 0 0 -736.42598917887153 765.42566554759833 0 765.42566554759833 -117.10959055216517 0 0 0 0 -776.76995632056787 666.5971527215188 0 666.5971527215188 -307.00942015647888 0 0 0 0 -1005.9087879230829 702.62733661961101 0 702.62733661961101 0.05857648715027608 0 0 0 0 -394.91738732921658 679.95086504649953 0 679.95086504649953 -462.22447534871753 0 0 0 0 -528.03866547407233 921.44515118135314 0 921.44515118135314 -0.31855899677611887 0 0 0 0 -366.63592329859239 801.09989467343257 0 801.09989467343257 -290.48687186234747 0 0 0 0 -125.1328848052508 1080.8224898534536 0 1080.8224898534536 -0.1834876069386833 0 0 0 0 55.793369032646297 694.98707987611851 0 694.98707987611851 -919.56856926764885 0 0 0 0 -250.60009619616903 843.92126248823479 0 843.92126248823479 -297.90961865500503 0 0 0 0 -759.67444217459706 501.33996496163309 0 501.33996496163309 -148.13316708477214 0 0 0 0 -967.04788648076646 427.63388374695205 0 427.63388374695205 -169.47198188636685 0 0 0 0 -1116.6936008236371 504.42003473432851 0 504.42003473432851 -208.85216032984317 0 0 0 0 -720.20054359453206 92.136830156887299 0 92.136830156887299 -190.42103467410197 0 0 0 0 221.81946822923419 561.98363551356306 0 561.98363551356306 -400.24882988656464 0 0 0 0 -388.5229780129248 687.39534346175788 0 687.39534346175788 -291.48264345581993 0 0 0 0 239.29133727161388 464.12139474259311 0 464.12139474259311 -69.734083088973421 0 0 0 0 -21.36644211828974 6.3094710448353055 0 6.3094710448353055 -6.2924566005731322 0 0 0 0 -1477.687271078903 833.29881798991846 0 833.29881798991846 -540.00343616027385 0 0 0 0 -3079.2540093296884 571.2710438447466 0 571.2710438447466 428.14615332800895 0 0 0 0 -2586.9331116089015 875.49266929221631 0 875.49266929221631 -1.7524347677681362 0 0 0 0 -1239.2852894879688 227.57873546054907 0 227.57873546054907 -25.079601069970522 0 0 0 0 -888.64127140850178 522.37956996346475 0 522.37956996346475 -518.20272190586184 0 0 0 0 -899.140125574384 701.13846281534643 0 701.13846281534643 -288.19858907936396 0 0 0 0 -1170.3232180669729 571.67087757521949 0 571.67087757521949 -145.22499064319709 0 0 0 0 -1001.182137545411 672.32265752593594 0 672.32265752593594 -150.64668502588756 0 0 0 0 -992.8562155110485 604.35075418043562 0 604.35075418043562 -0.14386011636815965 0 0 0 0 -968.47193788375625 625.6137124965644 0 625.6137124965644 -82.003006991231814 0 0 0 0 -886.19119710753148 541.08934727634187 0 541.08934727634187 -155.87458366337523 0 0 0 0 -887.92237063513676 546.93351405091016 0 546.93351405091016 -61.415996703202836 0 0 0 0 -913.24038838376873 558.23143145944778 0 558.23143145944778 0.0036761214432772249 0 0 0 0 -818.42737335795027 561.07406421200722 0 561.07406421200722 -51.796936159895267 0 0 0 0 -818.74901962349031 567.20194159883977 0 567.20194159883977 -82.789142801964772 0 0 0 0 -713.55867876490447 486.50333469255565 0 486.50333469255565 -0.1066669008723693 0 0 0 0 -633.85405228023228 533.21958460584574 0 533.21958460584574 -111.81183743299334 0 0 0 0 -800.40854634382049 597.28264300302726 0 597.28264300302726 -133.25604681755067 0 0 0 0 -875.43868804230988 369.71100016744458 0 369.71100016744458 13.751854035901488 0 0 0 0 -727.49072360479204 433.134148531557 0 433.134148531557 -0.10631615531747229 0 0 0 0 -721.99659120510114 449.52378745071474 0 449.52378745071474 -82.368041204230394 0 0 0 0 -699.53809037160408 356.79455284267897 0 356.79455284267897 -135.44070729063242 0 0 0 0 -602.36670184067771 430.60588593847933 0 430.60588593847933 -79.440190319222893 0 0 0 0 -689.18565262471111 306.64613345726411 0 306.64613345726411 33.351019680630998 0 0 0 0 -1602.9252300385233 241.16482021426054 0 241.16482021426054 263.51201829822821 0 0 0 0 -273.8283649552759 270.78942666984221 0 270.78942666984221 -125.35828954390308 0 0 0 0 -162.42409052730545 441.22837973204878 0 441.22837973204878 -102.93370303703705 0 0 0 0 -36.251023894550599 280.07040161537589 0 280.07040161537589 -181.83698393797386 0 0 0 0 441.91273826881661 2464.7419317098538 0 2464.7419317098538 -2771.3721891413879 0 0 0 0 -30.572598703338258 5.7108792697420654 0 5.7108792697420654 3.4877669881363147 0 0 0 0 -503.69494002724969 -294.36212517950844 0 -294.36212517950844 469.73855063691735 0 0 0 0 -793.4014354411338 572.28274339168274 0 572.28274339168274 -97.730786183150485 0 0 0 0 -1078.9895668467052 578.21658646490323 0 578.21658646490323 -91.345040773099754 0 0 0 0 -496.76746938838551 422.69196638013818 0 422.69196638013818 -64.760799621697515 0 0 0 0 -448.77870579798036 559.56491986215406 0 559.56491986215406 -214.76677659260167 0 0 0 0 -460.79971510130781 335.97709753394884 0 335.97709753394884 117.60252761893207 0 0 0 0 -788.04922819355852 718.04889909695339 0 718.04889909695339 -253.89602129487321 0 0 0 0 -281.13717800939776 377.16640915031894 0 377.16640915031894 -377.70920700743955 0 0 0 0 -1572.7276656352042 -994.98537544431747 0 -994.98537544431747 1780.4549494853127 0 0 0 0 -1203.3534122999699 1239.5403814237397 0 1239.5403814237397 -1159.9072053815471 0 0 0 0 -25.534167492887917 -0.19499279612398368 0 -0.19499279612398368 2.3035484128707822 0 0 0 0 542.23517485945194 153.00246514777245 0 153.00246514777245 663.15574019373162 0 0 0 0 -1990.2822189586004 -895.36929347793921 0 -895.36929347793921 1528.2624982650159 0 0 0 0 -33.913773763117035 19.167071797630314 0 19.167071797630314 -9.2983923029887308 0 0 0 0 -4117.2028512230499 2073.4783765071843 0 2073.4783765071843 43.235217818903038 0 0 0 0 -1013.519204167249 1690.3089431836706 0 1690.3089431836706 -1187.0521982345963 0 0 0 0 -1026.6414355807647 2181.3509920332144 0 2181.3509920332144 -755.8244687395636 0 0 0 0 -53.496140340921002 1.1311833299957925 0 1.1311833299957925 4.9881908661291448 0 0 0 0 -1768.2958472708997 2442.9903254104429 0 2442.9903254104429 -634.67186981334817 0 0 0 0 -743.60365184723196 2496.6580374960104 0 2496.6580374960104 -520.54922252852703 0 0 0 0 -2171.0043038386939 -60.712646491825581 0 -60.712646491825581 587.88902441548998 0 0 0 0 -1379.2654487961117 2166.1164287267893 0 2166.1164287267893 198.01137404935434 0 0 0 0 -1609.5124559175165 1489.3151996871748 0 1489.3151996871748 -938.94636883994099 0 0 0 0 -430.66798290733914 2557.7495489617231 0 2557.7495489617231 -2724.5030012504139 0 0 0 0 -4109.8941386612132 3232.9327315388364 0 3232.9327315388364 -2850.764492643124 0 0 0 0 1761.0239577143639 -209.02047067640888 0 -209.02047067640888 -3203.827700829308 0 0 0 0 380.79361684372998 -1279.5921039870882 0 -1279.5921039870882 -4774.2240870394744 0 0 0 0 -5911.1491934760197 2972.5917136930802 0 2972.5917136930802 -1221.6481819296023 0 0 0 0 19.898476103001585 21.680047785485485 0 21.680047785485485 -21.354574780945313 0 0 0 0 -4746.3319531538436 1484.8883108620357 0 1484.8883108620357 1340.169168090375 0 0 0 0 4.6943437863044721 11.432672997462987 0 11.432672997462987 2.6337502312346714 0 0 0 0 -2040.8122884478216 1605.5349484045873 0 1605.5349484045873 -638.13160421133216 0 0 0 0 -1722.758460724428 1878.9165234423854 0 1878.9165234423854 -2103.0745371985249 0 0 0 0 -4945.0152052565245 2436.4404241244774 0 2436.4404241244774 -871.55648032069439 0 0 0 0 -4947.7836659253226 2542.7373984098667 0 2542.7373984098667 -1474.2585915758391 0 0 0 0 -1011.5256851894228 1542.8548125129746 0 1542.8548125129746 -277.16671197343385 0 0 0 0 25.45166463835919 73.071190646545688 0 73.071190646545688 -21.677882047665435 0 0 0 0 13.909526906116298 107.14971751413395 0 107.14971751413395 151.45616594600142 0 0 0 0 76.216589545743773 146.44185918115545 0 146.44185918115545 62.747487102227751 0 0 0 0 12.486654233660374 144.15291843086015 0 144.15291843086015 376.84434235231311 0 0 0 0 3.5765338754484191 0.85593792028322468 0 0.85593792028322468 -25.485604976000843 0 0 0 0 -35.361535857773561 68.779734210358583 0 68.779734210358583 170.14238275308162 0 0 0 0 -40.199355267024657 62.581230419251369 0 62.581230419251369 129.49565173469091 0 0 0 0 68.177880288363667 96.107598464674084 0 96.107598464674084 124.56218702756451 0 0 0 0 -48.476949049174436 91.748070283429115 0 91.748070283429115 130.4909530156001 0 0 0 0 4.1558315480228174 39.823789695109355 0 39.823789695109355 101.68734070177527 0 0 0 0 -734.49301958009892 1081.631255486107 0 1081.631255486107 -579.36297608763562 0 0 0 0 11.389308440715688 63.86889078825763 0 63.86889078825763 97.100974593314731 0 0 0 0 -6.369278625374136 51.255782324806205 0 51.255782324806205 68.625025292596547 0 0 0 0 -68.452213001135533 78.448287052488013 0 78.448287052488013 59.691153337960714 0 0 0 0 -101.46638404469559 91.513402910997684 0 91.513402910997684 99.396350649389206 0 0 0 0 26.270915513310683 140.71262690826188 0 140.71262690826188 106.68937473453116 0 0 0 0 -21.190047502634656 77.194695296602958 0 77.194695296602958 6.647946025508837 0 0 0 0 -17.734890256877407 47.54658871643187 0 47.54658871643187 -28.691592997609405 0 0 0 0 -3.7837100772485428 92.049533885830897 0 92.049533885830897 -67.900868871183775 0 0 0 0 5.9492448425589828 104.22803629920236 0 104.22803629920236 -90.203836607601261 0 0 0 0 -3.4520531301796158 68.790130066604632 0 68.790130066604632 -126.19281140746381 0 0 0 0 47.731055495882174 390.45875582902227 0 390.45875582902227 -614.62615095964429 0 0 0 0 -87.870523814978981 34.747287643312504 0 34.747287643312504 -18.891769460674901 0 0 0 0 -1408.4706419066351 86.43575616372982 0 86.43575616372982 1264.3702430733574 0 0 0 0 191.63431623976066 -204.27323802853425 0 -204.27323802853425 -868.26570205128519 0 0 0 0 509.77348143448762 566.82550034440646 0 566.82550034440646 357.69303811328791 0 0 0 0 95.143735689959684 176.68376122162499 0 176.68376122162499 -46.105649476160764 0 0 0 0 -727.64862638537306 815.69835472601699 0 815.69835472601699 -1428.9690337762586 0 0 0 0 3061.2413143293525 -4063.343423695449 0 -4063.343423695449 -918.5996311255949 0 0 0 0 640.95478894847179 -90.79800231503441 0 -90.79800231503441 431.33286508690799 0 0 0 0 -1441.5796367627918 281.22324093416682 0 281.22324093416682 -2725.3969162339199 0 0 0 0 630.23738217791833 514.24289752174809 0 514.24289752174809 350.35519920545266 0 0 0 0 5.3366066230423712 22.984973067722549 0 22.984973067722549 56.204245322467031 0 0 0 0 -2100.4076351455878 1257.0761208055774 0 1257.0761208055774 -606.69975875876844 0 0 0 0 -105.33157623623265 -393.12002672615927 0 -393.12002672615927 755.76275474580325 0 0 0 0 0.027095597558329132 -5.7553051482684054 0 -5.7553051482684054 -23.503083936160358 0 0 0 0 -2885.9059175192378 1920.444373992621 0 1920.444373992621 -4495.1731484016636 0 0 0 0 -1061.3245452292995 -496.41836944657553 0 -496.41836944657553 195.80831876466982 0 0 0 0 -1195.5490020293219 3208.9853497771255 0 3208.9853497771255 -3213.3137816046801 0 0 0 0 -50.216361739814602 1973.6681084852098 0 1973.6681084852098 -874.80528173153289 0 0 0 0 -1432.8900571489066 2009.9732045310666 0 2009.9732045310666 -809.12730305374134 0 0 0 0 -3306.0803183162361 3195.0941606164888 0 3195.0941606164888 -1438.5167021026718 0 0 0 0 -3544.4969281218791 461.65808075801488 0 461.65808075801488 152.45176939794328 0 0 0 0 1039.4132996191493 424.82644611799697 0 424.82644611799697 -1028.2121740574657 0 0 0 0 -749.60619383926678 816.01711708582297 0 816.01711708582297 -4559.2162315566384 0 0 0 0 -748.45280819834443 686.51517698867247 0 686.51517698867247 56.907780260022264 0 0 0 0 -348.90328184232021 102.60964698530734 0 102.60964698530734 291.61507302464452 0 0 0 0 -118.68892021100328 87.735597327846335 0 87.735597327846335 150.09565846095211 0 0 0 0 -147.25318938885175 342.27770179280196 0 342.27770179280196 261.69596363184974 0 0 0 0 114.57409005794034 -207.74568994595029 0 -207.74568994595029 611.14120960995206 0 0 0 0 246.41300016213063 174.49554023903329 0 174.49554023903329 116.35543512547156 0 0 0 0 -0.1894909216995444 12.886843741524274 0 12.886843741524274 -2.5652679086804824 0 0 0 0 -501.6243586260025 -204.11306707619224 0 -204.11306707619224 99.681235039577587 0 0 0 0 51.42815182472259 108.78361748919997 0 108.78361748919997 49.71924804430455 0 0 0 0 52.143616254677909 11.658470567737822 0 11.658470567737822 -36.081481465676916 0 0 0 0 -5.2325254499792209 69.934236805944238 0 69.934236805944238 30.169191265886184 0 0 0 0 156.52718889675452 52.153923873614985 0 52.153923873614985 -43.671605610346887 0 0 0 0 -231.38700856797368 -1.4126167833528598 0 -1.4126167833528598 62.992637375602499 0 0 0 0 -16.902179300225555 27.095832870031614 0 27.095832870031614 3.8074737912334058 0 0 0 0 7.7745897838565625 10.16805808500564 0 10.16805808500564 4.5935253188264937 0 0 0 0 64.420314428803977 45.615309571614489 0 45.615309571614489 38.240299893644988 0 0 0 0 -20.836945037126942 88.928251016886179 0 88.928251016886179 34.789886663042864 0 0 0 0 33.364980946564174 105.41150506874692 0 105.41150506874692 35.886631418252364 0 0 0 0 -3.987516536948533 15.057288866970339 0 15.057288866970339 -73.342075708787888 0 0 0 0 0.60612801874111 10.312399074910303 0 10.312399074910303 0.24266067571140049 0 0 0 0 20.2909222300068 87.882358235110587 0 87.882358235110587 -20.255119057954289 0 0 0 0 32.581276793476718 63.235819161076506 0 63.235819161076506 -102.13733672428498 0 0 0 0 54.340298480747151 297.03010792254645 0 297.03010792254645 53.585594275500625 0 0 0 0 -60.044979737962421 141.02591940802813 0 141.02591940802813 -33.043133290673723 0 0 0 0 -8.4479227957658054 76.431359347978201 0 76.431359347978201 0.33616560073005175 0 0 0 0 57.082970934752666 62.891205538820941 0 62.891205538820941 -112.09664691305306 0 0 0 0 64.556800254188147 19.571734847309926 0 19.571734847309926 -193.62770141649526 0 0 0 0 276.97598190355347 -106.03283307756647 0 -106.03283307756647 -107.50050083288625 0 0 0 0 -397.48034061032376 227.41789114661515 0 227.41789114661515 602.02789656282403 0 0 0 0 -212.9610283630027 94.202175991347758 0 94.202175991347758 -141.16619774990249 0 0 0 0 47.711615505571899 210.71621717728704 0 210.71621717728704 -240.45592543153907 0 0 0 0 -12.449135367706745 72.287809070358605 0 72.287809070358605 -6.40255940529177 0 0 0 0 15.195700015749026 201.41727489534242 0 201.41727489534242 120.20408524888626 0 0 0 0 -47.299786112867878 161.88554878551076 0 161.88554878551076 100.28689796198159 0 0 0 0 51.026120721784537 129.51888016989687 0 129.51888016989687 109.31614843786519 0 0 0 0 102.86155415186659 97.911624016560381 0 97.911624016560381 -74.670664072211366 0 0 0 0 -0.025958723650461479 2.5629758248977339 0 2.5629758248977339 2.7520376116690386 0 0 0 0 130.58849740475125 186.67162218070007 0 186.67162218070007 51.010077692277264 0 0 0 0 35.197810753626982 86.132546515684226 0 86.132546515684226 0.73149795763310976 0 0 0 0 51.408413648015994 30.375835852391901 0 30.375835852391901 -49.464792437378492 0 0 0 0 -18.067220151369838 45.159666359439143 0 45.159666359439143 43.150452808797127 0 0 0 0 -7.3220826409415167 130.68045396293019 0 130.68045396293019 136.34474405991205 0 0 0 0 -13.390593713969352 26.132555872408943 0 26.132555872408943 0.068675379066206688 0 0 0 0 -12.949417349169508 53.619588106188729 0 53.619588106188729 24.762191807989552 0 0 0 0 11.04495928634924 -571.87564263971581 0 -571.87564263971581 147.81978624970361 0 0 0 0 -19.419760137186813 32.118376280322536 0 32.118376280322536 43.410001691809157 0 0 0 0 -21.162444406219947 42.775443813115999 0 42.775443813115999 34.002133918096661 0 0 0 0 -31.150800532360435 38.309016279542703 0 38.309016279542703 43.372784739085432 0 0 0 0 -34.001627322941204 51.917690029724326 0 51.917690029724326 5.5512110863201087 0 0 0 0 -26.039678930756054 37.563596859603422 0 37.563596859603422 51.233228455021163 0 0 0 0 -26.256848774738415 27.840686434970394 0 27.840686434970394 -8.9797417083765083 0 0 0 0 -24.801598365022983 37.717822322621942 0 37.717822322621942 50.040920240047853 0 0 0 0 -24.476592007994441 37.275631346317823 0 37.275631346317823 46.993505931110121 0 0 0 0 -25.317809406564265 42.869178428998566 0 42.869178428998566 47.005205510691042 0 0 0 0 11.407366468228474 54.091742722885101 0 54.091742722885101 -374.12087029272516 0 0 0 0 162.05185525904199 -91.141138997227245 0 -91.141138997227245 145.84729267066723 0 0 0 0 -1.0720061743612881 6.009160107113388 0 6.009160107113388 18.180473463974579 0 0 0 0 -87.071517377118653 291.17619861496496 0 291.17619861496496 -380.31103715963764 0 0 0 0 -3039.0468832010374 970.53982308664126 0 970.53982308664126 -180.27631520531213 0 0 0 0 552.30882399075017 278.4924892423478 0 278.4924892423478 -1270.4139441840089 0 0 0 0 -1141.795118895232 1158.0158560598211 0 1158.0158560598211 -558.68866832123604 0 0 0 0 -152.06664823250958 558.63602061574784 0 558.63602061574784 -214.34164950092963 0 0 0 0 -515.37721034106289 620.92210133410117 0 620.92210133410117 -176.76287095368025 0 0 0 0 -923.35637010017126 443.11187474863254 0 443.11187474863254 0.19612166445585899 0 0 0 0 -209.82559323543046 361.3001694779814 0 361.3001694779814 -211.58584324261756 0 0 0 0 -330.3777154503382 338.15759623735357 0 338.15759623735357 -0.27104343619430438 0 0 0 0 -161.40275469710036 316.02957585274271 0 316.02957585274271 -181.264370506251 0 0 0 0 -112.49077756882161 197.97406775227864 0 197.97406775227864 -0.10981164094118867 0 0 0 0 -170.57374858148938 285.57349161818456 0 285.57349161818456 -132.21188755627372 0 0 0 0 -53.422318813620222 134.23156217440555 0 134.23156217440555 -95.077771467033017 0 0 0 0 -102.52182331208314 197.03117626121821 0 197.03117626121821 -58.986315024492797 0 0 0 0 -83.024006232715692 160.80445906064415 0 160.80445906064415 -0.035812367647171869 0 0 0 0 -74.831272509849441 132.89364928077339 0 132.89364928077339 -41.385706687899074 0 0 0 0 -84.563142312010768 148.97073497799647 0 148.97073497799647 -31.842817851662403 0 0 0 0 -51.639151716837659 137.64357913364074 0 137.64357913364074 -36.79436478676871 0 0 0 0 -48.130467967561003 69.396513249895179 0 69.396513249895179 54.762342180154519 0 0 0 0 -59.675428336424375 129.26097058639607 0 129.26097058639607 -20.780459208326647 0 0 0 0 -25.24723686271318 55.232989250165701 0 55.232989250165701 169.34313124607434 0 0 0 0 -28.769447093481279 56.228187186070727 0 56.228187186070727 48.206021505733503 0 0 0 0 -75.187015281993808 -35.171348319650861 0 -35.171348319650861 281.61059659478633 0 0 0 0 -55.354396322007233 53.719053214328596 0 53.719053214328596 179.99734750122298 0 0 0 0 -307.85579361072996 34.081634858521284 0 34.081634858521284 311.02560969311162 0 0 0 0 -152.54117443960786 190.34097451497655 0 190.34097451497655 62.117596541356761 0 0 0 0 -112.04912423493079 130.88370709796436 0 130.88370709796436 148.66973647354462 0 0 0 0 -8.1609868543191624 -15.103446564608021 0 -15.103446564608021 239.74800692441931 0 0 0 0 23.230300257947306 -55.151636817179678 0 -55.151636817179678 192.69479520127061 0 0 0 0 -78.580963522623279 -192.28462326734734 0 -192.28462326734734 482.68985023134155 0 0 0 0 115.79277647672461 -101.75656770360365 0 -101.75656770360365 193.06554202032271 0 0 0 0 81.965221302062673 -45.968509651604109 0 -45.968509651604109 108.16239139200479 0 0 0 0 -9.6310913328411516 -2.3167663344065659 0 -2.3167663344065659 198.68606711112079 0 0 0 0 24.034770885334865 -46.858104749906488 0 -46.858104749906488 225.75580925725808 0 0 0 0 -24.147443659520039 57.74749342984336 0 57.74749342984336 49.456928984445824 0 0 0 0 16.886644277107735 -12.809211140294792 0 -12.809211140294792 131.82432263760347 0 0 0 0 -61.510607476059477 46.598148885139381 0 46.598148885139381 -63.584790656896075 0 0 0 0 -33.562451012461679 161.85053734308167 0 161.85053734308167 -161.26050793539616 0 0 0 0 -33.865451874862401 169.15555962545113 0 169.15555962545113 -145.66158898852882 0 0 0 0 -35.416867516150887 127.55139265720209 0 127.55139265720209 -94.052625719530624 0 0 0 0 -25.803796962246327 55.720084756528649 0 55.720084756528649 47.699810057258162 0 0 0 0 -22.033398453389964 67.287527748168941 0 67.287527748168941 0.011002505401847884 0 0 0 0 -21.830636602167942 67.184555660474871 0 67.184555660474871 -1.2202382646792103 0 0 0 0 -20.953902660894528 68.267046732784365 0 68.267046732784365 -0.041812363226199523 0 0 0 0 -21.434707497619925 66.601569156940968 0 66.601569156940968 3.356224965739345 0 0 0 0 -19.7976786014151 61.103126240253914 0 61.103126240253914 5.1308776662044693 0 0 0 0 -63.31866163462837 28.364812917090603 0 28.364812917090603 221.79490878689802 0 0 0 0 16.058996130414016 9.3167606305578374 0 9.3167606305578374 110.51437932942645 0 0 0 0 -12.506771080968974 96.771725575428718 0 96.771725575428718 194.40114586622803 0 0 0 0 -6.2421260877762847 11.334736155168628 0 11.334736155168628 17.411603016849142 0 0 0 0 -26.424860647159221 43.40959848757484 0 43.40959848757484 21.171992048533866 0 0 0 0 -14.562157939752183 47.579111237452508 0 47.579111237452508 12.33686692533044 0 0 0 0 -9.7678923220332479 23.131989527645374 0 23.131989527645374 20.949815819822703 0 0 0 0 -17.012314147112193 13.173795938055264 0 13.173795938055264 70.845917442056816 0 0 0 0 -8.2479662076573987 -11.371440106410404 0 -11.371440106410404 83.861334483925816 0 0 0 0 -19.709861650626408 72.161685197614133 0 72.161685197614133 -10.354477064771345 0 0 0 0 -29.103498058000696 76.274477123690303 0 76.274477123690303 -6.3278479299042374 0 0 0 0 -8.3367284292689874 55.288156281982083 0 55.288156281982083 -18.414579947595485 0 0 0 0 -2.9854272089796723 63.142810390796512 0 63.142810390796512 -39.463421567663318 0 0 0 0 -52.789677080620095 116.01829825207824 0 116.01829825207824 -51.412674276158214 0 0 0 0 -28.144013900251593 88.412520996585954 0 88.412520996585954 -63.660550730448449 0 0 0 0 -137.5679142053923 116.59419564114069 0 116.59419564114069 -0.03307206172732307 0 0 0 0 -201.01247852791857 177.29964759814902 0 177.29964759814902 -66.03136992212967 0 0 0 0 -12.809379818199886 145.62597074865698 0 145.62597074865698 -187.66790484613739 0 0 0 0 -65.266805022871267 108.42494985513622 0 108.42494985513622 -35.802262590092141 0 0 0 0 -153.39240791726479 85.760898114152951 0 85.760898114152951 -67.737390397815034 0 0 0 0 -158.34130870507215 257.16720075922785 0 257.16720075922785 -50.186114658652514 0 0 0 0 -29.249704384626384 54.587791137018485 0 54.587791137018485 51.919765136753938 0 0 0 0 -114.68958344323619 70.214531162200728 0 70.214531162200728 136.53448591887718 0 0 0 0 -33.67328216524038 55.678997651208192 0 55.678997651208192 196.23448799288599 0 0 0 0 -188.74642485141521 23.849101811481887 0 23.849101811481887 87.112480103154667 0 0 0 0 0.89608310646144673 -2.6601789520354941 0 -2.6601789520354941 168.08251411869423 0 0 0 0 9.719189653173089 68.77448939793976 0 68.77448939793976 -188.00159633858129 0 0 0 0 -0.3649339723117464 4.2368891949413978 0 4.2368891949413978 11.47201609341397 0 0 0 0 22.813266187396948 -5.9407062972313724 0 -5.9407062972313724 -41.852774815823068 0 0 0 0 0.25038049527923079 4.2438123137879415 0 4.2438123137879415 12.298060149729977 0 0 0 0 -48.195704837125959 67.052371759637026 0 67.052371759637026 191.3766594737026 0 0 0 0 -30.427217668173398 61.570185538228543 0 61.570185538228543 163.69243438434205 0 0 0 0 -77.16805172223394 95.87965476323734 0 95.87965476323734 158.01539253086594 0 0 0 0 -23.411717428230986 136.37682115032658 0 136.37682115032658 -37.396208436519373 0 0 0 0 -16.252166509792005 93.594323099285248 0 93.594323099285248 80.215903181556314 0 0 0 0 -29.865337652376184 92.237752671600902 0 92.237752671600902 80.236336927890079 0 0 0 0 -33.334426175395492 95.52663206806028 0 95.52663206806028 124.7856910181581 0 0 0 0 -2.0056903059921751 79.614228135280428 0 79.614228135280428 61.039902597403852 0 0 0 0 -3.5946392544319679 69.516229260960245 0 69.516229260960245 62.168637072463753 0 0 0 0 -4.5305614576827793 105.31112957261212 0 105.31112957261212 -26.945318739191862 0 0 0 0 2.3358884556400881 99.055004355570418 0 99.055004355570418 20.234409614262404 0 0 0 0 -9.387506527833466 65.730282484553754 0 65.730282484553754 136.30617940565571 0 0 0 0 25.001919805472426 51.537436647966388 0 51.537436647966388 60.58684302464826 0 0 0 0 27.876133479603595 53.552367330732523 0 53.552367330732523 187.68373791341219 0 0 0 0 -3.701118605800275 95.12987123867606 0 95.12987123867606 133.03210014326032 0 0 0 0 -8.8733133659152372 68.675997197045945 0 68.675997197045945 141.25898502938799 0 0 0 0 2.5735743977929815 79.864343741275661 0 79.864343741275661 181.10403218553984 0 0 0 0 -44.825748253828351 77.283959252701607 0 77.283959252701607 181.28066207561642 0 0 0 0 9.6713877964048152 177.02084546131664 0 177.02084546131664 279.70406107287272 0 0 0 0 82.362606208900615 114.3549807109448 0 114.3549807109448 121.67228231980698 0 0 0 0 -0.16314694726946755 4.8604828429077997 0 4.8604828429077997 -7.919105896886748 0 0 0 0 6.6288000885087968 86.131232136991457 0 86.131232136991457 146.38147560888319 0 0 0 0 11.833086704747984 101.06639338057721 0 101.06639338057721 -23.872627572491183 0 0 0 0 50.291391458558792 20.173134475902771 0 20.173134475902771 16.732211819442455 0 0 0 0 39.345360610514945 297.69387105595524 0 297.69387105595524 -24.757566200365545 0 0 0 0 138.63112825812277 -23.734802315957495 0 -23.734802315957495 117.29816166078672 0 0 0 0 51.060303141686788 131.565960967031 0 131.565960967031 -23.94686947989976 0 0 0 0 -48.752741610267549 121.79770983810886 0 121.79770983810886 -24.776911564506008 0 0 0 0 1.8881369825794536 -47.748239509426639 0 -47.748239509426639 45.484293363115285 0 0 0 0 -5.6812303962369697 78.069995608434965 0 78.069995608434965 153.70050961323432 0 0 0 0 362.17100617195683 452.45764256264374 0 452.45764256264374 -153.45716062277279 0 0 0 0 -101.29166121016897 199.6494554348028 0 199.6494554348028 -140.95257444062736 0 0 0 0 -3.8379399980858011 41.489184620598621 0 41.489184620598621 45.716535369627309 0 0 0 0 -234.15562198027328 216.61238279391546 0 216.61238279391546 -122.2655340921483 0 0 0 0 -200.38170997599082 325.75119900921709 0 325.75119900921709 -287.63954009109875 0 0 0 0 -3.9558155603901142 7.9653342614502947 0 7.9653342614502947 8.7079192475264904 0 0 0 0 -436.42508494347567 272.40104985964717 0 272.40104985964717 -137.54476556897862 0 0 0 0 -151.50500025853034 319.53319776610442 0 319.53319776610442 -55.803748656471726 0 0 0 0 -20.46297635512019 104.87042016848136 0 104.87042016848136 -286.12532472389285 0 0 0 0 -58.312907118030125 73.599166632950073 0 73.599166632950073 -102.63187031645793 0 0 0 0 29.616935367121187 145.75411585325492 0 145.75411585325492 -231.97396294082864 0 0 0 0 -62.58294380733787 205.60497712739016 0 205.60497712739016 -180.35639097605599 0 0 0 0 -44.238979299072525 220.42873884231085 0 220.42873884231085 -235.16071924363496 0 0 0 0 1.6367955221794546 158.80620300142618 0 158.80620300142618 -157.62439425050979 0 0 0 0 -8.6486654047985212 160.61924615815224 0 160.61924615815224 -147.86745545064332 0 0 0 0 59.07243464743442 93.902445020707091 0 93.902445020707091 -126.73411575556383 0 0 0 0 -6.8126523832397652 133.01000138221571 0 133.01000138221571 -117.23295365745435 0 0 0 0 42.372859382616298 63.825931896710244 0 63.825931896710244 -63.576850371959154 0 0 0 0 11.35976274193672 93.513329934381545 0 93.513329934381545 -118.32934911781922 0 0 0 0 -14.163464013763587 127.43640475766733 0 127.43640475766733 -148.22107552692978 0 0 0 0 -6.6334331557081896 135.19028273658478 0 135.19028273658478 -141.04842483878019 0 0 0 0 -45.106656061878311 124.45361627418606 0 124.45361627418606 -136.90989547321806 0 0 0 0 -96.050233296416991 199.4503586046776 0 199.4503586046776 -151.02923755051233 0 0 0 0 0.26946739982031431 78.496748864523397 0 78.496748864523397 -105.42145893123234 0 0 0 0 -30.834684470013599 125.36718899643893 0 125.36718899643893 -131.9158412925899 0 0 0 0 10.2616276052795 98.602692852902692 0 98.602692852902692 -123.95512493599381 0 0 0 0 30.522932304877031 85.049024400592316 0 85.049024400592316 -101.83326164988102 0 0 0 0 7.3646632129602949 112.24705427205481 0 112.24705427205481 -80.672577225457644 0 0 0 0 1.1613620793777955 94.050597210007254 0 94.050597210007254 -26.364642259984976 0 0 0 0 24.725886000043829 82.020287587394705 0 82.020287587394705 -131.36386536987266 0 0 0 0 13.313347998617246 106.75541832270392 0 106.75541832270392 -112.44828492295346 0 0 0 0 12.482807906031667 117.80455467593856 0 117.80455467593856 -104.10934846838063 0 0 0 0 2.0098835089629574 118.28174235938786 0 118.28174235938786 -32.841700548422523 0 0 0 0 -25.218772529291527 195.0394049409515 0 195.0394049409515 -203.49637369983247 0 0 0 0 32.5724456714089 56.241671377347302 0 56.241671377347302 -166.8709179876605 0 0 0 0 32.414248480738024 74.859154319769004 0 74.859154319769004 -126.89586259234056 0 0 0 0 -31.092161206704986 82.477451868733624 0 82.477451868733624 26.012867387209553 0 0 0 0 -13.111211800176534 116.47285917057161 0 116.47285917057161 -56.941381563199684 0 0 0 0 -34.272806989809396 66.272087428456871 0 66.272087428456871 -52.51770270979614 0 0 0 0 -20.407014258733398 71.607365254429169 0 71.607365254429169 13.13445160840638 0 0 0 0 -47.232382212154334 70.704964728181949 0 70.704964728181949 13.464931654289103 0 0 0 0 -7.7191775399583449 48.818396054522026 0 48.818396054522026 46.487389913582035 0 0 0 0 -64.86897730030978 53.510279584763339 0 53.510279584763339 20.041784523487877 0 0 0 0 -41.999788550801895 -5.5174156126486196 0 -5.5174156126486196 79.912405840455904 0 0 0 0 -31.85573108184326 52.886365204933099 0 52.886365204933099 19.692798797150317 0 0 0 0 -59.45000953357885 105.34511012972507 0 105.34511012972507 -104.26046573199801 0 0 0 0 -35.720586601441028 151.83375615152181 0 151.83375615152181 -144.66677637567045 0 0 0 0 -65.904014037161687 208.90984791754454 0 208.90984791754454 14.780665985643282 0 0 0 0 -198.89347338192601 -343.87905582733219 0 -343.87905582733219 280.92608447391831 0 0 0 0 0.09273460350001983 39.935870475921263 0 39.935870475921263 57.358968174738777 0 0 0 0 1.7205516614271161 8.3405124504614321 0 8.3405124504614321 14.067700180882412 0 0 0 0 104.81431645504927 -118.25230130222189 0 -118.25230130222189 -121.67799049406312 0 0 0 0 246.387188945253 807.38743663914647 0 807.38743663914647 -471.10729346431617 0 0 0 0 92.797834460750892 47.858963948019664 0 47.858963948019664 -343.55624186815112 0 0 0 0 201.59186178910386 235.16102108009363 0 235.16102108009363 -321.44011832860997 0 0 0 0 -0.77895526883641253 3.2405267376149709 0 3.2405267376149709 6.2399024339025004 0 0 0 0 221.36137987942129 374.25310870791145 0 374.25310870791145 206.4434092346346 0 0 0 0 30.927203606523108 32.568185987591278 0 32.568185987591278 -109.12385861857183 0 0 0 0 9.4569945033372846 3.4269123013232843 0 3.4269123013232843 1.0108638303425437 0 0 0 0 178.42188082596022 599.11085180484224 0 599.11085180484224 -907.89134382107295 0 0 0 0 -14.822845291642807 126.40915805268742 0 126.40915805268742 -149.01702540914994 0 0 0 0 -2.1838271198994335 30.816098678973503 0 30.816098678973503 -1.078540588816395 0 0 0 0 52.019422526826929 26.66394843076705 0 26.66394843076705 -61.927571060179616 0 0 0 0 12.10626849900966 20.776495506068741 0 20.776495506068741 5.5335392772331033 0 0 0 0 -6.170886846812305 24.408000402709064 0 24.408000402709064 22.000416032948749 0 0 0 0 30.787050644406918 -4.637406520661898 0 -4.637406520661898 57.361373356659897 0 0 0 0 21.785683832325454 31.426150247427728 0 31.426150247427728 34.94803975453533 0 0 0 0 6.6101470428338871 -18.15902068388823 0 -18.15902068388823 133.14071572877583 0 0 0 0 7.332364093803335 22.31721053738147 0 22.31721053738147 53.991457133641234 0 0 0 0 -8.6040487353062751 -0.58611963414733736 0 -0.58611963414733736 33.272874375197489 0 0 0 0 -24.025705397472848 40.118978145063011 0 40.118978145063011 52.066238342784345 0 0 0 0 1.466903342635562 5.8634897955155907 0 5.8634897955155907 5.459987916690892 0 0 0 0 -2.2058825014485315 -3.2736178340370259 0 -3.2736178340370259 1.9836570287494624 0 0 0 0 269.60473633425136 -516.68880368603277 0 -516.68880368603277 122.73422158808171 0 0 0 0 10.937944913859496 28.834614464121842 0 28.834614464121842 70.515899071557214 0 0 0 0 -998.35604529335887 434.82824662041821 0 434.82824662041821 481.30073966176133 0 0 0 0 -213.26279812462599 557.55402017229062 0 557.55402017229062 -535.56137250602478 0 0 0 0 385.94662682904027 -667.48474427871406 0 -667.48474427871406 -809.88244680428761 0 0 0 0 -59.5618417981932 201.46995931313722 0 201.46995931313722 63.009701807575766 0 0 0 0 -165.80795996246707 425.07926995269372 0 425.07926995269372 -219.61500864312984 0 0 0 0 88.15971720858397 108.61963160816231 0 108.61963160816231 -396.49655561776308 0 0 0 0 -1.9524505215340469 245.7661495146458 0 245.7661495146458 -605.0329201369459 0 0 0 0 4.2182131272093102 -54.841767952631926 0 -54.841767952631926 -62.029836309477105 0 0 0 0 80.43936222206321 -16.174517923427629 0 -16.174517923427629 -368.15057317816536 0 0 0 0 76.708303583009183 83.014694793368108 0 83.014694793368108 -150.88293436917593 0 0 0 0 -1189.9288409635064 249.58576070360141 0 249.58576070360141 -20.427281489086454 0 0 0 0 -457.40009273187366 -180.86069823780417 0 -180.86069823780417 195.4061732267437 0 0 0 0 -0.62674559552232889 3.555660924804215 0 3.555660924804215 -15.393172876289782 0 0 0 0 240.77994791123456 480.94754842011025 0 480.94754842011025 -723.2896608899282 0 0 0 0 -108.05829331069299 129.67556762609456 0 129.67556762609456 -33.8652865755721 0 0 0 0 -186.76511320174995 128.77409554921906 0 128.77409554921906 -1.291608200466726 0 0 0 0 -14.852386888281067 27.164022695587789 0 27.164022695587789 -21.881085282907407 0 0 0 0 -11.071654222638699 127.38293025740131 0 127.38293025740131 -8.3175007483223453 0 0 0 0 -43.975025455103818 36.331446803686362 0 36.331446803686362 42.839724666870381 0 0 0 0 -127.24071851400458 36.828443513513776 0 36.828443513513776 28.034102020719729 0 0 0 0 -229.12339868446361 55.961188239052717 0 55.961188239052717 26.266320811555488 0 0 0 0 -127.57321873607816 113.04226275737165 0 113.04226275737165 -0.079708037810632959 0 0 0 0 -96.175438988211226 123.02611712225189 0 123.02611712225189 -1.3396082557119371 0 0 0 0 -29.425419135024072 87.089932779352239 0 87.089932779352239 1.9023331610078458 0 0 0 0 -35.672106952770264 104.25815144789522 0 104.25815144789522 -15.557428186031757 0 0 0 0 -97.118683808604146 118.25392294456833 0 118.25392294456833 -5.2267000309002469 0 0 0 0 -70.417292197625102 105.06713925261283 0 105.06713925261283 -9.7831093994755065 0 0 0 0 -108.44247512537729 135.50670191894824 0 135.50670191894824 -18.445325511973351 0 0 0 0 -32.398511547484304 141.60343645884132 0 141.60343645884132 -29.604797737090848 0 0 0 0 10.163124725617763 70.0457939259868 0 70.0457939259868 -33.423935114464257 0 0 0 0 11.185448518905105 64.468648989735811 0 64.468648989735811 -28.311995690397453 0 0 0 0 11.388496959714693 40.343309382673198 0 40.343309382673198 3.3343556700032195 0 0 0 0 16.265955872384438 93.097850114543689 0 93.097850114543689 36.415334743767744 0 0 0 0 17.076242457882472 72.096403274103068 0 72.096403274103068 -76.251225052255904 0 0 0 0 7.9977255152085949 15.577360673453541 0 15.577360673453541 -2.9302906162508719 0 0 0 0 36.326832620321511 102.00236562876671 0 102.00236562876671 -31.022615223977482 0 0 0 0 -28.902235173656663 108.69618152616022 0 108.69618152616022 -30.725398359936662 0 0 0 0 -31.055849293383858 54.906531310382775 0 54.906531310382775 -36.66804020163778 0 0 0 0 -5.6218343319096675 80.872307117446326 0 80.872307117446326 0.98484719000225596 0 0 0 0 10.122630409116027 106.02475563131884 0 106.02475563131884 -8.268280645046616 0 0 0 0 -25.64404400641979 112.30603183015774 0 112.30603183015774 -1.9290429725042486 0 0 0 0 38.37837002737524 77.129980230616638 0 77.129980230616638 -26.816836106590927 0 0 0 0 -10.551953791669803 73.96785059053218 0 73.96785059053218 -24.447750916879158 0 0 0 0 -4.9583362513840257 82.749290131483576 0 82.749290131483576 -26.906337283959147 0 0 0 0 -17.556069406185998 70.654086071648635 0 70.654086071648635 -31.659414315887261 0 0 0 0 -22.960332131893665 92.908620918577071 0 92.908620918577071 -1.9989788042512373 0 0 0 0 -31.897209087990632 82.753219075937523 0 82.753219075937523 -13.35804826481035 0 0 0 0 -31.130240645863523 77.546209084859584 0 77.546209084859584 -7.9228596627071965 0 0 0 0 -25.987020135591592 71.398888837560662 0 71.398888837560662 -28.552453163603786 0 0 0 0 -16.854559386905748 65.492830255578156 0 65.492830255578156 -39.885156234988244 0 0 0 0 -14.433437979903829 81.141189815592952 0 81.141189815592952 -22.886971553496551 0 0 0 0 -27.775790186806262 69.93108488607686 0 69.93108488607686 -26.535117770370562 0 0 0 0 -110.35246663190446 115.77382528320595 0 115.77382528320595 9.3214013804936258 0 0 0 0 -32.803023438636046 83.380084326232463 0 83.380084326232463 -2.8282380060409196 0 0 0 0 -62.355306284523479 52.650512155117156 0 52.650512155117156 -27.425467880421365 0 0 0 0 -273.14883879069748 75.095233976564487 0 75.095233976564487 65.372736212768359 0 0 0 0 -27.221581839846351 45.552773461046058 0 45.552773461046058 23.186382581403876 0 0 0 0 -36.002502047467715 72.692519360571168 0 72.692519360571168 -0.77561363240420178 0 0 0 0 -4.3154007107952594 -3.8699950037997439 0 -3.8699950037997439 16.192243906324649 0 0 0 0 -51.305791162609239 286.96697003670852 0 286.96697003670852 -484.4062857064273 0 0 0 0 -24.561413389350491 48.20804436718754 0 48.20804436718754 -53.925784094593837 0 0 0 0 -26.559947408270091 58.846651088184444 0 58.846651088184444 -35.756588366522919 0 0 0 0 -42.361421872748906 57.922855163604254 0 57.922855163604254 -20.356610498245573 0 0 0 0 -35.259499797350145 48.137523222685559 0 48.137523222685559 -41.070674826463801 0 0 0 0 -36.628453969991824 65.352163059040322 0 65.352163059040322 -11.488894400128629 0 0 0 0 -37.290887170369388 67.494180393347051 0 67.494180393347051 -16.774343087818124 0 0 0 0 -18.045295367279323 80.771383167564636 0 80.771383167564636 246.30987051999546 0 0 0 0 -33.634125993494592 43.479646256378771 0 43.479646256378771 -2.3271445190136433 0 0 0 0 -129.77603856724454 340.71761001836421 0 340.71761001836421 -114.48659444125951 0 0 0 0 7.348985131666268 160.95892537763575 0 160.95892537763575 -73.241651724732947 0 0 0 0 -181.97101181410835 -26.399056699752691 0 -26.399056699752691 153.75383945423528 0 0 0 0 -219.1096112814048 98.251657792687183 0 98.251657792687183 -24.84607015090296 0 0 0 0 -408.6607805164349 353.53794802477933 0 353.53794802477933 -122.15632497007027 0 0 0 0 -318.04176820373323 507.04222271914477 0 507.04222271914477 -759.36570925332489 0 0 0 0 -603.97898391991475 314.27014804155624 0 314.27014804155624 -54.706265175947919 0 0 0 0 -349.05474486185994 513.91504391096532 0 513.91504391096532 -432.47654401451291 0 0 0 0 -134.05361016043344 457.96811690122195 0 457.96811690122195 -391.45109880162636 0 0 0 0 -118.11075605965016 354.99354356978438 0 354.99354356978438 -342.83655858592829 0 0 0 0 14.397794145581429 290.27027777030889 0 290.27027777030889 -262.72283711349883 0 0 0 0 -51.687186608221964 397.99144452944165 0 397.99144452944165 -420.53514430466021 0 0 0 0 -209.98186949907904 309.32998962454803 0 309.32998962454803 -334.90634391618369 0 0 0 0 181.84998365565843 305.2243580204231 0 305.2243580204231 -621.66688481874007 0 0 0 0 19.611172863842512 124.85872115102393 0 124.85872115102393 -186.84610268042888 0 0 0 0 -655.73822646095232 228.99203599258908 0 228.99203599258908 -895.06104814066202 0 0 0 0 798.64120582234682 -973.13832411749172 0 -973.13832411749172 -849.82170339622098 0 0 0 0 28.682146541910285 -55.727712656090745 0 -55.727712656090745 -134.17010827278358 0 0 0 0 1203.5871133182736 -742.92850816810096 0 -742.92850816810096 -2838.3368616640801 0 0 0 0 -681.66898852839222 648.89234845714236 0 648.89234845714236 -600.9208036998898 0 0 0 0 -1554.5974775816285 382.40317896561464 0 382.40317896561464 -3132.5185602653655 0 0 0 0 1141.294992783005 -481.63432477712922 0 -481.63432477712922 -3878.8224040886053 0 0 0 0 71.558783877284441 973.76542962821259 0 973.76542962821259 -3203.6810879405457 0 0 0 0 -674.52793226725043 1039.5872816834235 0 1039.5872816834235 -1199.2251602231408 0 0 0 0 47.885363598310505 563.31031042894028 0 563.31031042894028 -1105.3288369764341 0 0 0 0 226.86339171481814 378.0637752291077 0 378.0637752291077 -1008.5865119560913 0 0 0 0 -602.70523514949946 845.53894649178255 0 845.53894649178255 -983.39977714550332 0 0 0 0 -310.11897009349423 713.00103568266786 0 713.00103568266786 -1110.0325401853188 0 0 0 0 -390.44709575564718 817.09118617843342 0 817.09118617843342 -1003.9666125204531 0 0 0 0 -664.52392200050235 597.54616019371315 0 597.54616019371315 -869.62706994007749 0 0 0 0 -413.16916979120742 473.73095640663814 0 473.73095640663814 -811.36991957807913 0 0 0 0 -160.22739642502938 168.0053936816139 0 168.0053936816139 -283.46698464619112 0 0 0 0 -132.30679644439988 285.0091552191152 0 285.0091552191152 -910.80983053069212 0 0 0 0 54.104474974225973 -31.381681644395968 0 -31.381681644395968 -110.28859453831771 0 0 0 0 39.886938910941218 2.7803278211346196 0 2.7803278211346196 -55.32363159860688 0 0 0 0 -101.71053440989999 540.60611465580587 0 540.60611465580587 -1281.0555435249116 0 0 0 0 -279.92168948773815 786.67811499827076 0 786.67811499827076 -1140.6857449796516 0 0 0 0 -226.21578542576208 634.38200170312484 0 634.38200170312484 -1055.7176704321755 0 0 0 0 -76.898913473758512 72.962272530865448 0 72.962272530865448 -132.95556334953289 0 0 0 0 24.404566813765321 20.747657234550218 0 20.747657234550218 -40.907822482620986 0 0 0 0 -94.837759404341739 113.56437950508189 0 113.56437950508189 -101.68090246344218 0 0 0 0 -31.57328311266523 57.947716446346362 0 57.947716446346362 -61.00046251056753 0 0 0 0 -111.99070332206884 282.89287197283738 0 282.89287197283738 -298.54883099049039 0 0 0 0 -94.996872080851972 117.94445255765459 0 117.94445255765459 -108.86400343378773 0 0 0 0 -53.984187620727027 34.628473741379821 0 34.628473741379821 27.761813173315772 0 0 0 0 -115.5689061442875 140.51746736001769 0 140.51746736001769 -12.610708647465799 0 0 0 0 -110.77200326025559 134.0899489599833 0 134.0899489599833 -110.01931138532018 0 0 0 0 -67.815509911781191 124.47495719172002 0 124.47495719172002 -103.89755499224702 0 0 0 0 -62.098130679138194 115.18233906371461 0 115.18233906371461 -106.60978737296682 0 0 0 0 -100.94666603808855 106.03269176424328 0 106.03269176424328 -94.332377413986251 0 0 0 0 -26.542819293774162 59.982931748998226 0 59.982931748998226 -40.504122870851234 0 0 0 0 -69.476255742162266 123.58982781725717 0 123.58982781725717 -84.710033029172337 0 0 0 0 27.99441961306481 25.00706434734002 0 25.00706434734002 -16.035186478548098 0 0 0 0 -57.424234910561495 89.002231372387541 0 89.002231372387541 -71.462214922416024 0 0 0 0 -4.4591538573677596 20.620180801883237 0 20.620180801883237 8.0338589847495427 0 0 0 0 -717.1956601707534 90.610393316761474 0 90.610393316761474 -28.435066489852034 0 0 0 0 -712.6079292727793 418.35377397819957 0 418.35377397819957 399.76933820801787 0 0 0 0 -1445.9507681069372 203.35929737731203 0 203.35929737731203 -43.191400912137397 0 0 0 0 -1187.3470158236069 985.12052284629681 0 985.12052284629681 -786.45013073482551 0 0 0 0 8.1272882416950054 5.2809079569553319 0 5.2809079569553319 -18.377271404047008 0 0 0 0 -60.064659936153475 -93.794026298819517 0 -93.794026298819517 66.558706023148261 0 0 0 0 7.6445592489199043 157.26989705124288 0 157.26989705124288 -1508.0926476797904 0 0 0 0 131.10883471223769 424.82882565402178 0 424.82882565402178 -1387.7566043930419 0 0 0 0 194.84130518851089 573.44126837877411 0 573.44126837877411 -331.77753898735682 0 0 0 0 318.43675706969225 372.81260004714568 0 372.81260004714568 -1313.3094823822903 0 0 0 0 7.74301258924298 6.4277873484905399 0 6.4277873484905399 5.3469027505191207 0 0 0 0 643.53157321071922 823.07020963056129 0 823.07020963056129 -1210.7096382360905 0 0 0 0 210.68965727444447 27.271944208594505 0 27.271944208594505 -200.56011489860248 0 0 0 0 26.968967207245441 1155.9087321072147 0 1155.9087321072147 -1783.2258080700703 0 0 0 0 108.19342544782558 920.66417337703751 0 920.66417337703751 -1184.8418866408865 0 0 0 0 590.9182947844929 1068.4263280109517 0 1068.4263280109517 -1676.7750896764046 0 0 0 0 611.87945987479179 1034.6043744729832 0 1034.6043744729832 -1623.9218632347474 0 0 0 0 485.05642823453582 1298.0221237666246 0 1298.0221237666246 -1553.8570075701282 0 0 0 0 108.64944658439344 1077.4319530511857 0 1077.4319530511857 -1659.35183756486 0 0 0 0 127.12844243755899 792.54164074796427 0 792.54164074796427 -1972.196872516397 0 0 0 0 505.09330227389 266.62102628743742 0 266.62102628743742 -1103.7527605705009 0 0 0 0 -211.89464559643784 1167.0736856618751 0 1167.0736856618751 -1147.3038186325139 0 0 0 0 241.57866422782536 1060.3487034168866 0 1060.3487034168866 -104.24827537452802 0 0 0 0 52.579747596373636 376.88597183118691 0 376.88597183118691 -19.006313309742836 0 0 0 0 396.34366682792461 862.09714768166305 0 862.09714768166305 -1440.9212407958039 0 0 0 0 -492.99621033415679 1256.0772634570021 0 1256.0772634570021 -1514.9046978286201 0 0 0 0 -338.49452363983801 688.51575052848057 0 688.51575052848057 -1137.12191207672 0 0 0 0 -271.60310185382696 740.27760536699498 0 740.27760536699498 -1285.0620739189617 0 0 0 0 -354.18321497136276 702.53416854309035 0 702.53416854309035 -1023.6328317663574 0 0 0 0 -1207.019843490003 610.16817354200612 0 610.16817354200612 -1302.1780042763421 0 0 0 0 -1298.2929827408607 819.22143309856983 0 819.22143309856983 -1069.4336840109318 0 0 0 0 -536.59463701419736 922.82309644365159 0 922.82309644365159 -1361.4014719345578 0 0 0 0 -576.53833041449616 1015.112348085233 0 1015.112348085233 -999.16660422481073 0 0 0 0 -430.76215289563879 980.67381816895977 0 980.67381816895977 -1266.1259665037796 0 0 0 0 -548.96448654070264 891.58954160981011 0 891.58954160981011 -875.18161198389134 0 0 0 0 -636.27860823864648 1028.9157370442117 0 1028.9157370442117 -636.91041527493508 0 0 0 0 -1072.659718355746 1070.8310478736603 0 1070.8310478736603 -606.26340931080631 0 0 0 0 -157.86716877396975 370.13319541038072 0 370.13319541038072 -133.59990038441902 0 0 0 0 -564.66121215879866 479.2878372209525 0 479.2878372209525 -2.5049026476044673 0 0 0 0 -768.00477301251749 775.62543401405856 0 775.62543401405856 -246.81865593869588 0 0 0 0 132.80963570342283 340.99470661972009 0 340.99470661972009 282.96214223087736 0 0 0 0 -44.903483593298006 64.056451819775248 0 64.056451819775248 782.55160763757885 0 0 0 0 -113.36736554796153 480.92402491741814 0 480.92402491741814 294.66464763943804 0 0 0 0 10.427477933148403 28.268644568449844 0 28.268644568449844 4.6781895599153245 0 0 0 0 -806.33863716036376 -3.3679672390808264 0 -3.3679672390808264 278.19070445059333 0 0 0 0 2.2264779302294215 3.2164122545208897 0 3.2164122545208897 -12.926836419587289 0 0 0 0 39.74658587015918 94.032268578827683 0 94.032268578827683 69.402539620847364 0 0 0 0 115.41690750100315 -79.9124519436009 0 -79.9124519436009 23.889577491623641 0 0 0 0 128.92632288525783 284.33436567634635 0 284.33436567634635 -93.191041746002156 0 0 0 0 -91.295868330075336 405.72798736551249 0 405.72798736551249 -16.880645781071507 0 0 0 0 -125.3723786155424 155.04796383402027 0 155.04796383402027 0.32303359391517006 0 0 0 0 45.269830155706586 99.170465482180589 0 99.170465482180589 4.5628924981865566 0 0 0 0 -10.455327164517485 12.20260092134572 0 12.20260092134572 -14.792011185614058 0 0 0 0 -303.55597520458105 135.63284086307976 0 135.63284086307976 149.51755368913291 0 0 0 0 -1134.9618889394915 557.78114214174275 0 557.78114214174275 106.89854291352094 0 0 0 0 332.95274355979927 860.23371726942423 0 860.23371726942423 -577.49505472608871 0 0 0 0 -602.71081036239411 809.36369263636516 0 809.36369263636516 -562.77232450421434 0 0 0 0 31.055177867416536 103.65574055975776 0 103.65574055975776 -108.74137944205665 0 0 0 0 103.39627242269125 402.13199431404792 0 402.13199431404792 -161.50906654153368 0 0 0 0 -176.32988986703035 638.18924105365988 0 638.18924105365988 -349.56291119796515 0 0 0 0 -3.7384525661307251 12.734092920730319 0 12.734092920730319 -32.3079601690674 0 0 0 0 -163.06959753835508 65.801851155396434 0 65.801851155396434 132.08945878777013 0 0 0 0 60.648590253342022 106.4635776786817 0 106.4635776786817 52.16857315785245 0 0 0 0 52.490071681017525 175.10586036616587 0 175.10586036616587 41.266724253349821 0 0 0 0 -754.31157979405543 -23.004449018713785 0 -23.004449018713785 -143.19825610128464 0 0 0 0 -184.27543651398446 -1.3582000434980728 0 -1.3582000434980728 -224.66955094735022 0 0 0 0 -20.813610511460865 4.1443699789233506 0 4.1443699789233506 -226.58127845013223 0 0 0 0 -28.569672030465526 42.733701941547281 0 42.733701941547281 -9.7554620716696263 0 0 0 0 320.81434374619676 -79.482858736224443 0 -79.482858736224443 -98.386613714377745 0 0 0 0 -6.5675600237773324 -227.51158835906972 0 -227.51158835906972 -292.15822223838768 0 0 0 0 -14.281182738460302 20.208517245386247 0 20.208517245386247 -403.90904078091262 0 0 0 0 360.5768013401721 -77.460078289048397 0 -77.460078289048397 -381.73301108757732 0 0 0 0 431.04230288574399 -98.50497741815343 0 -98.50497741815343 -431.54167837021669 0 0 0 0 238.61331255743062 584.46543351229047 0 584.46543351229047 -1992.7396833613348 0 0 0 0 -428.25445410465181 860.58923585416051 0 860.58923585416051 -73.539817889672122 0 0 0 0 -260.5184787797898 989.41216572980193 0 989.41216572980193 -1074.9005402679832 0 0 0 0 -1345.0863795717576 1762.4793421069917 0 1762.4793421069917 -958.73187399329618 0 0 0 0 -1793.0499291081569 905.12036007092502 0 905.12036007092502 28.848088879603893 0 0 0 0 -5.9550532165031749 12.02338857012424 0 12.02338857012424 -16.89515884464555 0 0 0 0 -187.42404878897651 1428.4032897009311 0 1428.4032897009311 -1322.2013582857071 0 0 0 0 -162.07801096736512 1200.4779050988582 0 1200.4779050988582 136.88617959823023 0 0 0 0 45.522449082473031 898.07155179581605 0 898.07155179581605 -386.45502220865455 0 0 0 0 185.07834593518783 700.49124354838568 0 700.49124354838568 -461.4123079363635 0 0 0 0 -642.04711538998799 341.90478623865783 0 341.90478623865783 -785.92416770965428 0 0 0 0 -595.12608786715055 1071.7136450986181 0 1071.7136450986181 130.03316795809951 0 0 0 0 72.76333184422765 676.52685813089192 0 676.52685813089192 -320.9714738549028 0 0 0 0 150.37369165601058 848.79378627626284 0 848.79378627626284 40.887015360582154 0 0 0 0 271.41216234680905 612.20867614832241 0 612.20867614832241 -121.77319709987205 0 0 0 0 348.48164695515516 794.61700015258248 0 794.61700015258248 488.60557451023487 0 0 0 0 233.98714857894083 636.27269784032251 0 636.27269784032251 432.66762293328793 0 0 0 0 248.51788637739264 749.68070879122934 0 749.68070879122934 464.46215146942995 0 0 0 0 371.64624276019276 628.94098489420139 0 628.94098489420139 85.762515672045993 0 0 0 0 230.66671402169231 500.70958295890887 0 500.70958295890887 473.54833556810627 0 0 0 0 154.7602147271391 573.05084537569201 0 573.05084537569201 1027.1348801652784 0 0 0 0 32.451754027875722 783.71414790878771 0 783.71414790878771 1189.5418221408909 0 0 0 0 228.1849322725393 986.5206968890634 0 986.5206968890634 970.60818212127197 0 0 0 0 182.57599140459206 583.37365854292875 0 583.37365854292875 527.25467668843339 0 0 0 0 160.10059689857007 686.12271113116003 0 686.12271113116003 874.91748928889865 0 0 0 0 75.078475077156241 935.02632431142229 0 935.02632431142229 137.91142970685905 0 0 0 0 -935.81724807659248 164.52602991016465 0 164.52602991016465 -904.53972935828097 0 0 0 0 24.107891766854884 92.431920930677265 0 92.431920930677265 -126.87325628653531 0 0 0 0 -559.87514757369968 618.35028369048086 0 618.35028369048086 -879.67533087845368 0 0 0 0 -1130.9359744168623 700.68578075288679 0 700.68578075288679 -834.76696891417669 0 0 0 0 -552.95188077951241 909.38740519169187 0 909.38740519169187 -912.22568922967184 0 0 0 0 -724.55977291105637 690.00401478369895 0 690.00401478369895 -696.81565470275382 0 0 0 0 24.09074876758261 92.837049677482497 0 92.837049677482497 -125.51332043286499 0 0 0 0 -695.08269019386171 688.13920317102384 0 688.13920317102384 -945.50682946940651 0 0 0 0 -810.53142796560542 868.67779667626019 0 868.67779667626019 4.3735051054900396 0 0 0 0 -1191.9607934888168 1348.277799713891 0 1348.277799713891 275.00908471380171 0 0 0 0 -106.53301471639043 3.9164061661685992 0 3.9164061661685992 133.9218789277511 0 0 0 0 -31.062433325751044 242.34197225521348 0 242.34197225521348 240.58662438816827 0 0 0 0 -1115.363417523251 681.49360629438161 0 681.49360629438161 -121.49580274373147 0 0 0 0 -32.048656874965232 12.621996855604806 0 12.621996855604806 19.397285547796884 0 0 0 0 -151.07842481095213 -45.291898554511135 0 -45.291898554511135 582.15917545933189 0 0 0 0 62.691152781026545 174.11563938571251 0 174.11563938571251 102.54542403199707 0 0 0 0 -451.11418106343626 169.79493959572574 0 169.79493959572574 233.10203089017887 0 0 0 0 765.15851458445832 -199.70156981288892 0 -199.70156981288892 13.480009933329711 0 0 0 0 335.91717711310775 46.435063727600209 0 46.435063727600209 253.7848390509389 0 0 0 0 1095.3522703330964 13.917556813976262 0 13.917556813976262 -199.43130046628357 0 0 0 0 67.101602174087702 157.47753977354265 0 157.47753977354265 91.708436359311008 0 0 0 0 430.27443110011882 16.926824711541485 0 16.926824711541485 118.99150019649824 0 0 0 0 498.63542579198838 372.32090399543085 0 372.32090399543085 -44.082966382415179 0 0 0 0 -137.44555250641497 465.01952428789809 0 465.01952428789809 135.71333967720057 0 0 0 0 -510.24132965916215 432.94591552046768 0 432.94591552046768 168.13946701965051 0 0 0 0 -259.28280604191968 137.53659880304986 0 137.53659880304986 315.60558119163034 0 0 0 0 387.32345536942739 351.53637023596821 0 351.53637023596821 -42.343582415531273 0 0 0 0 503.32865671717718 772.05830540349416 0 772.05830540349416 296.81333571871801 0 0 0 0 65.525909567310009 1488.7916771659075 0 1488.7916771659075 -680.88376995188833 0 0 0 0 -283.83280401359661 1058.5054274969734 0 1058.5054274969734 773.87795436111628 0 0 0 0 -761.91911589223309 2244.2608233053979 0 2244.2608233053979 -1539.8736363815406 0 0 0 0 -1680.0082482110447 -440.35724680549902 0 -440.35724680549902 4889.4978909152269 0 0 0 0 180.63612758714589 526.39318391341658 0 526.39318391341658 875.81063826333229 0 0 0 0 -6.7443666623876197 903.37727264251589 0 903.37727264251589 522.93770436023624 0 0 0 0 -175.45709909286961 324.62626567643019 0 324.62626567643019 -39.299886137872818 0 0 0 0 205.33673204210208 397.83694795846532 0 397.83694795846532 -876.74909471615683 0 0 0 0 334.8317626436401 791.72306832313188 0 791.72306832313188 -1378.3917250437225 0 0 0 0 -23.033296954010609 14.36371217247617 0 14.36371217247617 -16.254874821656585 0 0 0 0 -2795.4749953690025 -387.25515024806009 0 -387.25515024806009 765.04631047269504 0 0 0 0 639.95319448768714 -491.37583109925617 0 -491.37583109925617 -1022.3166803501244 0 0 0 0 55.900025775794347 777.83684862772498 0 777.83684862772498 468.56672447829624 0 0 0 0 -39.459682000652862 66.548970537733339 0 66.548970537733339 -28.162578610485696 0 0 0 0 -497.50039466425369 562.62609020537639 0 562.62609020537639 435.99394908682734 0 0 0 0 -501.65667374178156 510.42800095424172 0 510.42800095424172 -215.92300357163185 0 0 0 0 73.210824535991804 57.638793560755346 0 57.638793560755346 15.505290091484454 0 0 0 0 41.659917876007967 223.81753847650543 0 223.81753847650543 -133.03256577092543 0 0 0 0 -509.32693711084994 3722.613842845838 0 3722.613842845838 -4268.8268262238707 0 0 0 0 -16.938439800884225 945.92759382123768 0 945.92759382123768 -1267.6477556430764 0 0 0 0 -1324.0570930944814 1415.5500561681692 0 1415.5500561681692 -296.07198351947591 0 0 0 0 27.400307517612418 13.90596083067237 0 13.90596083067237 10.306186525132688 0 0 0 0 -10.87823224649037 -288.00160249336841 0 -288.00160249336841 -323.24614504445344 0 0 0 0 -98.441749763005646 -15.067804715377861 0 -15.067804715377861 2755.1211142169923 0 0 0 0 -201.88644875887985 492.14404714533885 0 492.14404714533885 480.86558775528101 0 0 0 0 -28.201431680200585 124.61101260107534 0 124.61101260107534 1379.3606438588613 0 0 0 0 -21.012543875222548 20.305975239814757 0 20.305975239814757 20.384802255854339 0 0 0 0 -1.7099112478733787 6.429799003842902 0 6.429799003842902 4.1046699718033892 0 0 0 0 -1751.1055476316833 1807.4870099014151 0 1807.4870099014151 1598.0064344660786 0 0 0 0 1234.2998124306469 1292.4491518332106 0 1292.4491518332106 -3103.0127165419835 0 0 0 0 -1370.0834089618002 2125.3492075323811 0 2125.3492075323811 -1823.3134089434388 0 0 0 0 -1090.2989129010748 813.13377680198755 0 813.13377680198755 219.30787523186882 0 0 0 0 -1415.4777094215378 351.74017827743046 0 351.74017827743046 -146.68824331898941 0 0 0 0 -1365.3022904865866 531.93883589072357 0 531.93883589072357 -60.130172558943741 0 0 0 0 -125.15064425320452 -596.10006607203104 0 -596.10006607203104 954.39317706133079 0 0 0 0 -1173.3669638391875 579.42442452724208 0 579.42442452724208 -1800.7489054244943 0 0 0 0 -946.30743781841102 -282.91033142042943 0 -282.91033142042943 -690.57226262803306 0 0 0 0 -610.32645295130988 1309.8245813192771 0 1309.8245813192771 -1376.2012830660969 0 0 0 0 -1023.6426085924249 670.38415390392765 0 670.38415390392765 -830.13218888145639 0 0 0 0 -1054.9009921645738 78.934989922778186 0 78.934989922778186 -1507.259784287744 0 0 0 0 339.92270198652113 1079.7388911785674 0 1079.7388911785674 -151.94312899409852 0 0 0 0 414.54740047735686 1409.4360763601071 0 1409.4360763601071 -1162.8365294357063 0 0 0 0 228.15686669474235 2168.7849673595483 0 2168.7849673595483 1095.4000351516734 0 0 0 0 1565.6213017362825 1294.6296954917489 0 1294.6296954917489 -482.93140834290534 0 0 0 0 -203.26819468279427 671.66999489856244 0 671.66999489856244 -532.29838776309771 0 0 0 0 -653.09657666926796 611.46986555086914 0 611.46986555086914 -1921.0310845364584 0 0 0 0 360.11049501407251 1070.7787853717309 0 1070.7787853717309 -1726.0030686483669 0 0 0 0 433.1585103610887 1845.0781817971074 0 1845.0781817971074 -1656.1716240778333 0 0 0 0 556.34012723034539 1478.7677607056976 0 1478.7677607056976 -2002.0744755601627 0 0 0 0 536.59180844401544 1066.6262752091079 0 1066.6262752091079 -1417.3688165755884 0 0 0 0 617.13852805329589 838.94349167651671 0 838.94349167651671 -2287.4715271574096 0 0 0 0 557.54424699780066 460.59448584406346 0 460.59448584406346 -1778.118428005735 0 0 0 0 89.788493737971294 393.11990056403738 0 393.11990056403738 -2883.5555320261119 0 0 0 0 548.97002566167794 566.2216787658981 0 566.2216787658981 -3043.5707560213632 0 0 0 0 -64.855761426035315 1878.8427290277177 0 1878.8427290277177 -3084.741086496244 0 0 0 0 -7.1819238433126884 1054.3661026321352 0 1054.3661026321352 -6194.0711925740179 0 0 0 0 -2.2281074820695892 3.0395618564896552 0 3.0395618564896552 -8.9573029574527254 0 0 0 0 -404.85412948479643 -1369.5315132625838 0 -1369.5315132625838 -4705.6259168630058 0 0 0 0 -648.58487223733391 -622.98648489058542 0 -622.98648489058542 60.767505750525743 0 0 0 0 47.268106524490577 -536.90193702303804 0 -536.90193702303804 -2655.8740203079651 0 0 0 0 339.02282678224947 342.6336725825131 0 342.6336725825131 -1841.7751236940967 0 0 0 0 63.8730434129684 -45.699642318359111 0 -45.699642318359111 -510.44761974030553 0 0 0 0 -604.95029672439705 1161.337157260743 0 1161.337157260743 -2956.9317562246724 0 0 0 0 -162.87756992425898 1513.1816242791515 0 1513.1816242791515 -2733.9710284118482 0 0 0 0 -2305.4597885271869 2042.9199046788563 0 2042.9199046788563 -3141.6511884660285 0 0 0 0 -140.82259211854398 1143.9551062912215 0 1143.9551062912215 -5281.2332956828322 0 0 0 0 -2165.7790172564492 -479.94331429536396 0 -479.94331429536396 -2805.873146612008 0 0 0 0 -2482.8281491095586 2086.7445367726032 0 2086.7445367726032 -896.32301634422038 0 0 0 0 -157.66219582770282 249.24197164880752 0 249.24197164880752 -886.41101028826427 0 0 0 0 2.7924614442966629 7.8258473008271778 0 7.8258473008271778 -25.646776165253982 0 0 0 0 -131.32484065607423 1279.1457899097295 0 1279.1457899097295 -2312.5116804028657 0 0 0 0 -64.251099865745346 1580.1837078506069 0 1580.1837078506069 -3222.1774573107396 0 0 0 0 -1367.320302864453 2755.4371949296037 0 2755.4371949296037 -3724.369576044206 0 0 0 0 -874.82166230594157 875.41248367853404 0 875.41248367853404 -4303.6356105179148 0 0 0 0 -1090.7334380838438 2036.4893688263001 0 2036.4893688263001 -1951.4923141991312 0 0 0 0 -596.81765033223201 975.15463758389524 0 975.15463758389524 -1483.6880461233595 0 0 0 0 -1028.511251925127 443.89304746307607 0 443.89304746307607 -500.76086206141918 0 0 0 0 -1285.384036412659 628.00770742514578 0 628.00770742514578 -101.99320522931521 0 0 0 0 -949.28730858505878 1096.2295572809817 0 1096.2295572809817 -1268.6003715268453 0 0 0 0 -374.86233251566046 -39.345209601409806 0 -39.345209601409806 -332.67785585226375 0 0 0 0 -559.01398984472689 700.55997426154318 0 700.55997426154318 -369.60732881558943 0 0 0 0 44.683462629525593 145.81708223584201 0 145.81708223584201 106.72907435930588 0 0 0 0 174.77757833290525 -243.96852466106793 0 -243.96852466106793 614.80287514393422 0 0 0 0 -242.14093909463554 255.77208456180233 0 255.77208456180233 302.77766002913995 0 0 0 0 -76.341385283359216 41.681951594283788 0 41.681951594283788 34.612054484913301 0 0 0 0 276.55467703616523 -105.28367056326533 0 -105.28367056326533 -569.48203948343871 0 0 0 0 45.2091316939389 99.422952293947773 0 99.422952293947773 -69.429953345367153 0 0 0 0 -399.65145743918038 -59.092918531227042 0 -59.092918531227042 -8.5280641613353509 0 0 0 0 26.394866583625117 237.52445253851693 0 237.52445253851693 -218.04029207026178 0 0 0 0 481.91425521052224 -46.508441193691397 0 -46.508441193691397 -508.92857188472408 0 0 0 0 42.183196743068919 79.776151547330798 0 79.776151547330798 -53.04194561211807 0 0 0 0 175.97015828139411 52.442435566375934 0 52.442435566375934 -191.63660450786119 0 0 0 0 -599.26558140826819 998.2053187724232 0 998.2053187724232 -497.01034355375305 0 0 0 0 -2871.5158864372424 1097.2498337629077 0 1097.2498337629077 317.10395737216459 0 0 0 0 14.138916241354309 1675.8964259438799 0 1675.8964259438799 -8227.8459591240826 0 0 0 0 -922.65588574056892 -18.24015195305401 0 -18.24015195305401 539.20185348343512 0 0 0 0 -40.024224625955355 25.006577110522699 0 25.006577110522699 -1.5933841909778366 0 0 0 0 -1394.4844004896295 996.4042176751318 0 996.4042176751318 -5047.8340347574558 0 0 0 0 -228.96690871287137 596.94289937964641 0 596.94289937964641 -3197.3333134707063 0 0 0 0 1815.4734852051479 -421.06013403287943 0 -421.06013403287943 -4333.4858503582072 0 0 0 0 4.6746929924244114 8.7479626603999776 0 8.7479626603999776 -4.4433944162733496 0 0 0 0 -299.39546664874069 1381.7783924554824 0 1381.7783924554824 -3652.8143381547998 0 0 0 0 -114.42589612840675 1386.3078709069232 0 1386.3078709069232 -3946.7112601608969 0 0 0 0 2.8688679446058813 583.09583429759368 0 583.09583429759368 -4501.0273706298321 0 0 0 0 -294.15735903161112 1600.0898526448291 0 1600.0898526448291 -4198.6265592450509 0 0 0 0 -418.42195495081251 1977.1130934301764 0 1977.1130934301764 -3928.7745626475662 0 0 0 0 -502.19887235373608 2012.096764908114 0 2012.096764908114 -3751.7444451951887 0 0 0 0 -417.30541043463745 1912.0213835106988 0 1912.0213835106988 -3773.6030312851071 0 0 0 0 -256.8785769015085 1646.6368294541026 0 1646.6368294541026 -5229.5495832490269 0 0 0 0 -62.457401526276954 814.9493670972297 0 814.9493670972297 -5319.7020835551666 0 0 0 0 -900.5676946133608 2019.9670410909166 0 2019.9670410909166 -4323.4601757618948 0 0 0 0 -500.48376253893366 1981.6012256769172 0 1981.6012256769172 -4367.8898886596726 0 0 0 0 -767.05590055760695 2039.9883753185495 0 2039.9883753185495 -4402.3340406951029 0 0 0 0 -880.21327609426226 2271.94509062414 0 2271.94509062414 -3808.1488761506043 0 0 0 0 -479.4819767868903 2136.2199422182748 0 2136.2199422182748 -3762.9370725250628 0 0 0 0 -515.81927699493826 1970.6906385837356 0 1970.6906385837356 -3630.4975434099906 0 0 0 0 -591.79933815776894 2296.3185167140036 0 2296.3185167140036 -3559.6999099319219 0 0 0 0 -490.66075360155082 2272.6192130227864 0 2272.6192130227864 -3742.8361450258672 0 0 0 0 -458.15030214691069 2154.879895806429 0 2154.879895806429 -3320.7710241724271 0 0 0 0 -413.99950484430883 2484.9633120369181 0 2484.9633120369181 -3800.3048061543377 0 0 0 0 -798.6877598548017 2424.9134540614323 0 2424.9134540614323 -3482.3898782762117 0 0 0 0 -170.95558155354229 2223.6517215710774 0 2223.6517215710774 -3716.451264881005 0 0 0 0 -294.52278839914652 2127.5501213394673 0 2127.5501213394673 -3472.2335514216102 0 0 0 0 -988.51122673807549 2122.7986032206099 0 2122.7986032206099 -3197.6781939162756 0 0 0 0 -320.67900777271461 1624.1679952892182 0 1624.1679952892182 -2983.008902515925 0 0 0 0 -763.02560388459824 1637.2496845175629 0 1637.2496845175629 -2657.041562614846 0 0 0 0 -345.2494806110044 2106.756422278122 0 2106.756422278122 -3477.8023240038892 0 0 0 0 -125.73240664131299 950.74904626599164 0 950.74904626599164 -2306.5443868880975 0 0 0 0 -471.26539550852613 1088.9303037919744 0 1088.9303037919744 -1960.151071589411 0 0 0 0 -240.57224193282309 1042.9042502408702 0 1042.9042502408702 -2010.3738705791766 0 0 0 0 495.437836862111 557.33213932678336 0 557.33213932678336 -2370.6390321729705 0 0 0 0 145.86080386547837 1434.9497950772638 0 1434.9497950772638 -3110.5129162484664 0 0 0 0 956.09403411572566 781.9395174079109 0 781.9395174079109 -4466.3715039436647 0 0 0 0 250.31642723083496 872.49844048125669 0 872.49844048125669 -2123.4942439456936 0 0 0 0 498.40576817107285 1388.2153551610645 0 1388.2153551610645 -3484.5208958513103 0 0 0 0 -78.115570694732014 2129.2136046579108 0 2129.2136046579108 -3994.0480956685496 0 0 0 0 436.04986668632409 2137.7375843294867 0 2137.7375843294867 -4686.8649345745798 0 0 0 0 -34.180533837759867 1646.9241352602839 0 1646.9241352602839 -3046.3962300593266 0 0 0 0 260.75537254453229 1316.3270610426844 0 1316.3270610426844 -3237.3219983810559 0 0 0 0 -929.3099133480282 685.89983528229641 0 685.89983528229641 -1058.8664827989996 0 0 0 0 -960.09055522896051 387.65543018503013 0 387.65543018503013 -1430.6806544631254 0 0 0 0 -1113.9035448464565 1206.9382588030712 0 1206.9382588030712 -1803.6472497936629 0 0 0 0 -603.53292483912082 492.92286488492391 0 492.92286488492391 -1249.0802842294215 0 0 0 0 -651.32171390782059 1045.372057511453 0 1045.372057511453 -2227.3738361646538 0 0 0 0 -1522.2328095541161 1703.31007545584 0 1703.31007545584 -2487.8268990613287 0 0 0 0 -1871.0573736235892 1214.9404421112558 0 1214.9404421112558 -1744.159418023075 0 0 0 0 -2161.4459194676892 1777.1259211677243 0 1777.1259211677243 -2634.4645800177386 0 0 0 0 -1230.2985383369669 3482.7965681116621 0 3482.7965681116621 -6847.2238360663614 0 0 0 0 -1144.5600993417029 1305.7201175516821 0 1305.7201175516821 -2834.7021138357813 0 0 0 0 -3139.0812319810912 3324.0047999369544 0 3324.0047999369544 -4413.3700181019376 0 0 0 0 -1716.694963881193 2726.8962097296899 0 2726.8962097296899 -4131.1534548581112 0 0 0 0 -1555.7660860590986 2290.9124020694289 0 2290.9124020694289 -3291.4467248200308 0 0 0 0 -808.86532865891786 1801.0024525302288 0 1801.0024525302288 -3222.6440253536566 0 0 0 0 -1009.4040460588003 2604.9493153223884 0 2604.9493153223884 -4955.419145312364 0 0 0 0 -833.53782443851924 1635.2934709787223 0 1635.2934709787223 -5296.0244257107261 0 0 0 0 -3288.3157993466789 969.26432379697781 0 969.26432379697781 -2582.4087808764598 0 0 0 0 -1345.8556332460139 920.87254153561662 0 920.87254153561662 -1697.0653294943622 0 0 0 0 -972.19129650125979 1285.0713983189198 0 1285.0713983189198 -2892.5311553126958 0 0 0 0 -694.99802225926942 1463.1391609659113 0 1463.1391609659113 -2480.180004830152 0 0 0 0 -237.12995701683394 493.43422677138005 0 493.43422677138005 -2553.9316970132877 0 0 0 0 -48.592025131190894 1023.9368219323806 0 1023.9368219323806 -1691.2063585598953 0 0 0 0 95.117693154839799 528.63807861003443 0 528.63807861003443 -636.73022183505236 0 0 0 0 -647.96982631355058 688.70366003369418 0 688.70366003369418 -961.73553524765885 0 0 0 0 -183.61821820170735 66.2266067690216 0 66.2266067690216 -1119.465945310134 0 0 0 0 -390.68331529355055 186.71676171821309 0 186.71676171821309 -183.22882762207882 0 0 0 0 -443.83489237092726 -128.23168508626986 0 -128.23168508626986 -839.35276916026851 0 0 0 0 246.77567882639414 -416.3048798199161 0 -416.3048798199161 -178.91516300215153 0 0 0 0 -148.59739399263344 -267.48930250568083 0 -267.48930250568083 587.03233625617577 0 0 0 0 -1244.5312879801786 326.39127702492988 0 326.39127702492988 -2113.4790502075193 0 0 0 0 -615.50881343719084 352.9815299322072 0 352.9815299322072 -1819.7270356210283 0 0 0 0 -1331.342488778726 597.11657063328312 0 597.11657063328312 -1059.8252310028183 0 0 0 0 -684.13804398007778 511.66750627979491 0 511.66750627979491 -1131.7785514656571 0 0 0 0 -1047.0795643998135 -38.13873421754397 0 -38.13873421754397 -374.68813369811687 0 0 0 0 -366.09240384744771 43.254360771679785 0 43.254360771679785 -421.49820753400854 0 0 0 0 -766.32005600279081 -232.55709852997097 0 -232.55709852997097 174.92279962316388 0 0 0 0 656.47371264033609 -982.79570913539692 0 -982.79570913539692 201.30459534819238 0 0 0 0 -500.39380926028025 -30.586816244303918 0 -30.586816244303918 481.43621702125529 0 0 0 0 623.85409821712528 -210.62517935130745 0 -210.62517935130745 -272.11019956529708 0 0 0 0 -119.03131139754259 -726.9153158707486 0 -726.9153158707486 451.02928200966699 0 0 0 0 -121.69519416156254 192.23170473140635 0 192.23170473140635 -276.14138540247222 0 0 0 0 -3.934513302259063 -2.0224001243553005 0 -2.0224001243553005 2.4655921759568855 0 0 0 0 -448.04798327333992 -132.34531628330296 0 -132.34531628330296 61.902877454500413 0 0 0 0 -231.35722099621489 -220.57696922407195 0 -220.57696922407195 59.77331203733047 0 0 0 0 -163.46591001062188 159.75904300237016 0 159.75904300237016 120.18808173335492 0 0 0 0 -295.03504166131825 194.57057101747341 0 194.57057101747341 304.09674263099441 0 0 0 0 73.202627393242437 533.13758022185357 0 533.13758022185357 677.42285012133652 0 0 0 0 -32.408998051221715 160.91910235256364 0 160.91910235256364 229.95179573187488 0 0 0 0 255.48651096389221 292.50576968131645 0 292.50576968131645 902.37671911518191 0 0 0 0 1959.431007399442 83.21801012197102 0 83.21801012197102 -31.115813877957407 0 0 0 0 2223.2360033891819 811.35208539424639 0 811.35208539424639 -579.53185045451391 0 0 0 0 748.32973648712505 532.97733393404633 0 532.97733393404633 -186.47779898683075 0 0 0 0 779.65243816073053 -124.92879591684323 0 -124.92879591684323 788.98250537321292 0 0 0 0 516.02637373452308 319.82181883460726 0 319.82181883460726 152.97237042692723 0 0 0 0 85.393604001641506 110.99432367147529 0 110.99432367147529 193.58569275733316 0 0 0 0 628.73436885265983 708.62881044652022 0 708.62881044652022 -352.20425431104377 0 0 0 0 5.8287972766556777 663.76091518893372 0 663.76091518893372 -555.47198135501822 0 0 0 0 737.46764982189052 536.68891469942173 0 536.68891469942173 -544.0688708028174 0 0 0 0 1433.5520306648978 1344.4850586700632 0 1344.4850586700632 -667.38429732969962 0 0 0 0 1664.1046588757017 772.34317827910127 0 772.34317827910127 -543.16787105007097 0 0 0 0 598.4547692265478 972.04482421925059 0 972.04482421925059 -561.53038921029656 0 0 0 0 1123.3394572810794 1139.6141190416238 0 1139.6141190416238 -736.50918517739046 0 0 0 0 1007.297101020813 1319.0413532583043 0 1319.0413532583043 -609.69185098624439 0 0 0 0 1451.0439248031471 1743.2306885801954 0 1743.2306885801954 -674.47502980940044 0 0 0 0 451.99739707045956 1412.1034606199246 0 1412.1034606199246 -359.73823382775299 0 0 0 0 804.82189389050473 1176.8337341876759 0 1176.8337341876759 -989.56994453805964 0 0 0 0 552.69609156060324 836.12774093360349 0 836.12774093360349 -1168.4357416041894 0 0 0 0 318.008501271368 1064.2568549518473 0 1064.2568549518473 -595.36285227170447 0 0 0 0 386.57527913339436 1008.3210830931494 0 1008.3210830931494 -2021.0661045504967 0 0 0 0 6.3816683892655419 738.14596532080031 0 738.14596532080031 -1152.8931720184628 0 0 0 0 166.37788827109034 903.43690556849469 0 903.43690556849469 -851.87890345149208 0 0 0 0 498.71230720693711 419.29776737920474 0 419.29776737920474 -1930.8312311474001 0 0 0 0 91.156740277554491 702.92860734990973 0 702.92860734990973 -1128.8925897612353 0 0 0 0 99.889850648527499 904.95697078475496 0 904.95697078475496 -2128.9329795847298 0 0 0 0 -205.18894984178769 590.27901397990354 0 590.27901397990354 -1171.536521178321 0 0 0 0 -597.56580111398944 698.97595359140541 0 698.97595359140541 -1083.6514086871175 0 0 0 0 -370.57806524505577 199.52151369849889 0 199.52151369849889 -457.11912697041407 0 0 0 0 -881.17488185134425 81.665462429140462 0 81.665462429140462 -408.21414663459291 0 0 0 0 -617.75219053144247 234.86374698765576 0 234.86374698765576 -331.13156888875528 0 0 0 0 -532.5551474364911 -94.212814733240521 0 -94.212814733240521 124.67510966745613 0 0 0 0 -145.8088120635075 457.32651233975776 0 457.32651233975776 -317.78649690316524 0 0 0 0 -83.022747846494894 108.7480624429445 0 108.7480624429445 -110.74075013351103 0 0 0 0 54.350914875478338 259.53913067011308 0 259.53913067011308 54.749209924848401 0 0 0 0 99.036584801901427 88.213544259085211 0 88.213544259085211 -118.51395696806139 0 0 0 0 -110.24439423779404 -251.72161590278847 0 -251.72161590278847 -369.61850269591378 0 0 0 0 28.107472391804578 20.291140488566839 0 20.291140488566839 -10.623235252577729 0 0 0 0 13.695089369587578 24.569019643793098 0 24.569019643793098 -10.157298539239434 0 0 0 0 13.262551895424522 12.461617206459465 0 12.461617206459465 -50.204189748322051 0 0 0 0 11.553928611479932 34.038506537966896 0 34.038506537966896 -54.337288315000478 0 0 0 0 166.97613023151644 197.77004347783804 0 197.77004347783804 -531.38145720617467 0 0 0 0 18.255029668238421 28.787010626241681 0 28.787010626241681 -52.146849030163139 0 0 0 0 -0.41188071407447069 35.315376126307171 0 35.315376126307171 -78.280211103350098 0 0 0 0 28.337232587626204 68.054237616321188 0 68.054237616321188 -88.532702984346543 0 0 0 0 26.633521108029527 61.422695855922939 0 61.422695855922939 -113.87856941670179 0 0 0 0 -16.206674829038093 71.936339251478785 0 71.936339251478785 -105.10552183433902 0 0 0 0 -19.153518928076664 67.294282285394729 0 67.294282285394729 -111.25949270685669 0 0 0 0 -14.351952883553167 39.252123653142917 0 39.252123653142917 -54.883238205715315 0 0 0 0 1.9670054957969114 46.667262173636118 0 46.667262173636118 -91.999577556707663 0 0 0 0 -3.9617591677451856 26.672069092091988 0 26.672069092091988 -44.136049614782678 0 0 0 0 16.396163801297917 19.284543074234534 0 19.284543074234534 -44.56222974305274 0 0 0 0 17.315901607846627 8.7318120169570506 0 8.7318120169570506 -26.909895127775712 0 0 0 0 -702.74934546598888 843.05662253115588 0 843.05662253115588 -150.88399583220598 0 0 0 0 -51.963195894189994 1338.7199085408356 0 1338.7199085408356 -2268.8485147126921 0 0 0 0 -18.339482998312633 292.68895994234572 0 292.68895994234572 -805.84453650348587 0 0 0 0 -5.762923779520321 14.230394675752962 0 14.230394675752962 7.9323817155630252 0 0 0 0 547.30628262733808 441.80504133860813 0 441.80504133860813 -819.90918746741954 0 0 0 0 236.91233141764314 -68.016676535524311 0 -68.016676535524311 359.44136838632403 0 0 0 0 463.49147813787567 -501.03154988111055 0 -501.03154988111055 -574.25476825195801 0 0 0 0 16.641686342056559 1.6733235132126936 0 1.6733235132126936 -21.187482869303153 0 0 0 0 974.0849668335868 -667.7727757547982 0 -667.7727757547982 449.1866477180738 0 0 0 0 1823.9617959407042 -621.58413533354178 0 -621.58413533354178 507.04557625995949 0 0 0 0 -2.0868170158292116 3.7986165098082552 0 3.7986165098082552 -1.0855530199339682 0 0 0 0 -66.824950586058549 120.16845358432329 0 120.16845358432329 -140.35297820781125 0 0 0 0 -1.8090529012258969 1.5810679662541105 0 1.5810679662541105 -2.9979270380216008 0 0 0 0 -31.181698802420215 61.379428280268257 0 61.379428280268257 -117.21510058228159 0 0 0 0 -69.218507976057936 89.104479715718298 0 89.104479715718298 -110.07862979633501 0 0 0 0 -0.10216782969655469 67.853706280526239 0 67.853706280526239 -129.68740808738221 0 0 0 0 -39.053100064382306 98.373244187328964 0 98.373244187328964 -160.38666129278135 0 0 0 0 -32.003421827273996 56.380678100656951 0 56.380678100656951 -107.57813009235542 0 0 0 0 26.088750930546666 39.461446549990796 0 39.461446549990796 -139.06932073818462 0 0 0 0 -24.883520327581209 60.847214221139438 0 60.847214221139438 -143.9633715343225 0 0 0 0 40.510469982618815 -14.61086490303569 0 -14.61086490303569 -68.009919550197083 0 0 0 0 17.120229889675102 42.92488431793754 0 42.92488431793754 -90.644207299745176 0 0 0 0 3.8877213512314484 38.929991769313347 0 38.929991769313347 -90.200622318749083 0 0 0 0 17.179201406805078 47.760618313361192 0 47.760618313361192 -112.51614115620032 0 0 0 0 25.182396404939936 49.233174278051592 0 49.233174278051592 -101.31757513886259 0 0 0 0 28.276724029106845 35.502242570320959 0 35.502242570320959 -66.486536001582863 0 0 0 0 37.02947601993219 21.865842657949543 0 21.865842657949543 -83.604558230214025 0 0 0 0 12.415887424311222 40.240909053001815 0 40.240909053001815 -78.814235940866638 0 0 0 0 10.82370264569181 12.573262906116724 0 12.573262906116724 -5.9492559256614186 0 0 0 0 35.265350625231804 17.125062981969677 0 17.125062981969677 -51.601889685352944 0 0 0 0 21.619827792354045 24.488308976622648 0 24.488308976622648 -50.401168607815634 0 0 0 0 3.5043023929645187 11.992786274223107 0 11.992786274223107 0.47162906049794628 0 0 0 0 31.218671402137261 9.5509830028313445 0 9.5509830028313445 -43.700196796053206 0 0 0 0 -26.367315854777189 227.21313304437717 0 227.21313304437717 -140.75658005743753 0 0 0 0 -254.01661728512408 48.489486532227602 0 48.489486532227602 -130.22295304224826 0 0 0 0 27.086376692335762 14.859580756048672 0 14.859580756048672 -42.191356343071675 0 0 0 0 -7.5406738021920319 288.42025716192438 0 288.42025716192438 -437.89235504646786 0 0 0 0 -5.3915100672420948 32.515282226674174 0 32.515282226674174 -69.396007051190793 0 0 0 0 -200.534298248087 -138.11596203445515 0 -138.11596203445515 101.91715281524921 0 0 0 0 27.357827411313338 38.58967169704556 0 38.58967169704556 -59.460482851878623 0 0 0 0 -72.358613862168568 -59.977218084823107 0 -59.977218084823107 -62.596376496308949 0 0 0 0 -165.06481648385125 131.99469902740384 0 131.99469902740384 115.57678194280015 0 0 0 0 1.7712458429219282 2.973874602700306 0 2.973874602700306 -4.3385675346888775 0 0 0 0 -283.84340684679046 -130.33256826680736 0 -130.33256826680736 -73.319458370715438 0 0 0 0 -131.07728127005976 291.46968449326232 0 291.46968449326232 -24.726535386318574 0 0 0 0 -391.0435181633693 197.03454878323828 0 197.03454878323828 -63.618784338876139 0 0 0 0 -4.8095409556644313 124.16398200595859 0 124.16398200595859 -119.57100019468635 0 0 0 0 -7.7731704711986822 241.82474976035883 0 241.82474976035883 -278.86393507604953 0 0 0 0 -35.2115369144949 181.6161124333953 0 181.6161124333953 -106.05906754916941 0 0 0 0 -49.427258270989114 62.76337702901219 0 62.76337702901219 -11.152337683000951 0 0 0 0 -41.460819716419792 57.462497095504659 0 57.462497095504659 24.382145102965296 0 0 0 0 -110.5798854297791 108.72559117213677 0 108.72559117213677 213.38858725244063 0 0 0 0 26.138444165073452 -59.851766527921427 0 -59.851766527921427 -1.7893306119949557 0 0 0 0 1.1188797917553046 5.0310026469770719 0 5.0310026469770719 7.590674261324807 0 0 0 0 16.646170375312067 3.1188244131872125 0 3.1188244131872125 55.336075275030453 0 0 0 0 11.464538946398534 -76.891597045992967 0 -76.891597045992967 -71.314700381219154 0 0 0 0 71.769970357556303 -68.753585975457099 0 -68.753585975457099 75.273610927277332 0 0 0 0 -2.4990110536785153 3.0664299092535714 0 3.0664299092535714 5.2900367255009542 0 0 0 0 -25.792243443083862 114.53607778160949 0 114.53607778160949 209.07628341893724 0 0 0 0 -22.930416869731857 69.186148484595634 0 69.186148484595634 0.15392771710583375 0 0 0 0 133.07943180808797 89.43706062262936 0 89.43706062262936 86.571401019245968 0 0 0 0 -22.741634928539497 69.348400845239667 0 69.348400845239667 0.0058072117244591936 0 0 0 0 -22.99381420071677 69.616421876677123 0 69.616421876677123 1.2853701345884474 0 0 0 0 -24.419250633258997 68.853499256309334 0 68.853499256309334 -0.1297236481703683 0 0 0 0 -131.37636850747367 152.3108814223815 0 152.3108814223815 308.83266600663774 0 0 0 0 -19.866522266645916 195.79039108166035 0 195.79039108166035 196.44317074363062 0 0 0 0 12.943705671052157 0.99615545527922222 0 0.99615545527922222 183.50645406886906 0 0 0 0 -24.007395452950732 68.43782250937511 0 68.43782250937511 -0.0018767621368169785 0 0 0 0 -23.577728070682497 67.490894945629407 0 67.490894945629407 1.5979940473433771 0 0 0 0 -24.43094455967011 67.549689182259982 0 67.549689182259982 -0.52249609745587255 0 0 0 0 -157.82201886777693 24.436941955573275 0 24.436941955573275 371.30083943493082 0 0 0 0 82.494640580407577 185.86841764004203 0 185.86841764004203 85.118159958277829 0 0 0 0 -7.1922618096855047 30.341273174933065 0 30.341273174933065 -57.730555922360963 0 0 0 0 114.09146359484293 170.86275250818289 0 170.86275250818289 107.20210409397259 0 0 0 0 92.693183653538654 270.63297865705499 0 270.63297865705499 174.80149728839751 0 0 0 0 77.379922844636894 170.42521654242591 0 170.42521654242591 68.669821138144471 0 0 0 0 -47.643582971024443 201.370072470163 0 201.370072470163 143.0959683489491 0 0 0 0 75.284252088029461 178.24434137357457 0 178.24434137357457 109.51352071983274 0 0 0 0 13.468952927869395 39.537292423119652 0 39.537292423119652 -36.118007688724902 0 0 0 0 28.180196800516569 44.96686728768691 0 44.96686728768691 -44.902067361515947 0 0 0 0 16.26463807260734 42.841569430922391 0 42.841569430922391 -40.164162591419881 0 0 0 0 666.76862302504742 640.89960322539991 0 640.89960322539991 331.67235919224913 0 0 0 0 -3.2056604710721501 13.981612410671374 0 13.981612410671374 -48.764110260158645 0 0 0 0 36.532031762049883 10.663395346058678 0 10.663395346058678 -36.568749193218537 0 0 0 0 138.65313014417916 404.04315855282766 0 404.04315855282766 306.08478977673803 0 0 0 0 -252.34978850306652 227.34725560180959 0 227.34725560180959 408.61720878470805 0 0 0 0 406.34587136998016 219.53003106364486 0 219.53003106364486 109.43309943660279 0 0 0 0 -141.09934504033299 263.59758158359909 0 263.59758158359909 262.06238449954253 0 0 0 0 -336.46647651575768 101.30446018600924 0 101.30446018600924 248.32980258244788 0 0 0 0 -123.08450908276427 161.10636366585095 0 161.10636366585095 188.10485091275041 0 0 0 0 -122.37646683397179 -102.1149090817562 0 -102.1149090817562 -226.54713377775806 0 0 0 0 -35.709483301319779 60.988304071295715 0 60.988304071295715 45.804847436171258 0 0 0 0 -136.11772654008382 180.15492424616241 0 180.15492424616241 282.2218979067984 0 0 0 0 152.64615342420075 76.706119696526002 0 76.706119696526002 45.881057121965569 0 0 0 0 -132.71065084410657 179.30922042478414 0 179.30922042478414 210.93202810717048 0 0 0 0 -60.400389313101186 175.20769821554131 0 175.20769821554131 199.13842236367054 0 0 0 0 -22.726098087127895 69.817451366797656 0 69.817451366797656 -4.0765477442755724 0 0 0 0 32.917151313449722 128.56666973182291 0 128.56666973182291 -7.1250198460329557 0 0 0 0 -31.719084717376973 79.255361677322071 0 79.255361677322071 23.246938253971166 0 0 0 0 -118.51700970682577 62.932647386216559 0 62.932647386216559 121.21832527170773 0 0 0 0 -120.97331937635317 77.494552608884987 0 77.494552608884987 298.61775896023209 0 0 0 0 -19.492612609028583 72.499250421882607 0 72.499250421882607 3.0240550716608254 0 0 0 0 -20.205691017938079 78.121834469944588 0 78.121834469944588 0.0034913252020487562 0 0 0 0 -18.573199041969929 70.141665890638251 0 70.141665890638251 7.4540737790230196 0 0 0 0 -25.740327422798146 76.47852558339946 0 76.47852558339946 5.834060056717135 0 0 0 0 -25.390145736086197 75.271660648624675 0 75.271660648624675 -7.3316220705164596 0 0 0 0 -21.811216868140036 79.323510945774615 0 79.323510945774615 -26.165013181544055 0 0 0 0 -26.438227270264179 88.316087400875404 0 88.316087400875404 -6.7320075171883218 0 0 0 0 -38.124445532797836 88.332470924186055 0 88.332470924186055 12.888711599283852 0 0 0 0 -27.372850962914526 87.221596317802323 0 87.221596317802323 12.026937803690089 0 0 0 0 -15.357616427817419 25.092839048920638 0 25.092839048920638 20.330985767332322 0 0 0 0 31.124207343906164 67.066267311893171 0 67.066267311893171 -26.804927673889324 0 0 0 0 83.905075202157605 188.64572397370648 0 188.64572397370648 55.756013855185302 0 0 0 0 15.745514642912894 38.531590879778378 0 38.531590879778378 -36.239443174563348 0 0 0 0 -34.603768341912655 56.547676958565717 0 56.547676958565717 -4.943521068780683 0 0 0 0 11.463681245048065 36.549267275957391 0 36.549267275957391 -35.432115528499708 0 0 0 0 -0.47365432403859131 33.67033656759412 0 33.67033656759412 -14.707576496009073 0 0 0 0 14.199141813034657 37.903454109851737 0 37.903454109851737 -36.494202058966039 0 0 0 0 16.374951415462419 38.168933737149928 0 38.168933737149928 -36.893965460534673 0 0 0 0 17.418931974563748 36.260487609717529 0 36.260487609717529 -37.210273477365263 0 0 0 0 15.889009635313414 36.404129915172234 0 36.404129915172234 -37.871215739774925 0 0 0 0 14.20225263881872 35.915889024990065 0 35.915889024990065 -37.002273874473758 0 0 0 0 15.523077202873537 37.273756617796607 0 37.273756617796607 -37.739261834300123 0 0 0 0 29.323190121765947 37.809548757912125 0 37.809548757912125 -38.874373614118667 0 0 0 0 16.034933238639496 38.727032868482638 0 38.727032868482638 -36.447011571435723 0 0 0 0 -58.379255342340912 69.504372363211587 0 69.504372363211587 -2.1533585655488423 0 0 0 0 -59.735316156788031 58.402875320942258 0 58.402875320942258 -3.182956585631473 0 0 0 0 -39.929999237123411 75.952782390042557 0 75.952782390042557 0.00062773471290711313 0 0 0 0 -17.532214057195233 69.401175473205512 0 69.401175473205512 -5.9441142833675258 0 0 0 0 2589.9889537086128 1404.7826228807317 0 1404.7826228807317 0.49531203653896227 0 0 0 0 4137.9572841993649 549.42490455199732 0 549.42490455199732 -425.46212891917094 0 0 0 0 -0.78372776685926482 3.5266813000798436 0 3.5266813000798436 5.9468098752488459 0 0 0 0 -78.992083773759077 62.622597968700575 0 62.622597968700575 5.4516835841350257 0 0 0 0 1193.133025139643 999.69359908089973 0 999.69359908089973 397.32487016331288 0 0 0 0 858.19999731810458 1678.6981356798606 0 1678.6981356798606 -74.335370896209497 0 0 0 0 2155.4307212134299 1303.3828205759928 0 1303.3828205759928 43.699180176103255 0 0 0 0 1506.5472126341465 1064.5066129994873 0 1064.5066129994873 85.290211440005805 0 0 0 0 1065.3150087882532 1056.0851345145784 0 1056.0851345145784 241.62502609775402 0 0 0 0 -6.8693642118014395 29.637322760187089 0 29.637322760187089 -38.026264231011737 0 0 0 0 2922.9973390711239 747.86694899626309 0 747.86694899626309 406.62916510389186 0 0 0 0 7.6325125257133513 30.113854796601203 0 30.113854796601203 -40.512446943233726 0 0 0 0 -44.344803086869433 12.847843864759852 0 12.847843864759852 -32.883829311584122 0 0 0 0 2272.8974946884555 347.09465547795116 0 347.09465547795116 251.46247126109665 0 0 0 0 1663.288387629902 720.78907654329669 0 720.78907654329669 159.90250310634292 0 0 0 0 1520.9888325798784 560.93353950930441 0 560.93353950930441 6.2450337667251006 0 0 0 0 26.284787047305144 24.602642138488591 0 24.602642138488591 -39.177928515709937 0 0 0 0 -9.1566106254467741 16.615344363031909 0 16.615344363031909 -33.837603942971327 0 0 0 0 18.881463845900726 20.581652681576088 0 20.581652681576088 -36.016546044440474 0 0 0 0 2.3522142434089073 17.233125929109093 0 17.233125929109093 -39.181286456657631 0 0 0 0 1334.3626544288854 447.21944083433482 0 447.21944083433482 98.513546566624427 0 0 0 0 1831.1133248270617 654.19083639098244 0 654.19083639098244 -101.55292200634722 0 0 0 0 36.344486391899409 36.211376179468061 0 36.211376179468061 -46.479643013095483 0 0 0 0 1799.3163841062633 602.38345355849015 0 602.38345355849015 -132.00689251429867 0 0 0 0 449.01433599811571 1110.4279371227458 0 1110.4279371227458 194.55205808332539 0 0 0 0 625.79814443357463 1302.3548747495151 0 1302.3548747495151 124.33872504788451 0 0 0 0 -119.87524326671701 1372.7647325399666 0 1372.7647325399666 137.95919371972559 0 0 0 0 471.47267269949225 971.96900734634255 0 971.96900734634255 -92.880420014640549 0 0 0 0 -628.55719708018296 1150.8446497469849 0 1150.8446497469849 -59.204850722984702 0 0 0 0 62.275560051944922 46.951748829276767 0 46.951748829276767 -43.389925632800441 0 0 0 0 -0.59865942283546758 18.116360060856863 0 18.116360060856863 -33.233099631257346 0 0 0 0 398.29290432749258 451.43360198548908 0 451.43360198548908 -132.63339765096316 0 0 0 0 12.541127523276373 592.51023298862856 0 592.51023298862856 116.41225162858245 0 0 0 0 262.92369546531336 1833.6850376616039 0 1833.6850376616039 -120.15298298891867 0 0 0 0 37.270075060121599 1420.8437239864579 0 1420.8437239864579 -283.60588686055416 0 0 0 0 204.93425027752528 1496.1557138358912 0 1496.1557138358912 -248.88129194764406 0 0 0 0 -279.57100173336221 1642.6550751309551 0 1642.6550751309551 -274.23461756780307 0 0 0 0 97.391242605408479 1460.0713902050993 0 1460.0713902050993 147.73437555262353 0 0 0 0 123.16916856555326 1561.9435061408149 0 1561.9435061408149 274.0257042311132 0 0 0 0 -341.96685314116621 2167.6255130296631 0 2167.6255130296631 -381.59387577677262 0 0 0 0 199.36675683966314 1499.3523893566744 0 1499.3523893566744 288.39366741082267 0 0 0 0 1211.7424477908353 971.72825329175248 0 971.72825329175248 -119.92618146527093 0 0 0 0 369.05773033401783 1520.2652985987006 0 1520.2652985987006 -0.059138636919669807 0 0 0 0 -366.97596054502355 868.34262846334605 0 868.34262846334605 -467.25614730864163 0 0 0 0 -719.69335306062203 1248.8976440359802 0 1248.8976440359802 -0.35118929998134263 0 0 0 0 -833.80362531106221 637.59150706124638 0 637.59150706124638 -953.89638563872722 0 0 0 0 -806.3880897682584 820.92566003756929 0 820.92566003756929 -489.530633901275 0 0 0 0 -3.8665865115489737 16.611607480486157 0 16.611607480486157 11.373855981809243 0 0 0 0 -309.91114152467344 833.54201967164408 0 833.54201967164408 -978.22641006856429 0 0 0 0 -543.70737250277307 914.3672453326144 0 914.3672453326144 -995.51642410749628 0 0 0 0 -3.0411876561128111 10.000285031015324 0 10.000285031015324 6.8163974990990823 0 0 0 0 -75.175078682274034 1972.5943154251509 0 1972.5943154251509 -2187.0304690689081 0 0 0 0 -3.6312595534262186 9.7323732451422131 0 9.7323732451422131 5.4698089220975135 0 0 0 0 -339.34309842262792 221.78928057447865 0 221.78928057447865 320.80387072045414 0 0 0 0 -750.24489251832711 1939.8257011813403 0 1939.8257011813403 -2654.467890030206 0 0 0 0 -1126.9667840618058 2143.5947343269072 0 2143.5947343269072 -2125.4695448818675 0 0 0 0 -879.52090344164753 1593.8038613316312 0 1593.8038613316312 -2416.7147595187853 0 0 0 0 -1065.4601909082849 1550.8651576814591 0 1550.8651576814591 -1549.5198095235974 0 0 0 0 -339.8566196244501 208.1553340528335 0 208.1553340528335 -0.54432773776352406 0 0 0 0 -725.92005567537853 669.98275393501535 0 669.98275393501535 -1231.5830989739334 0 0 0 0 -751.25570594405872 1164.901256678233 0 1164.901256678233 -1084.863981857241 0 0 0 0 -695.94359273079317 1213.1598402543459 0 1213.1598402543459 -2578.6395436971052 0 0 0 0 -739.1483834472383 1102.0985980771002 0 1102.0985980771002 -1730.8419526201324 0 0 0 0 -1206.4155026873923 1299.8288675925287 0 1299.8288675925287 -1102.7511231198805 0 0 0 0 -1171.7163574199076 1193.5992931020737 0 1193.5992931020737 -1132.9136224484828 0 0 0 0 -1203.1180189551669 1407.7679855015886 0 1407.7679855015886 -1632.9061765662627 0 0 0 0 -1036.8434557087094 969.79349895612904 0 969.79349895612904 -797.91838851707871 0 0 0 0 -1121.1741545394943 1162.8702868031578 0 1162.8702868031578 -542.71033783830353 0 0 0 0 -910.56706206730451 894.97154478513403 0 894.97154478513403 -376.27139208978042 0 0 0 0 -845.98280511672056 1244.7423061717345 0 1244.7423061717345 -170.94707241898868 0 0 0 0 -782.60832292234409 1134.2139763711311 0 1134.2139763711311 -542.06453966411573 0 0 0 0 -739.27199126837513 993.68226741100807 0 993.68226741100807 -374.85648233542452 0 0 0 0 -558.30712617941026 1402.9523262912699 0 1402.9523262912699 -230.40983664488522 0 0 0 0 -747.84533033494517 1245.8818544529495 0 1245.8818544529495 -247.57883748921449 0 0 0 0 -842.95183110017388 986.41278631456225 0 986.41278631456225 -237.22123022557935 0 0 0 0 -1003.9611241099919 1141.9482751371834 0 1141.9482751371834 -282.59382679412374 0 0 0 0 -630.73165469898959 1141.6819468253234 0 1141.6819468253234 -288.77337926336986 0 0 0 0 -438.87946512087365 532.02447550615761 0 532.02447550615761 1707.6740116660949 0 0 0 0 -199.09759680920979 1673.7387773736846 0 1673.7387773736846 1144.6582226104583 0 0 0 0 -236.43185382930824 438.14475717215828 0 438.14475717215828 -122.94503151840763 0 0 0 0 -622.73114825354423 1145.0329575954529 0 1145.0329575954529 -424.79989641012071 0 0 0 0 -617.23503822690691 1252.1214946976397 0 1252.1214946976397 384.28416449326323 0 0 0 0 -419.94950542190054 1329.9641975972409 0 1329.9641975972409 -354.48407925645006 0 0 0 0 -132.78357143167523 1542.535404751121 0 1542.535404751121 -118.29274591813737 0 0 0 0 -312.8226701526728 1516.3597034818231 0 1516.3597034818231 -117.84431264458544 0 0 0 0 -72.549727390833141 1250.1051706220278 0 1250.1051706220278 -760.58302560914308 0 0 0 0 132.8964847982279 1521.3117418119291 0 1521.3117418119291 -659.02093582700763 0 0 0 0 -464.55512621050002 1293.1979540800239 0 1293.1979540800239 -368.13156612614694 0 0 0 0 -105.87845251927502 1234.5215531767462 0 1234.5215531767462 -567.39460090179637 0 0 0 0 -510.71537114401872 897.17207210064225 0 897.17207210064225 -721.65108234641957 0 0 0 0 315.98666465787392 1276.7936087422568 0 1276.7936087422568 -1183.3398990390997 0 0 0 0 383.02801285248279 939.67904447479668 0 939.67904447479668 -1323.741155302705 0 0 0 0 -378.14736691445432 929.57513853339333 0 929.57513853339333 -234.46366125883651 0 0 0 0 -339.30532215113635 898.52153257308237 0 898.52153257308237 -345.1404547249258 0 0 0 0 -589.51366671410506 1210.3850918795652 0 1210.3850918795652 -268.56032811038313 0 0 0 0 -563.9963502495666 1236.5530444061151 0 1236.5530444061151 -247.87595276883803 0 0 0 0 -514.48338275399874 1233.4886303585372 0 1233.4886303585372 -327.78408723678149 0 0 0 0 -436.08073499586317 1070.6700110312231 0 1070.6700110312231 -355.38443363957049 0 0 0 0 -541.97885250796389 1133.3545672762266 0 1133.3545672762266 -391.39114809482271 0 0 0 0 -543.32003265715321 1143.8146426943713 0 1143.8146426943713 -245.4585204696632 0 0 0 0 -97.608977097697789 1325.959740005288 0 1325.959740005288 -359.33863638585899 0 0 0 0 242.53108527514269 834.65459424135042 0 834.65459424135042 -483.20922885613982 0 0 0 0 1.3349785466270987 781.33241558848749 0 781.33241558848749 -304.85413362586405 0 0 0 0 1482.3218329340743 332.37768977327505 0 332.37768977327505 -815.46908420379623 0 0 0 0 945.28715923739946 726.3355640010559 0 726.3355640010559 -508.13247405202128 0 0 0 0 336.90766387377516 1448.8814062110541 0 1448.8814062110541 -171.64653778838692 0 0 0 0 -105.19510789099149 996.85932370609953 0 996.85932370609953 -326.56497480129838 0 0 0 0 -481.79850325834559 1583.4556150273493 0 1583.4556150273493 -621.42308922941447 0 0 0 0 -1424.2146571049379 555.60226546713966 0 555.60226546713966 -613.96043872376322 0 0 0 0 -905.05469363481097 977.36129594472004 0 977.36129594472004 -348.29814949491993 0 0 0 0 -953.34582711040275 -565.49147432096652 0 -565.49147432096652 -1507.6307153333983 0 0 0 0 28.972902925397818 49.532052479951005 0 49.532052479951005 36.865995654781784 0 0 0 0 133.63980530549117 140.59918560883131 0 140.59918560883131 74.117797932954744 0 0 0 0 -638.63281601341077 741.78059450319779 0 741.78059450319779 596.33031481178477 0 0 0 0 2740.3930688730907 1625.2293428082194 0 1625.2293428082194 -353.12154332309728 0 0 0 0 120.15586063334194 697.63562075691152 0 697.63562075691152 -1115.4619595287368 0 0 0 0 19.340980398119427 733.70415281719761 0 733.70415281719761 -1109.6991835334993 0 0 0 0 386.41966740968928 373.27931803777756 0 373.27931803777756 -777.71533904143143 0 0 0 0 -177.71931479356135 769.86378986839554 0 769.86378986839554 -1535.4711414646008 0 0 0 0 -182.60275573486433 696.32875173298817 0 696.32875173298817 -767.62377441831632 0 0 0 0 -190.9073305670463 775.59586273075547 0 775.59586273075547 -821.05135228319705 0 0 0 0 -137.03105543657148 669.52702910472726 0 669.52702910472726 -733.48285395321727 0 0 0 0 981.2655682124896 776.13074658672849 0 776.13074658672849 -1281.4272625277445 0 0 0 0 616.29302232062037 625.4672395332891 0 625.4672395332891 -1321.246907061286 0 0 0 0 824.49111449633347 664.04585680774471 0 664.04585680774471 -1573.1272325139726 0 0 0 0 660.85013214877836 1004.9413500631708 0 1004.9413500631708 -1973.2964410121494 0 0 0 0 518.44010092827375 934.29537531128153 0 934.29537531128153 -1464.0121207064731 0 0 0 0 300.37800617796165 878.95851093957026 0 878.95851093957026 -2691.6521962083643 0 0 0 0 309.0486106073804 1073.8877859490458 0 1073.8877859490458 -1772.9867937417584 0 0 0 0 223.12206220616645 95.155834757519187 0 95.155834757519187 -1172.135303053321 0 0 0 0 814.22890524280956 827.32934835099149 0 827.32934835099149 -2014.743290957922 0 0 0 0 227.68668333136884 647.88645520173304 0 647.88645520173304 -25.564124161755899 0 0 0 0 -471.03426303575543 15.0175148640119 0 15.0175148640119 -814.3356359488389 0 0 0 0 134.93762505530322 572.95705248252489 0 572.95705248252489 -1875.965558519747 0 0 0 0 -438.37117430675426 200.14995585691941 0 200.14995585691941 -2109.222208044026 0 0 0 0 -611.36623725785466 1254.676531085337 0 1254.676531085337 -2385.560075262154 0 0 0 0 -136.27959060181456 1113.6616321040055 0 1113.6616321040055 -3221.2004115435411 0 0 0 0 -507.24249927641358 1662.3712165634934 0 1662.3712165634934 -2976.3103192210547 0 0 0 0 455.34904508999898 654.11519557642168 0 654.11519557642168 -2491.1692660214103 0 0 0 0 -1216.9798671847384 1161.2604259108193 0 1161.2604259108193 -2339.8643483714695 0 0 0 0 -678.67474705708446 1340.7445048878144 0 1340.7445048878144 -2791.1688692113676 0 0 0 0 -470.92441203189082 1677.4277770605695 0 1677.4277770605695 -3036.4832818820141 0 0 0 0 -1522.4642625472043 1967.8955478338758 0 1967.8955478338758 -2912.2190181134501 0 0 0 0 -800.14870105136652 2053.5710938497796 0 2053.5710938497796 -3251.2838789142552 0 0 0 0 -1761.8208444709308 2768.8873383408645 0 2768.8873383408645 -3569.829355171707 0 0 0 0 -776.72270339855459 2636.9837249857956 0 2636.9837249857956 -4067.7873832412297 0 0 0 0 -703.64394573689788 2762.3671221369877 0 2762.3671221369877 -4051.9479619907215 0 0 0 0 -782.71940703356086 2365.6721200155662 0 2365.6721200155662 -3419.5568291920936 0 0 0 0 -1700.7863017733252 2095.9783517035339 0 2095.9783517035339 -3534.6614929599455 0 0 0 0 -1789.6749953035614 2230.5655024119478 0 2230.5655024119478 -3163.6261559124396 0 0 0 0 -1980.3278508004551 969.55981324821005 0 969.55981324821005 -2783.3922379426658 0 0 0 0 -1629.6791167107149 1884.6542509551655 0 1884.6542509551655 -3801.0839236396132 0 0 0 0 -3177.9626111503458 2330.9290476655588 0 2330.9290476655588 -4297.4987383587868 0 0 0 0 -3247.6455256036134 2950.6673646062118 0 2950.6673646062118 -9386.569126363378 0 0 0 0 -2581.2224545301287 733.97148012850084 0 733.97148012850084 -5133.7032507206313 0 0 0 0 -2776.9324751643508 2514.7847173316259 0 2514.7847173316259 -4734.9322409051238 0 0 0 0 -3311.794865615142 2038.6597537855268 0 2038.6597537855268 -3529.3472723248706 0 0 0 0 -2062.5252240184927 3787.5748028844246 0 3787.5748028844246 -4766.0058628947008 0 0 0 0 -584.79152422235347 2850.5957364371279 0 2850.5957364371279 -5165.213249730994 0 0 0 0 -5965.4181824586703 527.65061229851563 0 527.65061229851563 -5879.3611035107751 0 0 0 0 -14107.071403461043 8199.5362802334712 0 8199.5362802334712 -4448.2332005411154 0 0 0 0 5701.2921448147972 2851.437841253879 0 2851.437841253879 -12653.053503804025 0 0 0 0 -5627.1432245167234 6564.4102045263899 0 6564.4102045263899 -6832.9357391577214 0 0 0 0 605.99705915641971 1563.8448728803778 0 1563.8448728803778 -4049.3979713640292 0 0 0 0 -167.6430178884184 3123.7292920802138 0 3123.7292920802138 -6128.1916030541906 0 0 0 0 2076.160232988128 165.64152901788475 0 165.64152901788475 -5687.8388400499243 0 0 0 0 2146.3881906389724 -728.64148468055646 0 -728.64148468055646 -2403.2506392849609 0 0 0 0 822.83710580470506 255.44248973496724 0 255.44248973496724 -2276.2478589442326 0 0 0 0 -311.02827335373149 1400.192318855974 0 1400.192318855974 -2692.1162956358967 0 0 0 0 -917.27525429815432 763.69940623288858 0 763.69940623288858 -3328.2702986266231 0 0 0 0 -255.39833049416484 1886.031840084841 0 1886.031840084841 -2194.6810232218995 0 0 0 0 -419.36546537290269 1570.2613665349345 0 1570.2613665349345 -2493.6591410494002 0 0 0 0 -1265.2997562903038 2494.2015965223545 0 2494.2015965223545 -3501.7623355914075 0 0 0 0 -1534.2139643844844 1789.7188019127443 0 1789.7188019127443 -1666.5201086613815 0 0 0 0 -1523.5367847325992 2189.3833875312503 0 2189.3833875312503 -1546.7707775206363 0 0 0 0 -4.9554222176326439 18.064668244959535 0 18.064668244959535 -21.090636276024611 0 0 0 0 6.4120565827985132 0.8876683119994766 0 0.8876683119994766 -27.561936895047893 0 0 0 0 -2643.3197318057573 1173.1287797281766 0 1173.1287797281766 -442.15722625213675 0 0 0 0 1966.7372421372565 1604.5872617875357 0 1604.5872617875357 -618.62410053890198 0 0 0 0 -2613.8797408551982 1092.6300232405483 0 1092.6300232405483 -867.45818574045552 0 0 0 0 1161.4567485595471 2005.7234619552619 0 2005.7234619552619 -25.38106737867929 0 0 0 0 850.19657842928427 1877.5519443349331 0 1877.5519443349331 -3.5369706477504224 0 0 0 0 821.50787534032133 1692.6520184571564 0 1692.6520184571564 1002.9042742695892 0 0 0 0 231.96428334340453 252.77253978291992 0 252.77253978291992 283.94111108127981 0 0 0 0 1018.6087635784643 247.94166198431049 0 247.94166198431049 -2276.407466926612 0 0 0 0 409.96125763568125 865.69741234386311 0 865.69741234386311 -917.54107821383514 0 0 0 0 756.24334403331159 171.9496425279649 0 171.9496425279649 -1167.9450461403467 0 0 0 0 734.87028123195159 -140.85586628983765 0 -140.85586628983765 2816.5139829081018 0 0 0 0 5253.3761136203539 -4607.8731715027243 0 -4607.8731715027243 -2447.9159569763506 0 0 0 0 10833.060097017558 -3157.5037214615732 0 -3157.5037214615732 -6145.7241975996876 0 0 0 0 2.5436851596577981 -0.41480842225939796 0 -0.41480842225939796 -11.814412511890396 0 0 0 0 -3888.0937762971735 306.44179453281686 0 306.44179453281686 -211.11499799438752 0 0 0 0 -2946.6700042859302 563.67966779036215 0 563.67966779036215 -986.66855152137578 0 0 0 0 -3087.2137334648287 1555.2248024970468 0 1555.2248024970468 -1182.9309753999114 0 0 0 0 -3221.565304176067 1500.9209207436943 0 1500.9209207436943 -1140.6015263972804 0 0 0 0 -2988.9687714941683 1329.8485075340141 0 1329.8485075340141 -1102.272913469933 0 0 0 0 -4286.4921911559068 1317.5486064506695 0 1317.5486064506695 -679.14175818022341 0 0 0 0 -4715.1430601627799 1215.3803431738634 0 1215.3803431738634 209.8806025069207 0 0 0 0 -6238.8405608042958 2919.0407085369807 0 2919.0407085369807 -702.90351298532914 0 0 0 0 -3587.6713685297 1931.827971442428 0 1931.827971442428 -1465.9538995039184 0 0 0 0 -2709.1907732488471 3438.9983644856256 0 3438.9983644856256 -5302.4281841156189 0 0 0 0 -1949.1238134799933 2011.9423960126005 0 2011.9423960126005 -2714.5331214232137 0 0 0 0 -2762.2701777291368 2584.4971446201671 0 2584.4971446201671 -2166.1278951764689 0 0 0 0 -2271.6107497029589 1416.1708862302767 0 1416.1708862302767 -1239.8533288544131 0 0 0 0 -2371.0072523948329 1647.6206141916336 0 1647.6206141916336 -937.159459002316 0 0 0 0 66.090207613699022 -4.3529728258945397 0 -4.3529728258945397 -30.794564649579115 0 0 0 0 -2293.9808032124347 756.41741716137039 0 756.41741716137039 -20.989930135954637 0 0 0 0 -1521.7329665294383 1497.7792072733864 0 1497.7792072733864 -915.76497277813178 0 0 0 0 -696.14327718292861 -29.67373417431736 0 -29.67373417431736 340.83169995056232 0 0 0 0 -537.96709830051259 1569.2053894078344 0 1569.2053894078344 -760.29402552524698 0 0 0 0 -1487.4402472210204 1298.7962149053346 0 1298.7962149053346 -301.30836601817282 0 0 0 0 -636.61599908911739 1830.301934935851 0 1830.301934935851 -1417.4815972538636 0 0 0 0 -626.05444634064133 1265.9402613300299 0 1265.9402613300299 -381.33252853609156 0 0 0 0 -84.70234924559918 1638.038062372143 0 1638.038062372143 -749.84796729014488 0 0 0 0 121.28474693658063 1504.4714422888937 0 1504.4714422888937 -827.71142567883362 0 0 0 0 -107.4053908880669 1910.9526864149957 0 1910.9526864149957 -1452.4197428506159 0 0 0 0 150.84092328119732 1709.0510655993421 0 1709.0510655993421 -937.023261397233 0 0 0 0 334.96523979210906 1298.0169796260016 0 1298.0169796260016 -1255.1824601437256 0 0 0 0 277.49400490598055 1540.1058433542057 0 1540.1058433542057 -1665.9578389896997 0 0 0 0 206.65184607748233 1428.9051960365759 0 1428.9051960365759 -1744.3630195854057 0 0 0 0 -0.31265206179523375 402.70638917766337 0 402.70638917766337 432.84609716571867 0 0 0 0 288.84258236453752 -143.2956420314149 0 -143.2956420314149 1191.5234858678596 0 0 0 0 638.72599101951346 476.17157563075307 0 476.17157563075307 419.78936009123117 0 0 0 0 -28.093508372694487 738.47555891817319 0 738.47555891817319 1129.7093597266357 0 0 0 0 -189.77660143730463 123.33938830619445 0 123.33938830619445 501.27578832757717 0 0 0 0 -8.6624426473863423 337.757433675637 0 337.757433675637 430.2899034408274 0 0 0 0 205.16905531386146 512.20846901020559 0 512.20846901020559 -273.13516958974651 0 0 0 0 -372.15053552734753 536.68901348052896 0 536.68901348052896 -267.88080042181537 0 0 0 0 426.3136201473244 387.76625455923204 0 387.76625455923204 -472.44840186779038 0 0 0 0 -25.812333488516742 -39.867374849309272 0 -39.867374849309272 -668.02570109237786 0 0 0 0 17.938674655012392 13.9342665705407 0 13.9342665705407 10.191000364313624 0 0 0 0 0.57912792227557564 637.05877275190187 0 637.05877275190187 -1586.9134577383084 0 0 0 0 1007.5971320768949 1524.7943816769912 0 1524.7943816769912 8.24183127762808 0 0 0 0 -16.517219278940829 4922.8666309408591 0 4922.8666309408591 8450.8508454557887 0 0 0 0 51.768837446365922 39.925403407612635 0 39.925403407612635 21.297658300782075 0 0 0 0 415.27420526990318 1182.6809800608171 0 1182.6809800608171 2148.0153576737357 0 0 0 0 268.17717694468411 584.42049644109647 0 584.42049644109647 236.76595421516686 0 0 0 0 81.542920504012727 294.15944679698441 0 294.15944679698441 621.41702268564404 0 0 0 0 195.30556943593547 1206.7166303303675 0 1206.7166303303675 -1361.4286944348714 0 0 0 0 76.784663068584337 55.262762602488692 0 55.262762602488692 28.967542275224503 0 0 0 0 -448.20784783357522 1224.8130486048904 0 1224.8130486048904 -257.00807020757929 0 0 0 0 177.96130895498209 758.70038973932969 0 758.70038973932969 -1974.7606001470849 0 0 0 0 -399.03191234456608 98.773043434921419 0 98.773043434921419 -230.27934132015798 0 0 0 0 -75.416626607329817 717.45177499396959 0 717.45177499396959 457.65918378002243 0 0 0 0 2931.3353426606045 321.05043497192673 0 321.05043497192673 509.87983817889472 0 0 0 0 -257.62175214012677 464.52049728219936 0 464.52049728219936 805.36841548653319 0 0 0 0 579.33550517936237 286.99932951579103 0 286.99932951579103 -216.13088763843007 0 0 0 0 -84.238522606843617 470.7762354350125 0 470.7762354350125 916.03574734584254 0 0 0 0 -120.65990953717846 381.56430687993998 0 381.56430687993998 855.35347810617532 0 0 0 0 -131.81641044842399 385.21157883217893 0 385.21157883217893 1385.6287294456852 0 0 0 0 -617.01428887457587 2398.463397347572 0 2398.463397347572 1780.8164304447855 0 0 0 0 0.35607649401254093 1.9150431123287461 0 1.9150431123287461 3.0671090028679373 0 0 0 0 -1565.9757145649783 129.39920341826655 0 129.39920341826655 425.78760126195266 0 0 0 0 -821.70941083290018 564.44322444936915 0 564.44322444936915 583.12779532599961 0 0 0 0 881.99318378214957 915.98141369328368 0 915.98141369328368 -302.65580288419369 0 0 0 0 -769.14865313708287 989.79104007501519 0 989.79104007501519 1321.62572059175 0 0 0 0 -2347.2571720994019 1113.012364286893 0 1113.012364286893 1709.4524669117527 0 0 0 0 -11.01735675468808 -504.90969617501833 0 -504.90969617501833 843.31340341588657 0 0 0 0 -201.4648695209471 198.69643675239058 0 198.69643675239058 243.43122323643183 0 0 0 0 -138.15624563294114 75.578302572648681 0 75.578302572648681 159.81564093090128 0 0 0 0 -93.949723714846186 97.924897174845682 0 97.924897174845682 16.818967394545325 0 0 0 0 80.660039823064494 72.73646781583227 0 72.73646781583227 34.891759446095534 0 0 0 0 10.197064795594997 19.279579542759393 0 19.279579542759393 -23.803055006328123 0 0 0 0 160.8708511894074 159.27053961448109 0 159.27053961448109 33.509543491403747 0 0 0 0 -221.57903892165632 503.98948874269263 0 503.98948874269263 -125.20445827643562 0 0 0 0 -487.88533992698649 -75.96487411261478 0 -75.96487411261478 -30.230643251154106 0 0 0 0 86.722789369288193 161.52978160816701 0 161.52978160816701 61.486393185623456 0 0 0 0 327.24933384200995 431.02300334839674 0 431.02300334839674 -0.8710111821492319 0 0 0 0 505.7982243950828 297.38209923181421 0 297.38209923181421 98.977499247790547 0 0 0 0 -4.4511833503612905 1.7790093343897411 0 1.7790093343897411 -9.5420196818007526 0 0 0 0 -1864.9939067027299 436.20995492915972 0 436.20995492915972 56.326030479220208 0 0 0 0 -3898.9069500065234 994.87139179973747 0 994.87139179973747 -4.0686152455236879 0 0 0 0 -2067.5981384073384 2218.0179548400047 0 2218.0179548400047 -213.57292431146925 0 0 0 0 -2726.1625197703252 1841.5075681532471 0 1841.5075681532471 -427.31563981046202 0 0 0 0 -1456.1142143958423 2118.4898628411465 0 2118.4898628411465 -1349.1711648078635 0 0 0 0 -1370.2564647315303 2178.8479780019843 0 2178.8479780019843 -1624.0674645466497 0 0 0 0 -1359.5070924627362 1593.1319937533408 0 1593.1319937533408 -1309.1311149593093 0 0 0 0 -1363.124609814724 1672.9043766755203 0 1672.9043766755203 -1210.4049638284778 0 0 0 0 -1166.5214846439776 1783.7427657104854 0 1783.7427657104854 -2040.0460351247748 0 0 0 0 -1299.8373111506226 1666.4575825181964 0 1666.4575825181964 -1361.227717476082 0 0 0 0 -1599.4388946620165 1264.369377838244 0 1264.369377838244 -797.05356318140548 0 0 0 0 -1254.2097691684103 1311.5886572780619 0 1311.5886572780619 -1111.0111817497527 0 0 0 0 -1323.40335400193 1555.2860496149806 0 1555.2860496149806 -1431.0857530269423 0 0 0 0 -1548.7416401228402 1423.6008998571197 0 1423.6008998571197 -731.10001002793433 0 0 0 0 -1475.503395978405 1078.1825233118943 0 1078.1825233118943 -517.59592484435416 0 0 0 0 -1141.3271298099426 1200.6130304045801 0 1200.6130304045801 -1162.9710344707491 0 0 0 0 -1163.9218966845656 783.32397471659351 0 783.32397471659351 -316.02618690991949 0 0 0 0 -1307.0850241339504 1062.0387011783314 0 1062.0387011783314 -443.18513278724276 0 0 0 0 -1135.6128510814888 760.31215764876833 0 760.31215764876833 -377.66200763880624 0 0 0 0 -846.92899549513641 487.07735653691634 0 487.07735653691634 -326.95853551762411 0 0 0 0 -1177.3699901222426 509.31754881459347 0 509.31754881459347 -169.83851571934065 0 0 0 0 -14.762434846107737 14.815724131908297 0 14.815724131908297 12.461635661731123 0 0 0 0 -183.6581655371192 -101.46632487258466 0 -101.46632487258466 208.92448643175885 0 0 0 0 -568.84428146845312 30.47829854390875 0 30.47829854390875 169.11045844368346 0 0 0 0 -884.61005604147795 572.25371624551917 0 572.25371624551917 -176.33917521161493 0 0 0 0 -808.48169431975111 988.49651291323244 0 988.49651291323244 -292.77991386438953 0 0 0 0 -452.17850409302628 478.79701897056657 0 478.79701897056657 -101.81034202562296 0 0 0 0 -843.66188119840808 630.26854623098916 0 630.26854623098916 -108.8829630187829 0 0 0 0 -348.30441146073281 368.94205000931106 0 368.94205000931106 -0.62655154772801325 0 0 0 0 -99.444653350437875 196.0688524730358 0 196.0688524730358 -39.229986245860346 0 0 0 0 -123.11404686351307 140.53338479495142 0 140.53338479495142 -48.255701980204321 0 0 0 0 -206.21810235001612 162.48691673917347 0 162.48691673917347 10.50905964334379 0 0 0 0 -232.78118397621438 82.931639638060005 0 82.931639638060005 -41.718366501179844 0 0 0 0 -408.80608454253525 146.47373475211498 0 146.47373475211498 45.251492339593824 0 0 0 0 -330.72070428650477 307.8423197074153 0 307.8423197074153 -116.0818887638743 0 0 0 0 -231.85611653167871 82.643353552775807 0 82.643353552775807 89.851035257335752 0 0 0 0 25.884790980176717 30.111124467657717 0 30.111124467657717 24.700456120817421 0 0 0 0 -187.6829806152964 518.33871406523394 0 518.33871406523394 -320.44892393460032 0 0 0 0 72.436320225388044 324.00346574551077 0 324.00346574551077 71.828719786601141 0 0 0 0 -0.17323040622449071 20.528595632299272 0 20.528595632299272 19.043700366075939 0 0 0 0 -168.05712928582216 89.629089077963727 0 89.629089077963727 -49.525809905811911 0 0 0 0 249.12602281008731 117.015628915251 0 117.015628915251 -163.61718438714161 0 0 0 0 -167.15693735509694 185.37433203166495 0 185.37433203166495 -160.80322878272273 0 0 0 0 -192.66091811950901 231.42097755048599 0 231.42097755048599 -73.942926332965726 0 0 0 0 -95.038369004665583 398.88087797931075 0 398.88087797931075 -251.66680770274252 0 0 0 0 125.90035811954294 336.32696240241057 0 336.32696240241057 -277.43657981901197 0 0 0 0 702.97820269968361 322.06461273305467 0 322.06461273305467 -389.25178124499507 0 0 0 0 4.033642109913103 3.239674286041577 0 3.239674286041577 3.1828476307662754 0 0 0 0 5.020654811174154 10.520488849628222 0 10.520488849628222 14.339912664259714 0 0 0 0 1336.22800833984 190.29087614505988 0 190.29087614505988 174.64306214876706 0 0 0 0 -1266.4633483334037 -344.84510419347498 0 -344.84510419347498 -555.22027087439892 0 0 0 0 -260.07834608416306 -399.49417252279818 0 -399.49417252279818 -37.274596333852969 0 0 0 0 62.946071066427976 202.44124507510423 0 202.44124507510423 -59.12452107972058 0 0 0 0 -73.690945932554314 604.96013246937946 0 604.96013246937946 -469.43314215033024 0 0 0 0 77.6472431009297 106.68117499308627 0 106.68117499308627 83.010716220937695 0 0 0 0 -50.127905389192165 303.12953039279273 0 303.12953039279273 -71.312797063437756 0 0 0 0 -27.226610569181503 512.35025737162869 0 512.35025737162869 -369.05143571880762 0 0 0 0 2.9871723231772194 148.82655426883866 0 148.82655426883866 -76.414185379027913 0 0 0 0 -606.98032257857267 142.36820106266532 0 142.36820106266532 492.32422985765152 0 0 0 0 14.680350866077561 77.153327251123784 0 77.153327251123784 67.372081980762516 0 0 0 0 65.574514246167382 106.24037536401011 0 106.24037536401011 -48.821693581201544 0 0 0 0 37.617680428913445 94.32819755843957 0 94.32819755843957 -33.517259703741729 0 0 0 0 -61.488279620578396 110.60814463515271 0 110.60814463515271 -59.13031899723137 0 0 0 0 -28.154603163256979 80.859421073808335 0 80.859421073808335 -35.672217323430232 0 0 0 0 -129.33543074627232 -488.06547981617041 0 -488.06547981617041 484.19283972581616 0 0 0 0 -265.0860573995742 424.82102280238905 0 424.82102280238905 374.58805838375702 0 0 0 0 -44.349386396770058 53.025918545414441 0 53.025918545414441 60.44313012057259 0 0 0 0 -360.22978941240581 38.986175366095267 0 38.986175366095267 -290.27331952977693 0 0 0 0 -285.85948481387459 522.11973760643741 0 522.11973760643741 -495.63562724132498 0 0 0 0 722.41763087382424 97.469884572012234 0 97.469884572012234 -481.89789732760983 0 0 0 0 -1048.1409090009402 235.00707714702003 0 235.00707714702003 -36.990766418108251 0 0 0 0 -502.5830390615738 681.9551123828569 0 681.9551123828569 253.80867476743879 0 0 0 0 -641.04956168209901 631.73586490517482 0 631.73586490517482 -86.531518350851911 0 0 0 0 -718.33110954900621 826.35036264073278 0 826.35036264073278 -494.20327461708803 0 0 0 0 -291.10900776006747 341.72378109209239 0 341.72378109209239 -588.71932013117475 0 0 0 0 -65.188411961833481 443.64251948596211 0 443.64251948596211 -1488.975951595814 0 0 0 0 9.7566831990486946 10.596186016642662 0 10.596186016642662 0.17640862527764511 0 0 0 0 -175.77693836484104 691.74621228108299 0 691.74621228108299 -1011.7309560614522 0 0 0 0 -1296.5227789483688 968.00451463828722 0 968.00451463828722 -592.81744661863195 0 0 0 0 43.40159291618329 77.570961636774882 0 77.570961636774882 -43.226676133053843 0 0 0 0 -106.73774636827147 215.43926709139487 0 215.43926709139487 -10.690400686289649 0 0 0 0 -9.0713793683998318 62.448135632614367 0 62.448135632614367 61.14583911312792 0 0 0 0 -127.91549822621164 76.124826167433639 0 76.124826167433639 66.461512713460252 0 0 0 0 -83.392202234676063 2.3572515456025229 0 2.3572515456025229 35.301929235905845 0 0 0 0 -999.14689420460491 767.30513862762018 0 767.30513862762018 -517.69530585918983 0 0 0 0 -158.89195251811179 205.96096965116158 0 205.96096965116158 50.41634015130694 0 0 0 0 -22.145588141358871 -7.513938518229665 0 -7.513938518229665 -1.3988232014062305 0 0 0 0 -66.420108271995559 -48.594617884082254 0 -48.594617884082254 -1.5579599407501519 0 0 0 0 -49.459597917215433 833.16948145095375 0 833.16948145095375 -806.40607884663041 0 0 0 0 -116.62297378713265 325.01007974852109 0 325.01007974852109 -975.06440076208673 0 0 0 0 -3.9847599426785791 9.6525409249899781 0 9.6525409249899781 10.818138173321529 0 0 0 0 -123.29463497036886 -25.229780187878077 0 -25.229780187878077 349.28633633200661 0 0 0 0 41.797076705057407 410.63687577219389 0 410.63687577219389 -930.30160638107918 0 0 0 0 -783.45559521045652 189.46524825535016 0 189.46524825535016 -716.46984539792174 0 0 0 0 272.20103203993494 139.65558201534077 0 139.65558201534077 -5.4157490505313035 0 0 0 0 -221.95152604561008 -1074.0558410765807 0 -1074.0558410765807 -42.877164264649764 0 0 0 0 -7.4061297352720885 15.813658225177846 0 15.813658225177846 23.685714828638936 0 0 0 0 -362.42365429965139 796.25585600640625 0 796.25585600640625 -347.72282784318668 0 0 0 0 9.3835033932409715 -6.135873423430894 0 -6.135873423430894 40.882006330721197 0 0 0 0 25.491414255346172 627.36897164335824 0 627.36897164335824 933.75411583398818 0 0 0 0 15.842024880344979 567.72129066970956 0 567.72129066970956 729.60271027285489 0 0 0 0 200.4185355535592 -146.65280935820192 0 -146.65280935820192 98.298053826612886 0 0 0 0 0.041072424876972491 4.6545902000313504 0 4.6545902000313504 7.5372397742222574 0 0 0 0 1.9437207384111161 22.847300667793888 0 22.847300667793888 10.961265978050506 0 0 0 0 -3.2056780891070957 123.97802182403302 0 123.97802182403302 -170.09407091623871 0 0 0 0 -16.293794587283628 44.998874218348647 0 44.998874218348647 30.53706165307085 0 0 0 0 21.306377549360121 53.154847366799288 0 53.154847366799288 -25.463721731171461 0 0 0 0 16.683843139246164 108.07229113721405 0 108.07229113721405 -207.93280892632902 0 0 0 0 -211.54443990232539 214.85441567961971 0 214.85441567961971 -74.997655621926242 0 0 0 0 -13.931092990620527 396.43017598603365 0 396.43017598603365 -335.79206474042439 0 0 0 0 90.522604472367675 64.051675308990525 0 64.051675308990525 -250.39038226908451 0 0 0 0 -1.3065720282320399 416.35356332992524 0 416.35356332992524 -680.36985658637423 0 0 0 0 -0.1509565893211402 682.86354881047737 0 682.86354881047737 -793.73012976328755 0 0 0 0 87.997897178691346 13.159452573920134 0 13.159452573920134 -1266.5623109278386 0 0 0 0 0.30877848649889011 14.648667542124763 0 14.648667542124763 -9.604860714651295 0 0 0 0 -6.8203578461860843 1.4982036840536352 0 1.4982036840536352 0.68259038354074164 0 0 0 0 232.8433212582604 251.12423991250398 0 251.12423991250398 130.89714873193589 0 0 0 0 -8.0999288870079909 -101.70537144475384 0 -101.70537144475384 -13.622301961411722 0 0 0 0 -10.79740211479799 8.9077608889462567 0 8.9077608889462567 0.1909623822656954 0 0 0 0 -22.996264551320564 39.365988594092414 0 39.365988594092414 140.19786904403009 0 0 0 0 11.467305254432404 3.7365108179077566 0 3.7365108179077566 -1.4847973640158898 0 0 0 0 -234.06174804057082 307.23639457043828 0 307.23639457043828 1444.91749654866 0 0 0 0 148.10930504254065 102.42685030993016 0 102.42685030993016 -45.457126565966973 0 0 0 0 -48.918733508791775 -53.162951172336761 0 -53.162951172336761 1376.4688256036461 0 0 0 0 0.1392349578183058 164.18823344687655 0 164.18823344687655 486.96407900520717 0 0 0 0 125.88177833610098 574.40297906966589 0 574.40297906966589 1432.5476390913827 0 0 0 0 325.72275826655095 326.50662438449945 0 326.50662438449945 178.53997883180273 0 0 0 0 0.11539949914731551 398.33044645098562 0 398.33044645098562 209.73971638560033 0 0 0 0 361.59043274290161 476.37659841205459 0 476.37659841205459 220.10110228668782 0 0 0 0 7.4568262488195387 3.6776937596944492 0 3.6776937596944492 -2.1435230942269072 0 0 0 0 516.12087238792446 204.74325382483221 0 204.74325382483221 0.88656662048015278 0 0 0 0 0.035471645271172747 558.47995265439386 0 558.47995265439386 235.66929417723441 0 0 0 0 0.11131820523486782 634.64498837709425 0 634.64498837709425 -296.85125381148828 0 0 0 0 129.11320744024124 361.02236484303285 0 361.02236484303285 33.166142576352286 0 0 0 0 74.725351684217458 470.16435803689819 0 470.16435803689819 -504.74626353409258 0 0 0 0 -99.131617914012168 624.12537040802999 0 624.12537040802999 -330.80307373119285 0 0 0 0 51.204559712590708 589.85204117699141 0 589.85204117699141 -376.60573809838388 0 0 0 0 266.50588270343724 604.8521637680733 0 604.8521637680733 -350.40826979170379 0 0 0 0 -496.2195917381614 645.37659427774634 0 645.37659427774634 -148.02885758040793 0 0 0 0 -68.358855941565707 845.326966562694 0 845.326966562694 -167.72547031250724 0 0 0 0 -114.68895987558426 558.47655651316745 0 558.47655651316745 -330.09271589254786 0 0 0 0 -371.71145844903367 390.92912479381266 0 390.92912479381266 -175.80198688886594 0 0 0 0 -460.80631323042689 350.74918559474372 0 350.74918559474372 -191.49340452205797 0 0 0 0 -761.09837973093818 373.16851438068989 0 373.16851438068989 -201.37127905598027 0 0 0 0 -519.91419186348503 523.57258129307593 0 523.57258129307593 8.3290072223608149 0 0 0 0 -571.28026035532821 683.09651643498364 0 683.09651643498364 -464.17051887192065 0 0 0 0 -733.9877474103705 703.91562276510376 0 703.91562276510376 -433.80736054560839 0 0 0 0 118.57374890831125 143.03829437619788 0 143.03829437619788 86.977230646494718 0 0 0 0 152.24486331787193 138.29842300510063 0 138.29842300510063 84.65412305945938 0 0 0 0 -1307.5458344935032 508.67037410111152 0 508.67037410111152 -228.30191518524225 0 0 0 0 19.66009230229642 41.79377423148776 0 41.79377423148776 -6.8768570453102598 0 0 0 0 -1521.6946207351284 748.08787814784591 0 748.08787814784591 -272.17288515418477 0 0 0 0 894.42788251521415 794.88250561177847 0 794.88250561177847 71.282580397062702 0 0 0 0 -928.76343236838875 538.33168558227771 0 538.33168558227771 -67.123100438104302 0 0 0 0 22.521196233109578 46.27073655524913 0 46.27073655524913 -11.735834671388602 0 0 0 0 24.011110797146046 45.729937106268409 0 45.729937106268409 -16.461704138991365 0 0 0 0 18.941107352169638 104.22355126631373 0 104.22355126631373 -14.71017806265445 0 0 0 0 205.49179352810825 156.52737817861998 0 156.52737817861998 30.85581582634768 0 0 0 0 138.58606041232997 95.503926189376216 0 95.503926189376216 -17.590393265883904 0 0 0 0 109.60311558800458 157.46180331433425 0 157.46180331433425 -16.583740586938802 0 0 0 0 104.95544080532454 202.33188394532499 0 202.33188394532499 37.154767641317449 0 0 0 0 -19.001730792487592 22.106815574068264 0 22.106815574068264 -46.560029044440881 0 0 0 0 284.78200235264376 48.183612870878278 0 48.183612870878278 -196.24198582298413 0 0 0 0 201.55855362651346 178.17161806814693 0 178.17161806814693 43.039426192106475 0 0 0 0 -5.3878331905540335 9.4036612035647522 0 9.4036612035647522 -12.257288101565109 0 0 0 0 454.60960875378805 376.68040788825601 0 376.68040788825601 25.73970166714571 0 0 0 0 637.84922162425937 387.82586384614842 0 387.82586384614842 -4.2387832560343668 0 0 0 0 242.52228218664823 269.07996209824705 0 269.07996209824705 134.63040285233001 0 0 0 0 1144.4077921289718 780.08157227606716 0 780.08157227606716 -355.92623323276348 0 0 0 0 226.13444200083245 -373.39407848971803 0 -373.39407848971803 -695.2728072385944 0 0 0 0 482.0948634170345 545.12019058310398 0 545.12019058310398 533.59705261132331 0 0 0 0 762.78156407418282 -236.28446196286495 0 -236.28446196286495 655.1933204610832 0 0 0 0 1469.3131000850408 1468.9078365849564 0 1468.9078365849564 1144.5100399296934 0 0 0 0 590.3153315700838 710.10920838563652 0 710.10920838563652 283.68504003665294 0 0 0 0 608.786733257788 496.37204974184715 0 496.37204974184715 594.81933038905845 0 0 0 0 -132.7648033729638 936.61202247608162 0 936.61202247608162 654.71782675056602 0 0 0 0 -793.43730634381063 517.37303356045595 0 517.37303356045595 675.02133622122346 0 0 0 0 -951.64935958838396 -373.24363891687335 0 -373.24363891687335 204.21189858677099 0 0 0 0 -147.1246309686685 87.729734946260578 0 87.729734946260578 297.02801275262027 0 0 0 0 288.57866727234796 57.187216894199082 0 57.187216894199082 -180.22874192014569 0 0 0 0 4524.4853064430063 713.06326850069308 0 713.06326850069308 -836.54157877997204 0 0 0 0 -226.42794914898695 222.70519722179597 0 222.70519722179597 67.327167825840661 0 0 0 0 3049.8601831829328 338.12386647845778 0 338.12386647845778 505.82561550472747 0 0 0 0 3320.0874773478281 1644.2336345064832 0 1644.2336345064832 492.28521562225069 0 0 0 0 -2.7961857610851268 5.4245022783041463 0 5.4245022783041463 5.8577279716464545 0 0 0 0 -2403.5536799878319 -987.59489656699225 0 -987.59489656699225 -250.0310521559295 0 0 0 0 -4079.2579891750647 661.28747434809338 0 661.28747434809338 1499.3290062715823 0 0 0 0 5.3352551169526805 12.962202842483009 0 12.962202842483009 10.861463333468123 0 0 0 0 -2530.4053561206383 -301.63003171751916 0 -301.63003171751916 1095.781512379901 0 0 0 0 -2060.7405311580733 1378.8379889162698 0 1378.8379889162698 771.57183890120359 0 0 0 0 257.42412081660586 -399.83581202736241 0 -399.83581202736241 382.75394472128391 0 0 0 0 -381.19022399530513 -313.11752677916957 0 -313.11752677916957 548.58367717816145 0 0 0 0 -583.49668168448261 195.01973733200248 0 195.01973733200248 864.72025111543189 0 0 0 0 -465.60322856946732 482.37576650519622 0 482.37576650519622 454.95171698433705 0 0 0 0 -924.06723813119606 56.052888651443936 0 56.052888651443936 1699.4237136907759 0 0 0 0 -971.25035370668047 381.66259814023942 0 381.66259814023942 510.81824851134661 0 0 0 0 4.242866258656079 8.8999526807536142 0 8.8999526807536142 2.8734338357363924 0 0 0 0 -1077.9502072553987 -61.604700934799439 0 -61.604700934799439 8.1842781762679806 0 0 0 0 -1569.6668268164212 2498.737078304941 0 2498.737078304941 16.449470999710684 0 0 0 0 14.047063288642221 33.954823928232457 0 33.954823928232457 7.7691003689853915 0 0 0 0 962.95911636759411 -203.41301626630593 0 -203.41301626630593 41.568227750889491 0 0 0 0 -3100.285798062614 1213.6562755657615 0 1213.6562755657615 -285.96133991476381 0 0 0 0 -1077.4680239228474 -1508.9424562969871 0 -1508.9424562969871 -683.73975779145258 0 0 0 0 -2052.0162226358661 636.04868032909872 0 636.04868032909872 -241.88724823103985 0 0 0 0 -1091.4405916391261 1140.2769917221412 0 1140.2769917221412 -1167.4867530701158 0 0 0 0 -6.4222266715485148 1.4017483700869207 0 1.4017483700869207 2.7051031266605357 0 0 0 0 11.253136735880048 10.716320127039126 0 10.716320127039126 0.13668917190437924 0 0 0 0 -317.87284515181091 367.07335745642195 0 367.07335745642195 -535.09253254364921 0 0 0 0 -7.1722794042817668 2.2932408755499125 0 2.2932408755499125 1.8439182244229819 0 0 0 0 -36.159728193102637 34.927490705420496 0 34.927490705420496 33.257123684350518 0 0 0 0 279.52468096229131 94.834149766520568 0 94.834149766520568 -1006.8282834942875 0 0 0 0 -172.49757638003211 287.54029852789972 0 287.54029852789972 280.90694957557025 0 0 0 0 -196.67261813332152 -549.39645820592705 0 -549.39645820592705 527.84530016581266 0 0 0 0 145.92192824801896 1304.300025340548 0 1304.300025340548 481.937201090288 0 0 0 0 -772.49694537653704 542.936569955702 0 542.936569955702 2747.3767344381922 0 0 0 0 931.41385416492994 842.5781334278181 0 842.5781334278181 566.21112213816377 0 0 0 0 171.48529299660004 49.099237134440045 0 49.099237134440045 9.9722501002979698 0 0 0 0 3.8732079886314068 6.0369572323555758 0 6.0369572323555758 17.541758887217611 0 0 0 0 766.32894364147796 -1554.7386389852763 0 -1554.7386389852763 2049.8923666400133 0 0 0 0 -40.91071543446742 1213.0879804570395 0 1213.0879804570395 1351.8700258747413 0 0 0 0 -169.01602273568278 383.63566828372859 0 383.63566828372859 1606.4348402735559 0 0 0 0 -431.52359922195319 1105.1690616191045 0 1105.1690616191045 1530.7422810909338 0 0 0 0 -0.25212169517658367 -2.4392700996348538 0 -2.4392700996348538 3.9899806535929372 0 0 0 0 2034.3376736867212 -543.7562287155306 0 -543.7562287155306 1321.8334597699723 0 0 0 0 -335.30331309771282 563.52720135086565 0 563.52720135086565 1362.3754419555626 0 0 0 0 366.13643142563524 415.6644684751227 0 415.6644684751227 229.51120777535834 0 0 0 0 352.41970996293821 59.601439221522014 0 59.601439221522014 162.83811158340541 0 0 0 0 17.647067225359933 58.207799231635363 0 58.207799231635363 1571.494169133759 0 0 0 0 -1.875127331289832 -4.596743116138839 0 -4.596743116138839 5.98987794755962 0 0 0 0 -78.813377801969182 430.5640741254465 0 430.5640741254465 1672.9653680349093 0 0 0 0 1.1145577368166482 262.74151620461976 0 262.74151620461976 193.88178520626388 0 0 0 0 -181.00104424590245 78.176716886868235 0 78.176716886868235 1069.6215621574629 0 0 0 0 -1.2648955556796864 262.66306550119043 0 262.66306550119043 193.99877297633248 0 0 0 0 228.31344034209906 -137.42592027216961 0 -137.42592027216961 -860.88974506579689 0 0 0 0 -205.64956998138223 -120.13028836854937 0 -120.13028836854937 152.19617275178825 0 0 0 0 19.539740635256749 0.95222727357031545 0 0.95222727357031545 8.1819337966389867 0 0 0 0 -0.0095547848894739218 -3.3933396177909287 0 -3.3933396177909287 -1.0692787623865954 0 0 0 0 178.85049181225622 241.88132550958471 0 241.88132550958471 346.63328377416474 0 0 0 0 -11.457645622991549 376.85908144008499 0 376.85908144008499 32.944611309278116 0 0 0 0 -112.50825054259622 59.311760874305037 0 59.311760874305037 593.17919527074991 0 0 0 0 -167.81058598565869 -220.22131168575652 0 -220.22131168575652 820.64244827708899 0 0 0 0 42.909140366828069 270.73855839868338 0 270.73855839868338 -433.65472022363974 0 0 0 0 27.876623552190722 148.49663820714341 0 148.49663820714341 -85.740633220499149 0 0 0 0 81.864540024528651 131.78415568832759 0 131.78415568832759 106.51174511272839 0 0 0 0 14.141820114615257 100.07022106077056 0 100.07022106077056 -261.5202392093488 0 0 0 0 -563.36988688200654 502.41427260890487 0 502.41427260890487 -1975.5605465880944 0 0 0 0 80.243993883930443 16.636354011092919 0 16.636354011092919 -17.523684920630018 0 0 0 0 68.388416628775303 49.334946181123087 0 49.334946181123087 -37.445010537456255 0 0 0 0 106.85009921359597 70.007192699718871 0 70.007192699718871 -292.05969990852464 0 0 0 0 9.8379821757262107 4.3529804969293764 0 4.3529804969293764 -57.787473167001735 0 0 0 0 41.647567894614269 0.72740079804776769 0 0.72740079804776769 0.082642884008794937 0 0 0 0 12.490305715381737 2.9270052430900364 0 2.9270052430900364 0.049128111031997435 0 0 0 0 13.021107368251251 -72.322078613869962 0 -72.322078613869962 92.96714203452575 0 0 0 0 119.69413462780358 -37.652697902405635 0 -37.652697902405635 -440.66007033694768 0 0 0 0 92.593834509487692 149.86190194749861 0 149.86190194749861 116.62275733025623 0 0 0 0 284.96560562199011 440.42779096109734 0 440.42779096109734 -1235.6412943463947 0 0 0 0 -84.553176784807874 269.44172242952482 0 269.44172242952482 -410.93808649975108 0 0 0 0 494.16480833852256 -268.72441860460094 0 -268.72441860460094 -685.42390209277801 0 0 0 0 339.06263111458975 137.86751949035533 0 137.86751949035533 -149.44661463078228 0 0 0 0 197.93018828899312 1294.5434975987309 0 1294.5434975987309 -849.4632535524579 0 0 0 0 -494.88094187357638 450.3802494333213 0 450.3802494333213 -27.77219310017972 0 0 0 0 -15.901991543010809 361.03125619681305 0 361.03125619681305 125.72249239122175 0 0 0 0 -63.233380040721386 293.05011887675937 0 293.05011887675937 350.8833582578809 0 0 0 0 104.9318780263402 159.70940056227542 0 159.70940056227542 124.59178624297573 0 0 0 0 140.82238938999944 261.80767394852592 0 261.80767394852592 -5.6153331139830698 0 0 0 0 -3.7814224235197571 74.742150535775579 0 74.742150535775579 -42.790091856900972 0 0 0 0 107.97172328949966 170.27489260006809 0 170.27489260006809 120.03091585512857 0 0 0 0 182.10309213012806 352.04011381609598 0 352.04011381609598 -86.072074053554388 0 0 0 0 132.7176057252218 287.38293340052405 0 287.38293340052405 -61.283711754687829 0 0 0 0 311.82543318692478 309.06612252990089 0 309.06612252990089 77.071002520620823 0 0 0 0 423.97626359084097 344.00928409066546 0 344.00928409066546 -51.084708921414858 0 0 0 0 114.00429834931128 599.71488346687693 0 599.71488346687693 199.83514006105543 0 0 0 0 510.28838422628178 526.16536120582896 0 526.16536120582896 280.45474471891066 0 0 0 0 1111.1160878867668 812.77290563553834 0 812.77290563553834 180.42724014486885 0 0 0 0 857.59679915884044 835.09242478027227 0 835.09242478027227 259.1108998117852 0 0 0 0 640.66235996846808 346.58894949217938 0 346.58894949217938 -33.590615470937337 0 0 0 0 -173.64805288248135 428.70544142315657 0 428.70544142315657 232.81624416990962 0 0 0 0 -57.156054828577908 461.44969559067977 0 461.44969559067977 108.83963673423568 0 0 0 0 -37.491873054867028 427.46223375700356 0 427.46223375700356 167.56438153195995 0 0 0 0 -13.235826283515195 -2.4391101276174822 0 -2.4391101276174822 -0.23069616432502471 0 0 0 0 -528.66503621923039 377.21478097356885 0 377.21478097356885 93.875984878777672 0 0 0 0 -220.73498263873626 456.74279810483131 0 456.74279810483131 -64.357751166855451 0 0 0 0 -422.3784871599928 231.81552390626166 0 231.81552390626166 -141.062926989267 0 0 0 0 -709.85944674324855 130.79520028065053 0 130.79520028065053 -11.339707019549678 0 0 0 0 -65.778177500985805 -7.7826292625839102 0 -7.7826292625839102 2.3983042616433039 0 0 0 0 -49.359695520630339 14.613233258598484 0 14.613233258598484 78.419821317824244 0 0 0 0 -78.664410249737557 24.661570311938704 0 24.661570311938704 75.707229212057428 0 0 0 0 -109.1890810867626 2.2393801170437655 0 2.2393801170437655 155.35828114324249 0 0 0 0 669.85395332178814 602.04295639111569 0 602.04295639111569 320.58761039504316 0 0 0 0 702.48676576730213 514.00764782387705 0 514.00764782387705 150.40972982763196 0 0 0 0 438.40808259961341 396.62991961151602 0 396.62991961151602 266.32940373630845 0 0 0 0 712.00818012858508 653.3315674090627 0 653.3315674090627 343.98063701781211 0 0 0 0 723.21762141448562 594.03505078825401 0 594.03505078825401 392.52087160540395 0 0 0 0 663.54342082371295 609.39191964441125 0 609.39191964441125 437.09074004911236 0 0 0 0 946.60592189815361 499.44264489816851 0 499.44264489816851 107.92764435041317 0 0 0 0 696.41749007412 691.89312381655327 0 691.89312381655327 581.32533584014163 0 0 0 0 929.43515795964049 455.50874709535856 0 455.50874709535856 523.65624665663927 0 0 0 0 1378.5606169032399 992.14992268945207 0 992.14992268945207 1037.7488954206929 0 0 0 0 1948.579032154521 1065.4305521193892 0 1065.4305521193892 -152.32014080591034 0 0 0 0 1045.1394527054508 518.60689672757871 0 518.60689672757871 409.58788186335005 0 0 0 0 1085.0508296316257 540.07553770240338 0 540.07553770240338 181.47489852785657 0 0 0 0 -10.119939793128481 15.835224492197256 0 15.835224492197256 7.4517607629427829 0 0 0 0 -38.858500429414676 45.831625990838177 0 45.831625990838177 -0.67881552696536573 0 0 0 0 598.34842333968845 486.60652240609488 0 486.60652240609488 381.39833900769008 0 0 0 0 -104.21697842450885 51.201425380038927 0 51.201425380038927 58.173333062004531 0 0 0 0 -96.581915914197452 16.237464131445449 0 16.237464131445449 94.82837571631535 0 0 0 0 -134.30926459253533 51.736327043981873 0 51.736327043981873 76.038229421625147 0 0 0 0 -118.00898545788368 34.133063644287176 0 34.133063644287176 92.915492990641724 0 0 0 0 -117.3179450190853 73.28948538105476 0 73.28948538105476 25.418542152910959 0 0 0 0 499.01147459601634 635.99906617864326 0 635.99906617864326 575.20049602225481 0 0 0 0 781.83558054559398 698.19210559177736 0 698.19210559177736 326.88374479285267 0 0 0 0 811.72117939946475 694.80782801330497 0 694.80782801330497 317.39850485380157 0 0 0 0 543.85249699596898 854.59560641444841 0 854.59560641444841 836.74516941703041 0 0 0 0 935.68297920684563 629.75889780104626 0 629.75889780104626 297.75072988290049 0 0 0 0 777.06029845622834 601.63013818769832 0 601.63013818769832 306.4164744126756 0 0 0 0 358.85449671030983 476.94195924429096 0 476.94195924429096 38.195619590987917 0 0 0 0 1341.2582378658699 294.45879262410745 0 294.45879262410745 71.311082637577783 0 0 0 0 -14.851146359048045 4.9001139051395057 0 4.9001139051395057 2.4103827942037697 0 0 0 0 35.675897406826465 52.619801267981259 0 52.619801267981259 1.7663777892107078 0 0 0 0 -106.23898673144868 102.72674068060587 0 102.72674068060587 -103.06231691138237 0 0 0 0 -105.8361992094724 94.994605609041173 0 94.994605609041173 -26.320615814669509 0 0 0 0 -135.25909307028633 121.10294207622064 0 121.10294207622064 -28.287622558011208 0 0 0 0 -167.90507118299138 156.86746758299705 0 156.86746758299705 19.423857295463677 0 0 0 0 -113.0941747520701 68.952008360771288 0 68.952008360771288 89.989869291661307 0 0 0 0 -138.60446991099161 103.31695150436281 0 103.31695150436281 -18.358986720005305 0 0 0 0 -267.16345581543646 221.42958568595714 0 221.42958568595714 -35.200203567714198 0 0 0 0 9.8361497817677446 -58.160576230540755 0 -58.160576230540755 24.395606687729014 0 0 0 0 69.473803145840066 37.810301569057629 0 37.810301569057629 -10.733956880227197 0 0 0 0 69.492181499081198 38.351985175162554 0 38.351985175162554 -31.932346344401594 0 0 0 0 9.7516734460894554 7.2819506559604292 0 7.2819506559604292 -10.463334080610935 0 0 0 0 63.98752383881947 18.579575365714845 0 18.579575365714845 18.81981134909438 0 0 0 0 62.93015554966405 8.3645506668690359 0 8.3645506668690359 -53.97452368424274 0 0 0 0 -48.396398497206974 -27.579856530264806 0 -27.579856530264806 163.24188479468285 0 0 0 0 -43.998256744978789 3.258625378411125 0 3.258625378411125 211.76178807496035 0 0 0 0 -124.0683218909835 -21.162127389794477 0 -21.162127389794477 318.77633811607666 0 0 0 0 -154.61456092196386 95.945529393206016 0 95.945529393206016 133.46460329854744 0 0 0 0 -115.53183429775527 175.30811354341859 0 175.30811354341859 -172.24198290226923 0 0 0 0 -1.1279972931111502 -0.44730769948482418 0 -0.44730769948482418 -0.270703486662768 0 0 0 0 -133.2722132832132 177.10822960670339 0 177.10822960670339 -126.81734512990806 0 0 0 0 -152.9828393477801 287.14853047225188 0 287.14853047225188 -234.96547855607059 0 0 0 0 -255.06840743748762 271.17524075377878 0 271.17524075377878 -50.794678800390102 0 0 0 0 -95.248275302998081 78.156173440736893 0 78.156173440736893 112.53708068747801 0 0 0 0 -124.21087304379034 -129.00083659972734 0 -129.00083659972734 274.58015199231886 0 0 0 0 -3.3195746356109908 -0.58745325476027688 0 -0.58745325476027688 0.15249870713351754 0 0 0 0 -137.03492128866492 44.792502438613155 0 44.792502438613155 164.25603728901478 0 0 0 0 -12.791611056767579 -0.17814440743222804 0 -0.17814440743222804 0.0082551424840460186 0 0 0 0 -38.008028999821704 -4.0944838751806145 0 -4.0944838751806145 0.20631839056846957 0 0 0 0 -409.4114256666835 319.14005594152695 0 319.14005594152695 42.148777508118656 0 0 0 0 -142.61821252897062 521.46834308096368 0 521.46834308096368 -658.48225851163443 0 0 0 0 -364.49894217809924 845.13381905088318 0 845.13381905088318 -1313.6895354995067 0 0 0 0 -808.25231586764858 103.24126520089339 0 103.24126520089339 202.64712925719505 0 0 0 0 276.60772043243924 -68.068298214919196 0 -68.068298214919196 29.58032533324149 0 0 0 0 198.63023230530598 -249.55591980572535 0 -249.55591980572535 -383.84405096856062 0 0 0 0 -675.5042213637862 276.59936439444641 0 276.59936439444641 37.652488951309351 0 0 0 0 211.33210060478086 489.12817381003333 0 489.12817381003333 -489.25946903319709 0 0 0 0 -646.12121396622388 518.57550741944578 0 518.57550741944578 74.004924277978716 0 0 0 0 16.621421100717271 321.21322981890262 0 321.21322981890262 -17.453263285911817 0 0 0 0 -1.5017816450609303 -0.92275759067662477 0 -0.92275759067662477 -0.32447382138892067 0 0 0 0 -158.16898091149051 128.00194103607646 0 128.00194103607646 66.494461872076499 0 0 0 0 -351.30996558564311 157.92072360707971 0 157.92072360707971 131.81603843158518 0 0 0 0 -332.03570915048113 370.85506155283815 0 370.85506155283815 105.68055323692533 0 0 0 0 -64.359299809992081 395.04747726599817 0 395.04747726599817 61.075379956928373 0 0 0 0 -188.61961454614357 312.04439107279904 0 312.04439107279904 8.2069260100397514 0 0 0 0 -154.21973475749837 244.11569130233147 0 244.11569130233147 -75.537855800183024 0 0 0 0 -4.9665100901038386 405.72584296914283 0 405.72584296914283 -170.12507981549425 0 0 0 0 -135.58798938349355 218.54341662659863 0 218.54341662659863 -148.9210997278351 0 0 0 0 -92.36632642740733 306.50715208209294 0 306.50715208209294 -198.7014773148112 0 0 0 0 -116.8701771007909 232.47631642056513 0 232.47631642056513 -212.40188569092425 0 0 0 0 27.861338273476576 263.75310655750218 0 263.75310655750218 -260.96495182503713 0 0 0 0 -56.010461699013831 377.8586146757425 0 377.8586146757425 -9.1304497493401868 0 0 0 0 -77.386458474968094 429.4645676537184 0 429.4645676537184 -99.84458493526472 0 0 0 0 61.54701924119604 20.584031439145974 0 20.584031439145974 -29.320416996297837 0 0 0 0 -87.074621572566684 110.81913710868685 0 110.81913710868685 -49.279712157367612 0 0 0 0 -13.937198569998145 124.9795444176707 0 124.9795444176707 123.62186546942758 0 0 0 0 -305.74779912088707 369.47704154715575 0 369.47704154715575 -274.74256435899588 0 0 0 0 -13.029645968712202 55.034854348933322 0 55.034854348933322 -4.7944904465190739 0 0 0 0 -29.786209959711414 78.78687613272632 0 78.78687613272632 -77.363748524010589 0 0 0 0 -263.35108834417042 372.46052679632703 0 372.46052679632703 -291.90525463494123 0 0 0 0 137.13427331842831 95.98642127290077 0 95.98642127290077 115.22659376688534 0 0 0 0 -306.30066094058566 235.16331979975803 0 235.16331979975803 -403.03367040826561 0 0 0 0 -214.59684631344862 348.03107393588289 0 348.03107393588289 -417.40193129175532 0 0 0 0 -231.22931670711841 364.37561597727472 0 364.37561597727472 -314.07617912265778 0 0 0 0 -206.85666475983453 286.38735592410376 0 286.38735592410376 -305.84034610236995 0 0 0 0 -240.98971799132414 313.89539300091565 0 313.89539300091565 -294.56823133549187 0 0 0 0 -273.08066526870243 262.74085043245577 0 262.74085043245577 -265.61833845407818 0 0 0 0 -241.63324085396016 299.60780374541355 0 299.60780374541355 -363.56323372822953 0 0 0 0 -345.84005726163741 269.95275018390385 0 269.95275018390385 -282.82189024833497 0 0 0 0 -338.19732891215244 275.83555204223376 0 275.83555204223376 -301.96271677548066 0 0 0 0 -227.49027233052766 335.4689933929476 0 335.4689933929476 -246.94977682601893 0 0 0 0 -192.79953249247046 333.84760580956936 0 333.84760580956936 -291.23648215015419 0 0 0 0 -198.7816498465836 309.34786268655444 0 309.34786268655444 -260.21852233979735 0 0 0 0 -155.12042265682248 254.12252894933044 0 254.12252894933044 -225.82812508865027 0 0 0 0 -203.76568922790466 241.83482767698297 0 241.83482767698297 -200.50710146436177 0 0 0 0 -268.49831722240197 300.27300237247255 0 300.27300237247255 -207.16945180497714 0 0 0 0 -265.19111838855315 311.1513628908142 0 311.1513628908142 -261.80016216548393 0 0 0 0 -275.64512152901807 280.19030819033833 0 280.19030819033833 -236.8688269527629 0 0 0 0 -206.0141144383233 293.73420664198056 0 293.73420664198056 -254.41624931071419 0 0 0 0 -169.11924178643676 251.25865704600801 0 251.25865704600801 -228.00785066126264 0 0 0 0 -131.10773104915279 187.1219212373835 0 187.1219212373835 -121.39113572892529 0 0 0 0 -240.82436956826132 248.79690721748921 0 248.79690721748921 -204.62397227750535 0 0 0 0 -140.92713278147858 244.62109657627298 0 244.62109657627298 -224.90578679247119 0 0 0 0 -193.78167924276204 219.7973884363746 0 219.7973884363746 -82.29750003873778 0 0 0 0 -225.10056325275218 254.83624095411506 0 254.83624095411506 -129.13092173258406 0 0 0 0 -200.08709652554899 339.62037707687159 0 339.62037707687159 -323.61073234013747 0 0 0 0 -176.19327340069867 241.84595864712901 0 241.84595864712901 -310.62213100427471 0 0 0 0 -246.48203089254093 224.8215740769665 0 224.8215740769665 -175.45329774839774 0 0 0 0 -203.80481187344412 214.71039462656336 0 214.71039462656336 -55.161538964079227 0 0 0 0 -154.55183828372355 260.85165240445895 0 260.85165240445895 -163.1502904771769 0 0 0 0 -138.22445276827784 153.46501883683959 0 153.46501883683959 -130.79841173846478 0 0 0 0 -190.7782561921631 176.94595756735362 0 176.94595756735362 20.783789735884056 0 0 0 0 -180.65175450373499 -92.940168632292625 0 -92.940168632292625 409.6344531323557 0 0 0 0 24.612028341172845 49.607486624088779 0 49.607486624088779 -5.4863795963246957 0 0 0 0 -108.70452296089206 183.90405450171238 0 183.90405450171238 56.563220184063539 0 0 0 0 -93.901329847809393 146.49590477507445 0 146.49590477507445 -78.389621778274886 0 0 0 0 -61.00437960329873 80.962067685515649 0 80.962067685515649 -40.034444298798917 0 0 0 0 -179.10537690366618 207.45969031254936 0 207.45969031254936 -28.358864885555704 0 0 0 0 -155.98274160146684 198.35205810551633 0 198.35205810551633 -104.45411974191666 0 0 0 0 -175.26953829926788 227.52617130099316 0 227.52617130099316 -95.592285288905259 0 0 0 0 -159.73771070274233 191.85898856198764 0 191.85898856198764 -79.794684772568871 0 0 0 0 -190.56997306843732 223.87755950379415 0 223.87755950379415 -96.325013545589172 0 0 0 0 12.933799276544846 -1.0438973172449266 0 -1.0438973172449266 1.8159023014277409 0 0 0 0 -8.3770746690861415 92.251623845782888 0 92.251623845782888 -91.045335085625993 0 0 0 0 213.80627992977679 21.284201019720058 0 21.284201019720058 -85.277031188586989 0 0 0 0 57.21378128830554 33.57348451814466 0 33.57348451814466 -12.465369001192244 0 0 0 0 -1.3770744426292367 72.119356239156332 0 72.119356239156332 -111.06785222164763 0 0 0 0 -137.47886613834999 236.275870358877 0 236.275870358877 -243.18941719328723 0 0 0 0 -197.32621702050164 190.5253415817615 0 190.5253415817615 -105.85274552388 0 0 0 0 51.506515989516629 21.28971251330222 0 21.28971251330222 -4.1622124294226523 0 0 0 0 35.41762622396709 44.341623886633897 0 44.341623886633897 124.40956746647134 0 0 0 0 37.664398884546245 32.088742107967846 0 32.088742107967846 16.540564713828644 0 0 0 0 100.74336995592603 49.989730297009373 0 49.989730297009373 -182.93832797475625 0 0 0 0 59.93209039369188 39.662825776496675 0 39.662825776496675 -4.7203994584481848 0 0 0 0 -5.0618681811001807 175.41716567420281 0 175.41716567420281 36.995543390628882 0 0 0 0 89.702739789732732 48.777906427101698 0 48.777906427101698 -43.806779038975947 0 0 0 0 157.30048687334056 90.670455995539669 0 90.670455995539669 -17.94262067831005 0 0 0 0 149.76814340014971 -22.127572351625076 0 -22.127572351625076 -19.715352832135977 0 0 0 0 -14.940610842372337 6.2104493375371277 0 6.2104493375371277 3.9109013526476133 0 0 0 0 26.11432833809522 33.353240226992057 0 33.353240226992057 -32.587039376528992 0 0 0 0 29.104972467262996 116.21317272596207 0 116.21317272596207 -115.25517653849965 0 0 0 0 98.636935518996324 86.138739993875788 0 86.138739993875788 -148.01926345771062 0 0 0 0 86.996034921059618 108.01035696500912 0 108.01035696500912 -127.72295605789986 0 0 0 0 65.580631990247639 155.94742392338958 0 155.94742392338958 -114.63715197400597 0 0 0 0 85.237971294386625 136.64646178354042 0 136.64646178354042 -177.70269677578472 0 0 0 0 27.394221036855015 143.5660698198044 0 143.5660698198044 -59.985059340317093 0 0 0 0 51.737816577020567 118.17720131111309 0 118.17720131111309 -86.407718464601203 0 0 0 0 52.691540908090246 118.02474577672001 0 118.02474577672001 -117.11106095342257 0 0 0 0 -18.644574759819079 101.58087806766707 0 101.58087806766707 -46.267438415132347 0 0 0 0 22.696990284265212 49.62663446751543 0 49.62663446751543 8.6200092220925768 0 0 0 0 50.433271454996429 76.446319718641462 0 76.446319718641462 -59.10096724532923 0 0 0 0 10.571268564788625 74.750855125446833 0 74.750855125446833 65.476044680275663 0 0 0 0 0.96883253102714662 59.751304749661358 0 59.751304749661358 -42.618989101094485 0 0 0 0 3.1837300399201922 69.334515326976543 0 69.334515326976543 -15.46708308889356 0 0 0 0 63.605499828752556 24.480196492946334 0 24.480196492946334 -15.791084854601905 0 0 0 0 280.12067811444285 140.2799983931618 0 140.2799983931618 -124.31055539473891 0 0 0 0 -230.45536961546168 329.60183560744917 0 329.60183560744917 -218.39612199434669 0 0 0 0 -1.1217932653275682 0.26338891425109523 0 0.26338891425109523 1.3068155551957261 0 0 0 0 -197.20625026755806 246.13929915800691 0 246.13929915800691 -77.621759003290208 0 0 0 0 139.40780641374295 -208.71862317420891 0 -208.71862317420891 93.438979476348322 0 0 0 0 -154.64468466452672 78.484749700277462 0 78.484749700277462 -72.938140721205855 0 0 0 0 -7.6075183716602623 133.83369339045021 0 133.83369339045021 -107.21737879462307 0 0 0 0 -11.869327441061614 123.06265878362319 0 123.06265878362319 45.370726356261002 0 0 0 0 22.308552609290928 144.90062181713438 0 144.90062181713438 -23.626297326125496 0 0 0 0 -8.0248680570875877 207.91287569648193 0 207.91287569648193 -140.66665264454787 0 0 0 0 -59.066208751290105 100.29059195451919 0 100.29059195451919 -47.278151898324722 0 0 0 0 69.29720016552892 -4.7922770133300219 0 -4.7922770133300219 -50.048596353793982 0 0 0 0 116.26814646966523 94.032774349441752 0 94.032774349441752 -58.39919901212852 0 0 0 0 -91.201619837262115 66.024379459376178 0 66.024379459376178 -6.4554400764754973 0 0 0 0 -36.612680919177365 15.673752433256595 0 15.673752433256595 9.6923312675644411 0 0 0 0 34.891413836448919 42.502205039389082 0 42.502205039389082 -59.580336415529018 0 0 0 0 59.863581572368275 74.565317856846377 0 74.565317856846377 31.747567937971326 0 0 0 0 4782.1808624074038 -553.75284111192013 0 -553.75284111192013 235.33582631047466 0 0 0 0 14.405465727264527 84.884522080712486 0 84.884522080712486 100.92338012318942 0 0 0 0 59.654964183573611 102.49106482043862 0 102.49106482043862 -47.751352918712655 0 0 0 0 18.201744645745691 50.790118230718775 0 50.790118230718775 16.168809013038778 0 0 0 0 31.887231817996167 72.948784648864006 0 72.948784648864006 24.876290870503304 0 0 0 0 33.470017747458769 20.353068456539404 0 20.353068456539404 53.553969122847775 0 0 0 0 403.61212608995265 359.64129134629911 0 359.64129134629911 46.004426676527146 0 0 0 0 -301.7862138725759 499.96606162974786 0 499.96606162974786 263.55656061416482 0 0 0 0 -261.2337535518418 595.40895311640998 0 595.40895311640998 -192.86334037171764 0 0 0 0 -2693.0520309927088 -907.18135719499514 0 -907.18135719499514 5703.2778731605831 0 0 0 0 292.29100324286264 71.387184626717499 0 71.387184626717499 -1111.2069221739107 0 0 0 0 50.834888422657968 907.3168194413156 0 907.3168194413156 -1277.4305538985791 0 0 0 0 1.4529336493578739 159.45815965228758 0 159.45815965228758 -185.24698000057106 0 0 0 0 144.54238438690663 143.44841452215405 0 143.44841452215405 -325.95456427679892 0 0 0 0 -8.1418699823965426 67.04359311150435 0 67.04359311150435 3.0275372325025458 0 0 0 0 50.102384271468509 22.81395261633638 0 22.81395261633638 -12.179336516410459 0 0 0 0 4.4500342687256307 61.206883156330974 0 61.206883156330974 21.459661065623727 0 0 0 0 -117.54304798156954 -21.436419812345775 0 -21.436419812345775 -85.878068940011872 0 0 0 0 -174.88013607810717 -2.6149844323117577 0 -2.6149844323117577 -55.123071888303912 0 0 0 0 38.27554083328846 12.995908600516586 0 12.995908600516586 5.2627827286469753 0 0 0 0 -47.628110323479632 239.69158213985429 0 239.69158213985429 -241.22373150961903 0 0 0 0 334.1381951059011 44.657988744864269 0 44.657988744864269 -242.09937789517426 0 0 0 0 118.07184644709923 -1.4724716650471237 0 -1.4724716650471237 -238.26655462181225 0 0 0 0 -104.55044109861774 126.69796455868072 0 126.69796455868072 -110.91227473591425 0 0 0 0 149.76686377677834 186.64897463775924 0 186.64897463775924 -108.43060702615549 0 0 0 0 247.00516483378306 -79.977188503808065 0 -79.977188503808065 2.3379357886697107 0 0 0 0 311.54471825007931 -45.437806286357954 0 -45.437806286357954 -192.43327945302008 0 0 0 0 -32.121976081543835 104.16841774550267 0 104.16841774550267 -11.117394088156288 0 0 0 0 -4.8396759970055427 91.702003001521007 0 91.702003001521007 -204.22464132083633 0 0 0 0 335.27097293693805 -175.43134628514417 0 -175.43134628514417 -121.89982490266266 0 0 0 0 63.826417620875873 152.4231916130866 0 152.4231916130866 -396.35504730337016 0 0 0 0 1.49870048224426 -1.3755124402902084 0 -1.3755124402902084 -3.0230135003689682 0 0 0 0 285.47955473509501 -223.83460764047049 0 -223.83460764047049 39.775523544014504 0 0 0 0 23.231161599376435 4.6105986549812457 0 4.6105986549812457 -2.6421433375106744 0 0 0 0 -106.17839578795247 -27.513474834808221 0 -27.513474834808221 -541.26692943875241 0 0 0 0 -62.613712497550296 104.10329414416265 0 104.10329414416265 -147.23684079289887 0 0 0 0 -439.04968317892053 1.6703348864830332 0 1.6703348864830332 -156.02271997921525 0 0 0 0 366.87232364481315 -297.7802754762597 0 -297.7802754762597 -397.74553207203735 0 0 0 0 -241.62765326473163 -475.66087164218516 0 -475.66087164218516 -95.605684272410144 0 0 0 0 374.93372537802497 553.55111918472176 0 553.55111918472176 -666.93142412860834 0 0 0 0 6.5279012503385729 0.23492769133591196 0 0.23492769133591196 -1.4118595730616761 0 0 0 0 -870.39482707175193 398.49669969695242 0 398.49669969695242 41.834117920290737 0 0 0 0 530.15386697296344 534.41689918010434 0 534.41689918010434 -1564.7034404529622 0 0 0 0 -135.4882843576197 -781.06271982718681 0 -781.06271982718681 319.93574430544095 0 0 0 0 1308.1468783009332 648.69888380149496 0 648.69888380149496 -2617.7799453365515 0 0 0 0 -596.37620729196351 601.43060408912424 0 601.43060408912424 -1065.9654146116482 0 0 0 0 50.80924701175536 267.53009360042051 0 267.53009360042051 -1277.533126207898 0 0 0 0 1758.3070319578292 1107.7009650434838 0 1107.7009650434838 -1240.7674944475293 0 0 0 0 1524.1698787140776 -344.12295368747436 0 -344.12295368747436 -1296.6758885580703 0 0 0 0 959.18242296986864 775.30611922602293 0 775.30611922602293 8.8911465107478307 0 0 0 0 1341.0739009647223 1587.8493431615934 0 1587.8493431615934 -150.24277489585955 0 0 0 0 -318.71540427044965 1496.8338866111371 0 1496.8338866111371 -150.16091377045547 0 0 0 0 575.31798251060536 1224.8542227583166 0 1224.8542227583166 -36.637923501180012 0 0 0 0 -12.870436546709414 10.216667911886049 0 10.216667911886049 -6.6027275677496675 0 0 0 0 981.81533330591628 2478.5796816788497 0 2478.5796816788497 128.16507039590215 0 0 0 0 -3013.969498869119 -699.42912743910529 0 -699.42912743910529 97.348778205923736 0 0 0 0 -474.71932237490546 2129.6937473970866 0 2129.6937473970866 314.85173851371837 0 0 0 0 655.31324524218508 -1123.5675905977987 0 -1123.5675905977987 3616.4629987302906 0 0 0 0 -615.88462854301906 1628.4537728480591 0 1628.4537728480591 -648.52013524192807 0 0 0 0 51.107607201397002 44.851712279574556 0 44.851712279574556 27.861645639580416 0 0 0 0 55.642787328255906 80.79479723750319 0 80.79479723750319 51.877300918238461 0 0 0 0 -2194.5462697175972 871.0975828189803 0 871.0975828189803 -606.02100898373465 0 0 0 0 291.22980061729322 1800.2995973805919 0 1800.2995973805919 -574.3148279265879 0 0 0 0 -546.04833808168769 1696.9454999100562 0 1696.9454999100562 -582.71303075243259 0 0 0 0 791.36675479164114 1146.5629091072187 0 1146.5629091072187 -1187.6806940843771 0 0 0 0 218.12256014876766 585.95519475701076 0 585.95519475701076 -1032.8334012232954 0 0 0 0 -925.56968787808728 -464.54979879337156 0 -464.54979879337156 -2581.0255141409798 0 0 0 0 377.17258074233541 291.97762847020203 0 291.97762847020203 -1718.073459026833 0 0 0 0 518.14785058886628 -1191.1473250322742 0 -1191.1473250322742 3783.4840328997016 0 0 0 0 1666.9604669827968 1094.473440909831 0 1094.473440909831 189.21972540119896 0 0 0 0 73.101021840688077 70.577666352227595 0 70.577666352227595 42.943695318739174 0 0 0 0 -2241.3226773379138 1780.9348035643925 0 1780.9348035643925 2408.1583707880054 0 0 0 0 1871.0732172719072 2146.7631987657605 0 2146.7631987657605 343.09523666527821 0 0 0 0 1560.0218761119595 277.72704401800456 0 277.72704401800456 -322.20621415034111 0 0 0 0 272.00373491737992 -71.704053858717089 0 -71.704053858717089 -340.36107229281333 0 0 0 0 7.920580048020156 8.5305005621331702 0 8.5305005621331702 11.327499191701577 0 0 0 0 -181.77864348425646 206.04213923829957 0 206.04213923829957 -1302.3710478580324 0 0 0 0 -914.77750166354235 -573.16432980462559 0 -573.16432980462559 -945.12821865166916 0 0 0 0 -2486.8271076392884 -393.53932675541546 0 -393.53932675541546 692.51459246801096 0 0 0 0 -972.12110867057345 237.93405007869296 0 237.93405007869296 -37.207974183169426 0 0 0 0 -242.29769558995031 953.54731024203647 0 953.54731024203647 -2.674718316324288 0 0 0 0 -354.78675907946308 966.49711328068952 0 966.49711328068952 594.80340228538262 0 0 0 0 -409.95670131180668 253.10438336519292 0 253.10438336519292 -364.11910808899847 0 0 0 0 69.549035020245356 535.33224754413095 0 535.33224754413095 -237.26715316965419 0 0 0 0 -398.68414277117427 298.05099241854441 0 298.05099241854441 -298.54270254817675 0 0 0 0 -392.83469737853738 611.60530954546994 0 611.60530954546994 90.378786497603869 0 0 0 0 -32.900607175120967 730.11530436154135 0 730.11530436154135 -154.22096805690671 0 0 0 0 -86.313318843342131 612.70725700813637 0 612.70725700813637 -96.45269241121423 0 0 0 0 -108.25769691892492 616.3338557968309 0 616.3338557968309 -93.00673747563269 0 0 0 0 -214.24777201047254 435.78011709437123 0 435.78011709437123 -81.169238065282116 0 0 0 0 643.63597399989158 111.17885049533834 0 111.17885049533834 -279.92951169474691 0 0 0 0 157.76277470472996 105.64681408157958 0 105.64681408157958 -279.55461747664958 0 0 0 0 889.4193453756161 1104.3547842543485 0 1104.3547842543485 -48.925663336754951 0 0 0 0 408.36586750391871 656.65068955069 0 656.65068955069 -234.24366756870586 0 0 0 0 -273.84255951986415 308.15039364133554 0 308.15039364133554 -217.96894990693272 0 0 0 0 -284.4622971846984 412.79803277475548 0 412.79803277475548 -272.04445169784594 0 0 0 0 -431.34133720584214 -104.6163802035444 0 -104.6163802035444 346.81011617658078 0 0 0 0 237.09458252455806 139.96221113271895 0 139.96221113271895 88.78974351506622 0 0 0 0 -159.81426782521885 -188.74473836255493 0 -188.74473836255493 305.29578552103339 0 0 0 0 -295.81689626659499 250.27100139959657 0 250.27100139959657 69.463038513997162 0 0 0 0 -143.42596699472051 -5.9677676037244964 0 -5.9677676037244964 187.13535912612861 0 0 0 0 -595.25358268065611 23.893188786343671 0 23.893188786343671 219.97653950335371 0 0 0 0 -45.960900995938573 84.546001274487935 0 84.546001274487935 136.19846602418693 0 0 0 0 -254.01670903994818 140.57078882077622 0 140.57078882077622 147.17161263566231 0 0 0 0 -243.50079817906953 420.85453772248002 0 420.85453772248002 -345.34387140517356 0 0 0 0 33.230738518817816 -196.71000583693967 0 -196.71000583693967 220.95544635382248 0 0 0 0 14.992189601809059 37.769289168183761 0 37.769289168183761 19.857051403491965 0 0 0 0 -85.846542222119751 67.470050631094637 0 67.470050631094637 146.63226307486184 0 0 0 0 183.62004543549847 28.487212745574652 0 28.487212745574652 97.44112522341311 0 0 0 0 30.421086337533779 136.15147185827664 0 136.15147185827664 111.51406677416526 0 0 0 0 -51.740768820163794 240.13465914901462 0 240.13465914901462 -49.598378384351236 0 0 0 0 48.713367684045807 163.71752891465439 0 163.71752891465439 -65.051853501230653 0 0 0 0 140.35176520934328 19.425182222388685 0 19.425182222388685 126.18472407793161 0 0 0 0 6.8874102591071278 143.21257557207718 0 143.21257557207718 109.30583142962132 0 0 0 0 65.443820584964158 81.232715409497473 0 81.232715409497473 54.109962523340322 0 0 0 0 26.029711662966292 113.45737784588709 0 113.45737784588709 116.71463058621157 0 0 0 0 37.715853948844597 117.55757426793571 0 117.55757426793571 116.48920905555133 0 0 0 0 -14.164862661244115 136.67228433575656 0 136.67228433575656 107.68492629990214 0 0 0 0 -33.116750189787126 150.73528321699996 0 150.73528321699996 104.05125501530711 0 0 0 0 -3.8934158542542718 165.31059547318728 0 165.31059547318728 81.594084502372425 0 0 0 0 -24.311851529972046 178.70631094313285 0 178.70631094313285 81.023713764094282 0 0 0 0 -27.007159251719713 164.84260552939668 0 164.84260552939668 68.867514037905494 0 0 0 0 -60.52771075675264 107.02676658373093 0 107.02676658373093 119.00522814007127 0 0 0 0 -5.338002331322059 33.4975499798893 0 33.4975499798893 160.75518365192693 0 0 0 0 65.474984496657271 94.081102291616844 0 94.081102291616844 99.718921160441823 0 0 0 0 -17.98074518260546 160.15891244248633 0 160.15891244248633 105.76952488807729 0 0 0 0 -29.386224796064198 158.48841901076958 0 158.48841901076958 105.5262213293463 0 0 0 0 -20.631857089232653 150.5697411542933 0 150.5697411542933 92.587898041500011 0 0 0 0 -12.467281097080559 155.01516336106579 0 155.01516336106579 44.471169790136628 0 0 0 0 6.3112909847532137 147.06753070790228 0 147.06753070790228 18.401422080060001 0 0 0 0 6.0837699343683198 135.21396634684061 0 135.21396634684061 34.06940985613619 0 0 0 0 12.712052064365707 193.66084426065208 0 193.66084426065208 -18.180753292399459 0 0 0 0 -22.56224253680557 228.98919801763259 0 228.98919801763259 -9.3251603312528459 0 0 0 0 -66.00075396016473 191.33776601307909 0 191.33776601307909 48.553029385075206 0 0 0 0 -68.03802553913556 186.5346522917971 0 186.5346522917971 55.509396468740306 0 0 0 0 -18.555206763907336 160.86288474802859 0 160.86288474802859 62.832769007567549 0 0 0 0 -57.784687933279201 205.63742345123319 0 205.63742345123319 33.858090498659294 0 0 0 0 18.201297606244339 17.189067581630599 0 17.189067581630599 12.075653724370859 0 0 0 0 1803.6535994610167 -1460.3963966886949 0 -1460.3963966886949 3616.4607617691508 0 0 0 0 -206.26410441368353 -278.25906426705114 0 -278.25906426705114 -2188.6744071203393 0 0 0 0 564.33336585568031 636.11646390043461 0 636.11646390043461 -2431.2012485008672 0 0 0 0 -1625.995237699186 582.72921381484412 0 582.72921381484412 -1085.5368870385046 0 0 0 0 -233.41826556425076 1632.0924507224408 0 1632.0924507224408 -2346.519552100769 0 0 0 0 46.295497723926758 53.796858557433325 0 53.796858557433325 33.006923240615734 0 0 0 0 1065.1350520724664 1327.6838410276214 0 1327.6838410276214 -3316.0064446169372 0 0 0 0 256.2317082886002 -92.14456434136082 0 -92.14456434136082 -358.32924509108125 0 0 0 0 -532.65877430967521 -1041.2744093325746 0 -1041.2744093325746 4323.1059534155502 0 0 0 0 -354.72133201884571 -312.13851010367216 0 -312.13851010367216 -231.4628945433069 0 0 0 0 -0.0042885125440079719 15.876710711218038 0 15.876710711218038 -5.7859201693499926 0 0 0 0 -4.0747527258042879 6.2122505133967252 0 6.2122505133967252 23.86501412921973 0 0 0 0 -15.394410114909988 5.0511909832857782 0 5.0511909832857782 26.477506211005675 0 0 0 0 2.5564404371652927 -3.3970515066385545 0 -3.3970515066385545 -0.44584932194965177 0 0 0 0 -6.5838878376816865 13.850614769064123 0 13.850614769064123 11.288203837066249 0 0 0 0 -17.432007855713891 56.373349575696011 0 56.373349575696011 -18.205930396361509 0 0 0 0 -1.8315722267655019 12.423980582644091 0 12.423980582644091 -4.017262764787958 0 0 0 0 -41.656842673139181 36.041368751510163 0 36.041368751510163 -2.7054336588334991 0 0 0 0 109.60422196654872 -14.776913843687453 0 -14.776913843687453 -49.612469234183664 0 0 0 0 -25.355429894007102 63.493362649218398 0 63.493362649218398 -21.87662951288803 0 0 0 0 -152.71494944952428 123.6002091763803 0 123.6002091763803 -14.162708371062763 0 0 0 0 85.297947670682333 -274.67692227978841 0 -274.67692227978841 151.02010831788357 0 0 0 0 82.645170227457129 144.72767434720117 0 144.72767434720117 -182.08268189066439 0 0 0 0 56.037235672905808 36.005412236678239 0 36.005412236678239 -20.778378450984746 0 0 0 0 -0.035090203658910468 17.578157226653275 0 17.578157226653275 13.738919881958282 0 0 0 0 -26.479323678591754 -13.813553047351888 0 -13.813553047351888 20.169666321948171 0 0 0 0 -0.96051830740179867 -18.887756681004248 0 -18.887756681004248 -4.9734789375506807 0 0 0 0 11.613010623084847 7.3255530606984394 0 7.3255530606984394 10.871974766108906 0 0 0 0 33.655698637303431 76.226205717066478 0 76.226205717066478 81.797143835108727 0 0 0 0 0.29620069832890294 42.158757488268748 0 42.158757488268748 148.0642767152749 0 0 0 0 118.92289108531986 -72.188288934161392 0 -72.188288934161392 11.974775218739524 0 0 0 0 99.890422677941388 223.806155342696 0 223.806155342696 439.32172980881296 0 0 0 0 0.11536847143290505 203.4855167131515 0 203.4855167131515 1101.3031056792242 0 0 0 0 278.92819402337773 564.6797341369238 0 564.6797341369238 555.50421406342139 0 0 0 0 352.36246673651476 293.21366322937047 0 293.21366322937047 138.71386298435391 0 0 0 0 -1.8850092768964686 4.1282246292180389 0 4.1282246292180389 10.334981515150787 0 0 0 0 -449.96431950927945 -235.11908979473992 0 -235.11908979473992 415.92161738319555 0 0 0 0 549.90826996430405 739.04649915167829 0 739.04649915167829 927.18917371451244 0 0 0 0 106.4465759548475 116.89084443073079 0 116.89084443073079 -233.30982656089327 0 0 0 0 -64.255247046326986 -41.499523156729992 0 -41.499523156729992 81.251810133398976 0 0 0 0 -439.35336127808841 -26.484138695901493 0 -26.484138695901493 226.36540472885827 0 0 0 0 -214.17254754086025 227.07561325222196 0 227.07561325222196 92.433253364113625 0 0 0 0 -2.6736026998517417 3.9644108501750566 0 3.9644108501750566 21.154254647164407 0 0 0 0 28.888528408831917 172.77274344784382 0 172.77274344784382 45.9241327765194 0 0 0 0 -152.30122327145364 139.60844732241821 0 139.60844732241821 101.87428342967178 0 0 0 0 6.2621505714487284 81.788917050078453 0 81.788917050078453 -37.46771673191688 0 0 0 0 21.371849349117838 116.79296383922338 0 116.79296383922338 16.629468629311305 0 0 0 0 29.313220089446986 26.070569994910329 0 26.070569994910329 80.283601619754336 0 0 0 0 0.92499058907094422 0.020912671497868018 0 0.020912671497868018 1.9826784830401323 0 0 0 0 139.40678792200197 -3.0770075184391317 0 -3.0770075184391317 80.677198616554961 0 0 0 0 60.609596847061766 61.94620653615857 0 61.94620653615857 192.87721271504415 0 0 0 0 260.04581404327473 175.77924943986727 0 175.77924943986727 104.87495564440906 0 0 0 0 0.078818409236561138 15.669669452491831 0 15.669669452491831 51.868860491316127 0 0 0 0 -101.0300634833693 -7.5052619268171838 0 -7.5052619268171838 146.85791079944465 0 0 0 0 -109.96437050801251 41.504499853413108 0 41.504499853413108 69.10919175032177 0 0 0 0 10.786815386469243 -65.690941920991463 0 -65.690941920991463 83.337916316304472 0 0 0 0 -30.378164178633597 -42.375308810995193 0 -42.375308810995193 57.09805351147952 0 0 0 0 -15.231570229865554 9.7034843203119294 0 9.7034843203119294 38.924566695405304 0 0 0 0 -32.064137385348658 -26.118778677624505 0 -26.118778677624505 77.062565713218646 0 0 0 0 -12.54823118057493 17.761788185646957 0 17.761788185646957 26.269521994198584 0 0 0 0 -3.0382656209520746 21.323192411777764 0 21.323192411777764 12.298150302553864 0 0 0 0 -13.2691697061382 35.447769964488543 0 35.447769964488543 -19.549614838637353 0 0 0 0 -18.049236247112276 23.470470406318782 0 23.470470406318782 1.2840684242764837 0 0 0 0 -23.160434499150142 0.30796435524825938 0 0.30796435524825938 -31.921406193161602 0 0 0 0 -19.29196253538862 12.940868315951377 0 12.940868315951377 17.261750647786272 0 0 0 0 -2.7369332536944739 3.4413589546208598 0 3.4413589546208598 -2.4230491369213354 0 0 0 0 -5.2911199038790073 32.71087128479121 0 32.71087128479121 -10.633331091921718 0 0 0 0 -40.148176232876722 25.95987685975706 0 25.95987685975706 147.71271558341687 0 0 0 0 2.3911054545200727 3.7670493366124376 0 3.7670493366124376 -8.6208410647749929 0 0 0 0 -5.4825017098919488 22.984229487898119 0 22.984229487898119 40.542254951282302 0 0 0 0 -17.934871729473855 19.774810938911628 0 19.774810938911628 -5.9271393434133017 0 0 0 0 -8.9209782608377282 24.622442562014839 0 24.622442562014839 -9.1955599823158991 0 0 0 0 -14.694000855045658 20.162659739107539 0 20.162659739107539 -11.948634502326541 0 0 0 0 -16.293479312036652 30.46197916922938 0 30.46197916922938 -16.358434099820442 0 0 0 0 -2.9795920662581921 28.588545708855236 0 28.588545708855236 -22.267376200885337 0 0 0 0 5.5920593188985777 16.432642940554871 0 16.432642940554871 4.7624927094557847 0 0 0 0 1.3130953456595762 15.365371115851119 0 15.365371115851119 4.4032451900860963 0 0 0 0 6.8741449386199065 33.950059787194789 0 33.950059787194789 -17.967421641602414 0 0 0 0 30.160806409156066 31.446336313467327 0 31.446336313467327 -10.249405727212434 0 0 0 0 30.330022067258312 46.388448298931394 0 46.388448298931394 -54.340105829514073 0 0 0 0 5.4243733802868519 48.283627516320848 0 48.283627516320848 -27.883586969914177 0 0 0 0 6.2132267276174389 51.156970698939404 0 51.156970698939404 -17.569975212951249 0 0 0 0 0.45990884641943808 23.755470462043434 0 23.755470462043434 -17.701462522152724 0 0 0 0 11.463872196298325 61.838807408923458 0 61.838807408923458 -62.296964680655947 0 0 0 0 -27.924624207516899 75.285818833126541 0 75.285818833126541 -45.73144787439378 0 0 0 0 7.2508661551038927 29.83617299720034 0 29.83617299720034 16.014425170534864 0 0 0 0 9.8867140805011786 26.701965616721537 0 26.701965616721537 -11.322373703116341 0 0 0 0 -8.9201673434581608 71.126739447368891 0 71.126739447368891 -41.674700448300428 0 0 0 0 -8.4559959344624076 72.125070918409619 0 72.125070918409619 -42.297856351171504 0 0 0 0 12.472888799405212 50.029545235067758 0 50.029545235067758 21.939444667538865 0 0 0 0 -11.405613865295891 70.772611166874412 0 70.772611166874412 -41.699864585031719 0 0 0 0 -8.5829061234835535 38.076966034219367 0 38.076966034219367 -8.8518739661521977 0 0 0 0 -15.842663381947204 39.843062349507818 0 39.843062349507818 2.2286644311243435 0 0 0 0 -21.745813931189673 27.34392799058071 0 27.34392799058071 30.232962244977557 0 0 0 0 -5.9306609395716805 7.209777848678641 0 7.209777848678641 74.228032133847591 0 0 0 0 -17.58596444997238 47.937033998125116 0 47.937033998125116 23.736178921331884 0 0 0 0 -5.6395318174674003 49.214911332008057 0 49.214911332008057 11.68524410307549 0 0 0 0 -4.3237874285178748 30.308698655548312 0 30.308698655548312 3.5909806868159535 0 0 0 0 -13.092392826118157 20.390438136626472 0 20.390438136626472 50.279647781339008 0 0 0 0 -10.581181971583504 15.761541187970948 0 15.761541187970948 40.195608471733863 0 0 0 0 -19.244486039737239 21.598589201981667 0 21.598589201981667 33.274104999974952 0 0 0 0 -76.642173399202875 291.21302253642716 0 291.21302253642716 804.42623641242972 0 0 0 0 171.83434232657601 -119.59312385499288 0 -119.59312385499288 597.82793542547734 0 0 0 0 -360.39284617872909 -86.813218781186151 0 -86.813218781186151 23.324384961117175 0 0 0 0 -0.54991093787032241 7.4875945865877611 0 7.4875945865877611 5.193948277757471 0 0 0 0 -567.05622526435764 326.90503295499366 0 326.90503295499366 153.8339268661075 0 0 0 0 1489.710231173347 2644.8322543083123 0 2644.8322543083123 1029.869934255752 0 0 0 0 201.56620026337623 90.481610039641964 0 90.481610039641964 -29.522553277027328 0 0 0 0 41.897375297354301 217.96945380288525 0 217.96945380288525 48.139676663238788 0 0 0 0 -18.212766126062263 26.932841336849037 0 26.932841336849037 6.9224160829127186 0 0 0 0 146.18946056923596 -18.706289046385791 0 -18.706289046385791 -227.37209709937088 0 0 0 0 1806.9728383545298 1746.4407529536984 0 1746.4407529536984 3529.1706841811538 0 0 0 0 -10.401834095868224 13.775626629364524 0 13.775626629364524 6.9705179261467833 0 0 0 0 -218.61540720349876 246.08134806639282 0 246.08134806639282 84.321211738802958 0 0 0 0 -201.37173907581018 316.63052598837385 0 316.63052598837385 -12.742023060156498 0 0 0 0 -2.1697682204203943 1.7187207921513732 0 1.7187207921513732 -4.2166584326855059 0 0 0 0 -260.85654283757322 294.27993971796241 0 294.27993971796241 141.70829235081328 0 0 0 0 50.693931652356696 -9.9464445620251354 0 -9.9464445620251354 -230.49017946535605 0 0 0 0 -397.86870389776595 44.595950826827902 0 44.595950826827902 20.165155460374081 0 0 0 0 29.307000825647265 239.59998043219093 0 239.59998043219093 -306.10658716327271 0 0 0 0 -86.272437273299147 13.010231330894385 0 13.010231330894385 150.42384172938182 0 0 0 0 -37.02495130879106 -48.951248400255281 0 -48.951248400255281 135.32584665289323 0 0 0 0 79.555052663519746 57.070413080313301 0 57.070413080313301 12.722729129465733 0 0 0 0 24.374246935504061 35.866036739962965 0 35.866036739962965 -0.91563394470853154 0 0 0 0 11.643902876996435 72.430052277733921 0 72.430052277733921 -65.692674895995879 0 0 0 0 -6.4299777521227952 72.391921757251112 0 72.391921757251112 -42.324027830036357 0 0 0 0 16.983434975013211 46.399376470778996 0 46.399376470778996 32.7622526909594 0 0 0 0 21.694099433370866 85.025157219475659 0 85.025157219475659 -52.747496335843607 0 0 0 0 -3.2656704157270724 29.698291550470458 0 29.698291550470458 -108.15056624573117 0 0 0 0 42.694917790475301 21.86268478394777 0 21.86268478394777 -181.8270523781548 0 0 0 0 18.549933442845941 80.327678181332885 0 80.327678181332885 -96.809780472416605 0 0 0 0 15.274577608242112 45.912450733157243 0 45.912450733157243 4.3216668999997339 0 0 0 0 4.3823718303028727 24.700165575191932 0 24.700165575191932 -93.404818188486388 0 0 0 0 8.2996892457595095 8.256864839935588 0 8.256864839935588 -50.090983802354458 0 0 0 0 38.33265194404521 -26.755199576709856 0 -26.755199576709856 -47.154043216014543 0 0 0 0 5.7936382793430994 3.4638083956275523 0 3.4638083956275523 -6.2179155133424615 0 0 0 0 18.511229678988457 -27.860480589188228 0 -27.860480589188228 -39.520296351060097 0 0 0 0 54.411638096440583 1.9777136987540871 0 1.9777136987540871 -104.81918462232716 0 0 0 0 27.512935711987666 -36.161700390213809 0 -36.161700390213809 -63.376172334195871 0 0 0 0 173.6625911721203 -150.95292925394824 0 -150.95292925394824 63.600280017155455 0 0 0 0 57.103939834116318 26.149856652823928 0 26.149856652823928 -115.80436597402877 0 0 0 0 2.7697368551688442 -0.25890987671075294 0 -0.25890987671075294 -0.10356243479664329 0 0 0 0 90.769320043822518 54.905847913400066 0 54.905847913400066 -36.834346163366718 0 0 0 0 43.056989457691088 60.963471722097893 0 60.963471722097893 -36.243676263158704 0 0 0 0 -10.856243166861532 25.995884013695559 0 25.995884013695559 -19.271394434385002 0 0 0 0 80.737653138348833 22.32945849067255 0 22.32945849067255 -19.222732307444801 0 0 0 0 -79.366176266543334 446.26444957350759 0 446.26444957350759 -1555.1713867460894 0 0 0 0 -585.37089252279839 243.93623839051361 0 243.93623839051361 -268.65655228577089 0 0 0 0 -175.94067515587085 112.40156743953048 0 112.40156743953048 -258.32357547280685 0 0 0 0 -336.45805789157748 646.78018042504846 0 646.78018042504846 -646.61288620975756 0 0 0 0 115.68634033226408 939.2841152191977 0 939.2841152191977 -502.42191190629092 0 0 0 0 265.9109390960657 298.68538271237048 0 298.68538271237048 -470.56503926317964 0 0 0 0 -0.060248722369010466 -0.39479637131037748 0 -0.39479637131037748 -0.69441116795644575 0 0 0 0 2.9374608338338817 -0.95448563425826194 0 -0.95448563425826194 -6.0654608470983078 0 0 0 0 32.27624447888229 -11.114174470816579 0 -11.114174470816579 -7.2002343550338992 0 0 0 0 127.05933186609764 173.81160154875397 0 173.81160154875397 -568.99793436337495 0 0 0 0 -16.741339851156226 -14.571335712812015 0 -14.571335712812015 -7.2372344104733202 0 0 0 0 -0.33618355899312746 2.5700502793015971 0 2.5700502793015971 0.63782064392839288 0 0 0 0 18.912157913931878 93.709482379563269 0 93.709482379563269 -94.963908364023155 0 0 0 0 -81.381817381094152 94.856951258622757 0 94.856951258622757 -66.622151438656147 0 0 0 0 -0.20474538541077436 -3.1031044052149497 0 -3.1031044052149497 -3.1374220165709659 0 0 0 0 167.77572744444478 583.20943309093127 0 583.20943309093127 -1454.7329296340558 0 0 0 0 178.80300021255061 -328.05720385201425 0 -328.05720385201425 -47.397114712053735 0 0 0 0 14.20847745150968 73.024722500271309 0 73.024722500271309 -913.52865695859145 0 0 0 0 -149.59326822074945 96.979936370356882 0 96.979936370356882 -887.86546210357483 0 0 0 0 15.24975016056851 -22.316045841880623 0 -22.316045841880623 -20.095054573430389 0 0 0 0 -3.435450010266095 -7.5644608365341952 0 -7.5644608365341952 -10.332939358896013 0 0 0 0 44.73672548776085 -10.71000614031982 0 -10.71000614031982 -65.942804461083142 0 0 0 0 3.4290822327383239 6.7205704039227925 0 6.7205704039227925 -7.3180557479505737 0 0 0 0 6.566450488893679 8.299887938908654 0 8.299887938908654 -3.6848950725430569 0 0 0 0 19.93478963112284 30.636809148646535 0 30.636809148646535 -95.847096698314999 0 0 0 0 -2.9204744779272005 21.56370854585839 0 21.56370854585839 -40.598158577675349 0 0 0 0 1.1287024915674806 0.80576706967829637 0 0.80576706967829637 -4.9996226009520228 0 0 0 0 -0.46330870548263192 24.137432920078027 0 24.137432920078027 -45.553828171352507 0 0 0 0 -3.7593073573953006 23.702491441439633 0 23.702491441439633 -36.085813938814681 0 0 0 0 -6.5543612550245598 13.913693040012731 0 13.913693040012731 -27.269576330152631 0 0 0 0 6.2062763989340226 2.5330618472408162 0 2.5330618472408162 -17.309538813292434 0 0 0 0 -5.0899119705427438 47.374583350981993 0 47.374583350981993 -42.101226497813286 0 0 0 0 11.503126025221945 4.0596503952892817 0 4.0596503952892817 -32.378742918869051 0 0 0 0 0.35507495887566165 3.5044919883838759 0 3.5044919883838759 -10.676934767903099 0 0 0 0 6.869580864906311 32.961073907303216 0 32.961073907303216 -27.44378299805976 0 0 0 0 19.57153623581064 36.368434219242999 0 36.368434219242999 -11.316107314395968 0 0 0 0 18.094773421106709 9.249693622462047 0 9.249693622462047 -51.56902699411404 0 0 0 0 -20.486807539455185 41.908381908189767 0 41.908381908189767 3.4622250704778708 0 0 0 0 29.717711775781936 -2.5605988308525411 0 -2.5605988308525411 -123.89073672993982 0 0 0 0 5.9022724342066795 31.73055335279787 0 31.73055335279787 -41.537677966131014 0 0 0 0 13.042005238615332 12.455888086495932 0 12.455888086495932 -21.917709837308564 0 0 0 0 10.986557371914387 34.052284143617726 0 34.052284143617726 -73.483510719866899 0 0 0 0 -3.1565869484311406 19.454027536066661 0 19.454027536066661 -7.9602642370743073 0 0 0 0 1.5123228285228834 18.555726077524014 0 18.555726077524014 -16.52289781269792 0 0 0 0 0.56759661905527992 16.550937494334462 0 16.550937494334462 -9.4435404844569426 0 0 0 0 6.9845434965100139 25.995774063376302 0 25.995774063376302 -45.390826706898224 0 0 0 0 11.86075079216829 19.672253791165474 0 19.672253791165474 -24.957134182985257 0 0 0 0 -3.6774450663942844 33.121335399555392 0 33.121335399555392 -29.709620702269603 0 0 0 0 1.7546353070151781 28.199889051284913 0 28.199889051284913 -6.7356975147958451 0 0 0 0 -7.5010013552964665 19.912493434261705 0 19.912493434261705 -34.099945197274792 0 0 0 0 -0.32982736822384595 23.671284268875013 0 23.671284268875013 -6.4835196594917761 0 0 0 0 3.6707846732472831 29.244625767622381 0 29.244625767622381 -16.175991905048392 0 0 0 0 -15.695550917414948 21.170256365221576 0 21.170256365221576 -44.012821143027395 0 0 0 0 -6.0598091123101767 36.47809162051999 0 36.47809162051999 -17.617893819406163 0 0 0 0 -11.114897193328943 1.371825563517632 0 1.371825563517632 -57.584355653001694 0 0 0 0 16.245039841160178 14.947731598949758 0 14.947731598949758 -49.004036857004394 0 0 0 0 -6.3411311215022579 15.030978733739175 0 15.030978733739175 -39.473137663881062 0 0 0 0 -0.0035066947020823136 12.198975104196506 0 12.198975104196506 -8.7196626754521276 0 0 0 0 -3.5613214616701043 16.285571492934125 0 16.285571492934125 -1.9076949487070376 0 0 0 0 6.4743287839337427 5.6784812905262605 0 5.6784812905262605 -14.17749590893218 0 0 0 0 12.411891913303407 22.482281333581341 0 22.482281333581341 -103.56757603422011 0 0 0 0 1.264197830834064 14.430379534117961 0 14.430379534117961 1.4073701446845774 0 0 0 0 -0.94205154050553119 -2.0673408579266663 0 -2.0673408579266663 2.9949388902117509 0 0 0 0 -2.2377474363020156 20.560384637228708 0 20.560384637228708 44.700989967586793 0 0 0 0 -6.6960059021948837 31.124791806520079 0 31.124791806520079 -41.664639118662308 0 0 0 0 7.6926589536305983 27.938842684201518 0 27.938842684201518 -64.703015513630817 0 0 0 0 5.1299906844215002 9.2326130745695991 0 9.2326130745695991 -48.277333579244441 0 0 0 0 -1.0797552783822937 10.387899682492559 0 10.387899682492559 -34.700855664553373 0 0 0 0 5.3207291018334217 24.794220268675417 0 24.794220268675417 -44.964395345890807 0 0 0 0 7.3497336147702299 18.333399975759676 0 18.333399975759676 -61.14314456320426 0 0 0 0 24.598408191581257 -0.50057700684556039 0 -0.50057700684556039 -33.989016737570637 0 0 0 0 -6.277509234729223 21.251748972281348 0 21.251748972281348 -37.517175938046421 0 0 0 0 -3.9550006192117735 0.22276048457996467 0 0.22276048457996467 -0.28931842271883568 0 0 0 0 4.0968530891695991 13.156516930728685 0 13.156516930728685 -1100.6525768158608 0 0 0 0 -121.15908396570012 147.56997650775884 0 147.56997650775884 -897.91589399927034 0 0 0 0 146.1769655959215 311.34266516039133 0 311.34266516039133 -1421.1212548606127 0 0 0 0 -126.12690916201245 120.68825284157629 0 120.68825284157629 -1036.3720587083371 0 0 0 0 -100.43661655529286 42.693476053136692 0 42.693476053136692 -876.94664918059425 0 0 0 0 -2.2233999324341767 4.5402348409404709 0 4.5402348409404709 -0.68026601536386266 0 0 0 0 -19.171766418410698 -69.061911640532344 0 -69.061911640532344 -277.49858794496868 0 0 0 0 -1.7307541448972188 14.57998310772291 0 14.57998310772291 -30.453785897581838 0 0 0 0 16.850817599057336 467.20514212088528 0 467.20514212088528 -760.63429471155541 0 0 0 0 -205.40402304451891 -123.12597235977319 0 -123.12597235977319 -19.173607029901177 0 0 0 0 113.11968726370833 79.13121537796178 0 79.13121537796178 -812.03649801063239 0 0 0 0 389.99218940633 -120.77760614285944 0 -120.77760614285944 -832.42599959038671 0 0 0 0 -602.53950445771625 -694.75091863140915 0 -694.75091863140915 -781.4730709183641 0 0 0 0 92.999008208673331 -638.71987247431207 0 -638.71987247431207 -1682.4317340685629 0 0 0 0 0.018851834116503596 13.24464984192673 0 13.24464984192673 -10.190945884554822 0 0 0 0 -1.859787829807658 4.0400213271183816 0 4.0400213271183816 -13.030395398117093 0 0 0 0 102.75940893762163 108.88415839222216 0 108.88415839222216 -28.851353113219375 0 0 0 0 0.012584105075802654 13.113356858364568 0 13.113356858364568 -9.9191564442880917 0 0 0 0 -175.33111882128651 44.020243584697255 0 44.020243584697255 60.467093493411085 0 0 0 0 40.289765171983163 63.755047287741036 0 63.755047287741036 -81.210998295180616 0 0 0 0 -0.2720597450436486 7.7186928501908483 0 7.7186928501908483 -33.268762921269854 0 0 0 0 27.729386968945619 -55.584742793362238 0 -55.584742793362238 -54.01543070830121 0 0 0 0 -2.7744496802403091 -0.8809685440096473 0 -0.8809685440096473 0.32333003126800008 0 0 0 0 -2.744053434476271 18.123637189968292 0 18.123637189968292 -20.679077479030099 0 0 0 0 29.802802489080932 16.667038563638926 0 16.667038563638926 -26.501015430883854 0 0 0 0 -12.674071639135946 53.700653512176359 0 53.700653512176359 -70.445925851694483 0 0 0 0 -43.321952973885345 -31.538753150214689 0 -31.538753150214689 -68.996839226623706 0 0 0 0 -18.28404809202766 8.3474404589942424 0 8.3474404589942424 -19.94419082825334 0 0 0 0 2.0795343373000605 7.5394617967143702 0 7.5394617967143702 -0.0021729468144826569 0 0 0 0 -5.8246003528765868 7.7748713519413286 0 7.7748713519413286 -34.170947822000016 0 0 0 0 -48.502019012521487 40.091610097115336 0 40.091610097115336 -28.638793168860502 0 0 0 0 -30.61124315870984 7.3157210987556027 0 7.3157210987556027 -12.250324301916407 0 0 0 0 -0.62245439531398006 12.528581696977199 0 12.528581696977199 -0.29930913732096087 0 0 0 0 -12.132623368132045 58.558351385610877 0 58.558351385610877 -27.832936702528968 0 0 0 0 -7.8801586555799759 13.203298555673257 0 13.203298555673257 -12.381361247415185 0 0 0 0 0.010310683330515057 15.587701376711255 0 15.587701376711255 -3.7254790647129994 0 0 0 0 -4.0565816064670628 12.379826022133045 0 12.379826022133045 -1.0058397265071903 0 0 0 0 0.3981409739353694 15.021233872186713 0 15.021233872186713 -4.6137219256124808 0 0 0 0 370.34009383191005 119.13442270530777 0 119.13442270530777 142.97243952791632 0 0 0 0 433.18599890815676 939.92449483002019 0 939.92449483002019 -387.86478840478503 0 0 0 0 232.80577381586261 613.68125449928141 0 613.68125449928141 -352.15143490834816 0 0 0 0 231.7283561565564 768.42825197154707 0 768.42825197154707 -306.67311424797299 0 0 0 0 1.3502642862003995 707.33830416925593 0 707.33830416925593 -156.4539518457359 0 0 0 0 264.71533010485291 729.38306449142874 0 729.38306449142874 -311.85749808152104 0 0 0 0 1160.3503008051484 593.96116623533089 0 593.96116623533089 -2363.6348372082448 0 0 0 0 -2.5531230942237157 970.20783533274334 0 970.20783533274334 -524.13791391382256 0 0 0 0 1780.9135640409222 -433.51562833689786 0 -433.51562833689786 -672.74873545571245 0 0 0 0 3.5740534904411163 5.7522188245162624 0 5.7522188245162624 -4.1249839911439494 0 0 0 0 510.96764181467006 677.56707580949205 0 677.56707580949205 -362.99155554498429 0 0 0 0 301.04397208285809 778.17945149613388 0 778.17945149613388 -297.08258918181673 0 0 0 0 -319.93268613200053 161.61225509925862 0 161.61225509925862 -309.67994635662944 0 0 0 0 -527.88695795170497 295.87454130810511 0 295.87454130810511 -131.69662260177211 0 0 0 0 6.0678239191955186 11.995334487917376 0 11.995334487917376 -3.0135958894358339 0 0 0 0 -538.59913090268674 400.57235458663308 0 400.57235458663308 -455.98091508253128 0 0 0 0 -976.75480098105618 994.95839518974935 0 994.95839518974935 -1103.3892161800659 0 0 0 0 -87.070558658859227 139.12892794945765 0 139.12892794945765 -606.52986484325083 0 0 0 0 -85.566441247909097 261.34600265176778 0 261.34600265176778 -945.41776266247871 0 0 0 0 -87.29934171246714 247.13274714607178 0 247.13274714607178 -1057.5443670962745 0 0 0 0 -313.86167032279718 287.44295245992487 0 287.44295245992487 -239.13181943970994 0 0 0 0 -274.15346241804218 154.82740025960356 0 154.82740025960356 -56.520240842539351 0 0 0 0 -100.85717063318589 387.22481474122378 0 387.22481474122378 16.155100624418992 0 0 0 0 -221.2216700684221 314.35714990768065 0 314.35714990768065 42.83301054036292 0 0 0 0 5.2208277819213436 13.608421811027625 0 13.608421811027625 4.5022492022633713 0 0 0 0 -1086.3899307234533 914.06650413276657 0 914.06650413276657 -112.32438891280071 0 0 0 0 -46.795965761702973 322.90601424862689 0 322.90601424862689 -73.048373104345956 0 0 0 0 63.290588723990368 376.66945584131281 0 376.66945584131281 125.23331652576235 0 0 0 0 -86.3789187570801 462.83805680667865 0 462.83805680667865 404.1002797745532 0 0 0 0 101.42265785027848 293.45289016235256 0 293.45289016235256 183.48621796943917 0 0 0 0 354.28755041661498 225.26045605604395 0 225.26045605604395 86.823707438699785 0 0 0 0 219.05790978542063 432.3129714501556 0 432.3129714501556 34.045296105472517 0 0 0 0 -41.356626191060059 301.8568652844624 0 301.8568652844624 136.22631330304512 0 0 0 0 -122.52441583102336 153.96843959878242 0 153.96843959878242 -154.94748601040556 0 0 0 0 -34.574229351404938 362.84274062577151 0 362.84274062577151 102.69807232738094 0 0 0 0 -26.313415931595955 177.06904884417963 0 177.06904884417963 -612.00968239304348 0 0 0 0 47.178920302307233 204.57014684822389 0 204.57014684822389 -839.18837787504162 0 0 0 0 -57.798863319243537 249.77191932422511 0 249.77191932422511 -307.10915752119763 0 0 0 0 62.199390876688994 -22.992182981008227 0 -22.992182981008227 -580.4076892476478 0 0 0 0 547.92062232759781 -25.970803910189716 0 -25.970803910189716 -1189.7696248260618 0 0 0 0 137.80821901617674 377.90514204272017 0 377.90514204272017 -793.89475307946122 0 0 0 0 619.46456379507435 -60.873576217214577 0 -60.873576217214577 -431.84049007891736 0 0 0 0 394.8644209735794 26.212638542805507 0 26.212638542805507 469.40214113741968 0 0 0 0 184.11547941851313 371.29412030947606 0 371.29412030947606 -90.591747360411318 0 0 0 0 120.21449738740921 108.13220796960741 0 108.13220796960741 -211.74464885115776 0 0 0 0 -400.27314074352034 -236.72259246981412 0 -236.72259246981412 -672.11654637491301 0 0 0 0 1240.9182673116447 -70.138229974996648 0 -70.138229974996648 -327.64631129106419 0 0 0 0 1334.9126128340431 654.7787469461291 0 654.7787469461291 -766.51775966763671 0 0 0 0 -3.6373634411983744 7.2849669084896505 0 7.2849669084896505 -5.197224029741875 0 0 0 0 539.02972699888051 340.55427475581382 0 340.55427475581382 -551.03908786858665 0 0 0 0 -1044.6255761899811 -522.25907649671353 0 -522.25907649671353 1039.6081861123384 0 0 0 0 735.68621644598898 1003.0490218216946 0 1003.0490218216946 -677.51380559342215 0 0 0 0 -25.355907185192336 175.69692401548855 0 175.69692401548855 -633.81208710104693 0 0 0 0 795.68944929069767 223.08626686087837 0 223.08626686087837 -796.71151989499049 0 0 0 0 -1303.1731121010598 858.35399221625994 0 858.35399221625994 -68.84181478228129 0 0 0 0 -410.41553872378427 -279.21298945715716 0 -279.21298945715716 890.54383286555822 0 0 0 0 -303.64732480097155 -0.11413630344577541 0 -0.11413630344577541 -127.17481575690908 0 0 0 0 7.3783166892379768 2.1329275476348784 0 2.1329275476348784 1.3295650390891183 0 0 0 0 -253.44789265943109 255.98347738099801 0 255.98347738099801 -403.76353419611405 0 0 0 0 -267.91310157204134 310.06063061134341 0 310.06063061134341 -131.58069614003034 0 0 0 0 -47.550194632145576 171.44125262551097 0 171.44125262551097 -61.554830616852996 0 0 0 0 -372.48298744118074 291.8434329720767 0 291.8434329720767 -35.617051161256313 0 0 0 0 674.17121765775664 588.36065609525212 0 588.36065609525212 171.13888673264137 0 0 0 0 -8.9380696835725075 18.22404956859026 0 18.22404956859026 -15.983752540011253 0 0 0 0 -344.21920320499339 209.40572374757903 0 209.40572374757903 40.327993129871174 0 0 0 0 90.586975935235387 107.54975320199901 0 107.54975320199901 -58.162075284252751 0 0 0 0 -326.596436689033 239.8558370418109 0 239.8558370418109 -27.138940220884251 0 0 0 0 -330.3075700035406 409.20474658681997 0 409.20474658681997 -179.49612227681337 0 0 0 0 146.61820935130527 155.66381673787464 0 155.66381673787464 -104.27697769677434 0 0 0 0 169.96651194112201 7.7664298278750721 0 7.7664298278750721 -36.808150201020908 0 0 0 0 209.86377000596985 76.627602262365599 0 76.627602262365599 22.834385073345402 0 0 0 0 67.181442999120918 62.297277799189487 0 62.297277799189487 106.2330384602501 0 0 0 0 138.88782887675916 153.94857910925157 0 153.94857910925157 191.97440428619757 0 0 0 0 -263.85094050818589 -0.960055234394531 0 -0.960055234394531 287.50560581194259 0 0 0 0 129.61700588209351 137.65599517176679 0 137.65599517176679 -225.49536757785791 0 0 0 0 216.80927414554753 418.26498441353681 0 418.26498441353681 446.51744390041404 0 0 0 0 360.67787214484997 363.32488987522618 0 363.32488987522618 458.7904157469917 0 0 0 0 295.3099590517304 552.09444882894104 0 552.09444882894104 711.57585888765414 0 0 0 0 759.43454738604487 698.27146348804115 0 698.27146348804115 556.39064454233505 0 0 0 0 342.16903717561217 336.68417329215384 0 336.68417329215384 295.22966505368231 0 0 0 0 394.29227949221968 546.49387634606558 0 546.49387634606558 330.93556600144132 0 0 0 0 272.64606048283167 298.02661966115534 0 298.02661966115534 294.02637482565757 0 0 0 0 260.96975285507506 309.58017251369006 0 309.58017251369006 289.73936253278589 0 0 0 0 81.840696438237501 89.47955763549146 0 89.47955763549146 237.67801634870284 0 0 0 0 202.60129040773609 256.44603830524693 0 256.44603830524693 388.26930212237448 0 0 0 0 154.0178378540586 168.22959327184321 0 168.22959327184321 258.84868441880189 0 0 0 0 213.47833614802221 108.5372847001463 0 108.5372847001463 129.22450024256932 0 0 0 0 247.98121935175732 256.40162670278971 0 256.40162670278971 116.93383858230845 0 0 0 0 321.24976356691332 183.71311122866109 0 183.71311122866109 168.59627226963983 0 0 0 0 219.88754758797586 375.51759724817805 0 375.51759724817805 136.73052936242652 0 0 0 0 -8.2515932790703914 12.742514155763388 0 12.742514155763388 -8.0903608753424852 0 0 0 0 506.39928707716172 357.34376537880684 0 357.34376537880684 -100.2669865303767 0 0 0 0 -2455.08471513111 327.36132495136314 0 327.36132495136314 519.57462990737781 0 0 0 0 -20.941271234500164 8.0050181705212822 0 8.0050181705212822 -3.2037788818454516 0 0 0 0 -517.13732345358585 -295.10300092608929 0 -295.10300092608929 380.67955059449605 0 0 0 0 45.472429958841531 58.965150254784021 0 58.965150254784021 -1516.8307841323415 0 0 0 0 -1141.9397540213722 -1394.700779646369 0 -1394.700779646369 388.19177893962296 0 0 0 0 -2428.3229745805584 952.49553020787789 0 952.49553020787789 1027.5332121391948 0 0 0 0 -346.11981878228835 1238.423846015663 0 1238.423846015663 -1389.4791354869474 0 0 0 0 212.70123649315792 107.62657336321718 0 107.62657336321718 130.40410272387453 0 0 0 0 -12.317127526384695 22.545040686194682 0 22.545040686194682 -25.015874116070798 0 0 0 0 -1516.8073649065191 1196.9272886800318 0 1196.9272886800318 -3077.8439041100573 0 0 0 0 194.92672505327209 178.73319014335175 0 178.73319014335175 267.61038586798713 0 0 0 0 -11.184947219743151 22.903113166955052 0 22.903113166955052 -26.200078069939053 0 0 0 0 -163.61911412459449 66.422212111796398 0 66.422212111796398 835.5363703730618 0 0 0 0 -548.74498978478368 540.15497206431064 0 540.15497206431064 391.31504376632802 0 0 0 0 1042.1842992395977 449.71457564244247 0 449.71457564244247 -58.358227751500408 0 0 0 0 234.36760858001071 1137.7194406767267 0 1137.7194406767267 262.21636573721662 0 0 0 0 -1942.7001886027283 874.69020263827042 0 874.69020263827042 468.55222833399966 0 0 0 0 2.2365551693288239 6.9699989636985151 0 6.9699989636985151 3.6399785488270027 0 0 0 0 -1221.040022878442 -136.09794207963296 0 -136.09794207963296 1022.1450048578627 0 0 0 0 66.550805459672119 520.91679000341719 0 520.91679000341719 519.42410316951418 0 0 0 0 299.15446832031012 282.93595816381639 0 282.93595816381639 -449.18731719982497 0 0 0 0 -323.73049731436186 1029.6800462710307 0 1029.6800462710307 409.66849136563906 0 0 0 0 6.8876332453801297 110.39255523730208 0 110.39255523730208 -46.023985410072783 0 0 0 0 -38.831521066465939 -66.813032548105639 0 -66.813032548105639 -202.25860647525951 0 0 0 0 -823.30280786726144 999.46109269102226 0 999.46109269102226 584.05144067439574 0 0 0 0 -123.5806330267078 24.860281253498442 0 24.860281253498442 347.90845365658515 0 0 0 0 -50.047596105378886 27.506668673751335 0 27.506668673751335 -15.270294870995823 0 0 0 0 -375.28026229799434 62.922100460958973 0 62.922100460958973 50.64496186084034 0 0 0 0 -7.6777402100851759 141.91560024732121 0 141.91560024732121 15.631504362037958 0 0 0 0 76.616367631144499 67.391202457589088 0 67.391202457589088 49.693876559598948 0 0 0 0 -62.21383866997104 50.841950351084677 0 50.841950351084677 -20.788963928528148 0 0 0 0 -176.87341514151194 112.68109140959041 0 112.68109140959041 86.836131041432054 0 0 0 0 -9.2025254635345579 10.418169277751133 0 10.418169277751133 45.080513572439116 0 0 0 0 24.894400510675041 98.252808291830689 0 98.252808291830689 112.74971193241646 0 0 0 0 -0.18972775926522445 60.442157107426056 0 60.442157107426056 55.886504154044019 0 0 0 0 0.80123942972568329 87.303249285744187 0 87.303249285744187 130.58624972648522 0 0 0 0 602.4627991381858 611.32198459117535 0 611.32198459117535 585.80955579432884 0 0 0 0 1.6856170085017133 3.2683931055868243 0 3.2683931055868243 15.901258474328387 0 0 0 0 -288.3844459959364 -47.594511848601542 0 -47.594511848601542 191.01682109569447 0 0 0 0 -0.58673467491016729 518.99492014780083 0 518.99492014780083 924.25295973388529 0 0 0 0 1626.0046443354222 825.9525274259704 0 825.9525274259704 300.41338191365503 0 0 0 0 -31.492897142379661 60.909116449502108 0 60.909116449502108 23.752660190942834 0 0 0 0 -27.548936890024436 29.155244433222521 0 29.155244433222521 -2.7581599988261516 0 0 0 0 1572.1777020049485 1351.9490199685115 0 1351.9490199685115 252.94064093646739 0 0 0 0 1235.5217493366072 1240.4804389007786 0 1240.4804389007786 814.52178940297381 0 0 0 0 11.854526017836179 73.608000624964916 0 73.608000624964916 31.2755677779096 0 0 0 0 1243.7727225559647 1099.8580677564523 0 1099.8580677564523 822.28676866309081 0 0 0 0 -37.678047767863518 26.277034635468084 0 26.277034635468084 -0.4194163885355735 0 0 0 0 -22.374799921613885 37.27449345911009 0 37.27449345911009 18.759543822642854 0 0 0 0 53.18276314123068 55.369908665974435 0 55.369908665974435 -201.35363723786213 0 0 0 0 13.734747341196453 26.122758398714979 0 26.122758398714979 33.033687459838831 0 0 0 0 -745.96632491910714 328.9015100143879 0 328.9015100143879 115.97783021231226 0 0 0 0 -1070.7502000861859 766.11366432363729 0 766.11366432363729 -290.65921023551709 0 0 0 0 -894.14163448104227 109.28270801931285 0 109.28270801931285 199.84882188701158 0 0 0 0 -199.29915242039715 47.898492556422752 0 47.898492556422752 -168.70852321557322 0 0 0 0 -1.1259916641252516 28.564172126598038 0 28.564172126598038 18.71378049719533 0 0 0 0 -789.93559755964088 255.21393081265524 0 255.21393081265524 -9.4447814472405298 0 0 0 0 -780.57311957323736 133.18302061662629 0 133.18302061662629 70.382464400943718 0 0 0 0 -28.494736573948785 32.996832879097269 0 32.996832879097269 -13.600297425653565 0 0 0 0 -778.79063840572826 -47.34961440294127 0 -47.34961440294127 331.84407971967812 0 0 0 0 -1030.3942699017935 196.06673840045369 0 196.06673840045369 248.55784551492616 0 0 0 0 -1269.1871702472854 -529.89037124874631 0 -529.89037124874631 -115.44329710912552 0 0 0 0 1002.1758603502822 1430.2706985306759 0 1430.2706985306759 1281.8309626642149 0 0 0 0 -23.114642703090794 270.65834153714059 0 270.65834153714059 1570.2250670178487 0 0 0 0 1629.3658369845507 -564.28907021723467 0 -564.28907021723467 219.84648344967354 0 0 0 0 3155.5564055052528 928.70227790633362 0 928.70227790633362 136.74216056292789 0 0 0 0 -11.252845079694112 11.722968742126739 0 11.722968742126739 13.261414436149749 0 0 0 0 496.60344006314699 758.64515259982727 0 758.64515259982727 940.75912244963183 0 0 0 0 1446.6512038001529 1632.2149444166234 0 1632.2149444166234 1400.247077725031 0 0 0 0 -332.29328308656113 660.50113058234274 0 660.50113058234274 9.2525589725030386 0 0 0 0 -966.60914301764569 -325.76759254281751 0 -325.76759254281751 197.75748028234375 0 0 0 0 -4.9352643861642491 4.1538672783020729 0 4.1538672783020729 -4.3236789575367709 0 0 0 0 -120.95076033170335 215.78254922770975 0 215.78254922770975 -24.366168516437028 0 0 0 0 552.277647803945 340.37345923234034 0 340.37345923234034 -128.07056738393658 0 0 0 0 479.29439156118315 926.05360644536086 0 926.05360644536086 619.24553054699754 0 0 0 0 87.078742697325652 13.521432820198243 0 13.521432820198243 64.955008836863271 0 0 0 0 -38.448136193517712 607.51148969367296 0 607.51148969367296 -928.98830897539665 0 0 0 0 47.993701234401669 49.669388980233634 0 49.669388980233634 -554.37725934068658 0 0 0 0 199.81447471239517 33.785032456862609 0 33.785032456862609 -382.41313830801664 0 0 0 0 67.249993214732967 176.8060519659648 0 176.8060519659648 -6.7454216389560315 0 0 0 0 68.710806272516493 135.20518403366805 0 135.20518403366805 1.9753748793241357 0 0 0 0 -3.5387095966351581 17.468575177631067 0 17.468575177631067 -11.852352238461862 0 0 0 0 -36.248726445250213 40.192094743733833 0 40.192094743733833 282.39569024455523 0 0 0 0 -56.648756445472827 368.73928883208646 0 368.73928883208646 -4.0562101200412144 0 0 0 0 17.225502054111075 14.887201222299907 0 14.887201222299907 1.4319563058980407 0 0 0 0 -70.733300653144397 67.176567113316651 0 67.176567113316651 -25.733815565170516 0 0 0 0 23.510388857679459 18.949994363285185 0 18.949994363285185 1.4458519515017798 0 0 0 0 -2.7662922479981944 17.000917092935993 0 17.000917092935993 -10.456201541657911 0 0 0 0 196.90659494062857 247.39729212441944 0 247.39729212441944 75.471842824637861 0 0 0 0 39.578756950548268 -70.13423906209141 0 -70.13423906209141 50.440427778459707 0 0 0 0 -130.61569277153467 101.20011127630642 0 101.20011127630642 -39.634652916482082 0 0 0 0 -155.89088216822711 107.76922590290724 0 107.76922590290724 56.430319704875728 0 0 0 0 1335.3868744935899 821.26754692335453 0 821.26754692335453 -356.73002571671896 0 0 0 0 -359.02360747805506 13.365377028895637 0 13.365377028895637 94.684467440329172 0 0 0 0 -179.53145747931558 209.75075022878264 0 209.75075022878264 -71.995649741566012 0 0 0 0 -184.19797342657694 225.3379116430151 0 225.3379116430151 303.18672717976551 0 0 0 0 12.024846223853842 5.2860064090340444 0 5.2860064090340444 2.4331278987115859 0 0 0 0 803.93207434733631 1626.535838327045 0 1626.535838327045 2289.4479236073566 0 0 0 0 255.83159474621061 198.9703285845053 0 198.9703285845053 115.13385772027323 0 0 0 0 1712.4334581193689 1476.1983141446217 0 1476.1983141446217 621.84039284035498 0 0 0 0 1650.8623197106936 300.7814931414041 0 300.7814931414041 -473.20609526330554 0 0 0 0 1239.6293172793521 1090.015607965739 0 1090.015607965739 2460.9092595610746 0 0 0 0 1678.7734453983721 1231.8441752991903 0 1231.8441752991903 339.98216831933928 0 0 0 0 2342.1293474826962 1311.7207302026081 0 1311.7207302026081 348.4201941084284 0 0 0 0 1627.0438768718159 1440.4547678070512 0 1440.4547678070512 683.59031339187572 0 0 0 0 146.56881032136152 651.98226268199596 0 651.98226268199596 1072.177117075571 0 0 0 0 1067.999491640745 751.00886433276582 0 751.00886433276582 358.92157443297583 0 0 0 0 1052.4740746587195 1361.7991924004432 0 1361.7991924004432 913.63555814947745 0 0 0 0 9.4650134915718809 86.987488160597422 0 86.987488160597422 47.872961363648756 0 0 0 0 -43.076959402372324 29.989505772138074 0 29.989505772138074 2.4862758191336702 0 0 0 0 -757.61911962140584 118.14528295465152 0 118.14528295465152 56.422199621602203 0 0 0 0 188.83563281348324 107.36220040418948 0 107.36220040418948 -4.7792043369536259 0 0 0 0 -5.4962176749232867 4.8928879585259324 0 4.8928879585259324 -2.6809847113796934 0 0 0 0 396.49545333051356 373.62098165721818 0 373.62098165721818 136.08965849093045 0 0 0 0 263.64432625607878 546.42825645564699 0 546.42825645564699 991.51600906426756 0 0 0 0 -180.78103065781761 1058.3471821735966 0 1058.3471821735966 441.55050204019608 0 0 0 0 372.04667267808691 917.97729746378775 0 917.97729746378775 952.80481412917129 0 0 0 0 762.57349636738945 657.25479742056848 0 657.25479742056848 480.79801363085517 0 0 0 0 -60.192922439217114 35.829527554650667 0 35.829527554650667 18.887114662290848 0 0 0 0 43.976174742012518 109.67079685625276 0 109.67079685625276 51.584078008783308 0 0 0 0 542.81650702748448 856.16209442346769 0 856.16209442346769 1215.7413382686634 0 0 0 0 917.576089147944 1089.4922190013733 0 1089.4922190013733 889.02818716354773 0 0 0 0 14.813093571434365 62.699130962805697 0 62.699130962805697 37.683061964135959 0 0 0 0 -31.637420503102476 77.01872778780762 0 77.01872778780762 40.790164367515899 0 0 0 0 -49.719096207804682 33.428571243049134 0 33.428571243049134 4.0437866479784859 0 0 0 0 21.476577415538486 112.590020789351 0 112.590020789351 54.627920920763245 0 0 0 0 -29.226617507607443 66.382610597190705 0 66.382610597190705 75.548191717048212 0 0 0 0 -32.755149912252307 37.407685166760423 0 37.407685166760423 -22.641056993747554 0 0 0 0 3.7472874014638364 52.920261309225452 0 52.920261309225452 13.413736562374652 0 0 0 0 -67.167148505075602 158.06656057593864 0 158.06656057593864 165.54227746590004 0 0 0 0 -36.559656056716051 40.303060810649868 0 40.303060810649868 -26.592906622537079 0 0 0 0 -6.1524154582657502 79.247131709145378 0 79.247131709145378 98.087398953834054 0 0 0 0 -39.668096502413391 50.878084205347704 0 50.878084205347704 38.036633465399063 0 0 0 0 -22.545416423788993 44.508631020405119 0 44.508631020405119 22.195374669503053 0 0 0 0 -1.2425879224028904 52.248699962521528 0 52.248699962521528 31.511475022254672 0 0 0 0 -36.677310019455035 58.696630171679317 0 58.696630171679317 41.107898544158161 0 0 0 0 -27.396020047890488 54.667134136971185 0 54.667134136971185 30.360798469451765 0 0 0 0 -26.958363531302894 52.513044420229562 0 52.513044420229562 40.91136330914378 0 0 0 0 -472.92884417035384 367.19118992479252 0 367.19118992479252 -44.308109679845074 0 0 0 0 -75.306225636566523 53.67292773967165 0 53.67292773967165 39.88576001097681 0 0 0 0 -62.533432532392908 46.729616205219372 0 46.729616205219372 39.916430056511899 0 0 0 0 6.145961858673104 37.267866138747451 0 37.267866138747451 46.301943687514239 0 0 0 0 -231.96815310759121 13.936076782691089 0 13.936076782691089 26.424379354884877 0 0 0 0 -49.513714129810978 94.747806044451409 0 94.747806044451409 31.57534288980969 0 0 0 0 -313.55960088418215 -107.96239991507355 0 -107.96239991507355 30.856823958238238 0 0 0 0 -22.680622139891398 21.075603015626228 0 21.075603015626228 24.629938287003181 0 0 0 0 -2.7904029413071783 49.662787551379182 0 49.662787551379182 116.70948675753891 0 0 0 0 -326.56330711886403 -6.9025643472323281 0 -6.9025643472323281 174.56710230682074 0 0 0 0 -45.907410938350949 118.94032881655221 0 118.94032881655221 160.83946846309482 0 0 0 0 -38.418901682079991 49.341312501901221 0 49.341312501901221 -4.435955129596362 0 0 0 0 -55.283609605845413 61.971466139736549 0 61.971466139736549 133.94952776950413 0 0 0 0 -70.345956077915616 88.320331961487682 0 88.320331961487682 105.71996775988464 0 0 0 0 -371.04129813378677 116.9891742028467 0 116.9891742028467 560.99935787283175 0 0 0 0 -343.04703766622697 115.85326453727612 0 115.85326453727612 -3.0298113007374923 0 0 0 0 -5.6772884147037246 52.474674781713503 0 52.474674781713503 108.36153317132356 0 0 0 0 -321.56436713831499 300.43220295037463 0 300.43220295037463 382.19205579874688 0 0 0 0 -338.23447958682664 350.9832277167834 0 350.9832277167834 301.20749718815205 0 0 0 0 -31.965499116232593 76.314056667616697 0 76.314056667616697 -59.402432646472818 0 0 0 0 -515.32977105765895 309.81297635692135 0 309.81297635692135 730.56628187830938 0 0 0 0 40.0003612980654 474.06530664447928 0 474.06530664447928 250.62455573213856 0 0 0 0 -606.31091873924015 -28.49783659672903 0 -28.49783659672903 703.64291693993937 0 0 0 0 -1.5916958235320635 525.69513817391635 0 525.69513817391635 189.84169381096399 0 0 0 0 -111.70771900028922 615.06524610722408 0 615.06524610722408 180.38871120248905 0 0 0 0 -713.47396220317751 128.61630658698687 0 128.61630658698687 288.90563111255688 0 0 0 0 -162.322019410145 768.54971556616874 0 768.54971556616874 171.92363392410948 0 0 0 0 -444.11065188553766 1109.0154750293514 0 1109.0154750293514 1054.5510733316733 0 0 0 0 78.476108998249401 384.0680740632888 0 384.0680740632888 359.02019872616802 0 0 0 0 -1643.0384554543998 390.90854854020654 0 390.90854854020654 475.40890811366444 0 0 0 0 -30.143314978988883 73.012842201442638 0 73.012842201442638 -70.428451509639459 0 0 0 0 -312.82222236666712 -122.46736890018474 0 -122.46736890018474 212.89676972266716 0 0 0 0 -432.80876568162057 -47.578718955583099 0 -47.578718955583099 181.45564190333971 0 0 0 0 -230.35089352860814 -42.80667458131029 0 -42.80667458131029 29.272678586286929 0 0 0 0 -77.831194726051763 232.12447664908177 0 232.12447664908177 43.248972386849914 0 0 0 0 -101.14013057331613 375.4227949252836 0 375.4227949252836 383.67157398219115 0 0 0 0 62.428104739490664 234.40535312343309 0 234.40535312343309 97.98361376009052 0 0 0 0 -18.885447086344357 171.81749526096974 0 171.81749526096974 122.22203495775466 0 0 0 0 -131.67556947359117 204.4136105376856 0 204.4136105376856 694.56812560062644 0 0 0 0 -8.4665800290279094 74.454458409556139 0 74.454458409556139 -56.40098333169707 0 0 0 0 -151.14657772931969 198.08492306586049 0 198.08492306586049 271.66924874929282 0 0 0 0 -163.47959434102813 219.2654182457336 0 219.2654182457336 236.01212517792192 0 0 0 0 -12.789121125824749 132.28457933846039 0 132.28457933846039 196.17745024745091 0 0 0 0 207.0439513908932 737.51052779325437 0 737.51052779325437 653.00236878815849 0 0 0 0 479.80103553138906 763.54702645064935 0 763.54702645064935 191.65421238733688 0 0 0 0 320.18650067184353 436.93974746352797 0 436.93974746352797 -65.463743139363942 0 0 0 0 119.21193664084421 460.66024753581041 0 460.66024753581041 241.40598794181278 0 0 0 0 722.02904692734592 284.45286190215847 0 284.45286190215847 258.07811075564678 0 0 0 0 209.76599945483031 332.81666971910818 0 332.81666971910818 145.15773432482047 0 0 0 0 616.15809150223504 428.46114393674952 0 428.46114393674952 -178.85188775039569 0 0 0 0 281.99447310484538 400.81815529494907 0 400.81815529494907 -191.16682659336948 0 0 0 0 85.07022201421205 172.30705023042901 0 172.30705023042901 -49.677864449482513 0 0 0 0 -16.481279644634924 343.37481447142818 0 343.37481447142818 -336.46346028929838 0 0 0 0 -158.75545251954463 -65.419767318604499 0 -65.419767318604499 -347.43807671799146 0 0 0 0 31.549458042994956 189.42576606890543 0 189.42576606890543 -221.79269774049317 0 0 0 0 121.95871383667691 142.10515996040704 0 142.10515996040704 -271.5400715486694 0 0 0 0 208.5534213273786 311.00392099594228 0 311.00392099594228 -160.77512206054962 0 0 0 0 135.48224075027974 247.24480189230235 0 247.24480189230235 -206.94453225848702 0 0 0 0 115.29166752391029 313.35633793668967 0 313.35633793668967 -99.57700980683876 0 0 0 0 -907.08549475176551 -732.25800586952028 0 -732.25800586952028 -410.20935888827808 0 0 0 0 -312.15219054938643 726.2111155596449 0 726.2111155596449 -560.53129067792179 0 0 0 0 -11.416217145419068 1.7672564621246067 0 1.7672564621246067 0.9541087713066041 0 0 0 0 -485.34123261853529 911.8262079173237 0 911.8262079173237 -516.97201278716602 0 0 0 0 -278.66378784974222 -157.99504717665877 0 -157.99504717665877 -784.04396303854719 0 0 0 0 -1100.286511933984 -98.33403145027296 0 -98.33403145027296 -197.91925513340539 0 0 0 0 -404.77646461961558 204.07051315082936 0 204.07051315082936 -272.23284729157604 0 0 0 0 -1208.0668079707884 516.98471927074297 0 516.98471927074297 50.066962534237973 0 0 0 0 -386.47830076863465 486.45122014151821 0 486.45122014151821 -546.96767000004547 0 0 0 0 -790.33989770966582 555.66683547806497 0 555.66683547806497 -90.156322381226346 0 0 0 0 -1073.4891535266652 -130.90176980250362 0 -130.90176980250362 1776.6075287918566 0 0 0 0 -589.47336709246156 901.14788174273872 0 901.14788174273872 -1054.0984643919437 0 0 0 0 -8.1455008700277745 4.3682813927567254 0 4.3682813927567254 2.3896710802121532 0 0 0 0 -306.69522189506824 91.030203329999722 0 91.030203329999722 -219.82106114248381 0 0 0 0 -179.84627417214506 155.17831168290286 0 155.17831168290286 -270.89713543905964 0 0 0 0 26.257969668164151 47.195335430224077 0 47.195335430224077 -322.43710356582505 0 0 0 0 -20.687669129203982 30.23506701649648 0 30.23506701649648 23.818019702574283 0 0 0 0 41.775658286976977 135.00018556858231 0 135.00018556858231 -159.61326040446511 0 0 0 0 44.806390962112346 176.68383816939604 0 176.68383816939604 -74.682176609618182 0 0 0 0 -143.57455650858174 170.49168236530204 0 170.49168236530204 285.84106164629884 0 0 0 0 -13.230224571206463 3.3954100017850868 0 3.3954100017850868 0.58259997658204554 0 0 0 0 -88.659112398017896 262.31233379496007 0 262.31233379496007 890.30788572714664 0 0 0 0 30.105598958252813 203.47426669017932 0 203.47426669017932 210.18032631917958 0 0 0 0 35.40720795827292 197.57717931838465 0 197.57717931838465 57.412519056069868 0 0 0 0 59.944188650559227 292.95890196302298 0 292.95890196302298 19.146786773268104 0 0 0 0 33.142268365365453 288.16597246612037 0 288.16597246612037 118.84254187500483 0 0 0 0 100.69531683076639 373.3593628196486 0 373.3593628196486 177.33122327033743 0 0 0 0 114.94193463839474 426.08377698935692 0 426.08377698935692 -37.937764616683125 0 0 0 0 137.08710136380978 315.15104273085308 0 315.15104273085308 -27.639455440015354 0 0 0 0 -67.714220378315076 375.30897463189831 0 375.30897463189831 -64.63191276397265 0 0 0 0 91.481391143635847 416.21259797120001 0 416.21259797120001 -203.95462069225323 0 0 0 0 102.98486225307352 366.95498090130422 0 366.95498090130422 -82.897529777321324 0 0 0 0 -198.46710693472414 415.58175320816736 0 415.58175320816736 -28.657290582924361 0 0 0 0 -562.29992596313241 315.15867468472061 0 315.15867468472061 -5.9775424463223317 0 0 0 0 -168.56874403858092 568.24696411635887 0 568.24696411635887 -366.2629354690871 0 0 0 0 -1380.1854606292036 490.13108245989133 0 490.13108245989133 309.11881926699061 0 0 0 0 -604.83268721972127 432.77619989367304 0 432.77619989367304 -309.36568734387038 0 0 0 0 -60.056368721561739 -159.7118090418553 0 -159.7118090418553 558.90414055716246 0 0 0 0 -870.62858389530447 117.18701503253578 0 117.18701503253578 559.92846895317052 0 0 0 0 60.897259439560003 369.93981619465376 0 369.93981619465376 268.49990083833109 0 0 0 0 -233.86025647833594 404.65349010217324 0 404.65349010217324 270.01877403696199 0 0 0 0 -160.940099841966 9.729401690303348 0 9.729401690303348 130.60360589568154 0 0 0 0 219.17499634505657 172.81445209176309 0 172.81445209176309 77.991340743254113 0 0 0 0 -52.378867631070484 87.019118035320133 0 87.019118035320133 113.07020942682306 0 0 0 0 -42.292594546703185 -0.39143610423343489 0 -0.39143610423343489 105.54538392613176 0 0 0 0 -123.56661535444073 55.724233055247169 0 55.724233055247169 118.20959894474072 0 0 0 0 -62.360338088987191 -45.940343472719178 0 -45.940343472719178 198.52692105679307 0 0 0 0 3.03174674724157 -6.537848794471472 0 -6.537848794471472 -4.616402415258932 0 0 0 0 -91.998542413825049 115.42385529982457 0 115.42385529982457 36.357808599073905 0 0 0 0 -22.800156449644561 20.060536526664762 0 20.060536526664762 24.682439918495632 0 0 0 0 -19.527982589337626 102.65857451615011 0 102.65857451615011 30.690495444854605 0 0 0 0 -92.049778424751352 62.458564371305677 0 62.458564371305677 46.416772459051572 0 0 0 0 -81.136029105786292 69.882965198674356 0 69.882965198674356 50.024754348742135 0 0 0 0 -1.7155742836437398 48.860283606572921 0 48.860283606572921 -8.730673800711088 0 0 0 0 127.18667105586064 145.84566823617206 0 145.84566823617206 3.5588547736624605 0 0 0 0 96.254249816818628 156.16735850414989 0 156.16735850414989 137.05246045465901 0 0 0 0 113.54849159235289 97.427367023382232 0 97.427367023382232 50.231039293923274 0 0 0 0 66.844939656481898 140.35635480786306 0 140.35635480786306 77.177626494064342 0 0 0 0 -46.234397735825041 178.7951512236159 0 178.7951512236159 50.06736304378137 0 0 0 0 96.475333380124681 121.6429960126508 0 121.6429960126508 65.369582565181489 0 0 0 0 71.077871227062133 96.266513862698048 0 96.266513862698048 73.023435869901732 0 0 0 0 66.161723665689351 192.0503638611699 0 192.0503638611699 52.718364293177729 0 0 0 0 109.32078858051318 109.54135777559713 0 109.54135777559713 144.39630415075226 0 0 0 0 66.158828229701612 189.2223433502877 0 189.2223433502877 -25.658812766516348 0 0 0 0 75.757666670036997 228.72303478447247 0 228.72303478447247 136.18499506047374 0 0 0 0 -4.4538667253218591 196.18070416079718 0 196.18070416079718 117.80268091998732 0 0 0 0 54.013056878642288 119.92683205409645 0 119.92683205409645 81.478859845675402 0 0 0 0 14.53723834680568 191.29998149793755 0 191.29998149793755 -69.354134287175839 0 0 0 0 35.50675786846881 127.73667330595055 0 127.73667330595055 92.448069892117772 0 0 0 0 68.417445437418792 256.88362490375221 0 256.88362490375221 66.181296942573681 0 0 0 0 -61.668627266308192 91.387776335604912 0 91.387776335604912 97.39755135686832 0 0 0 0 -238.75029574883229 309.26948979511872 0 309.26948979511872 358.73242727443721 0 0 0 0 420.75025442498736 -566.29249848268228 0 -566.29249848268228 -275.75745549413841 0 0 0 0 -26.500508349418624 59.762551659213429 0 59.762551659213429 35.236333336700767 0 0 0 0 200.40618148630165 80.206630775161102 0 80.206630775161102 54.963161843486887 0 0 0 0 -180.0176342996856 173.86630986635646 0 173.86630986635646 1770.202064246434 0 0 0 0 -67.257760195815351 -7.0325436660520353 0 -7.0325436660520353 26.32243924325482 0 0 0 0 -152.17837779959518 75.514645512550487 0 75.514645512550487 108.41972654801793 0 0 0 0 -181.91044763235914 73.009389148995979 0 73.009389148995979 123.42795551820564 0 0 0 0 -180.43965283837133 77.305923774727489 0 77.305923774727489 134.63011799080414 0 0 0 0 -123.37850986387639 55.210555438505253 0 55.210555438505253 74.864382008236134 0 0 0 0 -126.27959663886213 40.861578126350651 0 40.861578126350651 145.13351374617923 0 0 0 0 -105.51604231422061 9.3116322600926651 0 9.3116322600926651 182.55281952943187 0 0 0 0 -98.248936572730599 24.067052659120236 0 24.067052659120236 132.75917386391666 0 0 0 0 -104.12372647035227 54.360133620837587 0 54.360133620837587 117.19654457662182 0 0 0 0 -150.91447609055467 53.968496919813333 0 53.968496919813333 145.03364056033752 0 0 0 0 -123.44811143142448 -2.0463716608656171 0 -2.0463716608656171 67.173442262666811 0 0 0 0 -1326.1442131435451 -1063.012199711422 0 -1063.012199711422 -35.598463684436865 0 0 0 0 -23.436012126136081 -6.003828365698709 0 -6.003828365698709 -4.7582874806062705 0 0 0 0 -93.58518990668199 -108.693058602581 0 -108.693058602581 54.332513993984321 0 0 0 0 -850.42312470704201 -5.20116359856911 0 -5.20116359856911 391.51649916934548 0 0 0 0 -449.00376732190853 -329.58230180198734 0 -329.58230180198734 -82.939463438451639 0 0 0 0 -192.9229603330441 66.095553543022106 0 66.095553543022106 129.07216400600737 0 0 0 0 -216.43511638107884 104.55240087960556 0 104.55240087960556 111.10297246323171 0 0 0 0 -143.13746241657952 10.672457297475944 0 10.672457297475944 89.514002713025704 0 0 0 0 -401.72523219992945 154.50843025899667 0 154.50843025899667 190.11927389526682 0 0 0 0 -390.26679527301849 330.97482938360918 0 330.97482938360918 15.854892263538204 0 0 0 0 28.813725246678949 97.281476318207666 0 97.281476318207666 169.06350179199623 0 0 0 0 -947.03001697240688 123.30047694672248 0 123.30047694672248 233.06728985162772 0 0 0 0 -870.35034149676721 -65.404155865304347 0 -65.404155865304347 575.15211615038424 0 0 0 0 -971.17594141722111 -339.35731349167872 0 -339.35731349167872 266.12734704007744 0 0 0 0 -336.13644662759907 423.13116781438475 0 423.13116781438475 102.98726867406003 0 0 0 0 -25.73752231115941 356.79511783333146 0 356.79511783333146 6.4935747546478524 0 0 0 0 158.87084845744539 405.74659100682038 0 405.74659100682038 -44.840033297725313 0 0 0 0 56.494057252632047 345.44034618008754 0 345.44034618008754 -78.741199834723375 0 0 0 0 -69.631617812730838 258.40641550016517 0 258.40641550016517 -22.639746055623618 0 0 0 0 -105.21234724206079 185.44518247835367 0 185.44518247835367 53.320884213353565 0 0 0 0 26.066465127849369 194.6755534041331 0 194.6755534041331 -16.872910183141357 0 0 0 0 -20.101823434622844 102.78519831932454 0 102.78519831932454 10.089378898012313 0 0 0 0 -21.725979289561757 126.02578432991919 0 126.02578432991919 81.832934821870722 0 0 0 0 -70.782714239952313 58.573052689907158 0 58.573052689907158 92.566056663426451 0 0 0 0 -21.947176146917393 112.93620455425685 0 112.93620455425685 49.886888483473243 0 0 0 0 -443.84677120794731 331.79158013500273 0 331.79158013500273 40.044346013106406 0 0 0 0 102.92959365578851 189.59472471500555 0 189.59472471500555 24.434115415454812 0 0 0 0 -174.72363227786627 206.87845361550717 0 206.87845361550717 -21.977520013515459 0 0 0 0 -161.7318090396584 442.89036762796604 0 442.89036762796604 43.601171906986565 0 0 0 0 -263.64280383451842 363.92302736921192 0 363.92302736921192 56.060777427685935 0 0 0 0 -50.199524685723247 88.030505276124941 0 88.030505276124941 55.154343753501436 0 0 0 0 -722.78758662333712 521.1680509957514 0 521.1680509957514 297.10564105078811 0 0 0 0 -12.244976791575212 23.525671046252512 0 23.525671046252512 8.5891267006314109 0 0 0 0 27.166277399170212 508.82580902448535 0 508.82580902448535 82.154579131965875 0 0 0 0 -158.78853775656899 454.33159015883393 0 454.33159015883393 78.349764376413077 0 0 0 0 102.45639443345135 374.0762053496037 0 374.0762053496037 1.7674809492455097 0 0 0 0 -49.90354283354138 71.590959932240423 0 71.590959932240423 147.058818200997 0 0 0 0 27.267782168990095 29.376169775698969 0 29.376169775698969 3.7132920261046536 0 0 0 0 -393.75773346169444 59.414047853169905 0 59.414047853169905 128.2693337602841 0 0 0 0 -318.2334013328109 113.10748478470941 0 113.10748478470941 -268.88647181201304 0 0 0 0 367.105180811217 150.88258625245771 0 150.88258625245771 45.490953063239431 0 0 0 0 45.236166477534496 192.67532063868742 0 192.67532063868742 43.285067793051368 0 0 0 0 -457.26021150436293 331.76160844153947 0 331.76160844153947 32.892767880392057 0 0 0 0 371.04839801082562 103.73771319761636 0 103.73771319761636 51.052589212442399 0 0 0 0 88.045916499278235 196.16306811370848 0 196.16306811370848 68.229200398917953 0 0 0 0 -16.216082796499862 14.447424756497725 0 14.447424756497725 7.3837601579202428 0 0 0 0 -899.66166194695688 -322.74019302219153 0 -322.74019302219153 475.17562606646607 0 0 0 0 50.889628836864034 85.475595133523967 0 85.475595133523967 136.2858918073477 0 0 0 0 -1217.3138839741441 997.61779341717556 0 997.61779341717556 381.10879572782687 0 0 0 0 -807.64743532161447 361.89542518305552 0 361.89542518305552 67.176738357375143 0 0 0 0 -433.53303597499416 350.25200597591356 0 350.25200597591356 -5.5351011200637004 0 0 0 0 -455.12880074200939 258.10545958134435 0 258.10545958134435 -55.14377026620059 0 0 0 0 536.09720734631992 681.83371260157583 0 681.83371260157583 -438.75661522954033 0 0 0 0 -846.46478280057363 433.53124828883301 0 433.53124828883301 318.51895618424169 0 0 0 0 405.46519416151818 1276.411623232405 0 1276.411623232405 1381.1933494798432 0 0 0 0 157.02881317528409 699.62680283823283 0 699.62680283823283 324.05821850147913 0 0 0 0 -810.53586852062335 337.63123867996092 0 337.63123867996092 1214.4874996189901 0 0 0 0 2218.9159905560068 2221.624693550184 0 2221.624693550184 1970.4797725337703 0 0 0 0 1127.9798360745144 838.61439148875797 0 838.61439148875797 249.49328854405758 0 0 0 0 1425.4874412719705 1171.5921054963692 0 1171.5921054963692 35.573117714528053 0 0 0 0 536.68689256918856 699.05897145645758 0 699.05897145645758 -185.8444456520665 0 0 0 0 1824.3806076236051 393.12606486164441 0 393.12606486164441 -561.1361668851896 0 0 0 0 1282.8185206980247 463.23187994914042 0 463.23187994914042 -628.67033158628874 0 0 0 0 1167.3700747275925 384.28208240292588 0 384.28208240292588 -560.86245252484514 0 0 0 0 1280.586524569102 239.4973370887601 0 239.4973370887601 -616.87584822412464 0 0 0 0 714.98897033827632 128.83212858889146 0 128.83212858889146 -394.30577916913899 0 0 0 0 78.329055679907469 101.19758923008339 0 101.19758923008339 -273.7198350052131 0 0 0 0 730.57711853195769 -64.836870191405069 0 -64.836870191405069 -321.89333129503939 0 0 0 0 -99.423922665439022 33.788731737127819 0 33.788731737127819 60.642331329028821 0 0 0 0 43.365117203751034 34.11036829685937 0 34.11036829685937 18.778476265978043 0 0 0 0 30.340915350941508 -2.5881061332979698 0 -2.5881061332979698 4.0186363215392618 0 0 0 0 91.914424864182365 337.98225382695091 0 337.98225382695091 -73.096678500409325 0 0 0 0 278.94017966911633 -370.25351527331077 0 -370.25351527331077 445.23081042108242 0 0 0 0 2034.9860292039102 -1012.5640526098796 0 -1012.5640526098796 145.25235893750505 0 0 0 0 1497.4826177395898 298.73632686746714 0 298.73632686746714 -240.57943249456002 0 0 0 0 1663.9670118449903 -139.97909498464287 0 -139.97909498464287 -403.76007574016694 0 0 0 0 3818.9738188839656 634.6640076161857 0 634.6640076161857 -368.9452863151273 0 0 0 0 28.929088929678976 2.342878055223764 0 2.342878055223764 4.4179411914724014 0 0 0 0 937.46809293790784 1805.2456188384458 0 1805.2456188384458 3667.6609714211518 0 0 0 0 14.704651675823815 0.99291992526731576 0 0.99291992526731576 -4.0152678325142119 0 0 0 0 1807.4122118495534 1502.6003308615764 0 1502.6003308615764 1143.611972392333 0 0 0 0 2420.8978492186266 2477.475108803359 0 2477.475108803359 2656.5943888652982 0 0 0 0 424.5285873262992 266.91882723740855 0 266.91882723740855 69.465862200158881 0 0 0 0 -471.88354749749533 -79.063954514007492 0 -79.063954514007492 2214.7437758015149 0 0 0 0 911.94733883850677 1786.1008579248446 0 1786.1008579248446 1949.010748430861 0 0 0 0 634.87002803055361 700.48387483530314 0 700.48387483530314 460.89689466325217 0 0 0 0 1211.0791115679649 1423.3860469764477 0 1423.3860469764477 818.18353061973175 0 0 0 0 345.00382615585841 1270.7685424185547 0 1270.7685424185547 1486.9214459611394 0 0 0 0 1007.579491123357 1372.8492541909945 0 1372.8492541909945 809.9824549294608 0 0 0 0 995.76373769293969 1165.2991815741698 0 1165.2991815741698 603.85542624992377 0 0 0 0 1152.762359835232 1379.2837829529162 0 1379.2837829529162 1122.6664997434345 0 0 0 0 1655.9118530733695 1402.5236248324873 0 1402.5236248324873 725.9483146625571 0 0 0 0 1615.7328632478989 489.61210314980417 0 489.61210314980417 255.6959688544739 0 0 0 0 1464.0687190181598 671.73246283838671 0 671.73246283838671 60.013818151084706 0 0 0 0 1163.3612582909316 722.48469053104782 0 722.48469053104782 1022.9454292324226 0 0 0 0 -197.5358197024479 -246.11824928244232 0 -246.11824928244232 1595.5725413798355 0 0 0 0 1553.7697482996768 199.29481119493721 0 199.29481119493721 239.06066127456688 0 0 0 0 39.101735857872882 -284.07376838884375 0 -284.07376838884375 150.29429361154689 0 0 0 0 -868.45576194652494 -303.28505400926224 0 -303.28505400926224 294.53106414042122 0 0 0 0 -173.21025727411779 -505.79244480722264 0 -505.79244480722264 77.418467673269333 0 0 0 0 -836.27253830164409 -280.40388219816668 0 -280.40388219816668 1277.8750603543886 0 0 0 0 -160.28812524441037 276.02805387870467 0 276.02805387870467 819.94889834316564 0 0 0 0 -77.578647406600339 27.124292541844625 0 27.124292541844625 1549.9871686289844 0 0 0 0 1270.4727419325586 -343.98145126186137 0 -343.98145126186137 3550.6886119438568 0 0 0 0 3925.4286364806885 500.93267583893612 0 500.93267583893612 815.86429620863055 0 0 0 0 786.52772505669498 718.70172320364509 0 718.70172320364509 1245.3773337246967 0 0 0 0 -300.11547683184108 -408.5863183120091 0 -408.5863183120091 -80.713559816758789 0 0 0 0 -14.245082271684741 41.162137653647349 0 41.162137653647349 -13.854645596053956 0 0 0 0 192.81767417800802 247.16265828951146 0 247.16265828951146 121.54445436946116 0 0 0 0 -551.15230027458529 334.16618075304723 0 334.16618075304723 593.65967778614868 0 0 0 0 78.46063072182443 260.26141536244359 0 260.26141536244359 249.33320140474825 0 0 0 0 896.90218453439229 123.82867034669471 0 123.82867034669471 -601.3061987599649 0 0 0 0 350.5316980576099 904.26840170500509 0 904.26840170500509 347.89398022231035 0 0 0 0 -18.590178813716896 14.590389807076988 0 14.590389807076988 20.823039310949525 0 0 0 0 -287.98092581909805 -869.06477502537018 0 -869.06477502537018 1226.2844241770799 0 0 0 0 -18.607231769866019 7.0007585981861382 0 7.0007585981861382 -20.216401931865022 0 0 0 0 442.43689528232971 661.24408220688929 0 661.24408220688929 580.53853015124332 0 0 0 0 2076.8452888159445 -346.04712313857453 0 -346.04712313857453 488.71329030042398 0 0 0 0 466.14777045768642 639.605860231939 0 639.605860231939 -326.09559218070353 0 0 0 0 -936.02540564330411 589.31671587121673 0 589.31671587121673 809.87339564098511 0 0 0 0 -2898.2955271556712 -650.56523776531685 0 -650.56523776531685 2828.708995644367 0 0 0 0 223.1446070500424 -228.56012447651301 0 -228.56012447651301 577.90584965026937 0 0 0 0 -150.62405188980847 -5.4943148012025631 0 -5.4943148012025631 92.189586128515657 0 0 0 0 131.95594488949428 189.75801654963288 0 189.75801654963288 152.63391090208461 0 0 0 0 233.84382236106467 -12.500723565011867 0 -12.500723565011867 435.55181023107434 0 0 0 0 -75.291260612144413 63.832661859977634 0 63.832661859977634 105.78639448834036 0 0 0 0 -71.567973432274584 322.72351888156118 0 322.72351888156118 97.398367549234536 0 0 0 0 -923.94626326523212 541.13269171905995 0 541.13269171905995 480.42278021981474 0 0 0 0 -95.958799229832948 -93.524374587286729 0 -93.524374587286729 827.68760977208149 0 0 0 0 -113.16313244997582 -68.071774050607928 0 -68.071774050607928 79.070499759691302 0 0 0 0 -233.8146997216827 -9.2652913370984606 0 -9.2652913370984606 120.48813773872098 0 0 0 0 -232.71577511791838 -58.521011469871155 0 -58.521011469871155 93.053119744319702 0 0 0 0 -455.11111053722561 25.940479746757774 0 25.940479746757774 117.11497746613531 0 0 0 0 118.02921845998662 244.13176389565342 0 244.13176389565342 405.00016131938901 0 0 0 0 -11.023229779710878 27.505920956241653 0 27.505920956241653 33.521075110400091 0 0 0 0 -21.481277355574115 123.94354058335391 0 123.94354058335391 151.63700585075378 0 0 0 0 89.21816313466843 54.311585695686517 0 54.311585695686517 -96.780073311900196 0 0 0 0 579.96577768202405 347.33875866341987 0 347.33875866341987 -113.82726072598598 0 0 0 0 73.962923013454315 45.30408578249299 0 45.30408578249299 43.542613882608322 0 0 0 0 11.029947632632144 6.7198026532370108 0 6.7198026532370108 0.17621741005677904 0 0 0 0 1947.732491137358 1668.2933058773488 0 1668.2933058773488 273.88896341377404 0 0 0 0 2186.6427105455223 1321.9681720070075 0 1321.9681720070075 475.0193796994572 0 0 0 0 -3234.5550166379398 -2339.4689008274581 0 -2339.4689008274581 -213.19370259996504 0 0 0 0 -151.20076493057422 1944.3369455597713 0 1944.3369455597713 1809.6005539662001 0 0 0 0 -1299.1490663656514 728.47039520076942 0 728.47039520076942 1460.3930735185859 0 0 0 0 -46.736527890127036 61.152197762858123 0 61.152197762858123 60.387748166453093 0 0 0 0 -163.56579673041415 17.717378732781071 0 17.717378732781071 85.463977624720428 0 0 0 0 2125.1588748818103 272.93664196023019 0 272.93664196023019 -238.8404770034831 0 0 0 0 -21.418907067678141 14.655986889158882 0 14.655986889158882 21.973734422167979 0 0 0 0 1646.6236827332468 -209.77801052230643 0 -209.77801052230643 9.5875588459894061 0 0 0 0 1325.0479021948413 -285.5869778287597 0 -285.5869778287597 536.83628133998718 0 0 0 0 1378.9157210251433 -311.88267205323791 0 -311.88267205323791 292.64744612073991 0 0 0 0 1241.9383160813486 -219.18989116949888 0 -219.18989116949888 691.62436456629075 0 0 0 0 799.65403438641806 -339.8333057675045 0 -339.8333057675045 176.02709954825696 0 0 0 0 1128.396875820792 54.324203284253599 0 54.324203284253599 159.35924160003196 0 0 0 0 1249.0517605669447 -93.74518503784202 0 -93.74518503784202 332.04817518178879 0 0 0 0 1458.0220627105446 -228.50390536352643 0 -228.50390536352643 164.04101502605317 0 0 0 0 771.31346502494125 98.651262442057487 0 98.651262442057487 99.335466823569732 0 0 0 0 752.77218512868421 87.479654115129961 0 87.479654115129961 217.67169507057406 0 0 0 0 778.82705599290057 423.71513214317383 0 423.71513214317383 295.34972582315095 0 0 0 0 1124.9955202173733 95.918428565259092 0 95.918428565259092 94.775331239950901 0 0 0 0 1838.4179705739371 336.20102067757398 0 336.20102067757398 -101.74737610091688 0 0 0 0 254.25111236747762 244.90956059578457 0 244.90956059578457 290.66494555521058 0 0 0 0 768.04733259047498 590.65154923629598 0 590.65154923629598 154.84663955608266 0 0 0 0 1029.9202865976913 744.14776845223969 0 744.14776845223969 240.32349196786527 0 0 0 0 266.83168979556649 163.92196245308151 0 163.92196245308151 240.30885674007004 0 0 0 0 -511.7447536781292 450.61005040596501 0 450.61005040596501 295.16636139989714 0 0 0 0 38.339580443653801 39.592212825113627 0 39.592212825113627 23.823101757281592 0 0 0 0 -8.4222633008903358 245.34958349101362 0 245.34958349101362 354.10737213472021 0 0 0 0 290.4430167695682 65.455315200684709 0 65.455315200684709 275.27797864592867 0 0 0 0 117.14164785062167 168.86852400480711 0 168.86852400480711 330.37182766021579 0 0 0 0 -182.63646312773199 -228.78089361259481 0 -228.78089361259481 -1.9195926562388195 0 0 0 0 -27.384076305141207 154.18396797931928 0 154.18396797931928 -79.194560189353069 0 0 0 0 -62.49818955619412 -197.04105868696934 0 -197.04105868696934 -110.71470686784596 0 0 0 0 144.86704460583678 65.027495961418026 0 65.027495961418026 -112.0326299739354 0 0 0 0 66.177040388362812 -3.545213089492762 0 -3.545213089492762 1.520759262424292 0 0 0 0 -14.034626854591806 -185.44165589739532 0 -185.44165589739532 -147.76830470317509 0 0 0 0 573.32243684536661 32.897828847337223 0 32.897828847337223 -888.62625133484835 0 0 0 0 -822.38188570999409 -649.12298399605061 0 -649.12298399605061 -30.306650162674487 0 0 0 0 -187.59908157365135 -28.906589768899721 0 -28.906589768899721 546.32530314929318 0 0 0 0 300.39044732957882 -62.539015136353555 0 -62.539015136353555 -12.055735677073244 0 0 0 0 -45.817679063745345 200.22462023356638 0 200.22462023356638 775.05503945067176 0 0 0 0 945.1998992344852 1026.325972213046 0 1026.325972213046 775.91907900216756 0 0 0 0 640.18185223050205 -63.933173016424917 0 -63.933173016424917 11.685390373953851 0 0 0 0 9.9814653628105816 -14.417403425817611 0 -14.417403425817611 67.540002397450735 0 0 0 0 7.9301508063625352 10.558755077290769 0 10.558755077290769 43.123697462676375 0 0 0 0 110.48822462967109 254.6730165664776 0 254.6730165664776 192.40395814545627 0 0 0 0 4.7612230491131484 -5.6321120626646035 0 -5.6321120626646035 56.523132376189722 0 0 0 0 -34.160748194622101 -91.945683332945919 0 -91.945683332945919 181.87984625990794 0 0 0 0 25.679601542959624 5.8355496842659136 0 5.8355496842659136 54.538008472649608 0 0 0 0 50.394363283628991 -176.67810224761706 0 -176.67810224761706 262.46988913915993 0 0 0 0 32.514742411267434 31.097533538624702 0 31.097533538624702 61.384420096717804 0 0 0 0 26.376047206986659 36.569710011429706 0 36.569710011429706 75.831710276880358 0 0 0 0 -21.19131312573154 60.384790286465432 0 60.384790286465432 78.238246741166222 0 0 0 0 -13.536123381867128 148.37130279933626 0 148.37130279933626 202.04562387551414 0 0 0 0 -154.48890433851676 73.559975641135679 0 73.559975641135679 82.348557619174244 0 0 0 0 -195.39200456974527 46.798399509731098 0 46.798399509731098 91.3568414375477 0 0 0 0 -288.51978565582613 360.74621049054258 0 360.74621049054258 -34.624426917333039 0 0 0 0 178.02395511759005 167.79625673175178 0 167.79625673175178 43.444882249343209 0 0 0 0 137.67480545652688 594.80132902083278 0 594.80132902083278 -28.78487490549378 0 0 0 0 -26.334369450367319 133.32185478917791 0 133.32185478917791 301.58031106638373 0 0 0 0 -600.85998358711004 15.320985815802032 0 15.320985815802032 60.346012466296088 0 0 0 0 -584.00041612308883 288.96927755240904 0 288.96927755240904 284.99183130299934 0 0 0 0 -355.99315700026 382.23966660025326 0 382.23966660025326 119.00751624631812 0 0 0 0 -0.27939203091157694 -6.8269593465746539 0 -6.8269593465746539 34.528507184061539 0 0 0 0 -783.81014525674846 -30.17370048606972 0 -30.17370048606972 88.165515073938423 0 0 0 0 367.46027532966241 677.04047492296377 0 677.04047492296377 1178.6904450465809 0 0 0 0 841.00455115989575 1021.2487332672026 0 1021.2487332672026 861.71708333250353 0 0 0 0 404.5648905249227 902.28061326424358 0 902.28061326424358 848.10009816010279 0 0 0 0 611.68640947360564 1561.2767490315291 0 1561.2767490315291 1864.2379744611681 0 0 0 0 386.68017774396731 65.601768275140785 0 65.601768275140785 -54.976433914504014 0 0 0 0 -193.1640959779138 97.915650528389961 0 97.915650528389961 2080.7965179146704 0 0 0 0 692.32965138205964 794.46728013217216 0 794.46728013217216 2178.2890978728028 0 0 0 0 2548.9863835388414 816.84185259031074 0 816.84185259031074 50.298217985412066 0 0 0 0 8.2660358887846179 8.8684417355505332 0 8.8684417355505332 9.4976249977730163 0 0 0 0 1614.3462742531924 1845.2714764850425 0 1845.2714764850425 1314.0737634786055 0 0 0 0 1919.8974749874437 1383.1021203176206 0 1383.1021203176206 747.51770228875102 0 0 0 0 1596.2487478889973 85.576882889360604 0 85.576882889360604 675.79208632497466 0 0 0 0 576.95590546908807 290.0646694510142 0 290.0646694510142 637.02365183878283 0 0 0 0 575.32651596578376 427.12507361646385 0 427.12507361646385 -103.88927846212755 0 0 0 0 1115.1305208976873 362.00942756141012 0 362.00942756141012 -118.71007950768399 0 0 0 0 466.13743500308738 771.87853750667273 0 771.87853750667273 -1531.3217728478339 0 0 0 0 224.36939380303875 -149.47613660359639 0 -149.47613660359639 -711.39961816442519 0 0 0 0 380.94174306321827 831.36849923206319 0 831.36849923206319 -761.61933322617551 0 0 0 0 437.53598899343842 898.66456985260447 0 898.66456985260447 650.16958601079023 0 0 0 0 734.52291138715452 1198.7324607528208 0 1198.7324607528208 569.57416431375896 0 0 0 0 293.9717190906324 270.92447934707889 0 270.92447934707889 194.69347674322125 0 0 0 0 2078.2034712346644 1865.075788838054 0 1865.075788838054 699.88866191814304 0 0 0 0 280.30372080284133 1406.4044548939114 0 1406.4044548939114 1139.3968587302661 0 0 0 0 518.87057736940642 198.79357764223096 0 198.79357764223096 -533.77878601104021 0 0 0 0 179.4540606881942 1214.6147731103119 0 1214.6147731103119 -404.93048690345313 0 0 0 0 1.4881489719304408 -2.4576038488724237 0 -2.4576038488724237 11.288257028018961 0 0 0 0 -1559.4203633507968 -119.50905590127513 0 -119.50905590127513 331.6511134061293 0 0 0 0 283.30815071089467 -275.79546596026194 0 -275.79546596026194 -293.42241797088354 0 0 0 0 -465.30852577946644 -447.76243212461122 0 -447.76243212461122 -9.0987755417445442 0 0 0 0 -523.36418556194781 -269.9068293072778 0 -269.9068293072778 166.96468581250519 0 0 0 0 -111.83390522189256 39.38817384468166 0 39.38817384468166 148.70080515660811 0 0 0 0 -1011.3396401389209 -413.10148319616565 0 -413.10148319616565 125.00262996985111 0 0 0 0 -61.762275288208258 29.55909171886826 0 29.55909171886826 90.842228860128444 0 0 0 0 -460.90367637531881 235.34051679110416 0 235.34051679110416 6.8670132425031625 0 0 0 0 -943.7928459970326 -1241.9735293774429 0 -1241.9735293774429 -940.0747545586637 0 0 0 0 -3.1056967902353634 10.10094670575748 0 10.10094670575748 12.44138774719903 0 0 0 0 305.19712698936405 282.04695290020027 0 282.04695290020027 -649.81528032163624 0 0 0 0 -899.2612252758031 45.819093887400413 0 45.819093887400413 166.37610054668039 0 0 0 0 -296.18041908967172 -764.41126377251931 0 -764.41126377251931 -675.39272131005418 0 0 0 0 375.38899466016835 27.813346338800329 0 27.813346338800329 -83.646902637410676 0 0 0 0 1160.8871616915992 757.26058061159711 0 757.26058061159711 234.73659799800953 0 0 0 0 520.07088385686234 19.141643718568957 0 19.141643718568957 -2.8758394320611842 0 0 0 0 1004.3441526793413 821.44105910301005 0 821.44105910301005 242.62695920310216 0 0 0 0 641.02747767892606 502.29754995487747 0 502.29754995487747 802.84687124038282 0 0 0 0 968.7657772858422 1387.9453501689486 0 1387.9453501689486 902.11240058881231 0 0 0 0 993.43681147045925 1333.5440527936919 0 1333.5440527936919 894.17402393009979 0 0 0 0 953.32951002130085 1348.5484214675671 0 1348.5484214675671 981.9671727728819 0 0 0 0 85.36142151801414 -61.075316108246625 0 -61.075316108246625 445.50879504323711 0 0 0 0 732.67736383781198 597.47376756554877 0 597.47376756554877 391.28695427035564 0 0 0 0 245.94267529717678 60.358354346302804 0 60.358354346302804 161.39314993104199 0 0 0 0 44.871032860359946 -314.33320809181896 0 -314.33320809181896 16.871330683457927 0 0 0 0 246.77177905803796 -264.09436058352003 0 -264.09436058352003 -259.96212861212553 0 0 0 0 9.8381354753177845 -48.625389000430005 0 -48.625389000430005 -358.41557807047502 0 0 0 0 478.3465644603358 -191.53862539363763 0 -191.53862539363763 -402.58618260790536 0 0 0 0 711.36338926822236 354.82492531263051 0 354.82492531263051 -141.84772143424198 0 0 0 0 57.002864979362812 106.40189196150459 0 106.40189196150459 -613.26087264335365 0 0 0 0 51.865716788659029 116.46075452369405 0 116.46075452369405 -75.838114052327001 0 0 0 0 4.4381824906106173 -1.895279168823663 0 -1.895279168823663 -7.9636863987863649 0 0 0 0 -116.18554741199665 112.55822096831798 0 112.55822096831798 7.0220192426349968 0 0 0 0 -33.126682737565574 1.6403864834096566 0 1.6403864834096566 13.16846088758831 0 0 0 0 -46.511200163189187 40.603081931383343 0 40.603081931383343 89.074746413043215 0 0 0 0 -195.61710179021657 -101.91906541739445 0 -101.91906541739445 4.1499710349962697 0 0 0 0 7.97625604941868 -69.848413367857574 0 -69.848413367857574 -63.389447654903051 0 0 0 0 -356.52086932928523 -169.39570297622413 0 -169.39570297622413 -82.845783221695456 0 0 0 0 52.377674481084682 -329.41732550961024 0 -329.41732550961024 -41.876752440613927 0 0 0 0 -40.373897397953016 41.586209856591154 0 41.586209856591154 91.226913795318524 0 0 0 0 -439.95731699297357 -233.10339677560114 0 -233.10339677560114 112.05099074361351 0 0 0 0 -35.6623478751535 271.71544285341224 0 271.71544285341224 -104.63057193133864 0 0 0 0 -73.266832647350384 -18.495532094551891 0 -18.495532094551891 157.20144825395982 0 0 0 0 -302.53286816220498 24.004793531130417 0 24.004793531130417 302.73684629301715 0 0 0 0 -212.61753975668398 270.84194521604513 0 270.84194521604513 -181.7555320536776 0 0 0 0 -91.981153513994286 50.602470398669539 0 50.602470398669539 96.3552236136602 0 0 0 0 98.228966285747447 18.653715998178086 0 18.653715998178086 51.01803789310361 0 0 0 0 -53.191115819361585 -0.12490924693520356 0 -0.12490924693520356 96.778083465556847 0 0 0 0 -42.544148642709771 10.797066433896305 0 10.797066433896305 40.140825367843519 0 0 0 0 -34.287760031079415 -89.275438348984608 0 -89.275438348984608 127.44852990604704 0 0 0 0 -29.891934907202085 -61.383807826678094 0 -61.383807826678094 121.65881446408457 0 0 0 0 -168.40731465730642 38.346920137140842 0 38.346920137140842 81.034637715885765 0 0 0 0 -114.67211163041429 75.019506915363309 0 75.019506915363309 86.707754680086509 0 0 0 0 -28.076728144568364 53.04396988863833 0 53.04396988863833 52.503206633933587 0 0 0 0 -42.448630008188736 54.591446272902459 0 54.591446272902459 39.82926528393233 0 0 0 0 -136.39974261304451 0.72352183290058747 0 0.72352183290058747 80.402104909336913 0 0 0 0 -32.486417898263653 101.72096989379133 0 101.72096989379133 15.191345271363389 0 0 0 0 -104.00815568515077 48.594089895959769 0 48.594089895959769 42.345107531989925 0 0 0 0 -408.61774357181184 151.79316819940141 0 151.79316819940141 89.509725306772452 0 0 0 0 -190.51658035614514 30.539920719937072 0 30.539920719937072 103.92716253823892 0 0 0 0 -344.54979390606422 535.96385308918798 0 535.96385308918798 280.61385195629555 0 0 0 0 477.74230868096583 604.97985613918718 0 604.97985613918718 -109.29506996467535 0 0 0 0 -915.9632613787162 757.04840681681526 0 757.04840681681526 62.366812465697876 0 0 0 0 319.05244288813765 288.54902901033347 0 288.54902901033347 -124.5675158531667 0 0 0 0 -82.760778792336396 -18.301165722834412 0 -18.301165722834412 105.79012541509655 0 0 0 0 -842.67788386846519 148.38464037035737 0 148.38464037035737 -21.650404571511899 0 0 0 0 -17.838599874233363 4.1138531230891431 0 4.1138531230891431 4.7976290407872284 0 0 0 0 4.4770459861774263 15.884197959696067 0 15.884197959696067 -19.964417692351617 0 0 0 0 -2000.9525581164335 454.37473955922178 0 454.37473955922178 -88.652580319587287 0 0 0 0 -372.44650724789471 395.96657711021544 0 395.96657711021544 -390.51276687184873 0 0 0 0 -1269.4493911494415 1476.1293891439454 0 1476.1293891439454 -1552.022849944784 0 0 0 0 202.38457364088572 516.80631320270186 0 516.80631320270186 -2005.3958179028705 0 0 0 0 -734.23876543460938 1760.8788879912317 0 1760.8788879912317 -1666.0864179434138 0 0 0 0 -25.637766016526257 266.13901659348994 0 266.13901659348994 431.47600724891527 0 0 0 0 45.566608209395106 51.161034295385591 0 51.161034295385591 60.152629355737588 0 0 0 0 -868.00950618116872 -907.37651116591974 0 -907.37651116591974 -454.49384386067686 0 0 0 0 -63.559764002740849 821.72893524610845 0 821.72893524610845 -159.13556112652122 0 0 0 0 -397.24031685730915 66.383202562530641 0 66.383202562530641 294.35649703239324 0 0 0 0 -30.802927195498341 360.27910386975418 0 360.27910386975418 984.64741669935756 0 0 0 0 -129.81093376434001 19.279107065391145 0 19.279107065391145 -154.60867557424621 0 0 0 0 35.739860983793434 67.477755196698823 0 67.477755196698823 72.086753051823706 0 0 0 0 -339.12348951455351 255.38215098257933 0 255.38215098257933 51.885711487646404 0 0 0 0 3.4549479697053371 1.9882053199411445 0 1.9882053199411445 -13.224602441687637 0 0 0 0 335.07306247542328 213.58447249391611 0 213.58447249391611 84.933547983149765 0 0 0 0 144.8553455942706 474.06602258289786 0 474.06602258289786 -1325.9887021418981 0 0 0 0 21.594041707986644 26.951542681062705 0 26.951542681062705 -5.0938475568431372 0 0 0 0 -93.03337396031111 596.52346364446566 0 596.52346364446566 -708.28310457908447 0 0 0 0 19.01376368308825 18.719068344703203 0 18.719068344703203 -4.4987301894924556 0 0 0 0 600.47873058571929 302.25093630043193 0 302.25093630043193 -2458.4554067750723 0 0 0 0 235.90964778725356 370.50055847082695 0 370.50055847082695 -162.14235504265525 0 0 0 0 292.48702308147222 663.50347409206006 0 663.50347409206006 768.54432544153315 0 0 0 0 311.30211341820382 784.7256517788046 0 784.7256517788046 142.82663528939884 0 0 0 0 -263.37104439469249 96.600466742209392 0 96.600466742209392 -994.84480256173629 0 0 0 0 600.46693146146333 -225.26644430035594 0 -225.26644430035594 -3513.0403018331708 0 0 0 0 8.0361688050668363 7.9820354378279035 0 7.9820354378279035 -1.8736359733248911 0 0 0 0 502.27124611009845 1683.8843278726072 0 1683.8843278726072 412.44340009047301 0 0 0 0 -24.864138984633428 919.15245474229596 0 919.15245474229596 2844.7561682744326 0 0 0 0 -5.6121715140992308 1018.959528709931 0 1018.959528709931 -1557.3441607140994 0 0 0 0 174.64219810707925 455.62167522363598 0 455.62167522363598 -299.05123848241055 0 0 0 0 87.465245206767804 239.96124029374187 0 239.96124029374187 -1541.2986949329397 0 0 0 0 1090.19755603256 360.94361949531594 0 360.94361949531594 -1341.9998474692547 0 0 0 0 994.02643717369756 850.87742334654467 0 850.87742334654467 -1635.995480379137 0 0 0 0 301.23064774573226 1224.1236153294003 0 1224.1236153294003 -251.93600119031908 0 0 0 0 1235.9470595911043 132.84384178368055 0 132.84384178368055 -213.13202186122362 0 0 0 0 212.36173860324925 643.48331865482032 0 643.48331865482032 -815.35078874204191 0 0 0 0 977.06900865824377 661.87692009538432 0 661.87692009538432 -1001.6753297809919 0 0 0 0 -386.45496902946536 1001.7076656884364 0 1001.7076656884364 -1181.2772395117936 0 0 0 0 266.02222713510855 483.70054013861227 0 483.70054013861227 -818.36757666438643 0 0 0 0 -1.9940346247045149 -1.5065165435437677 0 -1.5065165435437677 -1.6986533037465961 0 0 0 0 -1186.6727865649009 1266.1015120883094 0 1266.1015120883094 -960.95456076956179 0 0 0 0 -51.764510796445393 539.91208932546579 0 539.91208932546579 -149.19937819875486 0 0 0 0 106.09789721125389 305.01618314452571 0 305.01618314452571 118.92745254846523 0 0 0 0 729.29895896421385 -35.170459221022611 0 -35.170459221022611 -62.395858421121375 0 0 0 0 -1.9617380395494921 8.7404290685454669 0 8.7404290685454669 -16.22790698195638 0 0 0 0 807.40451772666711 904.95859347913938 0 904.95859347913938 30.848210572785774 0 0 0 0 453.00295368775141 495.61649958525231 0 495.61649958525231 425.62137576272653 0 0 0 0 0.97568617903354227 2.9365381612448829 0 2.9365381612448829 -9.8021710227970971 0 0 0 0 -233.64760464031224 573.29175219966419 0 573.29175219966419 44.033873321219289 0 0 0 0 -313.79994270528641 -153.89870370086282 0 -153.89870370086282 494.104999362331 0 0 0 0 132.03082830573862 59.081163813119929 0 59.081163813119929 -101.00497721115971 0 0 0 0 -73.618335619815298 69.957818667866377 0 69.957818667866377 451.80000110629771 0 0 0 0 51.96542103653087 163.80534516223997 0 163.80534516223997 484.2441069893539 0 0 0 0 142.37901604215128 439.92156482294786 0 439.92156482294786 639.61643231766357 0 0 0 0 171.4310469260777 229.75377685455214 0 229.75377685455214 241.67388426118123 0 0 0 0 -621.9102626437159 96.051545703885495 0 96.051545703885495 300.66614868778561 0 0 0 0 -310.52122564145179 314.95458139621405 0 314.95458139621405 484.82313858307316 0 0 0 0 -0.37997696256945801 4.3927040555997223 0 4.3927040555997223 -8.6393315353027447 0 0 0 0 1068.688642526633 739.09012660234293 0 739.09012660234293 -158.90459694027959 0 0 0 0 -1014.8131164748061 1678.9272406650671 0 1678.9272406650671 -524.48663877228682 0 0 0 0 17.127303839538399 1494.6084227923529 0 1494.6084227923529 -893.04606049935683 0 0 0 0 1282.8622337271363 1157.8856311114878 0 1157.8856311114878 -1225.8970917370316 0 0 0 0 -971.04507614967952 1277.4968847625714 0 1277.4968847625714 133.64925511230831 0 0 0 0 -261.84422315065012 565.37736257718461 0 565.37736257718461 415.83784904805361 0 0 0 0 437.02284190881619 -207.48036322425469 0 -207.48036322425469 89.809924415538262 0 0 0 0 -1815.7031515064366 634.67655227391151 0 634.67655227391151 603.31202259592828 0 0 0 0 -13.701985421814584 15.469643531350812 0 15.469643531350812 -14.439602211196814 0 0 0 0 -1689.1657323371444 2208.2758206918838 0 2208.2758206918838 -498.94241561068338 0 0 0 0 -1335.4080250649822 2128.4165923418768 0 2128.4165923418768 -537.07611645821453 0 0 0 0 -542.84402666597816 2128.8550938012122 0 2128.8550938012122 -1532.5555142352678 0 0 0 0 414.21577124998112 2023.635012875744 0 2023.635012875744 -1985.2305515876724 0 0 0 0 529.38709752800241 1757.5530591462666 0 1757.5530591462666 -1797.4015360920876 0 0 0 0 -841.93339978933636 65.892512163976789 0 65.892512163976789 341.75139068075805 0 0 0 0 91.858531924641284 498.05858987667307 0 498.05858987667307 -2720.5053989962435 0 0 0 0 -638.6584953548338 522.0329745397903 0 522.0329745397903 761.09768920620263 0 0 0 0 297.17992050110479 1089.0980598904425 0 1089.0980598904425 714.45755743130212 0 0 0 0 39.445291063986588 922.64790551132319 0 922.64790551132319 798.86997073484235 0 0 0 0 -1268.3659110698372 1698.3175590135579 0 1698.3175590135579 1806.328917101433 0 0 0 0 370.59432761291646 -131.78488151429337 0 -131.78488151429337 584.00882662605727 0 0 0 0 -34.658642009512704 35.471681162907942 0 35.471681162907942 -29.6581413770636 0 0 0 0 -101.54811173449934 173.89213026070502 0 173.89213026070502 683.26194965143804 0 0 0 0 652.36945607913549 523.22736001179146 0 523.22736001179146 600.1704402093892 0 0 0 0 -26.721793652536903 32.165016891929241 0 32.165016891929241 -32.036761519091073 0 0 0 0 1549.5482952351267 1151.6715785939596 0 1151.6715785939596 -253.35566585417837 0 0 0 0 300.3353471572409 182.1080641062872 0 182.1080641062872 134.09981738241913 0 0 0 0 1371.3614225929741 -854.52200135619205 0 -854.52200135619205 -1469.6216886267648 0 0 0 0 544.20817985223403 4.7512820055708289 0 4.7512820055708289 -389.43964636631426 0 0 0 0 -1096.9612366531874 1094.6643015733498 0 1094.6643015733498 -1111.7136306069151 0 0 0 0 -1687.7043556591307 -67.573709792864975 0 -67.573709792864975 -413.47252824253519 0 0 0 0 109.85852300265833 -359.00825782160973 0 -359.00825782160973 -502.76567161327694 0 0 0 0 137.98187979716749 255.46534301136853 0 255.46534301136853 -952.95434730435954 0 0 0 0 1321.8086763334941 1284.3926678183489 0 1284.3926678183489 -2081.905026135224 0 0 0 0 124.82707138228375 79.620420611435293 0 79.620420611435293 -2472.2388064814149 0 0 0 0 -29.854502533566247 5.603569261421967 0 5.603569261421967 1.1537254898008342 0 0 0 0 -315.47444430275209 1069.6721936288086 0 1069.6721936288086 -1542.1297237295366 0 0 0 0 180.22122048485471 -343.961340840513 0 -343.961340840513 899.6726120989515 0 0 0 0 278.6494245374879 -464.38939407594808 0 -464.38939407594808 495.34433135009021 0 0 0 0 -268.04708825320995 263.01458561975596 0 263.01458561975596 -2021.889133018849 0 0 0 0 -61.212453996268778 1073.7145784609784 0 1073.7145784609784 -352.63069607655052 0 0 0 0 -1122.862574652936 394.43345295672771 0 394.43345295672771 774.68561957922066 0 0 0 0 -2358.5979500942922 -1518.2387114255544 0 -1518.2387114255544 -1133.130370247236 0 0 0 0 -60.33270305085415 7.3440260592308846 0 7.3440260592308846 3.5829537884518743 0 0 0 0 -2035.604990265183 -74.083240264284541 0 -74.083240264284541 1827.2091789835831 0 0 0 0 -306.28413342969361 1519.9333532073433 0 1519.9333532073433 -1040.3122341194539 0 0 0 0 1008.2077209342096 1028.2211641903414 0 1028.2211641903414 -1297.0448555546609 0 0 0 0 -31.344994544588758 6.4068102474951445 0 6.4068102474951445 0.63625709039664002 0 0 0 0 -4438.2485540198031 1603.4529454588337 0 1603.4529454588337 -368.06711259657459 0 0 0 0 -695.45607580572869 -675.36865362899152 0 -675.36865362899152 918.75939219389693 0 0 0 0 -165.62826397751996 2362.4449675146534 0 2362.4449675146534 -2357.9330590107129 0 0 0 0 -103.85100800397777 46.170179750703937 0 46.170179750703937 450.48085998333408 0 0 0 0 -46.169749948661774 786.74027302506875 0 786.74027302506875 -2318.8020069280428 0 0 0 0 -160.07571421155808 2035.6057511259205 0 2035.6057511259205 -1705.247156758036 0 0 0 0 -2310.6599964645939 -1096.6101805278886 0 -1096.6101805278886 461.73490953801956 0 0 0 0 -2238.2242641890562 852.53278926820713 0 852.53278926820713 -26.102793691112311 0 0 0 0 0.12535694063396363 28.12956866794292 0 28.12956866794292 -1.636498767245655 0 0 0 0 24.191958827776659 43.358576746854837 0 43.358576746854837 31.078529231547861 0 0 0 0 -5.8440869554688106 -10.993248008613591 0 -10.993248008613591 -216.29693626397784 0 0 0 0 -14.919639982337287 36.447899157355494 0 36.447899157355494 -8.7956612860984649 0 0 0 0 5.2330635428934329 28.280426910116148 0 28.280426910116148 -197.98530513202422 0 0 0 0 40.072415701209039 57.151209127721685 0 57.151209127721685 47.612190731677686 0 0 0 0 132.60998176899011 107.15380815577373 0 107.15380815577373 -136.8210749233258 0 0 0 0 91.882531111983553 215.48729410604938 0 215.48729410604938 -419.33081798945204 0 0 0 0 13.940459680474305 131.43777705891989 0 131.43777705891989 112.0804599835792 0 0 0 0 -82.638109665167576 -10.822458708571503 0 -10.822458708571503 76.226595219999581 0 0 0 0 -34.435737270403479 57.903671204992861 0 57.903671204992861 40.191752740895026 0 0 0 0 -62.808873543290247 115.89588181817089 0 115.89588181817089 43.038830013191273 0 0 0 0 49.474636139340873 44.327942706353497 0 44.327942706353497 -54.208675524831051 0 0 0 0 255.63136480178218 114.78134614800365 0 114.78134614800365 9.111188722323277 0 0 0 0 111.15052272399771 118.27529553449131 0 118.27529553449131 21.3676479311398 0 0 0 0 340.18747066592914 74.952900050499011 0 74.952900050499011 -91.225827960413881 0 0 0 0 132.06398282875762 29.630292371353789 0 29.630292371353789 -84.764397068502149 0 0 0 0 114.69604781203816 133.59856128557294 0 133.59856128557294 -55.837426372315349 0 0 0 0 -1608.0338967099299 -2226.8777527115367 0 -2226.8777527115367 159.90535212692339 0 0 0 0 -1412.949195496738 2561.9899579249468 0 2561.9899579249468 -787.73625111742876 0 0 0 0 14.260367730322628 11.669906126346532 0 11.669906126346532 12.946937447160849 0 0 0 0 -1755.8415646262583 196.14442565311037 0 196.14442565311037 -1456.0764283400472 0 0 0 0 462.07099195919727 1339.6838398731343 0 1339.6838398731343 -1718.401652178698 0 0 0 0 783.57951774345202 -94.626585475656611 0 -94.626585475656611 -87.0515738868271 0 0 0 0 1109.6009455360472 202.54526990310114 0 202.54526990310114 -666.50023905107628 0 0 0 0 6.6751682972563771 1.8343777942305763 0 1.8343777942305763 -1.8904088501510614 0 0 0 0 695.01957119027793 339.28598525781126 0 339.28598525781126 -101.55280011650757 0 0 0 0 68.861160462945833 162.38476303931176 0 162.38476303931176 72.253979236684472 0 0 0 0 68.937218584772239 160.02875516164772 0 160.02875516164772 55.930419740897605 0 0 0 0 314.15614664660461 317.67355916070665 0 317.67355916070665 -88.885236767993774 0 0 0 0 21.786099505785387 354.58274626062484 0 354.58274626062484 188.93499503119529 0 0 0 0 340.09209979884326 135.58761965108715 0 135.58761965108715 138.46452655484609 0 0 0 0 861.45942916715285 103.56160849498883 0 103.56160849498883 -49.344157098035794 0 0 0 0 176.61994541934109 322.61991187103558 0 322.61991187103558 50.906191736834444 0 0 0 0 76.7107244937215 252.06736516999445 0 252.06736516999445 61.643513772956794 0 0 0 0 -103.98086480644997 376.04860142963298 0 376.04860142963298 52.552262953506215 0 0 0 0 42.420356676811934 244.15008892077094 0 244.15008892077094 63.614329272690838 0 0 0 0 72.202459692125558 321.29774365146659 0 321.29774365146659 -40.915121733960405 0 0 0 0 -167.083796268882 469.89054730027419 0 469.89054730027419 -57.225747488220804 0 0 0 0 426.87707523010249 206.66303998161311 0 206.66303998161311 -18.446497703262139 0 0 0 0 258.07305318918907 133.73295896642549 0 133.73295896642549 36.215754730495973 0 0 0 0 487.81374790193513 66.947717074916 0 66.947717074916 61.124390235316241 0 0 0 0 387.33535858457253 65.556527742070102 0 65.556527742070102 -54.240077430113161 0 0 0 0 69.449812602780199 158.34137052475404 0 158.34137052475404 41.471552624365529 0 0 0 0 655.01558792054129 189.29256670246832 0 189.29256670246832 -12.821661346053588 0 0 0 0 147.6165104474785 331.00710280698695 0 331.00710280698695 255.97289058020397 0 0 0 0 316.37751617773938 -398.11138036562625 0 -398.11138036562625 169.28127036620572 0 0 0 0 -37.842858014133526 336.03764922709524 0 336.03764922709524 22.141936634769081 0 0 0 0 252.98546158483077 334.88495096072074 0 334.88495096072074 -398.87664461964596 0 0 0 0 35.291212355106836 425.35500621789834 0 425.35500621789834 -248.72228271936183 0 0 0 0 125.09491070010699 401.53117387527891 0 401.53117387527891 -656.39688719663536 0 0 0 0 602.27833586017368 -261.4209502411104 0 -261.4209502411104 -1337.2335163935786 0 0 0 0 63.822436127361371 151.60886964956279 0 151.60886964956279 40.186356084604256 0 0 0 0 690.13006069639596 844.02683384934107 0 844.02683384934107 -180.14965985534946 0 0 0 0 -142.18681949564234 255.00054167347571 0 255.00054167347571 -34.779933694298961 0 0 0 0 -328.99193211179227 456.87996995840513 0 456.87996995840513 -80.582525161778904 0 0 0 0 -212.73148283761111 268.44617239094805 0 268.44617239094805 -353.99307986530766 0 0 0 0 16.797360929733259 271.21164874166425 0 271.21164874166425 -422.12855190163828 0 0 0 0 -198.91616770168184 408.38226608208788 0 408.38226608208788 -86.986477344544255 0 0 0 0 -166.54551049231668 255.98420973782777 0 255.98420973782777 -407.31061647443858 0 0 0 0 33.005749624338932 524.80032495282649 0 524.80032495282649 -640.66686102615495 0 0 0 0 -312.52836409318843 280.99761522156768 0 280.99761522156768 -673.75930669062654 0 0 0 0 -83.336113038822077 316.43114630234777 0 316.43114630234777 -670.34914250479778 0 0 0 0 -281.9968100861588 342.80338633347856 0 342.80338633347856 -358.64074967750639 0 0 0 0 -265.16153427315294 466.8272133605642 0 466.8272133605642 -786.198040586155 0 0 0 0 -239.64996053668438 199.76030093448935 0 199.76030093448935 -758.52221664890931 0 0 0 0 -441.26510811313346 229.44637158708792 0 229.44637158708792 -267.89242574747186 0 0 0 0 -506.23469551373273 -1085.1846349874977 0 -1085.1846349874977 4092.063711978888 0 0 0 0 -2112.2986173240351 -1235.3266901801981 0 -1235.3266901801981 4594.9502852904698 0 0 0 0 69.030523242781783 86.900815655559654 0 86.900815655559654 55.79819307490704 0 0 0 0 15.174098525293289 13.819432586684705 0 13.819432586684705 10.44232485325773 0 0 0 0 142.78657065620064 701.15284760528448 0 701.15284760528448 -1154.7402220971053 0 0 0 0 -44.295499994506827 269.56210876474506 0 269.56210876474506 -975.09025589899102 0 0 0 0 1722.6646744198661 -1165.639063978997 0 -1165.639063978997 3168.8834427061811 0 0 0 0 -186.66412115120329 -159.2797675666061 0 -159.2797675666061 -21.24805920612198 0 0 0 0 18.11208345668274 349.41481661684702 0 349.41481661684702 -166.86822565650073 0 0 0 0 -148.05416122009046 237.52487993838804 0 237.52487993838804 -238.72230978173502 0 0 0 0 -2567.1448012641195 1423.840294022174 0 1423.840294022174 -497.07132551692484 0 0 0 0 126.47517119403346 -358.77768165010639 0 -358.77768165010639 -800.79654883444164 0 0 0 0 -1274.4813558751484 378.32648518077622 0 378.32648518077622 -257.09666382038813 0 0 0 0 -308.95606842380948 584.92715135191793 0 584.92715135191793 -833.62659839593107 0 0 0 0 355.69375829448109 1017.9708779644279 0 1017.9708779644279 -2283.0231163371645 0 0 0 0 447.60677782224775 -49.684644294173268 0 -49.684644294173268 306.49461088090902 0 0 0 0 31.228358726395527 730.4444575257221 0 730.4444575257221 -317.43447713413298 0 0 0 0 20.02321440394735 822.49239000390662 0 822.49239000390662 -616.64574653093587 0 0 0 0 156.58270286265179 226.79896144708528 0 226.79896144708528 51.235577443501825 0 0 0 0 2312.9911834239756 879.04961217054733 0 879.04961217054733 -33.033677799583529 0 0 0 0 221.22341598448111 305.00777215635753 0 305.00777215635753 -255.0765495881933 0 0 0 0 231.33727308685775 241.76209940602712 0 241.76209940602712 -150.39420928497566 0 0 0 0 -659.91030522077926 501.70669864867159 0 501.70669864867159 731.71109031807282 0 0 0 0 49.84023266825551 117.69514344838532 0 117.69514344838532 74.032052775767909 0 0 0 0 88.767946735094199 167.88070036997902 0 167.88070036997902 42.305347583634045 0 0 0 0 261.37282809914177 173.80204043705453 0 173.80204043705453 177.41679296435905 0 0 0 0 129.85636172388331 214.26844368319144 0 214.26844368319144 166.49453210400679 0 0 0 0 96.096206720183545 134.53732710205804 0 134.53732710205804 340.80990318162367 0 0 0 0 -14.220227888901718 236.47238724738418 0 236.47238724738418 321.40174678497715 0 0 0 0 122.72611313367815 106.53573860592587 0 106.53573860592587 350.76918541276245 0 0 0 0 43.812281711085234 28.215293059620308 0 28.215293059620308 664.12217216746649 0 0 0 0 -53.235375231874059 295.97960028867237 0 295.97960028867237 734.72763044671592 0 0 0 0 -60.648093383249943 431.06696227188513 0 431.06696227188513 374.37658651713173 0 0 0 0 84.804545416627661 262.7432475584792 0 262.7432475584792 262.48266320669791 0 0 0 0 13.262556924877572 248.07326811930398 0 248.07326811930398 241.09489075125748 0 0 0 0 6.1013874259806471 285.57256763640908 0 285.57256763640908 263.65562952561595 0 0 0 0 29.217772634350695 231.2426024726301 0 231.2426024726301 259.84953238675371 0 0 0 0 71.877700181787077 137.401670636169 0 137.401670636169 218.01736760206404 0 0 0 0 58.049819826894236 212.04785376312066 0 212.04785376312066 190.30725191117381 0 0 0 0 295.69675843153527 238.32287717256986 0 238.32287717256986 80.120022959137714 0 0 0 0 90.304736883761507 124.98688759480501 0 124.98688759480501 69.302683896545204 0 0 0 0 -60.755845219540788 64.34362203865021 0 64.34362203865021 44.361633372624055 0 0 0 0 -63.888374254785958 29.177167480313074 0 29.177167480313074 16.576378250028938 0 0 0 0 -20.837387828005461 29.488026934835531 0 29.488026934835531 -8.1100473745660793 0 0 0 0 307.27845155175601 261.11917640817046 0 261.11917640817046 124.67945014705765 0 0 0 0 -71.807120312663756 24.32557414736948 0 24.32557414736948 20.960606314944016 0 0 0 0 -34.009729249248636 -8.1470532229971155 0 -8.1470532229971155 15.755756109408026 0 0 0 0 85.096964726666556 267.06085896393779 0 267.06085896393779 201.47944266986451 0 0 0 0 444.6230664188115 226.91276070968161 0 226.91276070968161 93.156849908817094 0 0 0 0 276.7361140796711 367.18849153377232 0 367.18849153377232 251.81228230180568 0 0 0 0 124.32505479179963 273.91046255623223 0 273.91046255623223 316.56418045413739 0 0 0 0 302.74013248125266 369.35809895655257 0 369.35809895655257 361.61087072527152 0 0 0 0 302.51756910384938 375.05194368476987 0 375.05194368476987 668.21774664102122 0 0 0 0 107.45331278731464 124.33781852101674 0 124.33781852101674 494.37893563255784 0 0 0 0 239.80491163780971 66.190595940490311 0 66.190595940490311 294.47938876075204 0 0 0 0 93.212900127233297 195.11504845028685 0 195.11504845028685 252.21484305232298 0 0 0 0 -14.045193693970816 0.41257517190550175 0 0.41257517190550175 6.1963687163236045 0 0 0 0 238.55872101872228 -264.6206142197625 0 -264.6206142197625 192.23002708889544 0 0 0 0 1128.5574077889032 481.81330497952877 0 481.81330497952877 -49.416571035282686 0 0 0 0 837.68221013160655 811.90251765333232 0 811.90251765333232 723.44632666185498 0 0 0 0 -12.128669368528918 4.0763003362089592 0 4.0763003362089592 6.3279640892736211 0 0 0 0 599.29436832474312 332.97390619078942 0 332.97390619078942 506.59366355399834 0 0 0 0 379.8323306170787 -82.029801565469825 0 -82.029801565469825 894.27992613048991 0 0 0 0 199.8976299285423 147.03844158094944 0 147.03844158094944 872.21496759413276 0 0 0 0 638.5212780421607 748.17620555317171 0 748.17620555317171 1113.4623231122969 0 0 0 0 -268.98252422887526 371.70820829951481 0 371.70820829951481 89.996978729119292 0 0 0 0 661.0608759632305 385.61843731023691 0 385.61843731023691 -74.180511160346214 0 0 0 0 475.66401026342646 -116.48774498925923 0 -116.48774498925923 220.00864694145275 0 0 0 0 326.07590180324041 95.947986652914551 0 95.947986652914551 -23.169873286853544 0 0 0 0 115.71559914562386 -31.640539282641839 0 -31.640539282641839 -346.83221904685342 0 0 0 0 132.01600499488995 103.50426008235081 0 103.50426008235081 -19.144396125979256 0 0 0 0 211.76275303537113 -108.22649124719464 0 -108.22649124719464 -173.21105193607218 0 0 0 0 141.85835200367728 -37.945052712733741 0 -37.945052712733741 144.81949766264006 0 0 0 0 66.008257929199317 80.29308197816863 0 80.29308197816863 -16.273643443491892 0 0 0 0 343.39837017374521 -116.65640150652325 0 -116.65640150652325 10.607218919409206 0 0 0 0 153.14406576838519 27.201892634417163 0 27.201892634417163 344.30359954573214 0 0 0 0 108.35843798574206 -73.032333107781596 0 -73.032333107781596 2.5885509124782402 0 0 0 0 -15.015101925643137 11.440614512773209 0 11.440614512773209 -12.463715681417597 0 0 0 0 -49.692219016222225 -255.45515876077388 0 -255.45515876077388 -287.68743825580168 0 0 0 0 23.509982884279452 -2.6297004486405058 0 -2.6297004486405058 -342.2341002598223 0 0 0 0 -29.923761797086627 -14.151745156908873 0 -14.151745156908873 44.645897531037917 0 0 0 0 -4.9917810069947279 3.1005024574209301 0 3.1005024574209301 -2.6149126883975669 0 0 0 0 -150.17162832670692 50.838031452785799 0 50.838031452785799 -48.530545122426702 0 0 0 0 -58.63928614804172 149.96914092396037 0 149.96914092396037 -89.847842255636351 0 0 0 0 100.03692065860378 -378.62411481490562 0 -378.62411481490562 -1063.0458826149115 0 0 0 0 39.488696476822952 245.88148782632925 0 245.88148782632925 -149.87362182793731 0 0 0 0 24.513282580315717 279.44072891057294 0 279.44072891057294 104.68440062517766 0 0 0 0 -25.958748973716865 281.67858507062192 0 281.67858507062192 240.16578250340535 0 0 0 0 84.992752321857552 330.57158129705931 0 330.57158129705931 256.50465113681275 0 0 0 0 25.845402287857723 130.27350998502516 0 130.27350998502516 241.83175798444427 0 0 0 0 27.240967819205252 183.44860888200492 0 183.44860888200492 60.887051560508553 0 0 0 0 -66.56186055712169 93.247782299629762 0 93.247782299629762 64.706248871363641 0 0 0 0 
</DataArray>
<DataArray type="Float64" Name="cross_section_updated" format="ascii">
1 1 1 1 1 1 1 1 1 1 1 1 1 1 1 1 1 1 1 1 1 1 1 1 1 1 1 1 1 0.011482819738957532 1 1 0.010620885495575022 0.009407998533937402 1 1 1 1 1 1 1 1 1 1 1 1 1 1 1 0.012952808496195029 1 1 1 1 0.01127714865106795 1 1 1 1 1 1 1 1 1 0.011007365334443034 1 1 1 0.012399208058678245 1 1 1 1 1 1 1 1 1 1 1 1 1 1 1 0.015113021716710966 1 1 0.011393769336236648 1 1 0.0025357827779144693 1 0.00058529400741117073 0.012729188110088167 1 1 1 1 1 1 1 0.0062758915320558495 1 0.0083780660932357351 1 1 1 0.0093046477706748357 1 1 1 1 1 1 1 1 1 1 1 1 1 1 1 1 1 1 1 1 1 1 0.0086570119639298969 1.7625643982527306e-09 1 1 1 1 1 1 1 1 1 1 1 1 1 0.011925112328508951 1 1 1 1 1 1 1 1 1 1 0.01207219647563796 1 1 1 1.3821821100851173e-09 1 0.014844613630042809 0.010508141247199343 1 1 1 0.003673861716906637 1 1 1 1 0.0076938800019921219 1 1 1 1 1 1 1 1 1 1 1 0.013536161611700431 1 1 -2.8245469227416997e-09 1 1 1 1 1 1 1 1 1 1 1 0.0020405950520772254 1 1 1 1 1 1 -7.9807913923313212e-10 1 1 1 1 0.0139161803566481 1 1 1 1 1 1 1 1 1 1 1 1 1 1 1 1 1 1 1 0.0068267428007303971 1 1 1 1 1 1 1 1 1 1 1 1 1 1 1 1 1 1 1 1 1 1 1 1 1 1 1 1 1 1 1 1 1 1 1 1 1 1 1 1 1 1 1 0.006268709630786273 1 1 0.0080075559038271377 1 0.0086707159126094974 1 1 1 1 1 1 1 1 1 1 1 1 0.0089241098454905035 1 1 1 1 1 1 1 1 1 1 1 1 1 1 1 1 1 1 1 1 1 1 1 1 0.010520139223135404 0.011065306885611866 1 1 1 1 0.010545167662476464 1 1 1 1 1 1 0.010457957520629488 1 1 0.01081599914360544 1 1 1 1 0.01193568960953155 1 0.012690024059076294 1 1 1 1 0.010336118975204103 1 1 0.026683114676010568 1 1 1 1 1 0.0093298886117182955 0.018321482767238252 1 0.010208480937004487 1 1 1 1 1 1 1 1 1 1 1 1 1 1 1 1 1 1 1 0.020694486785820851 1 -1.2375427765887181e-10 1 0.0010819114160241713 1 1 1 0.010184904821035845 1 1 1 1 0.010861840139236613 1 1 1 0.016524900977496947 1 0.0060380721664237968 0.015959830157494588 1 0.0094875003528460469 1 1 1 0.010443335691459346 1 0.0030299024507053837 0.012828407909390688 1 1 1 1 1 1 1 1 1 1 1 1 1 1 1 0.0096867302966816352 1 0.010791587875436666 1 1 1 1 0.010153480409375772 1 0.01119932570097951 1 0.0070553098359481606 1 1 1 0.0088762229558327077 1 1 1 1 1 1 1 1 1 1 1 1 1 1 1 1 1 1 1 1 1 1 1 1 1 1 1 1 1 1 1 1 1 1 0.010358041622975961 1 1 1 1 1 1 1 1 1 1 1 1 1 1 1 1 1 1 1 1 1 1 1 1 1 1 1 1 1 0.0071699178430643315 1 1 1 1 1 1 1 1 1 0.00281217880863667 1 0.0007045591556225847 1 1 1 -2.8383610947702032e-09 1 1 1 1 1 1 0.0082338053466551459 1 0.010550006651089211 1 1 1 1 1 1 1 1 1 1 1 1 1 1 1 1 1 1 1 1 1 1 1 0.009559658226726879 1 1 1 0.0095558046996733551 1 1 0.01067037083953714 1 1 1 1 1 1 1 1 1 1 1 1 1 1 1 1 1 1 1 1 1 1 1 1 1 1 0.015779668954212012 1 0.0077390775872465921 1 1 1 1 1 0.012097704811652406 1 1 1 1 1 1 0.0083882127730560297 1 0.0050875555897001868 1 1 0.012435948530498835 1 1 0.011635467924507086 1 1 1 1 1 1 1 1 0.0093474059566998058 1 0.010619531210889953 0.010012206343420274 1 1 1 1 1 1 1 1 1 1 1 1 1 1 0.011475926370506997 0.009136682398367596 1 1 0.0083228588186377295 1 1 0.007093164784419681 1 1 1 0.014392073593287175 1 1 0.0093540620076782433 1 1 0.010083884838384946 1 0.018412915799710466 1 0.0089951031226581657 1 1 1 1 1 1 1 1 1 1 1 1 1 1 1 1 1 1 1 1 1 1 1 1 1 1 1 1 1 1 1 1 1 1 1 1 1 1 1 1 1 0.013751847072030747 1 1 1 1 1 0.010217165212403758 1 0.0067349145047484321 1 1 0.01110176432229079 1 1 1 0.0067494548516437939 1 1 1 1 1 1 1 1 1 1 1 1 1 1 1 1 1 1 1 1 1 1 1 1 1 1 1 1 1 1 1 1 1 1 1 1 1 1 1 1 1 1 1 1 1 1 1 1 1 1 1 1 1 1 1 1 1 1 0.011595694939661706 1 1 1 1 1 1 1 1 1 1 1 1 1 1 1 1 1 1 1 1 1 1 1 1 0.014463366997213727 1 1 1 1 0.0086056042453950751 1 1 1 1 1 0.0065163487695586442 1 1 1 1 0.014500864350046806 0.0093506970418342356 1 1 0.018336975812210325 1 1 1 0.010084188556361 1 1 0.017021576012919717 1 0.0099068846539677527 1 1 1 1 1 1 1 1 1 1 1 1 1 1 1 1 1 1 1 1 1 1 1 0.0037194405536616626 1 1 1 0.016053305219021617 1 1 1 1 1 1 1 1 1 1 1 1 1 1 1 1 1 1 1 1 1 1 1 1 0.010841381648165324 1 1 1 1 1 1 1 1 1 1 1 1 1 1 1 1 1 1 1 1 1 1 0.00060987500691944696 1 1 1 0.0013502298618897346 1 1 1 1 1 1 1 1 1 1 1 1 1 1 1 1 1 1 1 1 1 1 1 1 1 1 1 0.0078475049860430371 0.0060546751293794263 1 1 1 1 1 0.012263304679159787 1 -1.3686445032856653e-09 1 1 0.00088597987732373651 0.010545385214659822 1 1 1 1 1 1 0.0049752257064183264 1 1 1 1 1 1 1 -5.2429790370345231e-09 0.0094910667451307273 1 1 1 1 1 1 1 1 1 1 1 1 1 1 1 1 1 5.6450558151566188e-09 1 1 1 1 1 1 1 1 1 1 1 0.0026049179182619196 1 1 1 1 1 1 1 1 1 1 1 1 1 1 1 1 1 1 1 1 1 1 1 0.0081641325251107788 1 1 1 1 1 1 1 1 1 1 1 1 1 1 1 1 1 1 1 1 1 1 1 1 1 0.009977655710203398 1 1 1 0.0091528774737075595 1 1 1 0.0087998096275612343 1 1 1 0.0099442796528220294 1 1 0.0098901225592222496 1 1 1 1 1 1 1 1 1 0.0074512861938709415 1 1 1 0.0087218142224267381 1 1 1 0.0099289360748935039 0.0088186576270037776 1 1 1 1 1 1 1 1 1 0.011575389078988418 1 1 0.0054212525144849534 1 0.0099997512779408902 1 1 1 1 1 1 1 1 0.0083845472431953658 0.0098510129169792106 1 1 1 1 1 1 1 1 1 1 1 1 1 1 1 1 1 1 1 1 1 1 0.0096691681397038168 1 1 1 1 1 1 1 1 0.012118086379678039 1 1 1 1 0.010243785134365697 1 1 1 1 0.0065061989906448417 0.014165341450683329 1 1 1 1 1 0.0059338967576474527 1 1 1 0.0086823252873757042 1 1 1 1 1 1 1 1 1 1 0.0099336870535063886 1 0.0098564656629351443 1 1 0.0091870427782385581 1 1 1 1 1 0.012840604272959376 1 1 1 1 1 1 1 0.011453839201877472 1 1 1 1 1 1 1 0.007473787506776304 1 1 1 0.009905133468368672 1 1 1 1 1 0.00084659651945657045 1 1 1 1 1 1 1 0.0017916364822606091 1 1 1 0.0097926160526474685 1 -5.1411015964146142e-09 1 0.014631386372308076 1 1 3.9931037734176889e-09 1 1 1 0.00099763910285664836 1 1 1 1 1 0.0099513321945664725 1 1 1 1 1 1 1 0.0071579661715355887 1 1 0.0023374993123587845 1 1 0.00068870595593229509 1 1 0.0062158298198440164 1 1 9.6725032601441274e-09 0.011636777217734 0.017567777362396127 1 1 1 0.0036000304856511796 1 1 0.0097613820606155498 0.0042469703660973444 1 0.015386938471213439 1 1 1 0.017584395502694618 1 1 1 1 1 0.024927820591584302 1 1 1 1 1 1 1 1 0.014890594723613398 1 1 1 1 1 1 0.0099881788747498874 1 1 0.010668598092792983 1 1 1 1 1 1 1 1 1 1 1 1 1 1 1 1 1 1 1 1 1 1 1 1 0.012969616066939206 1 1 1 0.018987649274922292 1 1 1 1 1 0.024497508472785368 1 1 1 0.02770624779778507 1 1 1 1 1 1 1 1 1 1 1 1 1 1 1 1 1 1 1 1 1 0.029370093770536333 1 1 0.01138676507108191 1 1 1 1 1 1 1 1 1 1 1 1 1 1 1 1 0.0091655427545454249 1 1 1 0.010719709578221603 1 1 1 1 1 1 1 1 0.018634877810618872 1 0.0099952651388981757 1 1 0.015647313790938547 1 1 1 1 1 1 0.024451759664995007 1 1 1 1 1 1 0.0099914345983291887 1 1 1 1 1 1 1 1 1 0.012048518944002901 1 0.0079796124738045326 1 1 1 1 1 1 1 1 1 0.0098132745617638545 1 1 1 1 0.008814069719259101 1 1 1 1 1 1 1 1 1 1 1 1 1 1 1 1 1 0.0089827873698694674 1 1 1 0.022817175756743475 1 0.0070687580881216086 1 1 1 1 1 1 1 1 1 1 1 1 1 1 1 1 0.0071791738707193409 1 0.011244477892425025 1 1 1 0.010566356700604546 1 1 1 1 1 1 1 1 1 0.0075944015454778649 1 0.0091496432203925296 1 1 1 1 1 1 1 1 1 1 1 1 0.030950799793679658 1 1 1 1 1 1 1 1 1 1 0.019614781279529321 1 1 0.0099222341754289858 1 1 1 1 1 1 1 1 1 0.0088962746383774577 1 1 1 1 1 1 1 1 1 1 0.013203301176649723 1 1 0.033153583872388502 1 1 1 0.033194637068219707 1 1 1 1 1 1 1 1 1 1 1 1 1 1 1 1 1 1 1 1 1 0.0087818328851785449 1 1 1 1 1 -3.8402339988530265e-10 0.0099153334093927143 1 0.030760018104264125 1 1 1 1 1 1 1 1 1 1 1 1 1 1 1 1 1 1 1 1 1 0.010496271602210727 1 1 1 1 1 1 1 1 1 1 1 1 1 1 1 1 1 1 1 1 1 1 1 1 1 1 1 1 1 1 1 1 1 1 1 1 1 1 1 1 1 0.0022632979724113971 1 1 1 1 0.021793775539306511 0.0099042517195625304 1 1 1 -1.3684924460993786e-09 1 1 1 1 1 1 1 1 1 1 1 1 1 1 1 1 1 1 0.0031918949131812275 1 1 1 1 1 1 1 0.0066257447129934068 1 0.010349028399924068 0.0185434953897365 1 1 1 1 0.0075486689471378678 1 1 1 1 1 -1.5678782577799311e-10 1 0.0029571117069334962 1 1 1 1 1 1 1 1 1 1 1 1 0.0081355499015685964 1 1 0.019707796267949929 0.01507728073663589 0.0092619540216853161 0.0056391750705013857 1 1 1 0.014594623940472692 1 0.0087455034450229698 1 1 0.0044536105442499058 1 1 0.0026388921815815106 1 1 1 1 1 1 1 0.0100480323544456 1 1 0.010022900942520934 1 1 1 1 1 0.014860471520588203 1 0.017696380606375798 0.009998779396126152 1 1 0.0076968198863665554 1 0.0074963276720920267 1 1 1 1 0.0053355235846767168 1 1 1 1 0.020907807015623552 1 1 1 1 0.0070347662965544958 1 1 1 1 1 1 0.026096244514349977 1 1 0.0048602067371016191 1 0.010069275155487292 1 1 1 0.0078679845273423085 1 1 0.0045179235104272006 1 1 1 0.0088103279084742782 1 1 1 1 1 1 1 1 0.0096524876021753386 1 1 1 0.010015262856623804 1 1 0.0057488006170630795 1 1 1 1 1 1 1 0.010095565735236491 1 1 1 1 1 1 1 1 1 0.0019839260507076299 1 1 0.0032901635908708822 1 1 1 0.0033329761988181786 1 1 1 0.01008162424954415 1 0.0051521714565380457 1 1 1 1 1 1 1 1 1 1 1 1 1 0.0086037010280105887 1 1 1 1 1 0.0030116414799716204 0.0068701206645535168 1 1 1 1 1 1 1 1 1 1 0.00897451217755834 1.1290324994361889e-09 1 1 1 1 0.007692226786300542 0.01127551974807244 1 0.014631886976125219 1 0.01008213773482468 1 0.017370485614873431 1 0.012671225978591709 1 0.0087588287531602249 1 0.03133834398545278 1 1 1 1 0.0054511326039317354 0.011736445024931381 1 0.0099557948094197296 0.0064170795056614147 1 1 0.0097787940915896876 1 0.010009553174155861 1 1 1 0.014482113505809004 1 1 1 1 1 1 0.016096662987094515 0.020096143650961809 1 1 1 0.017928003290961378 0.010271419984874582 1 0.01097161702834893 1 1 1 1 1 1 0.011000758460807322 1 0.025011004671055624 1 1 0.0069551818117811678 1 1 1 1 1 1 1 0.010298325796070725 1 1 1 1 1 1 1 1 0.014730329222952039 1 1 1 1 1 1 1 -3.3712866456814261e-09 1 1 0.014534207151212541 1 1 1 1 1 1 1 0.010335633109726336 1 0.0076853749620422393 1 1 1 0.0074846233569332635 1 1 1 1 1 1 1 1 1 0.0080866450064728101 1 1 1 1 1 1 1 1 0.013233921244102276 1 1 1 1 1 1 1 1 1 1 1 1 0.023552938098123775 1 -4.0168576798116362e-10 1 1 1 1 1 1 1 1 0.029378851810881471 -9.161491565379265e-10 1 1 1 1 1 0.0030788575220698292 0.023723172600070036 1 1 1 1 1 1 1 1 1 1 1 1 1 1 1 0.01951309182379958 0.013812710051916539 0.00984990105472653 1 1 0.016800796868661295 1 1 1 1 0.018902941329346317 1 1 1 1 0.010013699280495131 1 1 1 0.016872027171138008 1 1 1 1 1 1 1 1 1 1 1 1 1 1 1 1 1 0.0099194070528170128 1 1 1 1 1 0.010067408773617427 1 1 1 1 1 0.0055596651876679212 1 1 0.0091165627028092985 1 1 1 1 1 1 0.0093775341866592296 1 1 1 1 1 1 1 1 1 1 1 0.015539481835191986 1 0.0089731458500780445 1 1 0.013324376327671538 1 1 1 1 1 1 1 0.0099071055160686525 1 1 0.017759810218701398 0.0081738958094043218 1 1 1 0.0068714398877138677 1 1 0.017001921106697578 0.013133520190315461 1 0.012380750826703139 1 1 1 0.0082944593817483106 1 1 1 0.01051093193770139 1 1 1 1 1 5.7229336547504062e-10 1 1 1 1 -3.3085128647164508e-09 1 1 1 1 1 -5.1451338051178297e-09 1 1 1 1 0.0026985793125436225 0.0053699615389897551 1 1 1 1 1 1 1 0.00090203433218081358 1 1 1 1 0.0070289404433875984 1 0.0077497345755251721 1 1 1 1 1 1 1 1 1 1 1 1 1 1 1 0.008460187541011745 1 1 1 1 0.0098317496829409684 1 1 0.0076799039920706427 1 1 1 1 1 1 0.0096837479621405403 1 1 1 1 1 1 1 1 1 1 1 1 1 1 1 1 1 1 0.012029273535354761 0.011180312976837692 1 1 1 1 1 1 1 1 1 1 1 1 1 1 1 1 1 1 1 1 1 1 1 1 0.0009267168965368458 1 1 1 0.012203326593660725 1 1 1 1 0.0095709940422552056 1 1 1 1 0.00099781736248149427 1 1 1 1 1 1 1 1 1 1 1 1 1 1 1 1 1 1 1 1 1 1 1 1 1 1 1 1 1 1 1 1 1 1 1 1 1 1 1 1 -5.4664859513997577e-09 1 1 1 1 1 1 1 1 1 1 1 1 1 1 1 1 1 1 1 1 1 1 1 1 1 1 0.0056653178141934032 1 1 1 1 1 1 0.0054011852778753141 1 1 1 1 1 1 1 1 1 1 6.0120123202694886e-09 1 1 1 1 1 1 1 1 1 1 1 1 1 1 1 1 1 1 1 1 1 1 1 1 0.0073810448869054135 1 1 1 1 1 1 1 1 1 1 0.012747156970800914 1 1 1 1 1 1 1 0.010613782350362318 1 1 1 1 1 1 0.010189643218254704 1 1 1 0.015534160231800244 1 1 1 1 1 1 1 1 1 1 1 0.010064054154039971 0.007245072169135898 1 1 1 1 0.0060600908197818507 0.015646118944239285 1 0.01021127860102769 1 1 1 1 1 0.0021026713920134776 1 1 0.0055373797850133688 1 1 0.0074659311567413095 1 0.0087459075885313597 1 1 1 0.009663617226948272 1 1 1 1 0.0086304776035853945 1 1 1 1 1 1 1 1 1 1 1 1 1 1 1 1 1 0.0044505427018374372 1 1 1 1 1 1 1 0.0084110139005082653 1 1 1 1 1 1 1 1 1 1 1 1 1 1 0.0070694978149320395 1 1 1 0.0099189601937773736 1 0.011436320229473898 1 0.0027270967910646947 1 1 0.0074310000894627949 1 1 1 1 1 1 1 1 1 1 1 1 1 1 1 0.0070150951440726972 1 1 1 0.0085691924544092982 0.0100433807868043 1 0.0085528758197285573 1 0.0082401120099546352 1 1 1 1 1 0.0093126384017844926 1 0.010003016587547809 1 1 0.0089341883105691078 1 1 1 0.011092763605578121 1 1 0.012182392664373556 0.0093086856453971703 1 1 0.0099889960486694365 1 1 1 0.010690917588679759 1 1 1 1 1 1 1 1 1 1 1 1 0.0091780611273633086 0.0058926857261272086 1 1 1 1 1 1 1 1 1 0.0064665458333565337 1 1 1 1 0.0099607770621971195 1 1 1 1 1 1 1 1 1 1 1 1 1 1 1 1 1 1 1 1 1 1 1 1 1 0.0057307734433186056 0.0087516754345626641 1 1 0.0094035763479106815 1 0.0062368895163457273 1 1 1 1 0.017824172638827532 1 0.0049175863850519468 1 0.009987639000703756 1 1 0.0051812459468184302 1 1 1 1 0.011226747327481891 1 1 1 0.010740360230164038 1 1 0.01024483488234168 1 1 1 1 1 1 1 1 1 0.012048211508835061 0.010106187848459583 1 1 1 0.0082547164591050132 1 1 1 1 1 0.0077013644566330114 1 1 0.0048115424474791391 1 1 1 1 1 1 1 1 1 1 0.01020102887786728 0.0096890566635208855 1 1 0.0079048695594761131 1 1 1 1 1 1 1 1 1 1 0.0067752312538759962 0.012732472928516647 1 1 1 1 1 0.01152562187878732 1 1 1 1 1 1 0.010463884518773871 0.010455241837821136 1 1 1 1 1 1 1 1 1 1 1 1 1 1 1 0.011057745568810617 1 1 1 0.011227958192883761 1 1 0.0090498920436243649 1 0.011960134826264093 1 1 0.013192373273496072 1 1 1 1 1 1 1 0.012017068532598166 1 1 1 0.0093227669150707793 1 1 1 1 1 1 1 1 1 1 1 0.0056484677129438679 1 1 1 1 1 1 0.0082456702033707405 1 1 1 0.016040106263055819 1 0.012114592006445692 1 1 1 1 1 1 1 1 0.010703051803727187 1 1 1 1 1 1 1 1 0.01935083110082645 1 1 1 1 1 0.008394932179595381 1 1 1 1 1 1 1 1 0.009539929765303462 1 1 1 1 1 1 1 1 1 1 0.0095227961721326901 1 1 0.014266009130341969 1 1 0.011996005089652303 1 1 0.010548838554512274 1 1 1 1 1 0.016579133000614754 1 1 1 1 1 1 1 1 1 0.0058098382862068684 1 1 1 1 1 1 1 1 0.0098321899706356949 1 1 1 1 1 1 1 0.014016730581638222 1 1 1 0.017948809415436966 1 1 1 1 1 1 1 1 1 1 1 1 1 1 1 1 1 1 1 1 1 1 1 1 1 1 1 1 1 1 1 1 1 1 1 1 0.014576674499782262 1 1 1 1 1 1 1 1 0.0058209543137090203 1 1 1 1 0.0045854051971614546 1 1 0.022783714241655956 1 1 1 1 1 1 1 1 1 1 1 1 1 1 1 1 1 1 1 1 1 1 1 1 0.0062747584347196406 1 0.0075597058016769955 1 1 1 1 1 0.0064401911305745352 0.0051227575301243319 1 0.018270700625561458 1 0.010004698941622356 1 0.0099928397149090659 1 1 1 1 1 1 1 1 0.0062061860089436399 1 0.0053612670157696593 1 1 0.033211633640106375 0.0060013520145330221 1 1 1 0.026026477044133169 1 1 1 1 0.0265760746957205 1 1 1 1 1 1 1 0.0068149127930707265 1 1 1 1 1 0.015387209477305252 1 1 0.015433571301847797 1 1 1 1 1 1 0.014396859442513378 1 1 1 1 1 1 1 1 1 1 0.016211170109028616 1 1 1 1 1 1 1 0.010127408635085669 1 1 1 1 1 0.0075832232314534953 0.016407336615709998 1 1 1 1 -9.1286797773704187e-09 1 1 0.0089108556511208123 1 1 0.0097122646498012458 1 1 1 1 1 1 1 1 1 0.0091315163000091557 1 0.0076815236930288522 1 5.9970541796405819e-09 1 9.9882895704395125e-10 1 1 1 1 1 1 0.010664338544070163 1 0.0095562551660045569 1 1 1 1 1 1 1 0.0098388197401552795 1 1 1 1 1 1 1 1 1 1 1 1 0.010690707263758946 1 1 1 1 1 1 1 1 1 1 1 1 1 1 1 1 0.0094030833100131848 2.5736553305177878e-09 1 1 1 1 1 1 1 0.010613225884281761 1 1 1 1 1 1 1 1 1 1 0.011948292867111604 1 1 1 1 1 0.011897180207323228 1 1 1 1 1 1 1 1 1 1 1 1 1 1 1 1 1 1 1 1 1 1 1 1 1 1 1 1 1 1 0.0086311947090701099 1 1 1 1 1 1 1 1 1 0.0061305744303030776 1 1 1 1 1 1 1 1 0.0079301521446561579 1 1 1 1 1 1 1 1 1 1 1 1 1 1 1 1 1 1 1 1 1 1 1 1 1 1 1 1 1 1 1 1 1 1 1 1 1 1 0.013612498026909746 1 1 1 0.02453365841285516 1 0.0097592957636304725 1 1 1 1 0.024952971737207466 1 1 1 1 1 1 1 1 1 1 1 1 1 1 1 1 1 1 1 1 0.011867206255170331 1 1 1 1 1 0.0097320331503198965 1 1 1 0.013898568137540649 1 1 0.01003450650498337 0.026008806122638953 1 1 1 1 1 1 0.0097203560937221267 1 1 0.010795853961324493 1 1 0.009960265603709835 1 0.0096289682504533472 1 0.0070921943506947194 0.010100441550887478 1 0.018752884262329371 0.019607270459041863 1 0.014780129463476297 1 1 1 0.010838718525089181 1 1 0.0026497288712336378 1 0.0063175117460008354 1 1 1 1 0.010015838539320162 0.025070572454084505 1 1 0.020080192708922813 1 1 1 1 1 1 0.0025921065299673099 1 1 0.01302412564805284 1 0.0057432819783589453 0.011097970964099316 1 1 1 1 0.011457011678352232 1 1 1 1 1 1 1 1 0.0084220499962414999 1 1 1 1 1 1 1 1 1 1 1 1 1 1 1 1 1 1 1 1 1 1 1 0.0095170976346320296 1 1 1 1 1 1 1 1 0.026958666319484698 1 1 1 0.016840584196898732 1 1 1 0.027029698747566278 0.0099730202851005412 0.0083461497879906005 1 1 1 1 1 1 0.010765045742781143 1 1 1 1 1 1 1 1 0.012636665668809041 0.014887178084148384 1 1 1 1 1 1 1 1 1 1 1 1 1 1 1 1 1 1 1 1 1 1 1 1 1 1 1 1 1 1 1 1 0.015560716395687124 1 1 0.012254703329912395 1 1 1 1 1 1 1 1 1 1 1 1 0.018875433728482285 1 1 1 1 1 1 1 1 1 1 1 1 1 1 1 1 1 0.010285134175484104 1 1 1 0.017399300959963226 0.01234383953612074 1 1 1 1 1 1 1 1 1 1 1 1 1 1 1 1 1 1 1 0.014495605283113902 1 1 1 1 1 1 1 1 1 1 0.012871083658383714 1 1 1 1 1 1 1 0.016632702494849508 1 1 1 0.0277887233716669 1 1 1 1 1 1 1 0.017593363018267444 1 1 1 1 1 1 1 0.011310247551793301 1 1 1 0.020196830707044436 1 1 1 1 1 1 1 1 0.013466961285655381 1 1 1 1 0.01457856711974051 1 1 1 1 1 1 1 0.0099545221094586162 1 0.0090520267485809727 1 1 1 1 1 1 0.011084505983990516 1 1 1 1 1 1 1 0.013498853838787052 1 1 1 1 1 1 1 1 1 1 1 1 0.0090320720961763884 1 1 0.0098354609176855359 0.016609588365361798 1 1 1 1 1 1 0.011456727423085435 1 1 0.010477354767331554 1 1 1 1 1 1 0.012290045210607947 1 1 1 1 1 1 1 1 1 1 4.2686336965136462e-09 1 1 1 1 1 1 1 1 1 1 0.0066949828972909728 1 1 1 0.010478975063488424 1 1 1 1 1 1 1 1 1 0.0092575410052403787 1 1 1 0.01949860150533126 1 1 1 1 0.03662948285504021 1 1 7.361194070965027e-09 1 0.035973088440718219 0.010551789010415834 1 1 1 1 1 1 1 1 1 1 1 1 1 0.015940044202317157 1 1 1 1 1 1 1 1 1 1 1 1 1 1 1 1 1 1 1 1 1 1 1 1 0.026224426035925195 1 1 1 1 1 0.0096536624694104206 1 1 1 1 0.0037000558002956638 0.014191170249677643 1 1 1 1 1 1 1 1 1 1 0.008989229943059944 1 1 1 1 1 1 1 1 1 1 1 1 1 1 1 1 1 1 1 1 1 1 1 1 1 1 1 1 1 1 1 0.0092711218115994962 1 1 1 1 1 0.0085994437941969218 1 1 1 1 1 1 1 1 1 1 1 1 1 1 1 1 1 1 1 1 1 1 1 1 1 1 1 1 1 1 1 1 1 1 0.0085852679788860492 1 1 1 1 1 1 1 0.0062018675190331218 1 1 1 1 1 1 1 1 0.0037130653647734907 1 1 1 1 1 1 1 1 1 1 1 1 1 1 1 1 1 1 1 1 1 1 1 1 1 1 1 1 1 1 1 1 1 1 1 1 1 1 1 1 1 1 1 1 1 1 1 1 1 1 1 1 1 1 1 1 1 1 1 1 1 1 1 1 1 1 1 1 1 1 1 1 1 1 0.010220734147498502 1 1 1 1 1 1 1 1 1 1 0.010251465503708965 0.010635783677461222 1 0.011134869517596055 1 1 1 1 1 1 1 1 1 1 1 0.010500014566098642 1 0.010030731356210493 1 1 1 1 1 1 1 1 1 1 1 1 1 1 1 1 1 1 1 1 1 1 1 1 1 1 1 1 1 1 1 1 1 0.011420408576873924 1 0.012767025138779454 1 1 1 1 1 1 1 1 1 1 1 1 1 1 1 1 1 1 1 1 1 1 1 1 1 1 1 1 1 1 1 1 1 1 1 1 1 1 1 0.0091311485081929586 1 1 1 1 1 1 1 1 1 1 1 1 1 1 1 1 1 1 1 1 1 1 1 1 1 1 1 1 1 1 1 1 1 1 0.00031188186593306827 1 1 1 0.00085765786615161349 1 1 1 1 1 1 1 1 1 1 1 1 1 1 1 1 1 0.0081427414043919663 1 0.0096102138511369797 1 1 1 0.0080027681009854426 1 1 1 1 1 1 1 1 1 1 1 1 1 1 1 1 1 1 1 1 1 1 1 1 1 1 1 1 1 1 1 1 1 8.9669826147664722e-09 0.010275372758104223 1 1 1 1 1 1 1 1 0.0074338416367962998 1 1 1 1 1 1 1 1 1 1 1 1 0.0056629795188104931 1 1 1 1 0.014448503390675681 1 0.0021131302433910829 1 0.0025740798795546374 1 1 1 1 1 1 0.011699134408779059 1 0.010674042038392371 1 1 1 1 1 1 1 1 1 1 1 1 0.0011415210969276807 1 1 0.011817504707268126 1 1 0.015183802689648043 1 1 1 1 1 1 1 1 1 1 1 1 1 1 1 1 1 0.0034526261988496246 1 1 1 1 1 1 0.018003930775753914 1 1 1 1 1 0.0049130798976251278 1 0.011830451433016588 1 0.0028732030756720706 1 1 1 0.0026546099990390898 1 0.0099926725302595752 1 1 1 0.0089182474701418497 1 1 1 1 1 1 1 0.016378464619851072 1 1 1 1 0.0094691224059317586 1 1 1 1 0.00055116789702074065 1 1 1 -3.1945745875006093e-09 1 1 1 1 1 1 1 1 0.016254517739646264 0.022299153616215116 1 1 -2.499203687750251e-09 1 1 0.0065472162805917666 -2.9465778463022563e-09 1 1 0.0027416164703778344 -2.6119233781027318e-09 1 1 1 0.00058900434157309594 1 1 1 1 0.0097293544873988565 1 0.032955556353669299 1 1 1 0.0068155800923060325 1 1 1 1 1 1 1 1 1 0.014202385519025217 1 0.0091185579988517437 1 0.0083834084836216169 1 1 1 1 1 0.0060325298404837746 1 0.01028217933287566 1 1 1 1 1 1 1 1 1 1 1 1 1 1 1 1 1 1.427881212573423e-08 1 1 1 1 1 1 1 0.022219733175745729 1 0.017606667234462713 1 1 -3.86978150912487e-10 1 1 0.026276802706028446 0.011829668882798303 1 1 -2.1093328819721258e-09 1 1 1 1 1 0.022472036363490558 0.0016044827356211933 1 1 1 1 1 1 1 1 0.0069051357750317399 1 1 1 0.011934978709282916 1 1 1 1 1 1 1 1 1 1 1 1 1 0.0081599010070626879 1 1 0.010680709028932351 1 1 1.250983809597539e-09 1 1 1 -1.9352253965987387e-09 1 1 1 1 1 1 1 1 1 0.011346616561905526 1 1 1 1 1 1 0.010322442803264033 1 1 1 1 1 -1.5535496708518615e-09 1 0.026463607514134915 1 1 1 1 -4.9019845890785341e-09 1 1 0.018333562779630649 1 1 1 0.021592183555193351 1 1 1 1 1 1 -5.7208179582435292e-09 0.013705800811843243 1 0.0020699412850721036 1 1 1 1 1 1 1 1 0.013329275119701688 0.012207866672687834 1 1 1 1 1 1 -3.0511275381228664e-09 1 1 1 1 1 1 1 1 1 0.010737384666049399 1 1 1 1 1 1 1 1 1 1 1 1 1 1 1 1 1 1 1 1 1 0.012154547214840751 1 1 1 1 1 1 1 0.0090108127409631034 1 1 1 1 1 1 1 1 1 1 1 1 1 1 1 1 1 1 1 1 0.016534794813219882 1 1 0.0046570479979935082 1 1 1 1 0.00086481450057673825 1 1 0.0088797259651515852 1 0.0056327950715263884 1 1 0.0060865725721474667 1 0.0092444515462634103 1 1 1 1 0.0032766153677966717 1 1 1 1 0.0015240438877857712 1 1 1 0.010068493734150898 1 1 1 1 1 1 1 1 1 1 1 1 1 1 0.0087292909995378767 1 0.011540922134397211 0.0071605391383903622 1 1 1 1 1 1 1 1 0.01061650296294437 1 1 1 1 1 1 1 1 1 1 1 1 1 1 1 1 1 1 0.024616430831205627 1 1 1 1 0.0064939223692079134 1 1 0.018106756159121884 1 1 1 1 1 1 1 1 1 1 1 1 1 1 1 1 1 1 1 1 1 1 1 1 1 1 1 1 0.0065592332416443827 1 1 1 1 1 1 1 1 1 1 1 1 1 1 1 1 1 1 1 1 1 1 1 1 1 1 1 1 1 1 1 1 1 1 1 1 1 1 1 1 1 1 0.0082004222856468939 1 1 0.0068013279914906286 1 1 1 1 1 1 1 1 1 1 1 1 1 1 1 1 1 1 1 1 1 1 1 1 0.0089016909674692127 1 0.0096457996120583381 1 1 1 0.0028077914026013659 1 1 1 1 1 1 1 0.0089451828427327754 0.004291085486166045 1 1 1 0.00045044592702309094 1 1 0.010100350450924993 1 1 1 1 1 1 1 1 1 1 1 0.012293429552384022 1 1 1 0.0046561569449868612 1 1 1 1 0.0081843608003419263 1 1 1 1 1 1 1 1 1 1 1 1 1 1 1 1 1 1 1 1 0.012517580595742348 1 1 1 1 1 0.016832622900304371 1 3.8095499671486621e-09 1 1 0.010046789840202547 1 1 1 1 1 1 1 1 1 1 1 1 1 0.0085253552074160827 1 1 1 1 1 1 0.011100948493857378 1 1 1 1 1 1 1 1 0.011207487310668417 1 1 1 1 1 1 1 1 1 1 1 1 0.0040360002847532397 1 1 1 1 0.0077030637679689484 1 4.2169943439973601e-09 0.0033572480604285686 1 0.0041921349855016075 1 1 1 1 1 1 1 1 1 1 1 1 1 1 0.0011741030034349322 1 1 0.0066415211968748368 1 1 0.008199762207581951 1 -9.2968403878068706e-09 0.0039178438714159679 1 0.00041968444628529347 1 1 1 0.013313076815375934 1 1 0.015233733522932813 1 1 0.009470168669047924 1 0.0076997008803309759 1 1 1 1 1 1 1 0.014600519845239529 1 1 1 0.012720913811550922 1 1 1 0.0010861134479379295 0.0045803039240439949 1 0.01159670865187395 1 1 1 1 1 1 1 1 1 1 1 1 1 1 1 1 1 1 1 1 1 1 1 1 0.010123383530081444 1 1 1 0.00071792168133134188 1 1 1 0.00037678878880761588 1 1 0.012935733165780162 1 1 1 1 1 1 1 1 1 1 1 0.010407139574064172 1 1 1 1 0.011454369544996774 1 1 1 1 0.012853332361787616 1 1 0.0085262346555009475 0.012471487907535248 1 1 1 1 1 1 1 0.009455789485898607 0.012093076293723845 1 1 1 1 1 1 1 0.0042873806746792226 1 1 0.010150250166241588 1 2.5481049353848206e-09 1 0.01032826525103054 0.010093808827961744 -3.1642541017951054e-09 1 1 1 1 1 1 1 0.0090249263455254893 1 1 1 1 0.0095403188455084071 1 1 1 1 1 1 0.0097927707503294142 1 1 1 1 1 1 1 1 1 1 1 1 1 1 1.5355537431871458e-09 1 1 0.010223336348535001 0.0095652784262644907 1 1 1 -3.8731338986713881e-09 1 1 1 0.0098352249138325947 1 1 1 1 1 1 1 1 1 1 1 1 1 1 1 1 1 1 1 1 1 1 1 1 1 1 0.01049036421836448 1 1 0.009590510504709408 1 0.030824475265073835 1 1 1 1 1 0.016942919903576034 1 1 1 1 1 1 1 1 1 0.020805228004968267 0.006268816714721662 1 1 0.0086110443900274392 1 1 1 1 1 1 1 1 1 1 1 1 1 1 1 1 1 1 1 1 1 1 1 1 1 1 1 1 1 1 1 1 1 1 1 1 1 1 1 1 1 1 1 1 1 1 1 1 1 1 1 1 1 1 1 1 1 1 1 1 1 1 1 1 0.013895901028045931 1 1 1 1 1 0.0097875887976732173 1 1 1 1 1 1 1 1 1 1 1 1 1 1 1 0.011310458402719921 1 0.0097965495243066709 1 1 1 1 1 1 1 1 1 1 1 1 1 1 1 1 1 1 1 1 1 1 1 1 1 1 1 1 1 1 1 1 1 1 1 1 1 1 1 1 1 1 1 1 1 1 1 1 1 1 1 1 1 1 1 1 1 1 1 1 1 1 1 1 1 1 1 1 1 1 1 1 1 1 1 1 1 1 1 1 1 1 1 1 1 1 1 1 1 1 1 1 1 1 1 1 1 1 1 1 1 1 1 1 1 1 1 1 1 1 1 1 1 1 1 1 1 1 1 1 0.0080002094524228989 1 1 1 1 1 1 1 1 1 1 1 0.0032064395878018369 1 1 1 0.0097302721764573538 1 1 1 1 1 1 1 1 1 1 1 1 1 0.0023080759380195524 1 1 1 1 1 1 1 1 1 1 1 1 1 1 0.002827513521890505 1 1 1 1 1 1 0.0098384533863005112 1 0.0032130426340043743 0.0033348921851857442 1 1 1 0.0054730462939841986 1 0.0034750441805539052 1 1 1 1 1 1 1 1 1 1 1 1 1 1 0.0044210463105899146 1 1 1 1 1 1 1 1 1 1 1 1 1 1 1 1 1 1 1 1 1 1 1 1 1 1 1 1 1 1 1 1 1 1 1 1 0.010108715055159461 0.012163726306602599 0.0093570006196501583 1 1 0.010947963230940352 0.0073124311566150919 1 0.0051110931457393882 1 1 1 1 1 1 1 0.0077628101859658852 1 0.0085755680674091377 1 1 1 1 1 1 1 1 1 0.0015346573324883164 0.0040773170963397092 1 1 1 1 1 1 0.0066947807187212535 1 1 0.00035316977099791522 1 0.0025496871843524796 1 1 0.011942983732820345 1 1 1 1.1211800723942567e-09 0.014298475562976495 0.015794583142619625 1.9981510473998654e-09 0.010543099622983585 1 1 1 1 0.0029828939331918713 1 0.010194332444225639 1 1 0.0023877290260268438 0.0013914739456193986 5.2211468655471993e-11 1 1 0.0034021427279836824 0.0099072391986966338 1 1 0.0054104333763810644 0.0035803136072165842 1 0.0080022605102935303 1 1 1 0.008383605646914068 0.010066340952995183 1 1 0.0071090834621324525 1 0.0066133858167915158 1 1 1 0.016693190928846892 0.0096483599542344159 1 0.012537612771546809 1 1 1 1 1 1 1 1 1 1 1 1 1 1 1 1 1 1 -1.0274647209429499e-09 1 1 1 0.0046885415518394067 1 1 1 0.0081013384618379564 4.1436433277641793e-10 1 2.8922150265009439e-10 1 1 0.0080665052356915165 1 1 1 1 1 1 1 1 0.008304262606313291 1 1 1 1 1 1 1 0.010296228313064523 1 1 0.0092949638398347328 1 1 1 1 1 1 1 1 1 1 1 1 1 1 0.0098239425415632756 1 1 0.0091038407499573551 1 1 1 1 0.0098547327169850457 1 1 1 1 1 1 1 0.011054775348288186 1 1 1 1 1 1 1 0.0062082851274508875 1 1 0.008519842472466968 1 1 1 1 1 1 0.0094709452331957142 1 1 0.0096162125162106704 1 1 1 1 1 1 1 1 1 1 1 6.6520980390727402e-10 1 1 0.00046695169394745002 1 1 1 1 1 2.1030392341036402e-06 0.0019372083750324991 1 1 1 1 1 1 1 1 1 1 0.010008960726633447 1 1 1 1 1 1 1 1 0.0085261719081122702 1 1 1 0.0067887505902122433 1 1 1 1 1 1 1 1 1 1 1 1 1 1 1 1 1 1 1 1 1 1 1 1 1 1 1 1 1 1 1 1 1 0.010013509407739089 1 1 1 0.0066176476423394793 1 0.0047665317537802319 1 0.0054201146785675183 0.0075562951743012811 1 1 1 0.016124607943963747 1 1 0.018943704425173437 1 1 1 1 1 1 1 1 1 1 1 1 1 1 1 1 1 1 1 1 1 1 0.013327946091852163 1 1 1 1.8918490836405955e-09 1 1 1 0.010564055211006684 1 1 1 0.014231563738427544 1 0.0094607133445329047 1 1 1 1 0.01282691132959868 1 0.0093238821758776114 0.0099692250018245561 1 1 0.0084232044563092301 1 1 1 1 1 1 1 1 1 1 1 0.010089917871361272 1 1 1 1 1 1 1 1 1 1 0.0068713078213675192 1 1 1 1 1 1 1 1 1 1 1 1 1 1 1 0.0087629718221808872 1 1 1 1 1 0.011006986992152809 1 0.0088439902880102159 1 1 1 0.013108790334340365 0.01017693907383093 1 1 1 1 0.0070232114277683656 1 1 1 1 1 1 1 1 0.0090578509584904703 1 1 1 1 1 1 1 1 1 1 1 1 1 1 1 1 1 1 1 1 0.0091813209197204714 1 1 1 1 1 1 1 1 1 1 1 1 1 1 1 0.0069649944696599971 1 1 1 1 1 0.0082020226474790927 1 1 1 1 1 1 1 0.0088395624776326231 1 1 1 1 0.0082214376158714353 1 1 1 1 1 1 1 1 1 1 1 0.009085272810161471 1 1 1 0.010334975696882645 1 1 1 1 1 1 1 1 1 1 1 1 1 1 1 1 1 1 1 1 1 1 1 1 1 1 1 1 1 1 1 1 1 1 1 1 1 1 0.0093729266876518471 1 1 1 1 1 0.0089063459073914757 1 1 1 1 1 1 1 1 1 1 1 1 1 1 1 1 1 1 1 1 1 1 1 1 1 1 1 1 1 1 1 1 1 1 0.0093052087635227352 0.010634478532364159 1 0.010009409359857974 1 0.0089140714916094241 1 1 1 1 0.011216823357939651 1 0.007732671967849377 0.0097528752824321482 1 1 1 1 1 1 1 1 1 1 1 1 1 1 1 1 1 1 1 1 1 1 1 1 1 1 1 1 1 1 1 1 1 1 1 1 1 1 1 1 1 1 1 1 1 0.0083744445082034949 1 1 1 1 1 1 1 1 1 1 0.0094110331922442059 1 0.011305673443814133 1 1 1 1 0.013060695133245821 1 1 1 1 1 1 1 1 1 1 1 1 0.014055887395356223 1 1 1 1 1 1 1 1 1 1 1 1 1 1 0.0097384271452394377 1 1 1 0.012705812162517836 1 1 1 1 1 1 1 1 1 1 0.0088415679763047539 1 0.007107718498482414 1 1 1 1 1 1 1 1 0.016606506943603806 1 1 0.0051244182279005148 0.017122408000274973 1 1 1 1 1 1 1 1 1 1 1 1 1 0.015462966745894875 1 1 0.017392046472346309 1 1 0.012273450936285235 1 1 1 1 0.0084619307799199267 0.016201850222079511 1 0.010756066636879918 1 1 1 0.010368582939503546 1 1 1 1 1 1 1 1 1 1 0.0076034808988678475 1 1 0.0035734149520807272 1 1 1 1 1 1 1 0.0010270790331651514 1 1 1 1 1 1 1 1 1 1 1 1 1 1 1 1 0.003071205550673025 1 1 0.0073753755907397089 1 1 1 1 1 1 1 1 1 1 1 1 0.014864297602452226 1 1 0.011619310323555745 1 1 1 1 1 1 1 1 1 0.0093117335433786572 1 1 1 1 1 1 0.018114777019432309 1 0.0093579615673001215 1 1 1 1 1 1 0.020649633555857215 1 -1.4284042872125813e-09 1 1 1 1 1 1 1 1 1 1 1 1 1 1 1 1 1 1 1 1 1 1 1 1 1 1 1 1 1 1 0.0098126724186035196 1 1 1 1 1 1 1 1 1 1 1 1 1 1 1 1 1 1 1 1 1 1 0.011604519614591718 1 1 1 1 1 1 1 1 1 1 1 1 1 1 1 1 1 1 1 1 1 1 1 1 1 1 0.0088090428331877319 0.0095559377426121649 1 1 1 1 1 1 1 1 0.00061655088847991854 1 1 1 1 1 -2.0708947057190841e-09 1 1 1 1 1 1 1 1 -5.1342091099415565e-09 0.010336310037431046 1 1 1 1 1 1 1 1 1 0.010459162859462891 1 0.010736047638352848 0.0081656868956782123 1 1 1 0.0067984623050083293 1 1 1 1 1 1 1 1 0.0088754685394975222 1 1 1 1 1 1 1 1 1 1 1 1 1 1 1 1 1 1 1 1 1 0.009703397671922652 1 1 1 1 1 1 1 1 1 0.010709851459945574 1 1 0.010549227551156164 1 1 1 1 1 1 0.010174351788093214 1 1 1 1 1 1 1 1 1 1 1 1 1 1 1 1 1 0.01016694071382835 1 1 1 1 1 1 1 1 1 1 0.005857281460347627 1 1 1 1 1 1 1 1 1 1 1 0.0094587264201425672 0.0073532472598673952 -5.2679570341357396e-09 1 1 1 1 1 1 0.0099283197443720654 1 1 1 1 0.0088057420480594385 1 1 1 1 1 1 1 1 1 1 1 1 1 1 1 1 1 0.010702238081439053 1 1 1 1 1 1 1 1 1 1 1 1 1 1 1 1 1 1 1 1 1 1 1 1 1 1 1 1 -1.8921221048295855e-09 1 1 0.0010631556603259082 1 1 1 1 1 1 1 1 1 0.0015967852235709915 1 1 1 0.0090403200520153965 1 1 1 1 1 1 1 1 0.010540936351872129 1 1 1 1 1 1 1 1 1 1 1 1 1 1 1 1 1 1 1 1 1 1 1 1 0.010218579178194182 0.0070244356699281415 1 1 1 1 1 1 0.012706147652133196 1 1 1 1 1 1 1 1 1 1 1 1 0.0057330276557239473 1 1 1 1 1 1 1 1 1 1 1 1 1 1 1 1 1 1 1 1 1 1 1 1 1 1 1 1 1 1 0.010730315430292285 1 1 1 1 1 1 1 1 1 1 1 0.011066327535552763 1 1 1 1 0.010336042381896116 1 1 1 1 1 1 0.0088716608918252213 1 1 1 1 1 1 1 1 0.0021140485678712295 1 1 1 0.0059544015663336378 1 0.012910288683288015 1 1 0.018089311428284786 1 1 1 1 1 1 1 1 1 1 1 1 1 1 1 1 1 1 1 1 1 1 0.021063041796201235 0.0098233279223083336 1 0.010039149945710511 1 1 1 1 1 1 0.010274154886328499 1 1 1 1 1 1 1 1 1 1 1 1 1 1 1 0.016181333958144861 1 0.011842260658962156 1 1 1 1 0.0064675635679108754 1 1 1 1 1 1 1 1 0.012992544224085245 1 1 1 1 1 1 1 1 1 1 1 1 1 8.6761646686528415e-09 1 1 0.019288735251724198 1 0.0099776582681266324 1 1 1 1 1 1 1 1 1 1 1 1 0.0099415161249719504 1 1 1 1 0.014808249290321047 1 0.0077573392024657475 1 1 1 0.014458889724725935 1 0.016516292888155856 1 0.0055978440885462027 1 1 1 1 0.005801022362430526 1 1 1 0.0040468528311939783 1 1 1 1 1 0.0064038358712562651 1 1 0.01597606565183813 1 0.0091240236293260515 1 1 1 1 0.009746770678925782 1 1 1 1 0.0056653641455349374 1 1 0.0035763011769505693 1 1 1 1 1 1 1 1 1 1 1 1 1 1 1 1 1 1 1 1 1 1 1 1 0.01346246214845425 1 1 1 1 0.012401097846558191 1 1 1 1 1 1 1 1 1 1 1 1 1 0.011332998857607447 1 0.010118188122946847 1 1 1 1 1 1 0.010110324547910773 1 1 1 1 0.00037917554271936493 1 0.0096088786628784912 1 1 1 1 1 1 1 1 1 1 1 1 1 1 1 1 1 1 1 1 1 1 1 1 1 0.011084453921056607 1 1 1 0.013062356682941222 1 1 1 1 1 1 1 1 0.010740308235917262 1 1 1 1 1 1 1 1 1 1 1 1 1 1 1 0.010616050154952802 1 1 0.011356358390870049 1 1 1 1 1 1 1 1 1 1 1 0.0094193997560574963 1 1 1 0.0020944870624684531 1 1 1 1 1 1 1 1 1 1 1 1 0.0071859516567775745 -1.7897829624607953e-09 1 1 1 1 1 1 0.0028151370343961028 1 1 1 1 1 1 1 1 1 1 1 1 1 1 1 -2.3636336672627767e-09 1 1 1 1 1 1 1 1 1 1 0.008405616711496651 1 1 1 1 1 1 1 1 1 0.0050775278457474218 1 0.0013799164291019711 1 1 1 0.016830517436605803 1 1 0.013680055859364555 1 1 1 1 1 1 1 1 1 0.0076908861002405599 1 1 1 1 1 0.0098025036570395935 1 1 0.010928354711399621 1 1 1 1 1 0.013089205209157871 1 0.0092970157170903303 1 0.010122353151071337 0.014491208781588501 1 1 1 1 0.0078795892448057792 1 1 1 1 1 1 0.011715744971201016 1 1 1 1 1 1 1 1 1 1 1 1 1 1 1 1 1 1 1 0.010447355698592189 1 1 1 1 1 1 1 1 1 1 0.010446860864464294 1 1 1 1 0.010733334806790625 1 1 1 1 1 0.014737842217041205 1 1 1 1 1 1 1 1 1 0.013550451827543705 1 0.013905274966509874 1 0.0064988620629214885 0.004909653822081134 0.017607194364336179 1 1 1 1 0.0059976587417668176 1 0.015595237597134423 -1.9060265518677788e-11 1 0.0039348947274472842 1 1 0.0012527022906632015 0.0092346805117600808 1 0.021758857855020637 1 1 1 1 1 1 0.01199227542120123 1 1 0.010650460606905998 1 1 0.023536728577232963 1 1 1 0.017798459693024425 1 1 1 0.0099477905169248482 1 1 1 1 1 1 1 1 1 1 1 1 1 1 1 1 -2.6887939097441915e-10 0.0099149144837053452 1 0.0037455428878446027 1 1 0.0059046023605837973 1 1 1 0.0055460583825676577 0.0037132000978325926 1 1 1 1 1 1 1 1 1 1 0.0083883959721581039 1 1 0.0041932594796464662 1 1 1 0.0038102182295187831 1 1 1 0.0032278682818585747 0.006548576799596811 1 0.0099883552829669493 1 1 1 0.020092630451369962 1 1 0.0021608244021652703 1 1 1 1 1 1 0.016664041461243853 1 1 1 1 1 1 0.015074501212519076 1 1 1 1 1 1 1 0.0094897010691653572 1 1 1 0.014679155767312553 1 1 1 0.00047215613630029879 1 1 0.018729806460729442 1 1 0.0018085101525604531 1 0.014556820523017815 1 0.015886408362365219 1 0.0050304662705244751 1 0.0037717946116727352 1 1 1 0.0055839963368071663 1 1 1 1 0.0022217783860590482 0.0050273749398811549 0.012117177103732092 1 0.01028243981791109 1 1 1 1 1 1 0.012208255194980061 0.0072193971796792392 1 1 1 1 1 0.0088837600688283572 1 1 1 1 1 1 1 1 1 1 1 1 1 1 0.0086361229820709762 1 1 0.0094018456387885141 1 1 1 0.009996454606141493 1 1 1 1 1 0.0055857680291037451 1 1 1 1 0.010175286148456593 1 1 1 1 1 1 1 1 1 1 1 1 1 1 1 1 1 1 0.0097168572043816043 1 1 0.018572544164572435 1 1 1 1 0.0090027843462636495 1 1 0.0070507343531386601 1 1 1 1 1 1 0.017288064646005331 1 1 1 1 1 1 0.017158248937721582 1 1 1 1 1 1 0.018659016060997829 1 1 1 1 1 1 1 1 1 1 1 1 1 1 1 1 1 1 1 1 1 1 1 1 1 1 1 0.010814862479905811 1 1 1 0.0037675023337177789 1 1 1 1 0.0048867605589242458 1 1 1 1 1 0.006046054382346483 0.0097717087715619554 1 1 1 1 1 1 1 0.0081713141886340171 1 1 1 1 1 1 1 1 1 1 1 1 1 1 1 0.0032672464455990695 1 0.011742620547473184 1 1 0.0044511295242447785 1 1 1 1 1 1 1 1 1 1 0.0078216243611229207 1 1 1 1 1 1 1 1 1 0.011115464055494798 1 1 1 1 1 1 1 1 1 1 1 1 1 1 1 1 1 1 1 1 1 1 1 1 1 1 1 1 1 1 1 1 1 1 1 1 1 1 1 1 1 1 1 1 1 1 1 1 1 1 1 1 1 1 1 1 1 0.0093809381323889905 1 1 1 1 1 1 1 0.010480593862903368 1 1 1 1 1 1 0.0088880778648809354 1 1 0.0095071397324919676 1 1 1 1 1 1 1 1 1 1 1 1 1 1 1 1 1 1 1 1 1 1 1 1 0.0095356193507488366 1 1 1 1 1 1 0.0092131118558380441 1 1 1 1 1 1 1 1 1 1 1 1 1 1 1 1 1 1 0.0084800789333971671 1 1 1 1 0.0086863668336166454 1 1 1 1 0.0070866573630773682 1 1 1 1 1 1 1 1 1 1 1 0.015515547730600078 1 1 1 1 1 1 1 1 1 1 1 0.024637612178325469 1 1 1 1 1 1 1 1 1 1 1 1 1 1 1 1 1 1 1 1 1 1 1 1 1 1 1 1 1 1 1 1 1 1 1 1 1 1 1 1 1 1 1 1 1 1 1 1 1 1 1 1 1 1 1 1 1 1 1 1 1.5947087053658215e-09 0.0058055091225614822 1 1 1 1 1 1 1 1 -1.1155261020467933e-09 1 1 1 1 1 1 1 1 1 1 1 1 1 1 0.03167251857612869 0.0094162521940612115 1 1 1 0.014506244939967744 1 0.026768000217815183 1 1 1 0.00233027538693816 1 1 1 1 1 -4.2717994939989179e-10 0.0080826957773286259 -5.0965422594001497e-09 1 1 1 -6.8684342310887381e-09 1 1 1 1 1 1 1 1 1 1 1 1 1 -3.1993308002853382e-10 1 1 0.0089564042413731726 1 1 1 1 1 1 1 1 1 1 1 1 1 1 1 1 1 1 1 1 1 1 1 1 1 1 1 1 1 1 0.0039233283420481574 1 1 1 1 5.2711687098527804e-10 1 1 1 1 1 1 1 1 1 1 1 1 1 1 1 1 1 1 1 1 1 1 1 1 1 1 1 1 1 1 0.0027388769602980246 1 1 1 1 1 0.0079644286434622687 1 1 1 1 1 1 1 1 1 1 1 1 1 1 1 1 1 1 1 1 1 1 1 1 1 1 1 1 1 1 0.0094471860931005722 1 1 1 1 1 1 1 1 1 1 1 1 1 1 1 1 1 1 1 1 1 1 1 1 1 1 1 1 1 0.0075124893871705706 1 1 1 1 1 1 1 1 1 1 0.007652098012219874 1 1 0.0057159734459237294 1 1 1 0.0051645873993904357 1 1 1 1 1 1 1 1 1 1 0.0086972707456235906 1 0.009923565235068323 1 1 1 1 1 0.008859722785010583 1 1 1 0.010028987370170165 1 1 1 1 0.021211107285525881 1 0.021580637049504574 1 1 1 1 0.0074576029906034524 1 1 1 1.5528518214347198e-08 1 -3.9076700516886553e-09 1 1 1 0.01852972951765134 1 1 1 1 1 0.0097010626890128744 1 1 0.010032644943932433 1 1 1 1 1 1 1 1 1 1 1 1 1 1 1 0.011050379808086347 1 1 1 1 1 1 0.0071641869075812683 0.0096556291293446936 1 0.018757020603136533 1 1 0.010003741723653656 1 1 1 1 0.008734574656523067 1 1 1 1 1 1 0.0083570851551356441 1 1 1 1 0.010294748736155129 1 1 1 1 1 0.0075183685076845204 0.012849721021526279 1 1 1 0.010479402373120119 1 1 0.0061740654020005529 1 1 1 1 1 0.010074685980886795 1 1 1 1 1 1 1 1 1 1 1 1 1 1 1 1 1 1 1 1 1 0.011967536651799754 1 1 1 1 1 1 1 1 1 1 1 1 0.012488084146438783 1 1 1 1 1 0.012183372723018381 1 1 1 0.007815260556069124 1 1 1 1 0.0090393991247684213 1 0.012134163654690696 0.0090088986116418149 1 0.012926950484560891 1 1 1 1 1 1 1 1 1 1 1 1 0.011863890179730534 1 1 1 1 1 0.0099260483143941147 1 0.010022418492556438 1 1 1 1 1 1 1 1 1 1 1 1 1 1 1 1 1 1 1 1 0.0093118809646691933 1 1 1 1 1 1 1 1 1 1 1 0.015044839736947866 1 1 0.009925731899718182 1 1 1 1 1 1 1 1 1 1 1 1 1 1 1 1 1 1 1 1 1 1 1 1 1 1 1 1 1 1 1 1 1 1 1 0.015485837746739117 1 1 1 1 1 1 1 0.015537556748398129 0.011557145993902312 1 1 1 1 0.01056016190401568 1 1 0.010271757302453187 1 1 1 1 0.012043651801097989 0.012259304752388563 1 0.015280047719539539 1 1 0.010873509529260354 1 0.01076540854111765 0.0099955310182201287 1 1 1 1 1 1 1 1 1 1 1 1 1 1 0.00851695566422489 1 1 1 0.0056466941715197019 1 0.011730967610467304 1 1 1 1 1 1 1 1 1 1 1 1 0.013165378837689902 1 1 0.010009008741471726 1 1 0.0012966279809577472 1 1 1 1 1 1 1 1 1 1 1 1 1 1 1 1 -3.6037676037770083e-09 1 0.013236079425076109 1 0.0098620250871446422 1 1 1 1 1 1 1 1 0.004809585388522661 1 1 1 1 1 1 1 1 1 1 1 1 1 1 1 1 1 6.5339889922244598e-09 1 1 1 1 1 1 1 1 1 1 1 1 1 1 1 0.0048952058814544508 0.0099297206133607333 1 1 1 1 0.011567513967001553 1 -7.6006256843896836e-11 1 1 0.010411147163361369 1 1 1 1 1 0.0011301982525696794 1 0.013307396664195781 1 0.012167475913129448 1 1 1 1 0.0083580450075078638 1 1 1 1 1 0.011165384857033622 1 1 1 1 1 1 1 1 1 1 1 1 1 1 1 1 1 1 1 1 1 1 1 1 1 1 1 1 1 1 1 1 0.0079176716994306812 1 0.009106315580457415 0.022331842793146334 1 1 1 1 1 0.0077451837334476664 1 1 1 1 -1.2275620381307917e-08 1 1 0.010058643761482028 1 0.024624382165338042 1 1 1 1 0.0038437482385782623 1 1 1 1 1 1 1 1 1 1 0.0077141318535932733 1 1 1 1 1 1 1 1 1 1 1 1 1 1 1 1 1 1 1 1 1 4.1808311534996534e-09 1 1 1 1 -2.2605582197798846e-09 1 1 1 1 1 1 0.0086502722767697673 1 0.027436060755929515 1 1 1 1 0.025719858042332663 1 1 1 1 1 1 1 1 1 1 1 1 1 1 1 1 0.0066177106756414583 1 1 1 5.977523934164175e-09 1 1 0.020815363598977236 1 1 1 1 0.013514992568706296 1 1 1 1 0.010161779181577886 0.010418383403574418 1 1 1 1 1 1 1 1 1 1 1 1 1 1 1 1 1 1 1 1 1 1 1 1 1 1 1 1 0.0096750877944296893 1 1 1 1 1 1 1 1 1 1 1 1 0.0074176397026268839 1 1 1 1 1 1 1 1 1 1 1 0.026616696419256066 1 1 0.0074642323594348997 1 0.0078033230725284217 1 1 1 0.0085194334609320077 1 1 1 1 1 0.0062049526992894993 1 1 1 0.0099687251627261428 1 1 1 1 1 1 1 1 1 1 1 1 1 1 1 1 1 1 1 1 1 1 1 1 1 1 1 1 1 1 1 1 1 1 1 1 1 1 1 1 1 1 1 1 1 1 1 1 1 1 1 1 1 1 1 1 1 1 1 1 1 1 1 1 1 1 1 1 1 1 1 1 1 1 1 1 1 1 1 0.0097889203671660055 1 1 1 1 1 1 1 1 1 1 1 1 1 1 1 1 1 1 1 1 1 1 1 1 1 1 1 1 1 1 1 1 1 1 1 1 1 1 1 1 1 1 1 0.013666151534677115 0.012685595051103088 0.0053564950480889384 1 1 1 0.00096775764155040273 1 1 1 1 1 1 1 1 0.0099566257821097001 1 1 1 0.0105206696236856 1 1 1 0.0095769667955574456 1 1 0.010051844001454627 1 0.0099035529813610058 1 1 1 1 1 1 1 1 1 1 1 1 1 1 1 1 1 1 0.011370104569160511 1 1 1 1 1 0.0017803311465166421 1 1 1 1 0.0097258697708249783 1 1 1 1 1 1 1 1 1 1 0.010784819198019487 1 1 1 0.010281970183669846 1 0.007664085557316902 1 1 1 0.0075154095793795051 1 1 1 1 1 0.0075150481738667715 1 1 0.0028662770272292817 1 1 1 1 1 1 1 1 1 0.0047586855501553366 1 1 1 1 1 1 1 1 1 1 1 1 1 0.0076841217703183043 1 1 1 1 1 1 1 1 1 1 1 1 1 0.0099958305637773831 1 1 1 1 1 0.0099341094280701939 1 1 1 1 1 1 1 1 1 1 1 1 1 1 0.010575661067853771 1 1 1 1 1 1 1 1 0.0057936599895988539 1 1 1 1 1 1 1 0.0059940837712992232 1 1 1 1 1 1 1 1 1 1 0.0065836395576861079 1 1 1 1 1 1 1 1 1 1 1 1 1 1 1 1 0.011042205955414882 1 1 0.010566507712406687 1 0.010476645143797723 1 1 1 1 1 1 1 1 1 1 1 1 1 1 1 1 1 1 1 1 1 1 1 1 1 1 1 1 1 1 1 1 1 1 1 1 1 1 1 1 1 1 1 1 1 1 1 1 1 1 1 1 1 1 1 1 1 1 0.0088222113273588032 0.032996149152961216 1 1 1 1 1 1 1 1 1 1 1 1 1 1 1 1 1 1 1 1 1 1 1 1 1 1 1 1 1 1 1 1 1 1 1 1 1 1 1 1 1 1 1 1 1 1 1 1 1 1 1 1 1 1 1 1 1 1 1 1 1 1 0.0077970153833089931 0.0075864584467158769 1 1 1 1 1 1 1 1 1 1 1 1 1 0.0088217352583326511 1 1 1 1 1 1 1 1 1 1 1 1 1 1 1 1 1 1 1 1 1 1 1 1 1 1 1 1 1 1 1 1 1 1 1 1 1 1 1 0.012596726160262861 1 1 1 0.017381232852197136 1 1 1 1 0.020664119482294102 1 1 1 1 1 1 1 1 1 1 1 0.010330225858518078 1 1 1 1 1 1 1 1 1 0.022195060902662614 0.0072670451895532964 1 1 1 1 1 1 0.0090152487725353517 1 1 1 1 1 1 1 1 1 1 1 1 1 1 1 1 1 1 1 1 1 0.0097891910936427923 1 1 1 1 1 1 1 1 1 1 1 1 1 1 0.015486655320845652 1 1 0.012157573346847549 1 1 1 1 1 1 1 0.010668172380675233 0.011899933928699423 1 1 1 1 1 0.025954439697186336 1 1 1 1 0.018242267383133066 1 1 1 1 1 1 0.011416891776518702 1 1 1 1 1 1 1 1 1 0.009814540268371981 1 1 1 1 0.014788496883560431 1 0.0065897846891577305 1 1 0.0076790639166962864 1 1 1 0.011131568979215627 1 1 1 1 1 0.012927534310592993 1 1 1 1 1 0.0098634273002793094 0.012085553318861561 1 1 0.010210053132778223 1 1 1 1 1 1 1 1 0.0094897848900381832 1 1 0.0085078294389412112 1 0.011204409314625866 1 1 1 1 1 1 1 1 0.010553002116225573 1 1 1 1 1 1 1 1 1 1 1 1 1 1 1 1 1 1 1 1 0.011420211025459469 1 1 1 0.011188405661106874 0.010726592623091922 1 1 1 1 1 0.0041613195927778235 1 1 0.0081168640706200113 1 1 1 1 1 1 1 1 1 1 1 1 1 1 1 1 1 1 1 0.010047576411501939 1 1 0.011660102322003998 1 1 1 1 1 1 1 1 0.01122382430703677 1 1 0.012400795803382172 1 1 1 1 1 0.0093676117821822544 0.01153988301277304 1 0.0092982627396504744 1 1 1 1 1 1 1 1 0.011981823952222213 1 1 1 1 0.010159581696608883 1 1 1 1 1 0.010159482848091192 1 1 1 1 1 1 1 0.0099773649189675365 1 1 1 1 1 1 0.028617583604159728 1 1 0.018142378985693618 1 1 1 0.01416387351028621 0.011270559171106545 1 1 0.031051673825417125 1 1 1 1 1 1 1 1 0.032956620374014076 1 -2.6039962547352857e-10 0.033929874384255376 1 1 1 1 1 1 1 1 1 1 1 1 0.0098899371994471547 1 1 1 1 0.0035932402696469759 1 1 1 1 1 1 1 1 1 1 1 1 1 1 1 1 0.01005649538060735 0.005264758297760963 1 1 1 1 1 1 1 1 1 1 1 1 1 1 0.010263842056021344 0.015315506086909802 1 1 1 1 1 1 1 1 1 1 0.0087982685364223559 1 1 1 1 1 1 1 0.0098683682407404438 1 1 1 1 1 0.0096720891836742998 1 0.008826622471406427 0.0063104577219780453 1 1 1 1 1 1 1 1 1 1 0.0098037209429338822 1 1 1 1 1 1 1 1 1 1 1 1 1 0.013552749667185655 1 1 1 0.0078886792536498468 1 1 1 1 1 1 1 1 1 1 1 1 1 1 1 1 1 1 1 1 1 1 1 1 1 1 1 1 1 1 1 1 1 1 1 1 1 1 1 1 1 1 1 1 0.010342800398590373 1 1 0.015504480476433959 1 1 1 1 1 1 1 0.014273966762948532 1 1 1 1 0.010093485587850958 1 1 1 1 1 1 1 1 1 1 0.015116974647417583 1 1 1 1 0.014736311644555302 1 1 0.010098411145428764 1 1 1 1 1 1 1 1 1 1 1 1 1 1 1 1 1 0.011068882628039282 0.017512110787663383 1 1 1 1 1 1 1 1 1 0.0082016952853934608 0.015638666443032724 0.0095502974877411731 1 1 0.014230272159260399 1 1 1 1 1 1 1 1 1 1 1 0.0098859858918249055 1 0.012209075805117389 1 1 1 1 1 1 0.010526853501318871 1 1 1 1 1 1 1 1 1 1 1 1 0.008124321568901284 1 1 1 1 1 0.017577913131307889 0.020519638093572753 1 1 1 1 1 1 1 1 1 0.021257148215901883 1 1 1 1 0.011819535258233125 1 1 1 1 1 1 1 1 1 1 1 1 1 1 1 1 1 1 1 1 1 1 1 1 1 1 1 1 1 1 0.015524380120644013 1 1 1 1 1 1 1 0.021323145357058523 1 1 1 1 1 1 1 1 1 1 1 1 1 1 1 1 1 1 1 1 1 1 0.012817389817708837 1 1 1 1 1 0.017813656023735115 1 1 1 1 1 0.012049211847811943 1 0.01000252879303308 1 1 0.010588975486476047 1 1 1 1 1 1 1 1 1 1 1 1 1 1 1 1 1 1 0.010832775690496975 1 1 1 1 1 1 0.011878051879497732 1 1 1 1 1 0.010104429386215051 1 1 1 0.015550263225875161 1 1 1 1 0.010243089176647971 1 0.010206688560143153 0.011617853105791144 1 1 1 0.0086238694200694785 0.0099972376357571474 1 1 0.010237509364214026 1 0.0068359005248844404 1 0.006653172360652361 1 1 0.01206671822489383 0.011664935976969076 1 1 0.0089611597988184712 1 1 0.0067758936354645749 1 1 0.013183643893053834 0.011013734381937057 1 1 0.014356356504279147 1 1 1 0.0099968937429814053 1 1 0.0062072002841774068 0.012348762466313236 1 0.014403436365989191 1 1 1 1 0.00948653203379448 1 1 1 1 0.008307297850848043 1 1 0.0094044561444506652 1 1 0.0094808924833878136 1 1 1 1 1 1 1 0.01474292476873313 1 1 0.014652427669315619 1 1 1 1 0.010843318026566393 1 1 1 0.010661627149522894 1 1 1 1 1 0.010226834192543083 1 1 1 1 1 1 1 1 1 1 0.0099120490343183373 0.0099324518543793469 1 1 1 0.010232361291896509 1 1 0.0097293692707024343 1 1 1 1 1 0.0090500031360991814 1 0.010649007654785214 0.011108630899191292 1 1 0.010000809977158166 1 1 1 0.0087725535474860675 1 0.0076554707936425069 0.010008750687968027 1 0.011403048112787716 0.0064556566509294724 1 1 1 0.011345479650679086 1 0.0093943683290819147 1 0.0098068099521442589 1 0.011841449020315781 1 0.0073899459311810439 1 0.0077104674528503184 0.0065520282786927994 1 1 1 1 1 1 0.0094042345895377216 0.010771090378914522 1 0.01105453121150933 0.0099384887970100644 1 1 1 1 0.0063077429848176284 1 1 1 1 0.0098956471502985657 1 1 1 1 1 0.010107009842284659 1 1 1 1 1 1 1 1 1 0.0085858625304437788 1 1 1 1 0.0065038642310729713 1 0.009967179474285992 0.0073149891363010894 1 1 1 1 0.010689981334344824 1 1 1 1 1 0.0076642803205135973 1 0.0094214320806730867 1 1 1 1 1 1 1 1 1 1 0.0099291988573188446 1 1 1 1 0.010363844436856744 1 1 1 1 1 1 1 1 1 0.011139807616105866 1 1 1 1 1 1 1 1 1 1 1 1 1 1 1 1 1 1 1 1 1 1 1 0.0090824348686659832 1 1 1 1 1 1 1 1 0.01076794268247485 1 1 1 1 1 0.0074338558377711195 1 1 1 1 1 1 1 1 1 1 1 1 1 1 1 1 1 1 1 1 1 1 1 1 1 1 0.0084698221112892332 1 1 0.0077077272972701782 1 1 1 1 1 1 0.006335987366020656 1 1 0.0062175862238365645 1 1 1 1 1 0.010705162036567939 1 1 1 1 1 1 1 1 0.0035209887171094717 1 1 1 0.00036082194407605073 1 0.014503694953722876 1 1 1 1 0.011588760371314934 1 1 1 1 0.0060020845920976604 1 1 1 1 0.0060553632793713952 1 1 0.014472681409934952 1 1 1 1 0.013158300148614235 1 1 0.0049110887533053288 1 1 1 1 1 1 1 0.01174635887793634 1 1 1 1 0.0091981483910602221 1 1 1 1 1 1 1 1 1 0.0075221938219302842 1 1 0.01261788769330998 1 0.013439875673569392 0.0076867851020948064 1 1 1 1 1 1 1 1 0.011417094276147149 1 1 1 1 1 1 1 1 1 1 1 1 0.0056828276000631117 1 1 0.0092464076280340951 1 1 1 1 1 0.0055282720897283852 1 1 1 1 1 0.0052056924489055426 1 1 0.0044742182364102892 1 1 0.0039091308602620806 1 1 1 1 1 1 1 1 1 1 0.016215156763905531 1 1 1 0.0069322835938641567 0.023347966988868925 1 1 0.0034222067180358293 1 1 1 1 0.02268874168688275 1 1 -3.6773999192996065e-09 1 1 1 1 1 1 1 1 1 1 -7.886454198025028e-10 1 1 1 1 1 1 1 1 0.0018764591776378042 1 1 1 1 1 1 1 1 1 1 1 1 1 1 1 1 1 1 1 1 1 0.008885863611799813 1 1 1 1 1 1 1 1 1 0.0093724395786133341 1 1 1 0.0091349680364464711 1 1 1 0.0088402380077155646 1 1 1 1 1 1 1 1 1 1 1 1 1 1 1 1 1 1 1 1 1 1 0.015001385542149637 1 1 1 0.0098170678973819783 1 0.0094685863272370094 1 1 1 0.006446435075612364 1 1 0.026701211949040949 0.023609255434569064 1 0.026835961973432687 1 1 1 1 1 1 0.023094279051539594 1 0.024383232181677535 1 0.013243997780290506 1 1 0.0096456804154900575 1 1 0.010262250934951579 1 1 1 1 1 1 1 1 1 0.0020889041303665205 1 0.0096917634963502586 1 1 1 1 1 -4.0736266183200032e-09 1 1 0.031878923030904324 1 1 1 1 1 1 1 1 1 1 0.0042211181542377574 0.023030281398483773 0.020721073432798623 1.3273894188675639e-09 1 0.02083608285020001 1 1 1 2.4924909844403764e-09 1 0.0099998816724457349 1 1 1 0.021696482155485679 0.0089261898311914483 1 1 1 0.022491912404572958 1 1 0.025217871825836048 0.0097247815178476294 1 0.02873106979050712 1 1 1 1 1 1 1 1 1 1 1 1 1 1 1 1 1 1 1 1 1 0.015695933996376612 0.012856483939019949 1 1 1 1 1 1 0.012896254010114832 1 0.010234782776797725 1 1 1 1 1 1 1 1 1 1 1 1 1 1 1 1 1 1 1 1 1 1 1 1 1 1 1 0.0045917756301466425 1 1 1 1 1 0.012365318234306769 1 0.0076750755819161211 1 1 1 1 1 1 1 1 1 0.0073750662981798311 1 1 1 1 1 1 1 1 0.010019234599837305 0.031575777713492348 1 1 0.01890555163333249 0.00970261767912875 1 1 1 1 1 1 1 1 0.012632608521483395 1 1 1 1 1 1 1 1 1 1 1 1 1 1 1 1 1 1 0.016405002931559338 1 1 1 1 1 1 1 0.01628127036644688 1 1 1 1 1 1 1 1 1 0.014351824336830188 1 0.015310232801802916 1 0.014636388694555268 1 1 0.019515295852050765 1 1 1 1 1 1 1 1 1 1 1 0.013435044990780388 1 1 1 1 1 1 1 1 1 0.011685073550096757 1 1 1 1 1 1 1 1 1 1 1 1 1 1 1 1 0.011161201244975501 1 1 1 1 1 1 0.015407348959505483 1 1 0.0091953470270833108 1 1 1 1 1 1 1 1 1 1 1 1 1 1 1 1 1 1 1 1 1 0.0096672973054606239 1 0.0090433288558155744 0.014720132492338903 1 1 1 1 0.014918711382444591 1 1 1 1 1 1 1 1 0.010739113413149573 1 1 1 1 0.010905802121122868 0.0095192758221525273 1 1 1 1 1 1 1 1 1 1 1 0.0097207932326942095 0.0072689521349346281 1 1 1 1 1 1 0.020374449731768496 1 1 1 1 1 0.022073729325891696 1 0.0091398099710569836 1 1 0.011713846671621116 1 0.011588750324804376 1 1 1 1 1 1 0.010670383314350877 1 1 1 1 1 1 1 1 1 1 1 1 1 0.0097077718063142415 1 1 1 1 0.0079667384186300413 1 1 0.0090130774447878745 1 1 1 1 1 1 1 1 1 0.0089536609738421723 1 1 1 1 1 1 1 1 0.0070568998927284 1 1 1 1 1 1 1 1 1 1 1 1 0.0032295039309140142 1 1 0.0038867358917788891 1 1 1 1 1 1 1 1 1 1 0.0071471261432439646 1 1 1 1 1 1 1 0.0041611279901927044 1 1 1 0.0070140018469487357 1 1 1 1 1 1 1 1 0.0071398999691239459 0.017085243513112233 1 0.0051583086421665286 1 0.020083316978616914 1 1 1 1 1 1 1 1 1 1 1 1 1 1 0.012528909986511828 1 1 1 1 0.010437066381257546 1 0.024081764602311356 0.022426752519349988 1 1 1 1 1 1 1 1 1 1 1 1 1 1 0.020979796446542007 1 1 1 1 1 1 1 1 0.020545948187284661 1 1 1 1 1 1 1 1 1 1 1 1 1 1 1 1 0.02213462777013997 0.012302095366168997 1 1 1 1 1 1 1 1 1 1 1 1 1 1 1 1 1 1 1 0.022520226684072414 0.021553738978512836 1 1 1 1 1 1 1 1 1 1 1 1 1 1 1 1 1 1 0.0074252681491050049 1 1 0.0081419824929246602 1 1 1 1 1 1 1 1 1 0.010422254119869689 1 1 1 0.010068158105389854 1 1 1 1 1 1 1 1 1 1 1 1 1 1 1 1 0.0074749134911785767 1 1 1 0.0092980815346022233 1 1 1 1 1 1 1 1 1 1 
</DataArray>
</CellData>
</Piece>
</UnstructuredGrid>
</VTKFile>
