<?xml version="1.0"?>
<VTKFile type="UnstructuredGrid" version="0.1" byte_order="LittleEndian">
<UnstructuredGrid>
<Piece NumberOfPoints="30181" NumberOfCells="10490">
<Points>
<DataArray type="Float64" NumberOfComponents="3" format="ascii">
-0.5 -0.5 0 -0.48925352376337772 -0.49999999999999872 0 -0.48944170270252307 -0.47877281128923699 0 -0.48925352376337772 -0.49999999999999872 0 -0.48944170270252307 -0.47877281128923699 0 -0.48092464073642299 -0.48949177903292052 0 -0.5 -0.5 0 -0.48944170270252307 -0.47877281128923699 0 -0.50000000000000067 -0.4622044869987938 0 -0.48925352376337772 -0.49999999999999872 0 -0.48092464073642299 -0.48949177903292052 0 -0.48944170270252307 -0.47877281128923699 0 -0.48092464073642299 -0.48949177903292052 0 -0.4792502830406713 -0.46118275872615561 0 -0.48092464073642299 -0.48949177903292052 0 -0.4792502830406713 -0.46118275872615561 0 -0.46928404551414182 -0.47480530230031082 0 -0.48092464073642299 -0.48949177903292052 0 -0.4792502830406713 -0.46118275872615561 0 -0.46928404551414182 -0.47480530230031082 0 -0.48092464073642299 -0.48949177903292052 0 -0.46691213954922239 -0.48841354319132257 0 -0.46928404551414182 -0.47480530230031082 0 -0.48092464073642299 -0.48949177903292052 0 -0.48925352376337772 -0.49999999999999872 0 -0.48154615714547749 -0.49999999999999778 0 -0.48092464073642299 -0.48949177903292052 0 -0.48154615714547749 -0.49999999999999778 0 -0.48092464073642299 -0.48949177903292052 0 -0.48154615714547749 -0.49999999999999778 0 -0.48092464073642299 -0.48949177903292052 0 -0.46691213954922239 -0.48841354319132257 0 -0.45429505028884648 -0.5 0 -0.46691213954922239 -0.48841354319132257 0 -0.44851080406122229 -0.47777063462338382 0 -0.48154615714547749 -0.49999999999999778 0 -0.45429505028884648 -0.5 0 -0.46691213954922239 -0.48841354319132257 0 -0.46928404551414182 -0.47480530230031082 0 -0.46691213954922239 -0.48841354319132257 0 -0.44851080406122229 -0.47777063462338382 0 -0.46928404551414182 -0.47480530230031082 0 -0.44851080406122229 -0.47777063462338382 0 -0.45764345029186232 -0.46011882556769962 0 -0.45429505028884648 -0.5 0 -0.44851080406122229 -0.47777063462338382 0 -0.43459986511559828 -0.48691954309780988 0 -0.45429505028884648 -0.5 0 -0.43459986511559828 -0.48691954309780988 0 -0.42704394343221552 -0.5 0 -0.43822739075273393 -0.44060553300474292 0 -0.44829184202052208 -0.4483202727731978 0 -0.45701736274921212 -0.4325691351023086 0 -0.43822739075273393 -0.44060553300474292 0 -0.44829184202052208 -0.4483202727731978 0 -0.4370454374196342 -0.45910456729357529 0 -0.44851080406122229 -0.47777063462338382 0 -0.45764345029186232 -0.46011882556769962 0 -0.4370454374196342 -0.45910456729357529 0 -0.44829184202052208 -0.4483202727731978 0 -0.45764345029186232 -0.46011882556769962 0 -0.4370454374196342 -0.45910456729357529 0 -0.45764345029186232 -0.46011882556769962 0 -0.4370454374196342 -0.45910456729357529 0 -0.44829184202052208 -0.4483202727731978 0 -0.45764345029186232 -0.46011882556769962 0 -0.46928404551414182 -0.47480530230031082 0 -0.45764345029186232 -0.46011882556769962 0 -0.4792502830406713 -0.46118275872615561 0 -0.45764345029186232 -0.46011882556769962 0 -0.4792502830406713 -0.46118275872615561 0 -0.45764345029186232 -0.46011882556769962 0 -0.46402456569677591 -0.44817605639379748 0 -0.4792502830406713 -0.46118275872615561 0 -0.46928404551414182 -0.47480530230031082 0 -0.45764345029186232 -0.46011882556769962 0 -0.44829184202052208 -0.4483202727731978 0 -0.46402456569677591 -0.44817605639379748 0 -0.45701736274921212 -0.4325691351023086 0 -0.44829184202052208 -0.4483202727731978 0 -0.45764345029186232 -0.46011882556769962 0 -0.46402456569677591 -0.44817605639379748 0 -0.46402456569677591 -0.44817605639379748 0 -0.47791989038161142 -0.4386892897996269 0 -0.45701736274921212 -0.4325691351023086 0 -0.46402456569677591 -0.44817605639379748 0 -0.47791989038161142 -0.4386892897996269 0 -0.4792502830406713 -0.46118275872615561 0 -0.47791989038161142 -0.4386892897996269 0 -0.4792502830406713 -0.46118275872615561 0 -0.47791989038161142 -0.4386892897996269 0 -0.4792502830406713 -0.46118275872615561 0 -0.48957491549189841 -0.4472693056016917 0 -0.4792502830406713 -0.46118275872615561 0 -0.50000000000000067 -0.4622044869987938 0 -0.4792502830406713 -0.46118275872615561 0 -0.50000000000000067 -0.4622044869987938 0 -0.48957491549189841 -0.4472693056016917 0 -0.48944170270252307 -0.47877281128923699 0 -0.4792502830406713 -0.46118275872615561 0 -0.50000000000000067 -0.4622044869987938 0 -0.50000000000000067 -0.4622044869987938 0 -0.48957491549189841 -0.4472693056016917 0 -0.5 -0.43637541736762142 0 -0.47791989038161142 -0.4386892897996269 0 -0.49070440403720861 -0.43789457511626112 0 -0.48957491549189841 -0.4472693056016917 0 -0.49070440403720861 -0.43789457511626112 0 -0.48957491549189841 -0.4472693056016917 0 -0.5 -0.43637541736762142 0 -0.49070440403720861 -0.43789457511626112 0 -0.5 -0.43637541736762142 0 -0.49935560617887592 -0.43407458950238342 0 -0.5 -0.43637541736762142 0 -0.49935560617887592 -0.43407458950238342 0 -0.5 -0.41054634773644899 0 -0.49935560617887592 -0.43407458950238342 0 -0.48615162819049962 -0.42817992967234741 0 -0.48730735562118171 -0.41388847072447721 0 -0.49935560617887592 -0.43407458950238342 0 -0.48730735562118171 -0.41388847072447721 0 -0.49070440403720861 -0.43789457511626112 0 -0.49935560617887592 -0.43407458950238342 0 -0.48615162819049962 -0.42817992967234741 0 -0.47791989038161142 -0.4386892897996269 0 -0.49070440403720861 -0.43789457511626112 0 -0.48615162819049962 -0.42817992967234741 0 -0.49935560617887592 -0.43407458950238342 0 -0.5 -0.41054634773644899 0 -0.48730735562118171 -0.41388847072447721 0 -0.5 -0.41054634773644899 0 -0.48730735562118171 -0.41388847072447721 0 -0.49284196856233692 -0.4049072309149564 0 -0.48615162819049962 -0.42817992967234741 0 -0.48730735562118171 -0.41388847072447721 0 -0.47658949772255138 -0.41619582087309831 0 -0.48730735562118171 -0.41388847072447721 0 -0.47658949772255138 -0.41619582087309831 0 -0.47525910506348917 -0.39370235194656988 0 -0.47791989038161142 -0.4386892897996269 0 -0.48615162819049962 -0.42817992967234741 0 -0.47658949772255138 -0.41619582087309831 0 -0.47791989038161142 -0.4386892897996269 0 -0.47658949772255138 -0.41619582087309831 0 -0.47791989038161142 -0.4386892897996269 0 -0.47658949772255138 -0.41619582087309831 0 -0.45701736274921212 -0.4325691351023086 0 -0.48663019096408588 -0.38235932780106241 0 -0.5 -0.38471727810527673 0 -0.49066969571407409 -0.36911687410203697 0 -0.5 -0.41054634773644899 0 -0.5 -0.38471727810527673 0 -0.49284196856233692 -0.4049072309149564 0 -0.48663019096408588 -0.38235932780106241 0 -0.5 -0.38471727810527673 0 -0.49284196856233692 -0.4049072309149564 0 -0.48663019096408588 -0.38235932780106241 0 -0.49284196856233692 -0.4049072309149564 0 -0.47525910506348917 -0.39370235194656988 0 -0.48730735562118171 -0.41388847072447721 0 -0.49284196856233692 -0.4049072309149564 0 -0.47525910506348917 -0.39370235194656988 0 -0.48663019096408588 -0.38235932780106241 0 -0.49284196856233692 -0.4049072309149564 0 -0.48730735562118171 -0.41388847072447721 0 -0.47525910506348917 -0.39370235194656988 0 -0.47658949772255138 -0.41619582087309831 0 -0.47525910506348917 -0.39370235194656988 0 -0.47658949772255138 -0.41619582087309831 0 -0.47525910506348917 -0.39370235194656988 0 -0.4639634444888831 -0.4010317390274768 0 -0.48663019096408588 -0.38235932780106241 0 -0.47525910506348917 -0.39370235194656988 0 -0.47379019254736299 -0.36886687362944293 0 -0.47525910506348917 -0.39370235194656988 0 -0.47379019254736299 -0.36886687362944293 0 -0.47525910506348917 -0.39370235194656988 0 -0.46643414964674729 -0.37891667020805098 0 -0.47379019254736299 -0.36886687362944293 0 -0.47525910506348917 -0.39370235194656988 0 -0.46643414964674729 -0.37891667020805098 0 -0.45355734214240589 -0.376041381016815 0 -0.45792882752233471 -0.38202812533333752 0 -0.46643414964674729 -0.37891667020805098 0 -0.45355734214240589 -0.376041381016815 0 -0.45792882752233471 -0.38202812533333752 0 -0.45153325847904757 -0.38570781229211998 0 -0.45792882752233471 -0.38202812533333752 0 -0.46643414964674729 -0.37891667020805098 0 -0.46019055982113838 -0.38744663781636429 0 -0.46643414964674729 -0.37891667020805098 0 -0.46019055982113838 -0.38744663781636429 0 -0.47525910506348917 -0.39370235194656988 0 -0.46643414964674729 -0.37891667020805098 0 -0.46019055982113838 -0.38744663781636429 0 -0.46019055982113838 -0.38744663781636429 0 -0.45329421130429282 -0.39571135683353548 0 -0.45153325847904757 -0.38570781229211998 0 -0.45792882752233471 -0.38202812533333752 0 -0.46019055982113838 -0.38744663781636429 0 -0.45153325847904757 -0.38570781229211998 0 -0.45329421130429282 -0.39571135683353548 0 -0.4639634444888831 -0.4010317390274768 0 -0.45448384853294499 -0.41210252766781508 0 -0.46019055982113838 -0.38744663781636429 0 -0.45329421130429282 -0.39571135683353548 0 -0.4639634444888831 -0.4010317390274768 0 -0.47525910506348917 -0.39370235194656988 0 -0.46019055982113838 -0.38744663781636429 0 -0.4639634444888831 -0.4010317390274768 0 -0.45329421130429282 -0.39571135683353548 0 -0.44537783921358182 -0.40320939540976408 0 -0.45448384853294499 -0.41210252766781508 0 -0.44537783921358182 -0.40320939540976408 0 -0.44321355290953351 -0.39294884341074199 0 -0.43493612010632798 -0.40153184941571879 0 -0.44537783921358182 -0.40320939540976408 0 -0.44020499824919412 -0.41194831258951581 0 -0.43493612010632798 -0.40153184941571879 0 -0.44321355290953351 -0.39294884341074199 0 -0.43541575146154848 -0.38971344007111708 0 -0.43493612010632798 -0.40153184941571879 0 -0.45329421130429282 -0.39571135683353548 0 -0.44537783921358182 -0.40320939540976408 0 -0.44321355290953351 -0.39294884341074199 0 -0.45329421130429282 -0.39571135683353548 0 -0.44321355290953351 -0.39294884341074199 0 -0.45153325847904757 -0.38570781229211998 0 -0.44321355290953351 -0.39294884341074199 0 -0.45153325847904757 -0.38570781229211998 0 -0.44266088199960768 -0.38301798603775677 0 -0.44321355290953351 -0.39294884341074199 0 -0.44266088199960768 -0.38301798603775677 0 -0.43541575146154848 -0.38971344007111708 0 -0.44266088199960768 -0.38301798603775677 0 -0.43143619569883618 -0.3807910407292982 0 -0.44080919130627533 -0.37290539870644862 0 -0.45355734214240589 -0.376041381016815 0 -0.44266088199960768 -0.38301798603775677 0 -0.44080919130627533 -0.37290539870644862 0 -0.45355734214240589 -0.376041381016815 0 -0.45153325847904757 -0.38570781229211998 0 -0.44266088199960768 -0.38301798603775677 0 -0.47658949772255138 -0.41619582087309831 0 -0.45701736274921212 -0.4325691351023086 0 -0.45448384853294499 -0.41210252766781508 0 -0.47658949772255138 -0.41619582087309831 0 -0.4639634444888831 -0.4010317390274768 0 -0.45448384853294499 -0.41210252766781508 0 -0.45448384853294499 -0.41210252766781508 0 -0.44020499824919412 -0.41194831258951581 0 -0.44162747202674119 -0.42638594139674463 0 -0.44537783921358182 -0.40320939540976408 0 -0.45448384853294499 -0.41210252766781508 0 -0.44020499824919412 -0.41194831258951581 0 -0.43822739075273393 -0.44060553300474292 0 -0.45701736274921212 -0.4325691351023086 0 -0.44162747202674119 -0.42638594139674463 0 -0.45701736274921212 -0.4325691351023086 0 -0.45448384853294499 -0.41210252766781508 0 -0.44162747202674119 -0.42638594139674463 0 -0.44162747202674119 -0.42638594139674463 0 -0.42308678143514278 -0.41290367479454959 0 -0.41976710299127501 -0.43549699190700081 0 -0.43822739075273393 -0.44060553300474292 0 -0.44162747202674119 -0.42638594139674463 0 -0.41976710299127501 -0.43549699190700081 0 -0.44020499824919412 -0.41194831258951581 0 -0.44162747202674119 -0.42638594139674463 0 -0.42308678143514278 -0.41290367479454959 0 -0.44020499824919412 -0.41194831258951581 0 -0.42308678143514278 -0.41290367479454959 0 -0.43493612010632798 -0.40153184941571879 0 -0.42308678143514278 -0.41290367479454959 0 -0.41314038743749371 -0.39616870865545628 0 -0.40303788026498821 -0.42320625794195788 0 -0.42308678143514278 -0.41290367479454959 0 -0.41976710299127501 -0.43549699190700081 0 -0.40303788026498821 -0.42320625794195788 0 -0.41976710299127501 -0.43549699190700081 0 -0.40303788026498821 -0.42320625794195788 0 -0.40808202907956881 -0.44426899481396143 0 -0.42308678143514278 -0.41290367479454959 0 -0.41976710299127501 -0.43549699190700081 0 -0.42214879926461002 -0.37702160012957853 0 -0.43143619569883618 -0.3807910407292982 0 -0.43112444988364768 -0.37166456927137781 0 -0.42214879926461002 -0.37702160012957853 0 -0.43143619569883618 -0.3807910407292982 0 -0.42146516837926101 -0.38387523834656212 0 -0.43143619569883618 -0.3807910407292982 0 -0.44080919130627533 -0.37290539870644862 0 -0.43112444988364768 -0.37166456927137781 0 -0.43143619569883618 -0.3807910407292982 0 -0.43541575146154848 -0.38971344007111708 0 -0.42640645987901049 -0.39031035768209837 0 -0.44266088199960768 -0.38301798603775677 0 -0.43143619569883618 -0.3807910407292982 0 -0.43541575146154848 -0.38971344007111708 0 -0.43143619569883618 -0.3807910407292982 0 -0.42640645987901049 -0.39031035768209837 0 -0.42146516837926101 -0.38387523834656212 0 -0.42308678143514278 -0.41290367479454959 0 -0.42640645987901049 -0.39031035768209837 0 -0.42308678143514278 -0.41290367479454959 0 -0.42640645987901049 -0.39031035768209837 0 -0.43493612010632798 -0.40153184941571879 0 -0.43541575146154848 -0.38971344007111708 0 -0.42640645987901049 -0.39031035768209837 0 -0.43493612010632798 -0.40153184941571879 0 -0.42308678143514278 -0.41290367479454959 0 -0.42640645987901049 -0.39031035768209837 0 -0.41314038743749371 -0.39616870865545628 0 -0.42214879926461002 -0.37702160012957853 0 -0.40672419508372543 -0.38319117667896602 0 -0.41999398727757992 -0.36558597562168837 0 -0.42640645987901049 -0.39031035768209837 0 -0.41314038743749371 -0.39616870865545628 0 -0.42146516837926101 -0.38387523834656212 0 -0.42146516837926101 -0.38387523834656212 0 -0.40672419508372543 -0.38319117667896602 0 -0.41314038743749371 -0.39616870865545628 0 -0.42146516837926101 -0.38387523834656212 0 -0.40672419508372543 -0.38319117667896602 0 -0.42214879926461002 -0.37702160012957853 0 -0.42146516837926101 -0.38387523834656212 0 -0.40672419508372543 -0.38319117667896602 0 -0.40672419508372543 -0.38319117667896602 0 -0.38079995851095932 -0.38198815051877821 0 -0.40672419508372543 -0.38319117667896602 0 -0.38079995851095932 -0.38198815051877821 0 -0.39910007806051812 -0.37234269635524331 0 -0.40672419508372543 -0.38319117667896602 0 -0.38998633076296307 -0.40539751286959219 0 -0.38079995851095932 -0.38198815051877821 0 -0.41314038743749371 -0.39616870865545628 0 -0.40672419508372543 -0.38319117667896602 0 -0.38998633076296307 -0.40539751286959219 0 -0.40672419508372543 -0.38319117667896602 0 -0.38998633076296307 -0.40539751286959219 0 -0.38998633076296307 -0.40539751286959219 0 -0.38079995851095932 -0.38198815051877821 0 -0.36594174409826391 -0.40387935262032981 0 -0.40303788026498821 -0.42320625794195788 0 -0.39361344716336988 -0.44096082847244461 0 -0.40808202907956881 -0.44426899481396143 0 -0.41314038743749371 -0.39616870865545628 0 -0.38998633076296307 -0.40539751286959219 0 -0.40303788026498821 -0.42320625794195788 0 -0.38998633076296307 -0.40539751286959219 0 -0.40303788026498821 -0.42320625794195788 0 -0.37324846644220028 -0.4276038490602182 0 -0.38998633076296307 -0.40539751286959219 0 -0.37324846644220028 -0.4276038490602182 0 -0.36594174409826391 -0.40387935262032981 0 -0.38998633076296307 -0.40539751286959219 0 -0.37324846644220028 -0.4276038490602182 0 -0.40303788026498821 -0.42320625794195788 0 -0.39361344716336988 -0.44096082847244461 0 -0.37324846644220028 -0.4276038490602182 0 -0.37884377063561719 -0.44648062912803171 0 -0.39361344716336988 -0.44096082847244461 0 -0.37324846644220028 -0.4276038490602182 0 -0.37884377063561719 -0.44648062912803171 0 -0.39361344716336988 -0.44096082847244461 0 -0.39085411848450091 -0.45651721341316193 0 -0.39361344716336988 -0.44096082847244461 0 -0.40149569651451611 -0.45256294551243309 0 -0.39085411848450091 -0.45651721341316193 0 -0.39361344716336988 -0.44096082847244461 0 -0.40149569651451611 -0.45256294551243309 0 -0.40808202907956881 -0.44426899481396143 0 -0.40149617149088729 -0.46418197984742993 0 -0.39085411848450091 -0.45651721341316193 0 -0.39244881642664231 -0.47337073247913269 0 -0.40149569651451611 -0.45256294551243309 0 -0.40149617149088729 -0.46418197984742993 0 -0.41090462706320569 -0.45781737840983361 0 -0.40149569651451611 -0.45256294551243309 0 -0.40149617149088729 -0.46418197984742993 0 -0.39085411848450091 -0.45651721341316193 0 -0.39085411848450091 -0.45651721341316193 0 -0.37518759010407982 -0.46258392072394028 0 -0.39244881642664231 -0.47337073247913269 0 -0.37884377063561719 -0.44648062912803171 0 -0.39085411848450091 -0.45651721341316193 0 -0.37518759010407982 -0.46258392072394028 0 -0.38626619043482191 -0.48848186047117942 0 -0.39244881642664231 -0.47337073247913269 0 -0.36823194335804937 -0.480893645469608 0 -0.37518759010407982 -0.46258392072394028 0 -0.39244881642664231 -0.47337073247913269 0 -0.36823194335804937 -0.480893645469608 0 -0.38626619043482191 -0.48848186047117942 0 -0.37254172971895338 -0.5 0 -0.36823194335804937 -0.480893645469608 0 -0.38626619043482191 -0.48848186047117942 0 -0.3997928365755844 -0.5 0 -0.37254172971895338 -0.5 0 -0.38626619043482191 -0.48848186047117942 0 -0.39917809764234258 -0.48568015398351988 0 -0.3997928365755844 -0.5 0 -0.39917809764234258 -0.48568015398351988 0 -0.3997928365755844 -0.5 0 -0.41212153172299648 -0.48753179560588028 0 -0.38626619043482191 -0.48848186047117942 0 -0.39917809764234258 -0.48568015398351988 0 -0.39244881642664231 -0.47337073247913269 0 -0.39917809764234258 -0.48568015398351988 0 -0.39244881642664231 -0.47337073247913269 0 -0.40308502620555359 -0.47552958698732811 0 -0.39917809764234258 -0.48568015398351988 0 -0.40308502620555359 -0.47552958698732811 0 -0.41212153172299648 -0.48753179560588028 0 -0.40149617149088729 -0.46418197984742993 0 -0.40308502620555359 -0.47552958698732811 0 -0.40881095620600982 -0.46863020997398469 0 -0.40149617149088729 -0.46418197984742993 0 -0.39244881642664231 -0.47337073247913269 0 -0.40308502620555359 -0.47552958698732811 0 -0.41212153172299648 -0.48753179560588028 0 -0.42684004583200258 -0.47434862238063408 0 -0.41644742454740608 -0.45809030901945191 0 -0.40308502620555359 -0.47552958698732811 0 -0.41212153172299648 -0.48753179560588028 0 -0.40881095620600982 -0.46863020997398469 0 -0.41212153172299648 -0.48753179560588028 0 -0.40881095620600982 -0.46863020997398469 0 -0.41644742454740608 -0.45809030901945191 0 -0.41212153172299648 -0.48753179560588028 0 -0.41644742454740608 -0.45809030901945191 0 -0.3997928365755844 -0.5 0 -0.41212153172299648 -0.48753179560588028 0 -0.42704394343221552 -0.5 0 -0.41212153172299648 -0.48753179560588028 0 -0.43459986511559828 -0.48691954309780988 0 -0.42704394343221552 -0.5 0 -0.44851080406122229 -0.47777063462338382 0 -0.43459986511559828 -0.48691954309780988 0 -0.42684004583200258 -0.47434862238063408 0 -0.41212153172299648 -0.48753179560588028 0 -0.43459986511559828 -0.48691954309780988 0 -0.42684004583200258 -0.47434862238063408 0 -0.44851080406122229 -0.47777063462338382 0 -0.42684004583200258 -0.47434862238063408 0 -0.4370454374196342 -0.45910456729357529 0 -0.4370454374196342 -0.45910456729357529 0 -0.41644742454740608 -0.45809030901945191 0 -0.42684004583200258 -0.47434862238063408 0 -0.4370454374196342 -0.45910456729357529 0 -0.41644742454740608 -0.45809030901945191 0 -0.4370454374196342 -0.45910456729357529 0 -0.42777796573230709 -0.44805113646465522 0 -0.41644742454740608 -0.45809030901945191 0 -0.43822739075273393 -0.44060553300474292 0 -0.41976710299127501 -0.43549699190700081 0 -0.42777796573230709 -0.44805113646465522 0 -0.43822739075273393 -0.44060553300474292 0 -0.4370454374196342 -0.45910456729357529 0 -0.42777796573230709 -0.44805113646465522 0 -0.41976710299127501 -0.43549699190700081 0 -0.41644742454740608 -0.45809030901945191 0 -0.41976710299127501 -0.43549699190700081 0 -0.40808202907956881 -0.44426899481396143 0 -0.41644742454740608 -0.45809030901945191 0 -0.41976710299127501 -0.43549699190700081 0 -0.42777796573230709 -0.44805113646465522 0 -0.41644742454740608 -0.45809030901945191 0 -0.40149569651451611 -0.45256294551243309 0 -0.40808202907956881 -0.44426899481396143 0 -0.41090462706320569 -0.45781737840983361 0 -0.40808202907956881 -0.44426899481396143 0 -0.41090462706320569 -0.45781737840983361 0 -0.41644742454740608 -0.45809030901945191 0 -0.41090462706320569 -0.45781737840983361 0 -0.41644742454740608 -0.45809030901945191 0 -0.41090462706320569 -0.45781737840983361 0 -0.40881095620600982 -0.46863020997398469 0 -0.41644742454740608 -0.45809030901945191 0 -0.40149617149088729 -0.46418197984742993 0 -0.41090462706320569 -0.45781737840983361 0 -0.40881095620600982 -0.46863020997398469 0 -0.45360688386344977 -0.26248923953274389 0 -0.43093121969949377 -0.27226880970127348 0 -0.4453705982907411 -0.24929628175614749 0 -0.43093121969949377 -0.27226880970127348 0 -0.4453705982907411 -0.24929628175614749 0 -0.44884003815603218 -0.2801132346772548 0 -0.45360688386344977 -0.26248923953274389 0 -0.43093121969949377 -0.27226880970127348 0 -0.45360688386344977 -0.26248923953274389 0 -0.46143596644519719 -0.2909077385423704 0 -0.46502142033543531 -0.27262565356657043 0 -0.45360688386344977 -0.26248923953274389 0 -0.46143596644519719 -0.2909077385423704 0 -0.46502142033543531 -0.27262565356657043 0 -0.47415648050729831 -0.27738520422197332 0 -0.46143596644519719 -0.2909077385423704 0 -0.44884003815603218 -0.2801132346772548 0 -0.45360688386344977 -0.26248923953274389 0 -0.46143596644519719 -0.2909077385423704 0 -0.46502142033543531 -0.27262565356657043 0 -0.45360688386344977 -0.26248923953274389 0 -0.47088635052579592 -0.25972043196919398 0 -0.45360688386344977 -0.26248923953274389 0 -0.47088635052579592 -0.25972043196919398 0 -0.4616615542021596 -0.245320711869805 0 -0.48879099290564981 -0.26369974183684952 0 -0.47758198581130012 -0.24002416460782011 0 -0.47088635052579592 -0.25972043196919398 0 -0.48879099290564981 -0.26369974183684952 0 -0.47758198581130012 -0.24002416460782011 0 -0.48879099290564981 -0.26369974183684952 0 -0.49051610323175598 -0.24872925106853949 0 -0.47758198581130012 -0.24002416460782011 0 -0.48879099290564981 -0.26369974183684952 0 -0.5 -0.26012135869598962 0 -0.49051610323175598 -0.24872925106853949 0 -0.48879099290564981 -0.26369974183684952 0 -0.49999999999999972 -0.28737531906587882 0 -0.48879099290564981 -0.26369974183684952 0 -0.5 -0.26012135869598962 0 -0.49999999999999972 -0.28737531906587882 0 -0.48879099290564981 -0.26369974183684952 0 -0.47415648050729831 -0.27738520422197332 0 -0.49999999999999972 -0.28737531906587882 0 -0.46502142033543531 -0.27262565356657043 0 -0.47088635052579592 -0.25972043196919398 0 -0.47415648050729831 -0.27738520422197332 0 -0.47088635052579592 -0.25972043196919398 0 -0.48879099290564981 -0.26369974183684952 0 -0.47415648050729831 -0.27738520422197332 0 -0.47415648050729831 -0.27738520422197332 0 -0.47171076476712009 -0.2983557208869852 0 -0.46143596644519719 -0.2909077385423704 0 -0.47415648050729831 -0.27738520422197332 0 -0.48545141270790299 -0.29694168714151109 0 -0.47171076476712009 -0.2983557208869852 0 -0.47415648050729831 -0.27738520422197332 0 -0.47171076476712009 -0.2983557208869852 0 -0.47415648050729831 -0.27738520422197332 0 -0.49999999999999972 -0.28737531906587882 0 -0.48545141270790299 -0.29694168714151109 0 -0.49999999999999972 -0.28737531906587882 0 -0.5 -0.3102172289544054 0 -0.48545141270790299 -0.29694168714151109 0 -0.5 -0.3102172289544054 0 -0.48545141270790299 -0.29694168714151109 0 -0.48431226022695589 -0.31020885758831929 0 -0.47748478135417483 -0.30828512294481841 0 -0.47171076476712009 -0.2983557208869852 0 -0.46926504902694322 -0.31932623755199718 0 -0.47171076476712009 -0.2983557208869852 0 -0.46926504902694322 -0.31932623755199718 0 -0.48545141270790299 -0.29694168714151109 0 -0.48431226022695589 -0.31020885758831929 0 -0.47748478135417483 -0.30828512294481841 0 -0.48431226022695589 -0.31020885758831929 0 -0.47748478135417483 -0.30828512294481841 0 -0.47668442004195177 -0.31659311155527869 0 -0.48545141270790299 -0.29694168714151109 0 -0.47748478135417483 -0.30828512294481841 0 -0.47171076476712009 -0.2983557208869852 0 -0.45995092648624358 -0.30740579474898871 0 -0.46143596644519719 -0.2909077385423704 0 -0.46926504902694322 -0.31932623755199718 0 -0.47171076476712009 -0.2983557208869852 0 -0.46143596644519719 -0.2909077385423704 0 -0.46926504902694322 -0.31932623755199718 0 -0.45995092648624358 -0.30740579474898871 0 -0.46143596644519719 -0.2909077385423704 0 -0.45246353757064123 -0.29816617879270269 0 -0.46143596644519719 -0.2909077385423704 0 -0.46926504902694322 -0.31932623755199718 0 -0.45995092648624358 -0.30740579474898871 0 -0.44966783097449059 -0.3107878512226781 0 -0.45938677326451138 -0.31531148555527633 0 -0.45995092648624358 -0.30740579474898871 0 -0.44966783097449059 -0.3107878512226781 0 -0.45246353757064123 -0.29816617879270269 0 -0.44884003815603218 -0.2801132346772548 0 -0.46143596644519719 -0.2909077385423704 0 -0.45084528498372589 -0.2900604486702022 0 -0.46143596644519719 -0.2909077385423704 0 -0.45084528498372589 -0.2900604486702022 0 -0.45246353757064123 -0.29816617879270269 0 -0.45084528498372589 -0.2900604486702022 0 -0.44004448096440768 -0.29269309096393081 0 -0.45246353757064123 -0.29816617879270269 0 -0.44884003815603218 -0.2801132346772548 0 -0.44004448096440768 -0.29269309096393081 0 -0.43093121969949377 -0.27226880970127348 0 -0.44884003815603218 -0.2801132346772548 0 -0.45084528498372589 -0.2900604486702022 0 -0.44004448096440768 -0.29269309096393081 0 -0.44004448096440768 -0.29269309096393081 0 -0.44966783097449059 -0.3107878512226781 0 -0.45246353757064123 -0.29816617879270269 0 -0.44004448096440768 -0.29269309096393081 0 -0.44966783097449059 -0.3107878512226781 0 -0.42897741824286723 -0.31616017078681102 0 -0.44966783097449059 -0.3107878512226781 0 -0.4485795838453937 -0.32489514784293672 0 -0.42897741824286723 -0.31616017078681102 0 -0.4485795838453937 -0.32489514784293672 0 -0.44146299537749428 -0.33707900392722412 0 -0.42897741824286723 -0.31616017078681102 0 -0.44966783097449059 -0.3107878512226781 0 -0.4485795838453937 -0.32489514784293672 0 -0.45539848736411032 -0.31877334915406558 0 -0.44146299537749428 -0.33707900392722412 0 -0.45307643140216752 -0.34351716544590571 0 -0.4513123134043564 -0.33524163926263589 0 -0.4485795838453937 -0.32489514784293672 0 -0.44146299537749428 -0.33707900392722412 0 -0.4513123134043564 -0.33524163926263589 0 -0.4485795838453937 -0.32489514784293672 0 -0.4513123134043564 -0.33524163926263589 0 -0.45705322805694781 -0.33084803333647039 0 -0.45705322805694781 -0.33084803333647039 0 -0.45922143297721119 -0.33923171706709432 0 -0.4641451982659332 -0.33262756798819271 0 -0.46926504902694322 -0.31932623755199718 0 -0.4662858764584249 -0.34487082025623172 0 -0.4641451982659332 -0.33262756798819271 0 -0.46926504902694322 -0.31932623755199718 0 -0.4662858764584249 -0.34487082025623172 0 -0.4513123134043564 -0.33524163926263589 0 -0.45705322805694781 -0.33084803333647039 0 -0.45922143297721119 -0.33923171706709432 0 -0.45307643140216752 -0.34351716544590571 0 -0.4513123134043564 -0.33524163926263589 0 -0.45922143297721119 -0.33923171706709432 0 -0.45922143297721119 -0.33923171706709432 0 -0.4641451982659332 -0.33262756798819271 0 -0.4662858764584249 -0.34487082025623172 0 -0.45705322805694781 -0.33084803333647039 0 -0.4641451982659332 -0.33262756798819271 0 -0.46174404784647738 -0.32610729295467139 0 -0.4641451982659332 -0.33262756798819271 0 -0.46445146690253081 -0.3245813233983782 0 -0.46926504902694322 -0.31932623755199718 0 -0.4641451982659332 -0.33262756798819271 0 -0.46445146690253081 -0.3245813233983782 0 -0.46174404784647738 -0.32610729295467139 0 -0.46445146690253081 -0.3245813233983782 0 -0.46265157247076921 -0.32026419509865162 0 -0.46926504902694322 -0.31932623755199718 0 -0.46445146690253081 -0.3245813233983782 0 -0.46174404784647738 -0.32610729295467139 0 -0.46265157247076921 -0.32026419509865162 0 -0.4485795838453937 -0.32489514784293672 0 -0.45723266445944433 -0.32442898058779868 0 -0.45539848736411032 -0.31877334915406558 0 -0.4485795838453937 -0.32489514784293672 0 -0.45705322805694781 -0.33084803333647039 0 -0.45723266445944433 -0.32442898058779868 0 -0.45705322805694781 -0.33084803333647039 0 -0.46174404784647738 -0.32610729295467139 0 -0.45723266445944433 -0.32442898058779868 0 -0.46174404784647738 -0.32610729295467139 0 -0.45723266445944433 -0.32442898058779868 0 -0.46265157247076921 -0.32026419509865162 0 -0.45723266445944433 -0.32442898058779868 0 -0.45539848736411032 -0.31877334915406558 0 -0.46265157247076921 -0.32026419509865162 0 -0.44966783097449059 -0.3107878512226781 0 -0.45539848736411032 -0.31877334915406558 0 -0.45938677326451138 -0.31531148555527633 0 -0.45539848736411032 -0.31877334915406558 0 -0.45938677326451138 -0.31531148555527633 0 -0.46265157247076921 -0.32026419509865162 0 -0.45938677326451138 -0.31531148555527633 0 -0.46265157247076921 -0.32026419509865162 0 -0.46926504902694322 -0.31932623755199718 0 -0.45995092648624358 -0.30740579474898871 0 -0.45938677326451138 -0.31531148555527633 0 -0.46926504902694322 -0.31932623755199718 0 -0.47748478135417483 -0.30828512294481841 0 -0.46926504902694322 -0.31932623755199718 0 -0.47668442004195177 -0.31659311155527869 0 -0.46926504902694322 -0.31932623755199718 0 -0.47098441506581168 -0.32142849657120481 0 -0.47668442004195177 -0.31659311155527869 0 -0.46926504902694322 -0.31932623755199718 0 -0.47129613006338411 -0.32669878392890078 0 -0.47098441506581168 -0.32142849657120481 0 -0.47129613006338411 -0.32669878392890078 0 -0.47098441506581168 -0.32142849657120481 0 -0.46926504902694322 -0.31932623755199718 0 -0.47129613006338411 -0.32669878392890078 0 -0.47129613006338411 -0.32669878392890078 0 -0.47098441506581168 -0.32142849657120481 0 -0.47647464745459622 -0.32354716171428449 0 -0.47098441506581168 -0.32142849657120481 0 -0.47647464745459622 -0.32354716171428449 0 -0.47668442004195177 -0.31659311155527869 0 -0.47129613006338411 -0.32669878392890078 0 -0.47647464745459622 -0.32354716171428449 0 -0.47880896069260398 -0.33033868013013462 0 -0.47647464745459622 -0.32354716171428449 0 -0.47668442004195177 -0.31659311155527869 0 -0.48452180413055779 -0.32303936241304199 0 -0.47647464745459622 -0.32354716171428449 0 -0.48452180413055779 -0.32303936241304199 0 -0.47880896069260398 -0.33033868013013462 0 -0.48431226022695589 -0.31020885758831929 0 -0.47668442004195177 -0.31659311155527869 0 -0.48452180413055779 -0.32303936241304199 0 -0.5 -0.3102172289544054 0 -0.48452180413055779 -0.32303936241304199 0 -0.50000000000000133 -0.33305913884293198 0 -0.5 -0.3102172289544054 0 -0.48431226022695589 -0.31020885758831929 0 -0.48452180413055779 -0.32303936241304199 0 -0.50000000000000133 -0.33305913884293198 0 -0.49020920668291829 -0.34643528176505051 0 -0.48452180413055779 -0.32303936241304199 0 -0.50000000000000133 -0.33305913884293198 0 -0.48589495009987282 -0.33515298828641121 0 -0.50000000000000133 -0.33305913884293198 0 -0.48589495009987282 -0.33515298828641121 0 -0.49020920668291829 -0.34643528176505051 0 -0.47129613006338411 -0.32669878392890078 0 -0.47585727171460979 -0.34325510430803452 0 -0.47129613006338411 -0.32669878392890078 0 -0.47880896069260398 -0.33033868013013462 0 -0.47585727171460979 -0.34325510430803452 0 -0.48589495009987282 -0.33515298828641121 0 -0.47880896069260398 -0.33033868013013462 0 -0.47585727171460979 -0.34325510430803452 0 -0.47129613006338411 -0.32669878392890078 0 -0.47585727171460979 -0.34325510430803452 0 -0.47254316130537272 -0.34778282877917183 0 -0.48589495009987282 -0.33515298828641121 0 -0.47585727171460979 -0.34325510430803452 0 -0.49020920668291829 -0.34643528176505051 0 -0.47129613006338411 -0.32669878392890078 0 -0.47254316130537272 -0.34778282877917183 0 -0.4662858764584249 -0.34487082025623172 0 -0.47129613006338411 -0.32669878392890078 0 -0.47254316130537272 -0.34778282877917183 0 -0.46926504902694322 -0.31932623755199718 0 -0.47129613006338411 -0.32669878392890078 0 -0.4662858764584249 -0.34487082025623172 0 -0.48452180413055779 -0.32303936241304199 0 -0.48589495009987282 -0.33515298828641121 0 -0.47880896069260398 -0.33033868013013462 0 -0.47254316130537272 -0.34778282877917183 0 -0.48041841336583457 -0.35981142468716842 0 -0.47379019254736299 -0.36886687362944293 0 -0.47585727171460979 -0.34325510430803452 0 -0.49020920668291829 -0.34643528176505051 0 -0.48041841336583457 -0.35981142468716842 0 -0.47254316130537272 -0.34778282877917183 0 -0.47379019254736299 -0.36886687362944293 0 -0.47585727171460979 -0.34325510430803452 0 -0.48041841336583457 -0.35981142468716842 0 -0.47585727171460979 -0.34325510430803452 0 -0.47254316130537272 -0.34778282877917183 0 -0.48041841336583457 -0.35981142468716842 0 -0.50000000000000133 -0.33305913884293198 0 -0.49020920668291829 -0.34643528176505051 0 -0.5 -0.35888820847410441 0 -0.49020920668291829 -0.34643528176505051 0 -0.49032432894070671 -0.35856294725708998 0 -0.48041841336583457 -0.35981142468716842 0 -0.49020920668291829 -0.34643528176505051 0 -0.48041841336583457 -0.35981142468716842 0 -0.49020920668291829 -0.34643528176505051 0 -0.49032432894070671 -0.35856294725708998 0 -0.5 -0.35888820847410441 0 -0.48663019096408588 -0.38235932780106241 0 -0.49066969571407409 -0.36911687410203697 0 -0.48041841336583457 -0.35981142468716842 0 -0.5 -0.38471727810527673 0 -0.5 -0.35888820847410441 0 -0.49066969571407409 -0.36911687410203697 0 -0.49032432894070671 -0.35856294725708998 0 -0.5 -0.35888820847410441 0 -0.49066969571407409 -0.36911687410203697 0 -0.49032432894070671 -0.35856294725708998 0 -0.49066969571407409 -0.36911687410203697 0 -0.48041841336583457 -0.35981142468716842 0 -0.48663019096408588 -0.38235932780106241 0 -0.48041841336583457 -0.35981142468716842 0 -0.47379019254736299 -0.36886687362944293 0 -0.47254316130537272 -0.34778282877917183 0 -0.47379019254736299 -0.36886687362944293 0 -0.46330670388990802 -0.37041540296046632 0 -0.48663019096408588 -0.38235932780106241 0 -0.48041841336583457 -0.35981142468716842 0 -0.48041841336583457 -0.35981142468716842 0 -0.47379019254736299 -0.36886687362944293 0 -0.46643414964674729 -0.37891667020805098 0 -0.47379019254736299 -0.36886687362944293 0 -0.46643414964674729 -0.37891667020805098 0 -0.46330670388990802 -0.37041540296046632 0 -0.45394857251212151 -0.35799783706763721 0 -0.46643414964674729 -0.37891667020805098 0 -0.45394857251212151 -0.35799783706763721 0 -0.45355734214240589 -0.376041381016815 0 -0.46643414964674729 -0.37891667020805098 0 -0.45394857251212151 -0.35799783706763721 0 -0.46643414964674729 -0.37891667020805098 0 -0.47379019254736299 -0.36886687362944293 0 -0.46330670388990802 -0.37041540296046632 0 -0.46330670388990802 -0.37041540296046632 0 -0.45916780344796648 -0.35120658855946713 0 -0.45394857251212151 -0.35799783706763721 0 -0.46330670388990802 -0.37041540296046632 0 -0.4662858764584249 -0.34487082025623172 0 -0.45916780344796648 -0.35120658855946713 0 -0.47254316130537272 -0.34778282877917183 0 -0.46330670388990802 -0.37041540296046632 0 -0.4662858764584249 -0.34487082025623172 0 -0.46330670388990802 -0.37041540296046632 0 -0.4662858764584249 -0.34487082025623172 0 -0.45922143297721119 -0.33923171706709432 0 -0.4662858764584249 -0.34487082025623172 0 -0.45916780344796648 -0.35120658855946713 0 -0.45307643140216752 -0.34351716544590571 0 -0.45922143297721119 -0.33923171706709432 0 -0.45916780344796648 -0.35120658855946713 0 -0.45307643140216752 -0.34351716544590571 0 -0.45916780344796648 -0.35120658855946713 0 -0.45394857251212151 -0.35799783706763721 0 -0.44146299537749428 -0.33707900392722412 0 -0.45394857251212151 -0.35799783706763721 0 -0.44146299537749428 -0.33707900392722412 0 -0.45307643140216752 -0.34351716544590571 0 -0.45394857251212151 -0.35799783706763721 0 -0.45394857251212151 -0.35799783706763721 0 -0.43838303169898563 -0.36265924737924821 0 -0.43326377947143391 -0.34798077456441051 0 -0.44146299537749428 -0.33707900392722412 0 -0.45394857251212151 -0.35799783706763721 0 -0.43326377947143391 -0.34798077456441051 0 -0.45355734214240589 -0.376041381016815 0 -0.45394857251212151 -0.35799783706763721 0 -0.44667453441494709 -0.36740096604253719 0 -0.43838303169898563 -0.36265924737924821 0 -0.44080919130627533 -0.37290539870644862 0 -0.44667453441494709 -0.36740096604253719 0 -0.45355734214240589 -0.376041381016815 0 -0.44080919130627533 -0.37290539870644862 0 -0.44667453441494709 -0.36740096604253719 0 -0.45394857251212151 -0.35799783706763721 0 -0.43838303169898563 -0.36265924737924821 0 -0.44667453441494709 -0.36740096604253719 0 -0.43838303169898563 -0.36265924737924821 0 -0.43112444988364768 -0.37166456927137781 0 -0.41999398727757992 -0.36558597562168837 0 -0.42214879926461002 -0.37702160012957853 0 -0.43112444988364768 -0.37166456927137781 0 -0.41999398727757992 -0.36558597562168837 0 -0.43838303169898563 -0.36265924737924821 0 -0.44080919130627533 -0.37290539870644862 0 -0.43112444988364768 -0.37166456927137781 0 -0.43326377947143391 -0.34798077456441051 0 -0.41999398727757992 -0.36558597562168837 0 -0.43838303169898563 -0.36265924737924821 0 -0.43326377947143391 -0.34798077456441051 0 -0.41999398727757992 -0.36558597562168837 0 -0.43326377947143391 -0.34798077456441051 0 -0.41946631468950302 -0.3500470621613852 0 -0.41999398727757992 -0.36558597562168837 0 -0.43326377947143391 -0.34798077456441051 0 -0.41946631468950302 -0.3500470621613852 0 -0.4232011790158588 -0.33545956310221492 0 -0.41946631468950302 -0.3500470621613852 0 -0.41096113735884621 -0.35583934537682388 0 -0.41999398727757992 -0.36558597562168837 0 -0.40991149032379609 -0.34536965214178839 0 -0.41096113735884621 -0.35583934537682388 0 -0.39834558941143289 -0.34561555657532372 0 -0.41946631468950302 -0.3500470621613852 0 -0.40991149032379609 -0.34536965214178839 0 -0.41096113735884621 -0.35583934537682388 0 -0.40672419508372543 -0.38319117667896602 0 -0.41999398727757992 -0.36558597562168837 0 -0.39910007806051812 -0.37234269635524331 0 -0.40672419508372543 -0.38319117667896602 0 -0.41999398727757992 -0.36558597562168837 0 -0.41999398727757992 -0.36558597562168837 0 -0.39910007806051812 -0.37234269635524331 0 -0.40228655039427208 -0.36179482825632092 0 -0.41096113735884621 -0.35583934537682388 0 -0.41999398727757992 -0.36558597562168837 0 -0.40228655039427208 -0.36179482825632092 0 -0.39910007806051812 -0.37234269635524331 0 -0.40228655039427208 -0.36179482825632092 0 -0.38839062668461161 -0.36605166772125147 0 -0.40228655039427208 -0.36179482825632092 0 -0.38839062668461161 -0.36605166772125147 0 -0.39580321935505702 -0.35530234078850009 0 -0.38079995851095932 -0.38198815051877821 0 -0.39910007806051812 -0.37234269635524331 0 -0.38839062668461161 -0.36605166772125147 0 -0.38839062668461161 -0.36605166772125147 0 -0.38175849786734611 -0.35821003085165221 0 -0.37199849709998289 -0.36556303060664458 0 -0.38079995851095932 -0.38198815051877821 0 -0.38839062668461161 -0.36605166772125147 0 -0.37199849709998289 -0.36556303060664458 0 -0.38839062668461161 -0.36605166772125147 0 -0.38175849786734611 -0.35821003085165221 0 -0.39580321935505702 -0.35530234078850009 0 -0.38796218169404179 -0.350716083712732 0 -0.37457203380934612 -0.3372772988637795 0 -0.37318962845457898 -0.35073082024087682 0 -0.38175849786734611 -0.35821003085165221 0 -0.37318962845457898 -0.35073082024087682 0 -0.37199849709998289 -0.36556303060664458 0 -0.38175849786734611 -0.35821003085165221 0 -0.38796218169404179 -0.350716083712732 0 -0.37318962845457898 -0.35073082024087682 0 -0.38175849786734611 -0.35821003085165221 0 -0.38796218169404179 -0.350716083712732 0 -0.39580321935505702 -0.35530234078850009 0 -0.38796218169404179 -0.350716083712732 0 -0.39834558941143289 -0.34561555657532372 0 -0.39580321935505702 -0.35530234078850009 0 -0.38796218169404179 -0.350716083712732 0 -0.39834558941143289 -0.34561555657532372 0 -0.38775477659830221 -0.34096096563065048 0 -0.41096113735884621 -0.35583934537682388 0 -0.40228655039427208 -0.36179482825632092 0 -0.39580321935505702 -0.35530234078850009 0 -0.41096113735884621 -0.35583934537682388 0 -0.39834558941143289 -0.34561555657532372 0 -0.39580321935505702 -0.35530234078850009 0 -0.40991149032379609 -0.34536965214178839 0 -0.39834558941143289 -0.34561555657532372 0 -0.40201892272813983 -0.33688012418856378 0 -0.40201892272813983 -0.33688012418856378 0 -0.38775477659830221 -0.34096096563065048 0 -0.40212330885327441 -0.31810115163852498 0 -0.40201892272813983 -0.33688012418856378 0 -0.40212330885327441 -0.31810115163852498 0 -0.41068693045607402 -0.33141111243657401 0 -0.38775477659830221 -0.34096096563065048 0 -0.40212330885327441 -0.31810115163852498 0 -0.39834558941143289 -0.34561555657532372 0 -0.40201892272813983 -0.33688012418856378 0 -0.38775477659830221 -0.34096096563065048 0 -0.38796218169404179 -0.350716083712732 0 -0.38287406645593408 -0.32110115776543002 0 -0.38796218169404179 -0.350716083712732 0 -0.38287406645593408 -0.32110115776543002 0 -0.37457203380934612 -0.3372772988637795 0 -0.38796218169404179 -0.350716083712732 0 -0.38775477659830221 -0.34096096563065048 0 -0.38287406645593408 -0.32110115776543002 0 -0.38287406645593408 -0.32110115776543002 0 -0.40212330885327441 -0.31810115163852498 0 -0.39662144972248198 -0.29869738273672258 0 -0.38775477659830221 -0.34096096563065048 0 -0.38287406645593408 -0.32110115776543002 0 -0.40212330885327441 -0.31810115163852498 0 -0.40212330885327441 -0.31810115163852498 0 -0.4162100471152263 -0.32073215878626898 0 -0.41068693045607402 -0.33141111243657401 0 -0.40991149032379609 -0.34536965214178839 0 -0.40201892272813983 -0.33688012418856378 0 -0.41068693045607402 -0.33141111243657401 0 -0.40991149032379609 -0.34536965214178839 0 -0.41068693045607402 -0.33141111243657401 0 -0.4232011790158588 -0.33545956310221492 0 -0.41946631468950302 -0.3500470621613852 0 -0.40991149032379609 -0.34536965214178839 0 -0.4232011790158588 -0.33545956310221492 0 -0.4162100471152263 -0.32073215878626898 0 -0.41068693045607402 -0.33141111243657401 0 -0.4232011790158588 -0.33545956310221492 0 -0.44146299537749428 -0.33707900392722412 0 -0.4232011790158588 -0.33545956310221492 0 -0.42897741824286723 -0.31616017078681102 0 -0.44146299537749428 -0.33707900392722412 0 -0.43326377947143391 -0.34798077456441051 0 -0.4232011790158588 -0.33545956310221492 0 -0.44146299537749428 -0.33707900392722412 0 -0.42897741824286723 -0.31616017078681102 0 -0.4162100471152263 -0.32073215878626898 0 -0.4232011790158588 -0.33545956310221492 0 -0.42897741824286723 -0.31616017078681102 0 -0.44004448096440768 -0.29269309096393081 0 -0.42897741824286723 -0.31616017078681102 0 -0.41649184110824211 -0.29524133764639682 0 -0.42897741824286723 -0.31616017078681102 0 -0.41649184110824211 -0.29524133764639682 0 -0.44004448096440768 -0.29269309096393081 0 -0.41649184110824211 -0.29524133764639682 0 -0.43093121969949377 -0.27226880970127348 0 -0.41649184110824211 -0.29524133764639682 0 -0.43093121969949377 -0.27226880970127348 0 -0.41649184110824211 -0.29524133764639682 0 -0.4061291579283629 -0.27787928557708519 0 -0.41649184110824211 -0.29524133764639682 0 -0.4061291579283629 -0.27787928557708519 0 -0.43093121969949377 -0.27226880970127348 0 -0.41649184110824211 -0.29524133764639682 0 -0.39662144972248198 -0.29869738273672258 0 -0.4061291579283629 -0.27787928557708519 0 -0.4162100471152263 -0.32073215878626898 0 -0.42897741824286723 -0.31616017078681102 0 -0.41649184110824211 -0.29524133764639682 0 -0.40212330885327441 -0.31810115163852498 0 -0.41649184110824211 -0.29524133764639682 0 -0.40212330885327441 -0.31810115163852498 0 -0.4162100471152263 -0.32073215878626898 0 -0.41649184110824211 -0.29524133764639682 0 -0.40212330885327441 -0.31810115163852498 0 -0.41649184110824211 -0.29524133764639682 0 -0.39662144972248198 -0.29869738273672258 0 -0.38287406645593408 -0.32110115776543002 0 -0.39662144972248198 -0.29869738273672258 0 -0.37778595121782632 -0.29148623181812788 0 -0.38287406645593408 -0.32110115776543002 0 -0.37778595121782632 -0.29148623181812788 0 -0.39662144972248198 -0.29869738273672258 0 -0.37778595121782632 -0.29148623181812788 0 -0.38980017391937499 -0.27809028790210683 0 -0.39662144972248198 -0.29869738273672258 0 -0.4061291579283629 -0.27787928557708519 0 -0.38980017391937499 -0.27809028790210683 0 -0.4061291579283629 -0.27787928557708519 0 -0.39576647474848559 -0.26051723350777228 0 -0.4061291579283629 -0.27787928557708519 0 -0.39576647474848559 -0.26051723350777228 0 -0.41276419394843727 -0.25959950138704402 0 -0.4061291579283629 -0.27787928557708519 0 -0.38980017391937499 -0.27809028790210683 0 -0.39576647474848559 -0.26051723350777228 0 -0.37778595121782632 -0.29148623181812788 0 -0.37269783597971851 -0.26187130587082602 0 -0.38980017391937499 -0.27809028790210683 0 -0.39576647474848559 -0.26051723350777228 0 -0.37269783597971851 -0.26187130587082602 0 -0.37778595121782632 -0.29148623181812788 0 -0.38980017391937499 -0.27809028790210683 0 -0.37269783597971851 -0.26187130587082602 0 -0.39576647474848559 -0.26051723350777228 0 -0.38540379156860821 -0.2431551814384596 0 -0.39576647474848559 -0.26051723350777228 0 -0.37269783597971851 -0.26187130587082602 0 -0.38540379156860821 -0.2431551814384596 0 -0.39576647474848559 -0.26051723350777228 0 -0.41276419394843727 -0.25959950138704402 0 -0.40221729619780833 -0.24821156686486279 0 -0.39576647474848559 -0.26051723350777228 0 -0.40221729619780833 -0.24821156686486279 0 -0.38540379156860821 -0.2431551814384596 0 -0.41276419394843727 -0.25959950138704402 0 -0.42785077865552029 -0.25296768796737978 0 -0.41667162400821772 -0.242006836922458 0 -0.4061291579283629 -0.27787928557708519 0 -0.41276419394843727 -0.25959950138704402 0 -0.43093121969949377 -0.27226880970127348 0 -0.41276419394843727 -0.25959950138704402 0 -0.43093121969949377 -0.27226880970127348 0 -0.42785077865552029 -0.25296768796737978 0 -0.43093121969949377 -0.27226880970127348 0 -0.42785077865552029 -0.25296768796737978 0 -0.4453705982907411 -0.24929628175614749 0 -0.32993306272169248 -0.26529600971228229 0 -0.31002315199531089 -0.25570020651770081 0 -0.33353790179694431 -0.24873765578521631 0 -0.31639915009943798 -0.27290001010726261 0 -0.32993306272169248 -0.26529600971228229 0 -0.31002315199531089 -0.25570020651770081 0 -0.31639915009943798 -0.27290001010726261 0 -0.32993306272169248 -0.26529600971228229 0 -0.3249590241117486 -0.28683414099246007 0 -0.33876212214812629 -0.2780645383087248 0 -0.32993306272169248 -0.26529600971228229 0 -0.35318592144486771 -0.25516045911612412 0 -0.33876212214812629 -0.2780645383087248 0 -0.32993306272169248 -0.26529600971228229 0 -0.3249590241117486 -0.28683414099246007 0 -0.32993306272169248 -0.26529600971228229 0 -0.35318592144486771 -0.25516045911612412 0 -0.33353790179694431 -0.24873765578521631 0 -0.35318592144486771 -0.25516045911612412 0 -0.37269783597971851 -0.26187130587082602 0 -0.35763210403796269 -0.2739541533155978 0 -0.37778595121782632 -0.29148623181812788 0 -0.37269783597971851 -0.26187130587082602 0 -0.35763210403796269 -0.2739541533155978 0 -0.33876212214812629 -0.2780645383087248 0 -0.35318592144486771 -0.25516045911612412 0 -0.33876212214812629 -0.2780645383087248 0 -0.35318592144486771 -0.25516045911612412 0 -0.35763210403796269 -0.2739541533155978 0 -0.33876212214812629 -0.2780645383087248 0 -0.35763210403796269 -0.2739541533155978 0 -0.3571056546348147 -0.29227932059308259 0 -0.33876212214812629 -0.2780645383087248 0 -0.3571056546348147 -0.29227932059308259 0 -0.33991670313516548 -0.29744096097837242 0 -0.37778595121782632 -0.29148623181812788 0 -0.35763210403796269 -0.2739541533155978 0 -0.3571056546348147 -0.29227932059308259 0 -0.37778595121782632 -0.29148623181812788 0 -0.3571056546348147 -0.29227932059308259 0 -0.35911436856033568 -0.31019715959961219 0 -0.38287406645593408 -0.32110115776543002 0 -0.37778595121782632 -0.29148623181812788 0 -0.35911436856033568 -0.31019715959961219 0 -0.3571056546348147 -0.29227932059308259 0 -0.35911436856033568 -0.31019715959961219 0 -0.33991670313516548 -0.29744096097837242 0 -0.35911436856033568 -0.31019715959961219 0 -0.33991670313516548 -0.29744096097837242 0 -0.33701293953285621 -0.31391840483385153 0 -0.33991670313516548 -0.29744096097837242 0 -0.32167920216019957 -0.30263052650414579 0 -0.33701293953285621 -0.31391840483385153 0 -0.33991670313516548 -0.29744096097837242 0 -0.3249590241117486 -0.28683414099246007 0 -0.32167920216019957 -0.30263052650414579 0 -0.33876212214812629 -0.2780645383087248 0 -0.33991670313516548 -0.29744096097837242 0 -0.3249590241117486 -0.28683414099246007 0 -0.3249590241117486 -0.28683414099246007 0 -0.32167920216019957 -0.30263052650414579 0 -0.30492588340320831 -0.29144609983415848 0 -0.31639915009943798 -0.27290001010726261 0 -0.3249590241117486 -0.28683414099246007 0 -0.30492588340320831 -0.29144609983415848 0 -0.32167920216019957 -0.30263052650414579 0 -0.32187720308988721 -0.31630940349785291 0 -0.30897087171967602 -0.31013819940890958 0 -0.32167920216019957 -0.30263052650414579 0 -0.32187720308988721 -0.31630940349785291 0 -0.33701293953285621 -0.31391840483385153 0 -0.32187720308988721 -0.31630940349785291 0 -0.33242538426875479 -0.32868498615913772 0 -0.30929761776794912 -0.3261749005832198 0 -0.32187720308988721 -0.31630940349785291 0 -0.30929761776794912 -0.3261749005832198 0 -0.30897087171967602 -0.31013819940890958 0 -0.32495683088722271 -0.34371330408059803 0 -0.33242538426875479 -0.32868498615913772 0 -0.30929761776794912 -0.3261749005832198 0 -0.32495683088722271 -0.34371330408059803 0 -0.30852951533878259 -0.3467750677558763 0 -0.30929761776794912 -0.3261749005832198 0 -0.32495683088722271 -0.34371330408059803 0 -0.33242538426875479 -0.32868498615913772 0 -0.34391105298636437 -0.34059970204214829 0 -0.33242538426875479 -0.32868498615913772 0 -0.35061999934986382 -0.32712400132034292 0 -0.34391105298636437 -0.34059970204214829 0 -0.33242538426875479 -0.32868498615913772 0 -0.33701293953285621 -0.31391840483385153 0 -0.35061999934986382 -0.32712400132034292 0 -0.32187720308988721 -0.31630940349785291 0 -0.33242538426875479 -0.32868498615913772 0 -0.33701293953285621 -0.31391840483385153 0 -0.35911436856033568 -0.31019715959961219 0 -0.35061999934986382 -0.32712400132034292 0 -0.36601981852072057 -0.32723123578260632 0 -0.35911436856033568 -0.31019715959961219 0 -0.33701293953285621 -0.31391840483385153 0 -0.35061999934986382 -0.32712400132034292 0 -0.38287406645593408 -0.32110115776543002 0 -0.35911436856033568 -0.31019715959961219 0 -0.36601981852072057 -0.32723123578260632 0 -0.38287406645593408 -0.32110115776543002 0 -0.36601981852072057 -0.32723123578260632 0 -0.37457203380934612 -0.3372772988637795 0 -0.37457203380934612 -0.3372772988637795 0 -0.36126304742667481 -0.33927373412041267 0 -0.37318962845457898 -0.35073082024087682 0 -0.36601981852072057 -0.32723123578260632 0 -0.37457203380934612 -0.3372772988637795 0 -0.36126304742667481 -0.33927373412041267 0 -0.35061999934986382 -0.32712400132034292 0 -0.36126304742667481 -0.33927373412041267 0 -0.34391105298636437 -0.34059970204214829 0 -0.35061999934986382 -0.32712400132034292 0 -0.36601981852072057 -0.32723123578260632 0 -0.36126304742667481 -0.33927373412041267 0 -0.36126304742667481 -0.33927373412041267 0 -0.34391105298636437 -0.34059970204214829 0 -0.35498691496007589 -0.35725479069416688 0 -0.34391105298636437 -0.34059970204214829 0 -0.35498691496007589 -0.35725479069416688 0 -0.33726920121335341 -0.35432041898722239 0 -0.35498691496007589 -0.35725479069416688 0 -0.37318962845457898 -0.35073082024087682 0 -0.37199849709998289 -0.36556303060664458 0 -0.36126304742667481 -0.33927373412041267 0 -0.35498691496007589 -0.35725479069416688 0 -0.37318962845457898 -0.35073082024087682 0 -0.35498691496007589 -0.35725479069416688 0 -0.37199849709998289 -0.36556303060664458 0 -0.354875721938193 -0.38078512435859141 0 -0.35498691496007589 -0.35725479069416688 0 -0.33951090211982021 -0.36697510481907658 0 -0.33726920121335341 -0.35432041898722239 0 -0.35498691496007589 -0.35725479069416688 0 -0.33951090211982021 -0.36697510481907658 0 -0.354875721938193 -0.38078512435859141 0 -0.33951090211982021 -0.36697510481907658 0 -0.33726920121335341 -0.35432041898722239 0 -0.32147118712205142 -0.36293309185699751 0 -0.33951090211982021 -0.36697510481907658 0 -0.32147118712205142 -0.36293309185699751 0 -0.32895148536542701 -0.37958209819840449 0 -0.32495683088722271 -0.34371330408059803 0 -0.34391105298636437 -0.34059970204214829 0 -0.33726920121335341 -0.35432041898722239 0 -0.32495683088722271 -0.34371330408059803 0 -0.33726920121335341 -0.35432041898722239 0 -0.32147118712205142 -0.36293309185699751 0 -0.32495683088722271 -0.34371330408059803 0 -0.32147118712205142 -0.36293309185699751 0 -0.30852951533878259 -0.3467750677558763 0 -0.32147118712205142 -0.36293309185699751 0 -0.32895148536542701 -0.37958209819840449 0 -0.30990843154708042 -0.38059002868062691 0 -0.32147118712205142 -0.36293309185699751 0 -0.2963410112620336 -0.36208558927353562 0 -0.30990843154708042 -0.38059002868062691 0 -0.32147118712205142 -0.36293309185699751 0 -0.30852951533878259 -0.3467750677558763 0 -0.2963410112620336 -0.36208558927353562 0 -0.30852951533878259 -0.3467750677558763 0 -0.2963410112620336 -0.36208558927353562 0 -0.28917270320894062 -0.33854160763767221 0 -0.2963410112620336 -0.36208558927353562 0 -0.27813183811952202 -0.35205970183161073 0 -0.28917270320894062 -0.33854160763767221 0 -0.2963410112620336 -0.36208558927353562 0 -0.27562040511006519 -0.36964163401347588 0 -0.28971352002941853 -0.38352743174452131 0 -0.2963410112620336 -0.36208558927353562 0 -0.27562040511006519 -0.36964163401347588 0 -0.27813183811952202 -0.35205970183161073 0 -0.27562040511006519 -0.36964163401347588 0 -0.25811427294214828 -0.35779299439246032 0 -0.27813183811952202 -0.35205970183161073 0 -0.25811427294214828 -0.35779299439246032 0 -0.2595150537748025 -0.37545216109409529 0 -0.24775023025331361 -0.37310091780108168 0 -0.27562040511006519 -0.36964163401347588 0 -0.25811427294214828 -0.35779299439246032 0 -0.2595150537748025 -0.37545216109409529 0 -0.25811427294214828 -0.35779299439246032 0 -0.26886228468359402 -0.34190154298512682 0 -0.25435955333147869 -0.33876960901635111 0 -0.25811427294214828 -0.35779299439246032 0 -0.25435955333147869 -0.33876960901635111 0 -0.23965876417926721 -0.34888301188674548 0 -0.27813183811952202 -0.35205970183161073 0 -0.26886228468359402 -0.34190154298512682 0 -0.28917270320894062 -0.33854160763767221 0 -0.25811427294214828 -0.35779299439246032 0 -0.27813183811952202 -0.35205970183161073 0 -0.26886228468359402 -0.34190154298512682 0 -0.25811427294214828 -0.35779299439246032 0 -0.27813183811952202 -0.35205970183161073 0 -0.27389854786874268 -0.32815776960495402 0 -0.26886228468359402 -0.34190154298512682 0 -0.25435955333147869 -0.33876960901635111 0 -0.27389854786874268 -0.32815776960495402 0 -0.26886228468359402 -0.34190154298512682 0 -0.28917270320894062 -0.33854160763767221 0 -0.27389854786874268 -0.32815776960495402 0 -0.25435955333147869 -0.33876960901635111 0 -0.25017677148847839 -0.32300991219824932 0 -0.25017677148847839 -0.32300991219824932 0 -0.26332759234630287 -0.31374619307546042 0 -0.24920945229066721 -0.30581688709866123 0 -0.27389854786874268 -0.32815776960495402 0 -0.25017677148847839 -0.32300991219824932 0 -0.26332759234630287 -0.31374619307546042 0 -0.27389854786874268 -0.32815776960495402 0 -0.29138919800933011 -0.31132624358457728 0 -0.2762481909818133 -0.30978905045739641 0 -0.27389854786874268 -0.32815776960495402 0 -0.26332759234630287 -0.31374619307546042 0 -0.2762481909818133 -0.30978905045739641 0 -0.28917270320894062 -0.33854160763767221 0 -0.30929761776794912 -0.3261749005832198 0 -0.29138919800933011 -0.31132624358457728 0 -0.27389854786874268 -0.32815776960495402 0 -0.28917270320894062 -0.33854160763767221 0 -0.29138919800933011 -0.31132624358457728 0 -0.30852951533878259 -0.3467750677558763 0 -0.28917270320894062 -0.33854160763767221 0 -0.30929761776794912 -0.3261749005832198 0 -0.30929761776794912 -0.3261749005832198 0 -0.30897087171967602 -0.31013819940890958 0 -0.29138919800933011 -0.31132624358457728 0 -0.30897087171967602 -0.31013819940890958 0 -0.30492588340320831 -0.29144609983415848 0 -0.29138919800933011 -0.31132624358457728 0 -0.32167920216019957 -0.30263052650414579 0 -0.30897087171967602 -0.31013819940890958 0 -0.30492588340320831 -0.29144609983415848 0 -0.30492588340320831 -0.29144609983415848 0 -0.28229486631576861 -0.29088060923433962 0 -0.29098221960207471 -0.26456054685066061 0 -0.28229486631576861 -0.29088060923433962 0 -0.29138919800933011 -0.31132624358457728 0 -0.2762481909818133 -0.30978905045739641 0 -0.30492588340320831 -0.29144609983415848 0 -0.28229486631576861 -0.29088060923433962 0 -0.29138919800933011 -0.31132624358457728 0 -0.28229486631576861 -0.29088060923433962 0 -0.2762481909818133 -0.30978905045739641 0 -0.26625611718941572 -0.30120021686814452 0 -0.26332759234630287 -0.31374619307546042 0 -0.2762481909818133 -0.30978905045739641 0 -0.26625611718941572 -0.30120021686814452 0 -0.26332759234630287 -0.31374619307546042 0 -0.26625611718941572 -0.30120021686814452 0 -0.24920945229066721 -0.30581688709866123 0 -0.26625611718941572 -0.30120021686814452 0 -0.25352903688934941 -0.28586247602549358 0 -0.24920945229066721 -0.30581688709866123 0 -0.25352903688934941 -0.28586247602549358 0 -0.26648847514074031 -0.28698477195213118 0 -0.25330129369580651 -0.27343034636546543 0 -0.26625611718941572 -0.30120021686814452 0 -0.25352903688934941 -0.28586247602549358 0 -0.26648847514074031 -0.28698477195213118 0 -0.28229486631576861 -0.29088060923433962 0 -0.26625611718941572 -0.30120021686814452 0 -0.26648847514074031 -0.28698477195213118 0 -0.28229486631576861 -0.29088060923433962 0 -0.26648847514074031 -0.28698477195213118 0 -0.26978768853560869 -0.27433506895511423 0 -0.28229486631576861 -0.29088060923433962 0 -0.26978768853560869 -0.27433506895511423 0 -0.29098221960207471 -0.26456054685066061 0 -0.26648847514074031 -0.28698477195213118 0 -0.26978768853560869 -0.27433506895511423 0 -0.25330129369580651 -0.27343034636546543 0 -0.26978768853560869 -0.27433506895511423 0 -0.25330129369580651 -0.27343034636546543 0 -0.25496802357147869 -0.26110834464628502 0 -0.26978768853560869 -0.27433506895511423 0 -0.25496802357147869 -0.26110834464628502 0 -0.25496802357147869 -0.26110834464628502 0 -0.26556528910471161 -0.25622108359405871 0 -0.2401483586073484 -0.24788162033745609 0 -0.26556528910471161 -0.25622108359405871 0 -0.2401483586073484 -0.24788162033745609 0 -0.26978768853560869 -0.27433506895511423 0 -0.25496802357147869 -0.26110834464628502 0 -0.26556528910471161 -0.25622108359405871 0 -0.26978768853560869 -0.27433506895511423 0 -0.26556528910471161 -0.25622108359405871 0 -0.29098221960207471 -0.26456054685066061 0 -0.26556528910471161 -0.25622108359405871 0 -0.29098221960207471 -0.26456054685066061 0 -0.28113285450429992 -0.2485518844273871 0 -0.26556528910471161 -0.25622108359405871 0 -0.29098221960207471 -0.26456054685066061 0 -0.29098221960207471 -0.26456054685066061 0 -0.296948063810199 -0.2432409236042366 0 -0.28113285450429992 -0.2485518844273871 0 -0.31639915009943798 -0.27290001010726261 0 -0.30492588340320831 -0.29144609983415848 0 -0.29098221960207471 -0.26456054685066061 0 -0.31639915009943798 -0.27290001010726261 0 -0.29098221960207471 -0.26456054685066061 0 -0.31639915009943798 -0.27290001010726261 0 -0.29098221960207471 -0.26456054685066061 0 -0.31002315199531089 -0.25570020651770081 0 -0.29098221960207471 -0.26456054685066061 0 -0.31002315199531089 -0.25570020651770081 0 -0.296948063810199 -0.2432409236042366 0 -0.32912741197137829 -0.45572978729176628 0 -0.32463588954162559 -0.47356054723617591 0 -0.34729204096556759 -0.47259333495414751 0 -0.32912741197137829 -0.45572978729176628 0 -0.34729204096556759 -0.47259333495414751 0 -0.35455571434599792 -0.44972449369797762 0 -0.32912741197137829 -0.45572978729176628 0 -0.35455571434599792 -0.44972449369797762 0 -0.33392383858791602 -0.43686506667201491 0 -0.32912741197137829 -0.45572978729176628 0 -0.33392383858791602 -0.43686506667201491 0 -0.30889154068050501 -0.44658390696963868 0 -0.32912741197137829 -0.45572978729176628 0 -0.31342042253691388 -0.4644311401126664 0 -0.30889154068050501 -0.44658390696963868 0 -0.32912741197137829 -0.45572978729176628 0 -0.31342042253691388 -0.4644311401126664 0 -0.32463588954162559 -0.47356054723617591 0 -0.31342042253691388 -0.4644311401126664 0 -0.32463588954162559 -0.47356054723617591 0 -0.31047311319751891 -0.47734786172345622 0 -0.32463588954162559 -0.47356054723617591 0 -0.31825416463435868 -0.48614718400701379 0 -0.31047311319751891 -0.47734786172345622 0 -0.32463588954162559 -0.47356054723617591 0 -0.31825416463435868 -0.48614718400701379 0 -0.33315279997389441 -0.48586900497111751 0 -0.3180395160056908 -0.49999999999999939 0 -0.31825416463435868 -0.48614718400701379 0 -0.30666282614845192 -0.49570530896674708 0 -0.3180395160056908 -0.49999999999999939 0 -0.31825416463435868 -0.48614718400701379 0 -0.33315279997389441 -0.48586900497111751 0 -0.33315279997389441 -0.48586900497111751 0 -0.34729204096556759 -0.47259333495414751 0 -0.34529062286232209 -0.5 0 -0.3180395160056908 -0.49999999999999939 0 -0.33315279997389441 -0.48586900497111751 0 -0.34529062286232209 -0.5 0 -0.32463588954162559 -0.47356054723617591 0 -0.33315279997389441 -0.48586900497111751 0 -0.34729204096556759 -0.47259333495414751 0 -0.34729204096556759 -0.47259333495414751 0 -0.34529062286232209 -0.5 0 -0.36823194335804937 -0.480893645469608 0 -0.34529062286232209 -0.5 0 -0.37254172971895338 -0.5 0 -0.36823194335804937 -0.480893645469608 0 -0.37518759010407982 -0.46258392072394028 0 -0.34729204096556759 -0.47259333495414751 0 -0.36823194335804937 -0.480893645469608 0 -0.37518759010407982 -0.46258392072394028 0 -0.35455571434599792 -0.44972449369797762 0 -0.37518759010407982 -0.46258392072394028 0 -0.34729204096556759 -0.47259333495414751 0 -0.35455571434599792 -0.44972449369797762 0 -0.35455571434599792 -0.44972449369797762 0 -0.33392383858791602 -0.43686506667201491 0 -0.37884377063561719 -0.44648062912803171 0 -0.37518759010407982 -0.46258392072394028 0 -0.35455571434599792 -0.44972449369797762 0 -0.37884377063561719 -0.44648062912803171 0 -0.35455571434599792 -0.44972449369797762 0 -0.37324846644220028 -0.4276038490602182 0 -0.37324846644220028 -0.4276038490602182 0 -0.3502963044731397 -0.42283130746295361 0 -0.36594174409826391 -0.40387935262032981 0 -0.3502963044731397 -0.42283130746295361 0 -0.36594174409826391 -0.40387935262032981 0 -0.34503591783421911 -0.40325865162567742 0 -0.35455571434599792 -0.44972449369797762 0 -0.3502963044731397 -0.42283130746295361 0 -0.33392383858791602 -0.43686506667201491 0 -0.35455571434599792 -0.44972449369797762 0 -0.37324846644220028 -0.4276038490602182 0 -0.3502963044731397 -0.42283130746295361 0 -0.38079995851095932 -0.38198815051877821 0 -0.36594174409826391 -0.40387935262032981 0 -0.354875721938193 -0.38078512435859141 0 -0.38079995851095932 -0.38198815051877821 0 -0.354875721938193 -0.38078512435859141 0 -0.38079995851095932 -0.38198815051877821 0 -0.37199849709998289 -0.36556303060664458 0 -0.354875721938193 -0.38078512435859141 0 -0.36594174409826391 -0.40387935262032981 0 -0.34503591783421911 -0.40325865162567742 0 -0.354875721938193 -0.38078512435859141 0 -0.354875721938193 -0.38078512435859141 0 -0.32895148536542701 -0.37958209819840449 0 -0.32754101919183232 -0.39582560320544008 0 -0.33951090211982021 -0.36697510481907658 0 -0.354875721938193 -0.38078512435859141 0 -0.32895148536542701 -0.37958209819840449 0 -0.354875721938193 -0.38078512435859141 0 -0.32895148536542701 -0.37958209819840449 0 -0.34503591783421911 -0.40325865162567742 0 -0.32754101919183232 -0.39582560320544008 0 -0.33043890923380281 -0.41416841945932448 0 -0.34503591783421911 -0.40325865162567742 0 -0.354875721938193 -0.38078512435859141 0 -0.32754101919183232 -0.39582560320544008 0 -0.32754101919183232 -0.39582560320544008 0 -0.312544412485876 -0.40222424814380853 0 -0.33043890923380281 -0.41416841945932448 0 -0.32754101919183232 -0.39582560320544008 0 -0.312544412485876 -0.40222424814380853 0 -0.30990843154708042 -0.38059002868062691 0 -0.32895148536542701 -0.37958209819840449 0 -0.32754101919183232 -0.39582560320544008 0 -0.30990843154708042 -0.38059002868062691 0 -0.3502963044731397 -0.42283130746295361 0 -0.33392383858791602 -0.43686506667201491 0 -0.33043890923380281 -0.41416841945932448 0 -0.3502963044731397 -0.42283130746295361 0 -0.34503591783421911 -0.40325865162567742 0 -0.33043890923380281 -0.41416841945932448 0 -0.312544412485876 -0.40222424814380853 0 -0.33043890923380281 -0.41416841945932448 0 -0.31329196282983413 -0.42400563964605231 0 -0.33392383858791602 -0.43686506667201491 0 -0.33043890923380281 -0.41416841945932448 0 -0.31329196282983413 -0.42400563964605231 0 -0.33392383858791602 -0.43686506667201491 0 -0.31329196282983413 -0.42400563964605231 0 -0.33392383858791602 -0.43686506667201491 0 -0.31329196282983413 -0.42400563964605231 0 -0.30889154068050501 -0.44658390696963868 0 -0.31329196282983413 -0.42400563964605231 0 -0.29457061097166048 -0.42876509573418542 0 -0.30889154068050501 -0.44658390696963868 0 -0.31329196282983413 -0.42400563964605231 0 -0.2926600870717524 -0.4111462126200896 0 -0.31329196282983413 -0.42400563964605231 0 -0.2926600870717524 -0.4111462126200896 0 -0.29457061097166048 -0.42876509573418542 0 -0.312544412485876 -0.40222424814380853 0 -0.31329196282983413 -0.42400563964605231 0 -0.2926600870717524 -0.4111462126200896 0 -0.2926600870717524 -0.4111462126200896 0 -0.28663854199217131 -0.41345827543648977 0 -0.29457061097166048 -0.42876509573418542 0 -0.2926600870717524 -0.4111462126200896 0 -0.28663854199217131 -0.41345827543648977 0 -0.28555783619795 -0.40370988770560789 0 -0.29457061097166048 -0.42876509573418542 0 -0.27790300079584629 -0.4287828498811278 0 -0.28340300214555858 -0.44631799473436162 0 -0.28663854199217131 -0.41345827543648977 0 -0.29457061097166048 -0.42876509573418542 0 -0.27790300079584629 -0.4287828498811278 0 -0.30990843154708042 -0.38059002868062691 0 -0.28971352002941853 -0.38352743174452131 0 -0.30990843154708042 -0.38059002868062691 0 -0.29792091479164479 -0.39753582703132168 0 -0.28971352002941853 -0.38352743174452131 0 -0.2963410112620336 -0.36208558927353562 0 -0.30990843154708042 -0.38059002868062691 0 -0.28971352002941853 -0.38352743174452131 0 -0.312544412485876 -0.40222424814380853 0 -0.2926600870717524 -0.4111462126200896 0 -0.29792091479164479 -0.39753582703132168 0 -0.312544412485876 -0.40222424814380853 0 -0.30990843154708042 -0.38059002868062691 0 -0.29792091479164479 -0.39753582703132168 0 -0.2926600870717524 -0.4111462126200896 0 -0.29792091479164479 -0.39753582703132168 0 -0.28555783619795 -0.40370988770560789 0 -0.29792091479164479 -0.39753582703132168 0 -0.28555783619795 -0.40370988770560789 0 -0.28258851764104831 -0.39497886678573951 0 -0.29792091479164479 -0.39753582703132168 0 -0.28258851764104831 -0.39497886678573951 0 -0.28971352002941853 -0.38352743174452131 0 -0.27562040511006519 -0.36964163401347588 0 -0.28971352002941853 -0.38352743174452131 0 -0.26951860851175657 -0.38646483480841581 0 -0.28258851764104831 -0.39497886678573951 0 -0.28971352002941853 -0.38352743174452131 0 -0.26951860851175657 -0.38646483480841581 0 -0.27562040511006519 -0.36964163401347588 0 -0.26951860851175657 -0.38646483480841581 0 -0.2595150537748025 -0.37545216109409529 0 -0.28971352002941853 -0.38352743174452131 0 -0.26951860851175657 -0.38646483480841581 0 -0.28555783619795 -0.40370988770560789 0 -0.28258851764104831 -0.39497886678573951 0 -0.26798111949313308 -0.40143025665439908 0 -0.28663854199217131 -0.41345827543648977 0 -0.28555783619795 -0.40370988770560789 0 -0.26798111949313308 -0.40143025665439908 0 -0.28258851764104831 -0.39497886678573951 0 -0.26951860851175657 -0.38646483480841581 0 -0.26798111949313308 -0.40143025665439908 0 -0.26798111949313308 -0.40143025665439908 0 -0.25266273554095958 -0.40409650854263579 0 -0.2493236969940946 -0.3894022378723091 0 -0.26798111949313308 -0.40143025665439908 0 -0.2493236969940946 -0.3894022378723091 0 -0.26951860851175657 -0.38646483480841581 0 -0.26798111949313308 -0.40143025665439908 0 -0.2493236969940946 -0.3894022378723091 0 -0.26951860851175657 -0.38646483480841581 0 -0.2595150537748025 -0.37545216109409529 0 -0.2493236969940946 -0.3894022378723091 0 -0.2595150537748025 -0.37545216109409529 0 -0.2493236969940946 -0.3894022378723091 0 -0.24775023025331361 -0.37310091780108168 0 -0.26951860851175657 -0.38646483480841581 0 -0.2493236969940946 -0.3894022378723091 0 -0.27790300079584629 -0.4287828498811278 0 -0.27193407104849071 -0.41686435703942659 0 -0.26409950288272649 -0.42652569056990902 0 -0.27790300079584629 -0.4287828498811278 0 -0.26409950288272649 -0.42652569056990902 0 -0.26790120959531682 -0.44170184150344732 0 -0.28663854199217131 -0.41345827543648977 0 -0.26798111949313308 -0.40143025665439908 0 -0.27193407104849071 -0.41686435703942659 0 -0.28663854199217131 -0.41345827543648977 0 -0.26798111949313308 -0.40143025665439908 0 -0.28663854199217131 -0.41345827543648977 0 -0.27790300079584629 -0.4287828498811278 0 -0.27193407104849071 -0.41686435703942659 0 -0.26798111949313308 -0.40143025665439908 0 -0.27193407104849071 -0.41686435703942659 0 -0.25983103037653488 -0.41518860755451281 0 -0.27193407104849071 -0.41686435703942659 0 -0.25983103037653488 -0.41518860755451281 0 -0.26409950288272649 -0.42652569056990902 0 -0.26798111949313308 -0.40143025665439908 0 -0.25266273554095958 -0.40409650854263579 0 -0.25983103037653488 -0.41518860755451281 0 -0.25266273554095958 -0.40409650854263579 0 -0.25983103037653488 -0.41518860755451281 0 -0.24486448388957421 -0.41276184774297792 0 -0.25983103037653488 -0.41518860755451281 0 -0.24486448388957421 -0.41276184774297792 0 -0.24856973240890451 -0.42473060750098468 0 -0.26409950288272649 -0.42652569056990902 0 -0.25376694502555103 -0.43679411366083282 0 -0.24856973240890451 -0.42473060750098468 0 -0.25983103037653488 -0.41518860755451281 0 -0.26409950288272649 -0.42652569056990902 0 -0.24856973240890451 -0.42473060750098468 0 -0.26409950288272649 -0.42652569056990902 0 -0.25376694502555103 -0.43679411366083282 0 -0.26790120959531682 -0.44170184150344732 0 -0.25376694502555103 -0.43679411366083282 0 -0.25690752572827857 -0.44951905708960499 0 -0.24597539199118329 -0.4465623332545729 0 -0.25690752572827857 -0.44951905708960499 0 -0.27132728099393988 -0.46227134308484769 0 -0.26790120959531682 -0.44170184150344732 0 -0.25690752572827857 -0.44951905708960499 0 -0.24597539199118329 -0.4465623332545729 0 -0.24745659168239079 -0.45953988161661119 0 -0.25376694502555103 -0.43679411366083282 0 -0.25690752572827857 -0.44951905708960499 0 -0.26790120959531682 -0.44170184150344732 0 -0.25690752572827857 -0.44951905708960499 0 -0.27132728099393988 -0.46227134308484769 0 -0.24745659168239079 -0.45953988161661119 0 -0.27132728099393988 -0.46227134308484769 0 -0.24925626481105551 -0.47403437943282128 0 -0.24745659168239079 -0.45953988161661119 0 -0.27132728099393988 -0.46227134308484769 0 -0.26790120959531682 -0.44170184150344732 0 -0.28340300214555858 -0.44631799473436162 0 -0.27790300079584629 -0.4287828498811278 0 -0.26790120959531682 -0.44170184150344732 0 -0.28340300214555858 -0.44631799473436162 0 -0.29457061097166048 -0.42876509573418542 0 -0.28340300214555858 -0.44631799473436162 0 -0.30889154068050501 -0.44658390696963868 0 -0.28340300214555858 -0.44631799473436162 0 -0.295032914147005 -0.47101165185055449 0 -0.28340300214555858 -0.44631799473436162 0 -0.30889154068050501 -0.44658390696963868 0 -0.295032914147005 -0.47101165185055449 0 -0.27132728099393988 -0.46227134308484769 0 -0.28340300214555858 -0.44631799473436162 0 -0.295032914147005 -0.47101165185055449 0 -0.31342042253691388 -0.4644311401126664 0 -0.30889154068050501 -0.44658390696963868 0 -0.295032914147005 -0.47101165185055449 0 -0.31825416463435868 -0.48614718400701379 0 -0.30666282614845192 -0.49570530896674708 0 -0.31047311319751891 -0.47734786172345622 0 -0.30666282614845192 -0.49570530896674708 0 -0.28752730570265322 -0.48848166578877172 0 -0.30666282614845192 -0.49570530896674708 0 -0.30868548640307292 -0.500000000000002 0 -0.27937504071398578 -0.5 0 -0.3180395160056908 -0.49999999999999939 0 -0.30666282614845192 -0.49570530896674708 0 -0.3180395160056908 -0.49999999999999939 0 -0.30666282614845192 -0.49570530896674708 0 -0.30868548640307292 -0.500000000000002 0 -0.30666282614845192 -0.49570530896674708 0 -0.30868548640307292 -0.500000000000002 0 -0.30666282614845192 -0.49570530896674708 0 -0.295032914147005 -0.47101165185055449 0 -0.30666282614845192 -0.49570530896674708 0 -0.31047311319751891 -0.47734786172345622 0 -0.295032914147005 -0.47101165185055449 0 -0.31342042253691388 -0.4644311401126664 0 -0.31047311319751891 -0.47734786172345622 0 -0.295032914147005 -0.47101165185055449 0 -0.295032914147005 -0.47101165185055449 0 -0.28752730570265322 -0.48848166578877172 0 -0.28056982152511312 -0.47575567083374259 0 -0.27132728099393988 -0.46227134308484769 0 -0.295032914147005 -0.47101165185055449 0 -0.28056982152511312 -0.47575567083374259 0 -0.30666282614845192 -0.49570530896674708 0 -0.28752730570265322 -0.48848166578877172 0 -0.27937504071398578 -0.5 0 -0.30666282614845192 -0.49570530896674708 0 -0.295032914147005 -0.47101165185055449 0 -0.28752730570265322 -0.48848166578877172 0 -0.28752730570265322 -0.48848166578877172 0 -0.27937504071398578 -0.5 0 -0.26839178525685442 -0.48125802261079648 0 -0.27937504071398578 -0.5 0 -0.26839178525685442 -0.48125802261079648 0 -0.25006459502489881 -0.5 0 -0.28752730570265322 -0.48848166578877172 0 -0.26839178525685442 -0.48125802261079648 0 -0.27132728099393988 -0.46227134308484769 0 -0.28056982152511312 -0.47575567083374259 0 -0.26839178525685442 -0.48125802261079648 0 -0.28752730570265322 -0.48848166578877172 0 -0.28056982152511312 -0.47575567083374259 0 -0.26839178525685442 -0.48125802261079648 0 -0.26839178525685442 -0.48125802261079648 0 -0.24925626481105551 -0.47403437943282128 0 -0.27132728099393988 -0.46227134308484769 0 -0.26839178525685442 -0.48125802261079648 0 -0.24925626481105551 -0.47403437943282128 0 -0.26839178525685442 -0.48125802261079648 0 -0.25006459502489881 -0.5 0 -0.24925626481105551 -0.47403437943282128 0 -0.25006459502489881 -0.5 0 -0.23813463402355561 -0.48701774589960362 0 -0.24925626481105551 -0.47403437943282128 0 -0.25006459502489881 -0.5 0 -0.23813463402355561 -0.48701774589960362 0 -0.22075414933581181 -0.5 0 -0.23813463402355561 -0.48701774589960362 0 -0.24925626481105551 -0.47403437943282128 0 -0.22879019759806779 -0.47277527427273608 0 -0.24925626481105551 -0.47403437943282128 0 -0.22879019759806779 -0.47277527427273608 0 -0.24745659168239079 -0.45953988161661119 0 -0.23813463402355561 -0.48701774589960362 0 -0.22879019759806779 -0.47277527427273608 0 -0.22075414933581181 -0.5 0 -0.24597539199118329 -0.4465623332545729 0 -0.23248288897181951 -0.45207690256508443 0 -0.23934066670083681 -0.43398716894316869 0 -0.25376694502555103 -0.43679411366083282 0 -0.24597539199118329 -0.4465623332545729 0 -0.23934066670083681 -0.43398716894316869 0 -0.24597539199118329 -0.4465623332545729 0 -0.24745659168239079 -0.45953988161661119 0 -0.23248288897181951 -0.45207690256508443 0 -0.22879019759806779 -0.47277527427273608 0 -0.24745659168239079 -0.45953988161661119 0 -0.23248288897181951 -0.45207690256508443 0 -0.22879019759806779 -0.47277527427273608 0 -0.23248288897181951 -0.45207690256508443 0 -0.21547455935719231 -0.45820433897879043 0 -0.23248288897181951 -0.45207690256508443 0 -0.21889170782139569 -0.43723950922909133 0 -0.23934066670083681 -0.43398716894316869 0 -0.23248288897181951 -0.45207690256508443 0 -0.21547455935719231 -0.45820433897879043 0 -0.21889170782139569 -0.43723950922909133 0 -0.21547455935719231 -0.45820433897879043 0 -0.19557589140924381 -0.44734674193608648 0 -0.21889170782139569 -0.43723950922909133 0 -0.19557589140924381 -0.44734674193608648 0 -0.2016089605735478 -0.42901698462399629 0 -0.21889170782139569 -0.43723950922909133 0 -0.21547455935719231 -0.45820433897879043 0 -0.19557589140924381 -0.44734674193608648 0 -0.19935487078945871 -0.47632436266877087 0 -0.19557589140924381 -0.44734674193608648 0 -0.19935487078945871 -0.47632436266877087 0 -0.17594725371265851 -0.46739788466215182 0 -0.22075414933581181 -0.5 0 -0.19935487078945871 -0.47632436266877087 0 -0.19144370364672481 -0.5 0 -0.22879019759806779 -0.47277527427273608 0 -0.21547455935719231 -0.45820433897879043 0 -0.19935487078945871 -0.47632436266877087 0 -0.22879019759806779 -0.47277527427273608 0 -0.22075414933581181 -0.5 0 -0.19935487078945871 -0.47632436266877087 0 -0.19935487078945871 -0.47632436266877087 0 -0.19144370364672481 -0.5 0 -0.17697867517977009 -0.48492939397299228 0 -0.19144370364672481 -0.5 0 -0.17697867517977009 -0.48492939397299228 0 -0.16213325795763781 -0.50000000000000022 0 -0.17697867517977009 -0.48492939397299228 0 -0.16213325795763781 -0.50000000000000022 0 -0.15601428979237081 -0.48092472253403817 0 -0.17594725371265851 -0.46739788466215182 0 -0.15601428979237081 -0.48092472253403817 0 -0.17697867517977009 -0.48492939397299228 0 -0.17594725371265851 -0.46739788466215182 0 -0.15601428979237081 -0.48092472253403817 0 -0.17594725371265851 -0.46739788466215182 0 -0.15346592107996229 -0.46110086143975648 0 -0.15601428979237081 -0.48092472253403817 0 -0.19935487078945871 -0.47632436266877087 0 -0.17697867517977009 -0.48492939397299228 0 -0.17594725371265851 -0.46739788466215182 0 -0.19557589140924381 -0.44734674193608648 0 -0.17594725371265851 -0.46739788466215182 0 -0.16789992940550541 -0.44588573678820742 0 -0.19557589140924381 -0.44734674193608648 0 -0.16789992940550541 -0.44588573678820742 0 -0.1799323430022568 -0.43070467593836892 0 -0.16789992940550541 -0.44588573678820742 0 -0.15346592107996229 -0.46110086143975648 0 -0.14961284457647361 -0.44831121873381291 0 -0.16789992940550541 -0.44588573678820742 0 -0.14961284457647361 -0.44831121873381291 0 -0.15294895823323529 -0.43426856884174903 0 -0.17594725371265851 -0.46739788466215182 0 -0.16789992940550541 -0.44588573678820742 0 -0.15346592107996229 -0.46110086143975648 0 -0.14961284457647361 -0.44831121873381291 0 -0.13329939248391171 -0.45278852121549151 0 -0.13936692322013891 -0.46257805935683211 0 -0.15346592107996229 -0.46110086143975648 0 -0.14961284457647361 -0.44831121873381291 0 -0.13936692322013891 -0.46257805935683211 0 -0.15346592107996229 -0.46110086143975648 0 -0.13936692322013891 -0.46257805935683211 0 -0.14024356832988569 -0.4727383318954842 0 -0.14961284457647361 -0.44831121873381291 0 -0.13849252944976989 -0.44033478754401267 0 -0.15294895823323529 -0.43426856884174903 0 -0.14961284457647361 -0.44831121873381291 0 -0.13849252944976989 -0.44033478754401267 0 -0.13329939248391171 -0.45278852121549151 0 -0.13849252944976989 -0.44033478754401267 0 -0.13329939248391171 -0.45278852121549151 0 -0.1242289782594084 -0.44595218199602821 0 -0.13849252944976989 -0.44033478754401267 0 -0.12743044717381319 -0.43401292598451502 0 -0.1242289782594084 -0.44595218199602821 0 -0.13329939248391171 -0.45278852121549151 0 -0.12744103810887039 -0.46735050644273091 0 -0.1171369931367106 -0.45478980130860291 0 -0.13936692322013891 -0.46257805935683211 0 -0.12744103810887039 -0.46735050644273091 0 -0.14024356832988569 -0.4727383318954842 0 -0.13329939248391171 -0.45278852121549151 0 -0.13936692322013891 -0.46257805935683211 0 -0.12744103810887039 -0.46735050644273091 0 -0.12744103810887039 -0.46735050644273091 0 -0.14024356832988569 -0.4727383318954842 0 -0.12927495944201009 -0.48095836372688411 0 -0.14024356832988569 -0.4727383318954842 0 -0.14040353585908741 -0.48226824464058271 0 -0.12927495944201009 -0.48095836372688411 0 -0.13608132587208299 -0.49445156040592447 0 -0.11547280033821331 -0.49006243645641662 0 -0.12790522091022141 -0.50000000000000089 0 -0.13608132587208299 -0.49445156040592447 0 -0.11547280033821331 -0.49006243645641662 0 -0.12927495944201009 -0.48095836372688411 0 -0.13608132587208299 -0.49445156040592447 0 -0.11547280033821331 -0.49006243645641662 0 -0.12790522091022141 -0.50000000000000089 0 -0.13608132587208299 -0.49445156040592447 0 -0.14501923943392961 -0.5 0 -0.12790522091022141 -0.50000000000000089 0 -0.13608132587208299 -0.49445156040592447 0 -0.14040353585908741 -0.48226824464058271 0 -0.12927495944201009 -0.48095836372688411 0 -0.13608132587208299 -0.49445156040592447 0 -0.14040353585908741 -0.48226824464058271 0 -0.13608132587208299 -0.49445156040592447 0 -0.15601428979237081 -0.48092472253403817 0 -0.13608132587208299 -0.49445156040592447 0 -0.15601428979237081 -0.48092472253403817 0 -0.16213325795763781 -0.50000000000000022 0 -0.13608132587208299 -0.49445156040592447 0 -0.16213325795763781 -0.50000000000000022 0 -0.13608132587208299 -0.49445156040592447 0 -0.14501923943392961 -0.5 0 -0.16213325795763781 -0.50000000000000022 0 -0.13608132587208299 -0.49445156040592447 0 -0.15601428979237081 -0.48092472253403817 0 -0.14024356832988569 -0.4727383318954842 0 -0.14040353585908741 -0.48226824464058271 0 -0.15601428979237081 -0.48092472253403817 0 -0.15346592107996229 -0.46110086143975648 0 -0.14024356832988569 -0.4727383318954842 0 -0.15601428979237081 -0.48092472253403817 0 -0.14247950724881439 -0.40162846602410068 0 -0.16172943028420941 -0.40509576305343031 0 -0.159413449334915 -0.38926675891130641 0 -0.14247950724881439 -0.40162846602410068 0 -0.159413449334915 -0.38926675891130641 0 -0.14247950724881439 -0.40162846602410068 0 -0.1418640802831225 -0.3800896878219624 0 -0.159413449334915 -0.38926675891130641 0 -0.1418640802831225 -0.3800896878219624 0 -0.159413449334915 -0.38926675891130641 0 -0.15768501003499871 -0.37311039009772029 0 -0.14247950724881439 -0.40162846602410068 0 -0.1418640802831225 -0.3800896878219624 0 -0.13131176746649009 -0.38924099915825677 0 -0.1418640802831225 -0.3800896878219624 0 -0.13131176746649009 -0.38924099915825677 0 -0.124955730377648 -0.37850958160027037 0 -0.13131176746649009 -0.38924099915825677 0 -0.124955730377648 -0.37850958160027037 0 -0.1193894030107009 -0.38985898930714408 0 -0.14247950724881439 -0.40162846602410068 0 -0.12664320176620131 -0.39980621084949208 0 -0.12554556516271331 -0.4139901731368944 0 -0.13131176746649009 -0.38924099915825677 0 -0.12664320176620131 -0.39980621084949208 0 -0.1193894030107009 -0.38985898930714408 0 -0.14247950724881439 -0.40162846602410068 0 -0.13131176746649009 -0.38924099915825677 0 -0.12664320176620131 -0.39980621084949208 0 -0.14247950724881439 -0.40162846602410068 0 -0.12554556516271331 -0.4139901731368944 0 -0.13038759870303271 -0.41712640283794677 0 -0.14247950724881439 -0.40162846602410068 0 -0.12554556516271331 -0.4139901731368944 0 -0.12554556516271331 -0.4139901731368944 0 -0.13038759870303271 -0.41712640283794677 0 -0.12554556516271331 -0.4139901731368944 0 -0.125610645568554 -0.42054724893143208 0 -0.13038759870303271 -0.41712640283794677 0 -0.125610645568554 -0.42054724893143208 0 -0.13038759870303271 -0.41712640283794677 0 -0.13261949633705261 -0.42454766097415281 0 -0.13038759870303271 -0.41712640283794677 0 -0.13261949633705261 -0.42454766097415281 0 -0.14180108465403929 -0.41672283208681432 0 -0.14247950724881439 -0.40162846602410068 0 -0.13038759870303271 -0.41712640283794677 0 -0.14180108465403929 -0.41672283208681432 0 -0.125610645568554 -0.42054724893143208 0 -0.13261949633705261 -0.42454766097415281 0 -0.1235211899689982 -0.42609855759077209 0 -0.12743044717381319 -0.43401292598451502 0 -0.13261949633705261 -0.42454766097415281 0 -0.1235211899689982 -0.42609855759077209 0 -0.12743044717381319 -0.43401292598451502 0 -0.13261949633705261 -0.42454766097415281 0 -0.14131590777970829 -0.42790607633678079 0 -0.13261949633705261 -0.42454766097415281 0 -0.14131590777970829 -0.42790607633678079 0 -0.14180108465403929 -0.41672283208681432 0 -0.13849252944976989 -0.44033478754401267 0 -0.12743044717381319 -0.43401292598451502 0 -0.14131590777970829 -0.42790607633678079 0 -0.14131590777970829 -0.42790607633678079 0 -0.15294895823323529 -0.43426856884174903 0 -0.15320545480688649 -0.41611383921178802 0 -0.13849252944976989 -0.44033478754401267 0 -0.14131590777970829 -0.42790607633678079 0 -0.15294895823323529 -0.43426856884174903 0 -0.14247950724881439 -0.40162846602410068 0 -0.15320545480688649 -0.41611383921178802 0 -0.16172943028420941 -0.40509576305343031 0 -0.14247950724881439 -0.40162846602410068 0 -0.14180108465403929 -0.41672283208681432 0 -0.15320545480688649 -0.41611383921178802 0 -0.14131590777970829 -0.42790607633678079 0 -0.14180108465403929 -0.41672283208681432 0 -0.15320545480688649 -0.41611383921178802 0 -0.16582582603316101 -0.42249589931006792 0 -0.17813986721163949 -0.40380486386844139 0 -0.16172943028420941 -0.40509576305343031 0 -0.15320545480688649 -0.41611383921178802 0 -0.16582582603316101 -0.42249589931006792 0 -0.16172943028420941 -0.40509576305343031 0 -0.16789992940550541 -0.44588573678820742 0 -0.16582582603316101 -0.42249589931006792 0 -0.1799323430022568 -0.43070467593836892 0 -0.16789992940550541 -0.44588573678820742 0 -0.15294895823323529 -0.43426856884174903 0 -0.16582582603316101 -0.42249589931006792 0 -0.15294895823323529 -0.43426856884174903 0 -0.15320545480688649 -0.41611383921178802 0 -0.16582582603316101 -0.42249589931006792 0 -0.16582582603316101 -0.42249589931006792 0 -0.1799323430022568 -0.43070467593836892 0 -0.17813986721163949 -0.40380486386844139 0 -0.1799323430022568 -0.43070467593836892 0 -0.17813986721163949 -0.40380486386844139 0 -0.19787614873871631 -0.4102581858429582 0 -0.1799323430022568 -0.43070467593836892 0 -0.17813986721163949 -0.40380486386844139 0 -0.17813986721163949 -0.40380486386844139 0 -0.16172943028420941 -0.40509576305343031 0 -0.159413449334915 -0.38926675891130641 0 -0.159413449334915 -0.38926675891130641 0 -0.1763473914210171 -0.3769050517985143 0 -0.15768501003499871 -0.37311039009772029 0 -0.159413449334915 -0.38926675891130641 0 -0.1763473914210171 -0.3769050517985143 0 -0.17813986721163949 -0.40380486386844139 0 -0.159413449334915 -0.38926675891130641 0 -0.1763473914210171 -0.3769050517985143 0 -0.17813986721163949 -0.40380486386844139 0 -0.1763473914210171 -0.3769050517985143 0 -0.19096967820075619 -0.39039940783621291 0 -0.17813986721163949 -0.40380486386844139 0 -0.1763473914210171 -0.3769050517985143 0 -0.1763473914210171 -0.3769050517985143 0 -0.19717331232284421 -0.37524728281733882 0 -0.19096967820075619 -0.39039940783621291 0 -0.19096967820075619 -0.39039940783621291 0 -0.20463780434654841 -0.39512661956198919 0 -0.20640229775869751 -0.38366506586393301 0 -0.19717331232284421 -0.37524728281733882 0 -0.19096967820075619 -0.39039940783621291 0 -0.20640229775869751 -0.38366506586393301 0 -0.19096967820075619 -0.39039940783621291 0 -0.20463780434654841 -0.39512661956198919 0 -0.19787614873871631 -0.4102581858429582 0 -0.17813986721163949 -0.40380486386844139 0 -0.19096967820075619 -0.39039940783621291 0 -0.19787614873871631 -0.4102581858429582 0 -0.20463780434654841 -0.39512661956198919 0 -0.21518995070788691 -0.40280183154836352 0 -0.19787614873871631 -0.4102581858429582 0 -0.20463780434654841 -0.39512661956198919 0 -0.21518995070788691 -0.40280183154836352 0 -0.21589904157285991 -0.38728068144580918 0 -0.19717331232284421 -0.37524728281733882 0 -0.21368106466033621 -0.37536967799487392 0 -0.20640229775869751 -0.38366506586393301 0 -0.21589904157285991 -0.38728068144580918 0 -0.21673832845373309 -0.38022688129845222 0 -0.20640229775869751 -0.38366506586393301 0 -0.21589904157285991 -0.38728068144580918 0 -0.21673832845373309 -0.38022688129845222 0 -0.22358960689962359 -0.37786396585485188 0 -0.21673832845373309 -0.38022688129845222 0 -0.21368106466033621 -0.37536967799487392 0 -0.20640229775869751 -0.38366506586393301 0 -0.21673832845373309 -0.38022688129845222 0 -0.21368106466033621 -0.37536967799487392 0 -0.218822573459513 -0.37474833726216039 0 -0.20463780434654841 -0.39512661956198919 0 -0.21589904157285991 -0.38728068144580918 0 -0.20640229775869751 -0.38366506586393301 0 -0.19557589140924381 -0.44734674193608648 0 -0.1799323430022568 -0.43070467593836892 0 -0.2016089605735478 -0.42901698462399629 0 -0.1799323430022568 -0.43070467593836892 0 -0.2016089605735478 -0.42901698462399629 0 -0.19787614873871631 -0.4102581858429582 0 -0.2016089605735478 -0.42901698462399629 0 -0.19787614873871631 -0.4102581858429582 0 -0.21576871189612659 -0.4195358101734768 0 -0.21518995070788691 -0.40280183154836352 0 -0.19787614873871631 -0.4102581858429582 0 -0.21576871189612659 -0.4195358101734768 0 -0.2016089605735478 -0.42901698462399629 0 -0.21576871189612659 -0.4195358101734768 0 -0.21889170782139569 -0.43723950922909133 0 -0.21576871189612659 -0.4195358101734768 0 -0.21889170782139569 -0.43723950922909133 0 -0.2307598028725516 -0.4230393480298964 0 -0.21889170782139569 -0.43723950922909133 0 -0.2307598028725516 -0.4230393480298964 0 -0.23934066670083681 -0.43398716894316869 0 -0.21518995070788691 -0.40280183154836352 0 -0.21576871189612659 -0.4195358101734768 0 -0.23014112076652291 -0.40907215255743362 0 -0.21576871189612659 -0.4195358101734768 0 -0.2307598028725516 -0.4230393480298964 0 -0.23014112076652291 -0.40907215255743362 0 -0.2307598028725516 -0.4230393480298964 0 -0.24486448388957421 -0.41276184774297792 0 -0.24856973240890451 -0.42473060750098468 0 -0.23014112076652291 -0.40907215255743362 0 -0.24486448388957421 -0.41276184774297792 0 -0.24131334695146101 -0.40169959288897972 0 -0.2307598028725516 -0.4230393480298964 0 -0.23014112076652291 -0.40907215255743362 0 -0.24486448388957421 -0.41276184774297792 0 -0.2307598028725516 -0.4230393480298964 0 -0.24856973240890451 -0.42473060750098468 0 -0.23934066670083681 -0.43398716894316869 0 -0.25376694502555103 -0.43679411366083282 0 -0.24856973240890451 -0.42473060750098468 0 -0.23934066670083681 -0.43398716894316869 0 -0.23370141979074799 -0.37933090869323383 0 -0.22358960689962359 -0.37786396585485188 0 -0.2254144124997442 -0.39287990626752978 0 -0.23370141979074799 -0.37933090869323383 0 -0.22358960689962359 -0.37786396585485188 0 -0.21807914258740091 -0.36925957951415928 0 -0.21673832845373309 -0.38022688129845222 0 -0.22358960689962359 -0.37786396585485188 0 -0.218822573459513 -0.37474833726216039 0 -0.21589904157285991 -0.38728068144580918 0 -0.22358960689962359 -0.37786396585485188 0 -0.2254144124997442 -0.39287990626752978 0 -0.23014112076652291 -0.40907215255743362 0 -0.2254144124997442 -0.39287990626752978 0 -0.24131334695146101 -0.40169959288897972 0 -0.21518995070788691 -0.40280183154836352 0 -0.21589904157285991 -0.38728068144580918 0 -0.2254144124997442 -0.39287990626752978 0 -0.21518995070788691 -0.40280183154836352 0 -0.23014112076652291 -0.40907215255743362 0 -0.2254144124997442 -0.39287990626752978 0 -0.2254144124997442 -0.39287990626752978 0 -0.2493236969940946 -0.3894022378723091 0 -0.2254144124997442 -0.39287990626752978 0 -0.24131334695146101 -0.40169959288897972 0 -0.2493236969940946 -0.3894022378723091 0 -0.25266273554095958 -0.40409650854263579 0 -0.24486448388957421 -0.41276184774297792 0 -0.24131334695146101 -0.40169959288897972 0 -0.25266273554095958 -0.40409650854263579 0 -0.24131334695146101 -0.40169959288897972 0 -0.2493236969940946 -0.3894022378723091 0 -0.23370141979074799 -0.37933090869323383 0 -0.2493236969940946 -0.3894022378723091 0 -0.24775023025331361 -0.37310091780108168 0 -0.23370141979074799 -0.37933090869323383 0 -0.2254144124997442 -0.39287990626752978 0 -0.2493236969940946 -0.3894022378723091 0 -0.23370141979074799 -0.37933090869323383 0 -0.2493236969940946 -0.3894022378723091 0 -0.25811427294214828 -0.35779299439246032 0 -0.2380967077647746 -0.36352628695330991 0 -0.25811427294214828 -0.35779299439246032 0 -0.24775023025331361 -0.37310091780108168 0 -0.2380967077647746 -0.36352628695330991 0 -0.23370141979074799 -0.37933090869323383 0 -0.24775023025331361 -0.37310091780108168 0 -0.2380967077647746 -0.36352628695330991 0 -0.2380967077647746 -0.36352628695330991 0 -0.21807914258740091 -0.36925957951415928 0 -0.2380967077647746 -0.36352628695330991 0 -0.22159897621790239 -0.36315437010012103 0 -0.22986329870905831 -0.3546492644710747 0 -0.2380967077647746 -0.36352628695330991 0 -0.22159897621790239 -0.36315437010012103 0 -0.21807914258740091 -0.36925957951415928 0 -0.23370141979074799 -0.37933090869323383 0 -0.2380967077647746 -0.36352628695330991 0 -0.21807914258740091 -0.36925957951415928 0 -0.23370141979074799 -0.37933090869323383 0 -0.21807914258740091 -0.36925957951415928 0 -0.22358960689962359 -0.37786396585485188 0 -0.218822573459513 -0.37474833726216039 0 -0.21807914258740091 -0.36925957951415928 0 -0.22159897621790239 -0.36315437010012103 0 -0.2220349268254006 -0.34355334145824978 0 -0.21505818111881561 -0.37012482240264499 0 -0.22986329870905831 -0.3546492644710747 0 -0.23965876417926721 -0.34888301188674548 0 -0.2220349268254006 -0.34355334145824978 0 -0.22159897621790239 -0.36315437010012103 0 -0.22986329870905831 -0.3546492644710747 0 -0.2220349268254006 -0.34355334145824978 0 -0.25811427294214828 -0.35779299439246032 0 -0.2380967077647746 -0.36352628695330991 0 -0.23965876417926721 -0.34888301188674548 0 -0.2380967077647746 -0.36352628695330991 0 -0.22986329870905831 -0.3546492644710747 0 -0.23965876417926721 -0.34888301188674548 0 -0.25435955333147869 -0.33876960901635111 0 -0.25017677148847839 -0.32300991219824932 0 -0.23610584915693911 -0.33328162682824891 0 -0.25435955333147869 -0.33876960901635111 0 -0.23965876417926721 -0.34888301188674548 0 -0.23610584915693911 -0.33328162682824891 0 -0.25017677148847839 -0.32300991219824932 0 -0.23610584915693911 -0.33328162682824891 0 -0.25017677148847839 -0.32300991219824932 0 -0.22846277786431601 -0.31907236872726941 0 -0.24920945229066721 -0.30581688709866123 0 -0.25017677148847839 -0.32300991219824932 0 -0.23610584915693911 -0.33328162682824891 0 -0.22846277786431601 -0.31907236872726941 0 -0.22846277786431601 -0.31907236872726941 0 -0.21542367814925159 -0.32587443241776942 0 -0.2160778467821364 -0.31036677444263328 0 -0.23610584915693911 -0.33328162682824891 0 -0.22846277786431601 -0.31907236872726941 0 -0.2220349268254006 -0.34355334145824978 0 -0.23965876417926721 -0.34888301188674548 0 -0.23610584915693911 -0.33328162682824891 0 -0.2220349268254006 -0.34355334145824978 0 -0.22846277786431601 -0.31907236872726941 0 -0.2220349268254006 -0.34355334145824978 0 -0.21542367814925159 -0.32587443241776942 0 -0.22846277786431601 -0.31907236872726941 0 -0.2220349268254006 -0.34355334145824978 0 -0.23610584915693911 -0.33328162682824891 0 -0.2220349268254006 -0.34355334145824978 0 -0.2220349268254006 -0.34355334145824978 0 -0.20608282106190531 -0.33531778215081742 0 -0.20164702732100731 -0.34725633946505341 0 -0.2220349268254006 -0.34355334145824978 0 -0.20608282106190531 -0.33531778215081742 0 -0.21542367814925159 -0.32587443241776942 0 -0.21542367814925159 -0.32587443241776942 0 -0.20446001821249951 -0.32106189530987711 0 -0.2160778467821364 -0.31036677444263328 0 -0.20608282106190531 -0.33531778215081742 0 -0.21542367814925159 -0.32587443241776942 0 -0.20446001821249951 -0.32106189530987711 0 -0.20446001821249951 -0.32106189530987711 0 -0.2160778467821364 -0.31036677444263328 0 -0.20201802782584999 -0.30736522604925159 0 -0.1939121227729601 -0.31870965099601228 0 -0.1870315295098367 -0.30426659770920139 0 -0.18285714651482871 -0.32993545933368018 0 -0.20446001821249951 -0.32106189530987711 0 -0.1939121227729601 -0.31870965099601228 0 -0.20201802782584999 -0.30736522604925159 0 -0.20446001821249951 -0.32106189530987711 0 -0.1939121227729601 -0.31870965099601228 0 -0.19581609704969091 -0.32989866904396897 0 -0.1939121227729601 -0.31870965099601228 0 -0.19581609704969091 -0.32989866904396897 0 -0.18285714651482871 -0.32993545933368018 0 -0.20608282106190531 -0.33531778215081742 0 -0.1937217993743936 -0.34149331229360408 0 -0.20164702732100731 -0.34725633946505341 0 -0.20608282106190531 -0.33531778215081742 0 -0.20446001821249951 -0.32106189530987711 0 -0.19581609704969091 -0.32989866904396897 0 -0.20608282106190531 -0.33531778215081742 0 -0.19581609704969091 -0.32989866904396897 0 -0.1937217993743936 -0.34149331229360408 0 -0.19581609704969091 -0.32989866904396897 0 -0.1937217993743936 -0.34149331229360408 0 -0.18285714651482871 -0.32993545933368018 0 -0.1937217993743936 -0.34149331229360408 0 -0.20164702732100731 -0.34725633946505341 0 -0.1872044302201295 -0.35568806479421561 0 -0.1937217993743936 -0.34149331229360408 0 -0.1872044302201295 -0.35568806479421561 0 -0.1856165349072931 -0.34568028934491468 0 -0.20164702732100731 -0.34725633946505341 0 -0.1991911591232077 -0.36022919662838032 0 -0.1872044302201295 -0.35568806479421561 0 -0.1763473914210171 -0.3769050517985143 0 -0.1991911591232077 -0.36022919662838032 0 -0.1872044302201295 -0.35568806479421561 0 -0.1763473914210171 -0.3769050517985143 0 -0.19717331232284421 -0.37524728281733882 0 -0.1991911591232077 -0.36022919662838032 0 -0.1763473914210171 -0.3769050517985143 0 -0.1991911591232077 -0.36022919662838032 0 -0.19717331232284421 -0.37524728281733882 0 -0.21368106466033621 -0.37536967799487392 0 -0.21505818111881561 -0.37012482240264499 0 -0.19717331232284421 -0.37524728281733882 0 -0.1991911591232077 -0.36022919662838032 0 -0.21505818111881561 -0.37012482240264499 0 -0.19717331232284421 -0.37524728281733882 0 -0.21505818111881561 -0.37012482240264499 0 -0.21368106466033621 -0.37536967799487392 0 -0.21505818111881561 -0.37012482240264499 0 -0.22159897621790239 -0.36315437010012103 0 -0.21807914258740091 -0.36925957951415928 0 -0.21505818111881561 -0.37012482240264499 0 -0.21807914258740091 -0.36925957951415928 0 -0.21505818111881561 -0.37012482240264499 0 -0.21684138330402011 -0.37229568563386362 0 -0.21807914258740091 -0.36925957951415928 0 -0.21505818111881561 -0.37012482240264499 0 -0.218822573459513 -0.37474833726216039 0 -0.21807914258740091 -0.36925957951415928 0 -0.21684138330402011 -0.37229568563386362 0 -0.21368106466033621 -0.37536967799487392 0 -0.21505818111881561 -0.37012482240264499 0 -0.21684138330402011 -0.37229568563386362 0 -0.21368106466033621 -0.37536967799487392 0 -0.218822573459513 -0.37474833726216039 0 -0.21684138330402011 -0.37229568563386362 0 -0.2220349268254006 -0.34355334145824978 0 -0.1991911591232077 -0.36022919662838032 0 -0.2220349268254006 -0.34355334145824978 0 -0.20164702732100731 -0.34725633946505341 0 -0.1991911591232077 -0.36022919662838032 0 -0.2220349268254006 -0.34355334145824978 0 -0.1991911591232077 -0.36022919662838032 0 -0.21505818111881561 -0.37012482240264499 0 -0.2220349268254006 -0.34355334145824978 0 -0.21505818111881561 -0.37012482240264499 0 -0.22311506288638949 -0.25484027484165528 0 -0.2294259052428165 -0.26496716154496469 0 -0.2401483586073484 -0.24788162033745609 0 -0.22311506288638949 -0.25484027484165528 0 -0.2294259052428165 -0.26496716154496469 0 -0.21709098999703 -0.26643273932393741 0 -0.2294259052428165 -0.26496716154496469 0 -0.241318479942143 -0.27011042326530749 0 -0.2401483586073484 -0.24788162033745609 0 -0.25496802357147869 -0.26110834464628502 0 -0.241318479942143 -0.27011042326530749 0 -0.2401483586073484 -0.24788162033745609 0 -0.25496802357147869 -0.26110834464628502 0 -0.2401483586073484 -0.24788162033745609 0 -0.25352903688934941 -0.28586247602549358 0 -0.25330129369580651 -0.27343034636546543 0 -0.241318479942143 -0.27011042326530749 0 -0.25330129369580651 -0.27343034636546543 0 -0.25496802357147869 -0.26110834464628502 0 -0.241318479942143 -0.27011042326530749 0 -0.2294259052428165 -0.26496716154496469 0 -0.241318479942143 -0.27011042326530749 0 -0.22591922806240211 -0.27915177024023768 0 -0.2294259052428165 -0.26496716154496469 0 -0.22591922806240211 -0.27915177024023768 0 -0.21709098999703 -0.26643273932393741 0 -0.22591922806240211 -0.27915177024023768 0 -0.23489062890322951 -0.29459139599628847 0 -0.2136910532224349 -0.29463257612380561 0 -0.241318479942143 -0.27011042326530749 0 -0.22591922806240211 -0.27915177024023768 0 -0.23489062890322951 -0.29459139599628847 0 -0.241318479942143 -0.27011042326530749 0 -0.23489062890322951 -0.29459139599628847 0 -0.25352903688934941 -0.28586247602549358 0 -0.23489062890322951 -0.29459139599628847 0 -0.24920945229066721 -0.30581688709866123 0 -0.25352903688934941 -0.28586247602549358 0 -0.241318479942143 -0.27011042326530749 0 -0.23489062890322951 -0.29459139599628847 0 -0.22846277786431601 -0.31907236872726941 0 -0.23489062890322951 -0.29459139599628847 0 -0.24920945229066721 -0.30581688709866123 0 -0.22846277786431601 -0.31907236872726941 0 -0.23489062890322951 -0.29459139599628847 0 -0.2160778467821364 -0.31036677444263328 0 -0.23489062890322951 -0.29459139599628847 0 -0.2160778467821364 -0.31036677444263328 0 -0.2136910532224349 -0.29463257612380561 0 -0.22846277786431601 -0.31907236872726941 0 -0.23489062890322951 -0.29459139599628847 0 -0.2160778467821364 -0.31036677444263328 0 -0.20201802782584999 -0.30736522604925159 0 -0.2136910532224349 -0.29463257612380561 0 -0.20201802782584999 -0.30736522604925159 0 -0.20035776403927391 -0.29294472059054227 0 -0.2136910532224349 -0.29463257612380561 0 -0.1939121227729601 -0.31870965099601228 0 -0.20201802782584999 -0.30736522604925159 0 -0.1870315295098367 -0.30426659770920139 0 -0.20201802782584999 -0.30736522604925159 0 -0.20035776403927391 -0.29294472059054227 0 -0.1870315295098367 -0.30426659770920139 0 -0.20035776403927391 -0.29294472059054227 0 -0.2078422971334028 -0.27986146698572989 0 -0.1912059125048447 -0.27859773608472271 0 -0.20035776403927391 -0.29294472059054227 0 -0.1912059125048447 -0.27859773608472271 0 -0.1870315295098367 -0.30426659770920139 0 -0.1912059125048447 -0.27859773608472271 0 -0.1870315295098367 -0.30426659770920139 0 -0.22591922806240211 -0.27915177024023768 0 -0.2136910532224349 -0.29463257612380561 0 -0.2078422971334028 -0.27986146698572989 0 -0.20035776403927391 -0.29294472059054227 0 -0.2136910532224349 -0.29463257612380561 0 -0.2078422971334028 -0.27986146698572989 0 -0.22591922806240211 -0.27915177024023768 0 -0.21709098999703 -0.26643273932393741 0 -0.2078422971334028 -0.27986146698572989 0 -0.21709098999703 -0.26643273932393741 0 -0.20421223480820089 -0.26608576468293471 0 -0.2078422971334028 -0.27986146698572989 0 -0.20421223480820089 -0.26608576468293471 0 -0.2078422971334028 -0.27986146698572989 0 -0.1912059125048447 -0.27859773608472271 0 -0.20421223480820089 -0.26608576468293471 0 -0.1912059125048447 -0.27859773608472271 0 -0.1953802954998527 -0.25292887446024409 0 -0.1912059125048447 -0.27859773608472271 0 -0.1953802954998527 -0.25292887446024409 0 -0.1912059125048447 -0.27859773608472271 0 -0.1953802954998527 -0.25292887446024409 0 -0.1813995801845491 -0.25864460276197532 0 -0.20421223480820089 -0.26608576468293471 0 -0.1953802954998527 -0.25292887446024409 0 -0.20954167890587461 -0.25260800656003901 0 -0.21709098999703 -0.26643273932393741 0 -0.20421223480820089 -0.26608576468293471 0 -0.20954167890587461 -0.25260800656003901 0 -0.22311506288638949 -0.25484027484165528 0 -0.21709098999703 -0.26643273932393741 0 -0.20954167890587461 -0.25260800656003901 0 -0.16783186375118561 -0.25469217480889389 0 -0.17395950081038181 -0.27102377626682228 0 -0.16137764165664639 -0.26780423587028229 0 -0.16783186375118561 -0.25469217480889389 0 -0.15531174245352211 -0.25869649936546918 0 -0.15346796410309879 -0.2454973833824379 0 -0.16783186375118561 -0.25469217480889389 0 -0.16137764165664639 -0.26780423587028229 0 -0.15531174245352211 -0.25869649936546918 0 -0.16783186375118561 -0.25469217480889389 0 -0.1813995801845491 -0.25864460276197532 0 -0.17395950081038181 -0.27102377626682228 0 -0.1953802954998527 -0.25292887446024409 0 -0.1813995801845491 -0.25864460276197532 0 -0.1818472777520645 -0.24220011596527949 0 -0.16783186375118561 -0.25469217480889389 0 -0.1813995801845491 -0.25864460276197532 0 -0.1818472777520645 -0.24220011596527949 0 -0.1912059125048447 -0.27859773608472271 0 -0.1813995801845491 -0.25864460276197532 0 -0.17395950081038181 -0.27102377626682228 0 -0.1912059125048447 -0.27859773608472271 0 -0.17395950081038181 -0.27102377626682228 0 -0.17634916514681989 -0.28151391159768219 0 -0.17395950081038181 -0.27102377626682228 0 -0.16559554259373971 -0.2792927349180771 0 -0.17634916514681989 -0.28151391159768219 0 -0.17395950081038181 -0.27102377626682228 0 -0.16559554259373971 -0.2792927349180771 0 -0.16137764165664639 -0.26780423587028229 0 -0.16559554259373971 -0.2792927349180771 0 -0.15075672391683539 -0.2863603002588162 0 -0.1536620924410331 -0.27568055551772103 0 -0.16559554259373971 -0.2792927349180771 0 -0.16137764165664639 -0.26780423587028229 0 -0.1536620924410331 -0.27568055551772103 0 -0.1771155526561711 -0.29304903700804102 0 -0.16005902609217251 -0.29999977815540191 0 -0.15075672391683539 -0.2863603002588162 0 -0.16559554259373971 -0.2792927349180771 0 -0.1771155526561711 -0.29304903700804102 0 -0.15075672391683539 -0.2863603002588162 0 -0.1771155526561711 -0.29304903700804102 0 -0.15075672391683539 -0.2863603002588162 0 -0.1912059125048447 -0.27859773608472271 0 -0.1771155526561711 -0.29304903700804102 0 -0.1870315295098367 -0.30426659770920139 0 -0.16559554259373971 -0.2792927349180771 0 -0.17634916514681989 -0.28151391159768219 0 -0.1771155526561711 -0.29304903700804102 0 -0.1912059125048447 -0.27859773608472271 0 -0.17634916514681989 -0.28151391159768219 0 -0.1771155526561711 -0.29304903700804102 0 -0.1771155526561711 -0.29304903700804102 0 -0.1870315295098367 -0.30426659770920139 0 -0.17359368206094949 -0.30496529082233542 0 -0.1870315295098367 -0.30426659770920139 0 -0.17359368206094949 -0.30496529082233542 0 -0.17551830907775309 -0.31609719196480851 0 -0.1771155526561711 -0.29304903700804102 0 -0.17359368206094949 -0.30496529082233542 0 -0.16005902609217251 -0.29999977815540191 0 -0.17359368206094949 -0.30496529082233542 0 -0.17551830907775309 -0.31609719196480851 0 -0.16444346023385639 -0.31392950819847393 0 -0.17359368206094949 -0.30496529082233542 0 -0.16005902609217251 -0.29999977815540191 0 -0.16444346023385639 -0.31392950819847393 0 -0.16005902609217251 -0.29999977815540191 0 -0.1492737689364298 -0.30665170635730299 0 -0.16444346023385639 -0.31392950819847393 0 -0.16005902609217251 -0.29999977815540191 0 -0.1492737689364298 -0.30665170635730299 0 -0.14618446041781261 -0.29723700502853789 0 -0.1492737689364298 -0.30665170635730299 0 -0.14618446041781261 -0.29723700502853789 0 -0.13801524797758599 -0.30358370850661531 0 -0.1492737689364298 -0.30665170635730299 0 -0.13801524797758599 -0.30358370850661531 0 -0.13453999791117369 -0.31742182054041318 0 -0.13801524797758599 -0.30358370850661531 0 -0.13453999791117369 -0.31742182054041318 0 -0.1208937279770773 -0.30210941793067481 0 -0.13801524797758599 -0.30358370850661531 0 -0.13484451850407869 -0.29397788934674501 0 -0.1208937279770773 -0.30210941793067481 0 -0.13453999791117369 -0.31742182054041318 0 -0.1208937279770773 -0.30210941793067481 0 -0.14618446041781261 -0.29723700502853789 0 -0.13801524797758599 -0.30358370850661531 0 -0.13484451850407869 -0.29397788934674501 0 -0.1338551577502935 -0.28732435702372 0 -0.15075672391683539 -0.2863603002588162 0 -0.12439789517749961 -0.27967156350959133 0 -0.13484451850407869 -0.29397788934674501 0 -0.1338551577502935 -0.28732435702372 0 -0.15075672391683539 -0.2863603002588162 0 -0.15075672391683539 -0.2863603002588162 0 -0.12439789517749961 -0.27967156350959133 0 -0.13484451850407869 -0.29397788934674501 0 -0.12542149340276029 -0.28928767497972763 0 -0.1208937279770773 -0.30210941793067481 0 -0.13484451850407869 -0.29397788934674501 0 -0.12542149340276029 -0.28928767497972763 0 -0.1338551577502935 -0.28732435702372 0 -0.12542149340276029 -0.28928767497972763 0 -0.1338551577502935 -0.28732435702372 0 -0.12439789517749961 -0.27967156350959133 0 -0.14618446041781261 -0.29723700502853789 0 -0.13484451850407869 -0.29397788934674501 0 -0.15075672391683539 -0.2863603002588162 0 -0.16005902609217251 -0.29999977815540191 0 -0.14618446041781261 -0.29723700502853789 0 -0.15075672391683539 -0.2863603002588162 0 -0.15075672391683539 -0.2863603002588162 0 -0.1536620924410331 -0.27568055551772103 0 -0.12439789517749961 -0.27967156350959133 0 -0.16137764165664639 -0.26780423587028229 0 -0.1536620924410331 -0.27568055551772103 0 -0.15075706398615429 -0.26519296758578997 0 -0.1536620924410331 -0.27568055551772103 0 -0.13923296926973611 -0.26624206773420689 0 -0.15075706398615429 -0.26519296758578997 0 -0.1536620924410331 -0.27568055551772103 0 -0.1236316402749592 -0.27358258411445879 0 -0.12439789517749961 -0.27967156350959133 0 -0.1536620924410331 -0.27568055551772103 0 -0.1236316402749592 -0.27358258411445879 0 -0.1536620924410331 -0.27568055551772103 0 -0.13923296926973611 -0.26624206773420689 0 -0.1236316402749592 -0.27358258411445879 0 -0.13923296926973611 -0.26624206773420689 0 -0.12770498154625809 -0.26464102946514312 0 -0.1236316402749592 -0.27358258411445879 0 -0.13923296926973611 -0.26624206773420689 0 -0.12770498154625809 -0.26464102946514312 0 -0.1341922509531861 -0.25697305449944863 0 -0.13923296926973611 -0.26624206773420689 0 -0.1341922509531861 -0.25697305449944863 0 -0.14420087410983401 -0.25754147944127082 0 -0.12770498154625809 -0.26464102946514312 0 -0.1341922509531861 -0.25697305449944863 0 -0.1245362794138561 -0.2563814981668231 0 -0.1341922509531861 -0.25697305449944863 0 -0.1245362794138561 -0.2563814981668231 0 -0.1288697670490809 -0.24942989056467491 0 -0.1341922509531861 -0.25697305449944863 0 -0.13841560433952829 -0.24726482034791281 0 -0.1288697670490809 -0.24942989056467491 0 -0.1341922509531861 -0.25697305449944863 0 -0.14420087410983401 -0.25754147944127082 0 -0.13841560433952829 -0.24726482034791281 0 -0.14420087410983401 -0.25754147944127082 0 -0.15346796410309879 -0.2454973833824379 0 -0.13841560433952829 -0.24726482034791281 0 -0.13923296926973611 -0.26624206773420689 0 -0.14420087410983401 -0.25754147944127082 0 -0.15075706398615429 -0.26519296758578997 0 -0.16137764165664639 -0.26780423587028229 0 -0.15075706398615429 -0.26519296758578997 0 -0.15531174245352211 -0.25869649936546918 0 -0.14420087410983401 -0.25754147944127082 0 -0.15075706398615429 -0.26519296758578997 0 -0.15531174245352211 -0.25869649936546918 0 -0.14420087410983401 -0.25754147944127082 0 -0.15531174245352211 -0.25869649936546918 0 -0.15346796410309879 -0.2454973833824379 0 -0.16590019620566829 -0.35005616608907048 0 -0.17512247207752399 -0.35852259982153201 0 -0.17389755273402571 -0.34014014784454988 0 -0.16590019620566829 -0.35005616608907048 0 -0.16300410113913211 -0.36179663637792769 0 -0.17512247207752399 -0.35852259982153201 0 -0.16590019620566829 -0.35005616608907048 0 -0.16154716053498699 -0.34100037605770939 0 -0.15414170249971379 -0.35089765172805198 0 -0.16590019620566829 -0.35005616608907048 0 -0.16300410113913211 -0.36179663637792769 0 -0.15414170249971379 -0.35089765172805198 0 -0.1763473914210171 -0.3769050517985143 0 -0.16300410113913211 -0.36179663637792769 0 -0.17512247207752399 -0.35852259982153201 0 -0.1763473914210171 -0.3769050517985143 0 -0.16300410113913211 -0.36179663637792769 0 -0.15768501003499871 -0.37311039009772029 0 -0.1763473914210171 -0.3769050517985143 0 -0.17512247207752399 -0.35852259982153201 0 -0.1763473914210171 -0.3769050517985143 0 -0.1872044302201295 -0.35568806479421561 0 -0.17512247207752399 -0.35852259982153201 0 -0.17512247207752399 -0.35852259982153201 0 -0.17389755273402571 -0.34014014784454988 0 -0.1872044302201295 -0.35568806479421561 0 -0.17868276351982071 -0.35560432095815891 0 -0.1856165349072931 -0.34568028934491468 0 -0.1872044302201295 -0.35568806479421561 0 -0.17512247207752399 -0.35852259982153201 0 -0.17868276351982071 -0.35560432095815891 0 -0.17512247207752399 -0.35852259982153201 0 -0.17868276351982071 -0.35560432095815891 0 -0.17389755273402571 -0.34014014784454988 0 -0.17868276351982071 -0.35560432095815891 0 -0.18285714651482871 -0.32993545933368018 0 -0.17868276351982071 -0.35560432095815891 0 -0.18285714651482871 -0.32993545933368018 0 -0.17389755273402571 -0.34014014784454988 0 -0.1937217993743936 -0.34149331229360408 0 -0.1856165349072931 -0.34568028934491468 0 -0.18285714651482871 -0.32993545933368018 0 -0.17868276351982071 -0.35560432095815891 0 -0.1856165349072931 -0.34568028934491468 0 -0.18285714651482871 -0.32993545933368018 0 -0.18285714651482871 -0.32993545933368018 0 -0.17389755273402571 -0.34014014784454988 0 -0.16966572706929431 -0.32738910376035141 0 -0.1870315295098367 -0.30426659770920139 0 -0.18285714651482871 -0.32993545933368018 0 -0.17551830907775309 -0.31609719196480851 0 -0.1870315295098367 -0.30426659770920139 0 -0.18285714651482871 -0.32993545933368018 0 -0.18285714651482871 -0.32993545933368018 0 -0.17551830907775309 -0.31609719196480851 0 -0.16966572706929431 -0.32738910376035141 0 -0.16444346023385639 -0.31392950819847393 0 -0.15636240608472329 -0.32977118790672683 0 -0.1504041334158023 -0.31898850830484682 0 -0.16444346023385639 -0.31392950819847393 0 -0.16966572706929431 -0.32738910376035141 0 -0.15636240608472329 -0.32977118790672683 0 -0.17551830907775309 -0.31609719196480851 0 -0.16444346023385639 -0.31392950819847393 0 -0.16966572706929431 -0.32738910376035141 0 -0.17389755273402571 -0.34014014784454988 0 -0.16966572706929431 -0.32738910376035141 0 -0.16154716053498699 -0.34100037605770939 0 -0.16590019620566829 -0.35005616608907048 0 -0.17389755273402571 -0.34014014784454988 0 -0.16154716053498699 -0.34100037605770939 0 -0.16966572706929431 -0.32738910376035141 0 -0.15636240608472329 -0.32977118790672683 0 -0.16154716053498699 -0.34100037605770939 0 -0.15636240608472329 -0.32977118790672683 0 -0.16154716053498699 -0.34100037605770939 0 -0.14497305788217291 -0.34011039238300939 0 -0.15636240608472329 -0.32977118790672683 0 -0.14497305788217291 -0.34011039238300939 0 -0.14373961468808691 -0.32758439851204901 0 -0.1492737689364298 -0.30665170635730299 0 -0.1504041334158023 -0.31898850830484682 0 -0.13453999791117369 -0.31742182054041318 0 -0.1504041334158023 -0.31898850830484682 0 -0.14373961468808691 -0.32758439851204901 0 -0.13453999791117369 -0.31742182054041318 0 -0.1492737689364298 -0.30665170635730299 0 -0.16444346023385639 -0.31392950819847393 0 -0.1504041334158023 -0.31898850830484682 0 -0.15636240608472329 -0.32977118790672683 0 -0.1504041334158023 -0.31898850830484682 0 -0.14373961468808691 -0.32758439851204901 0 -0.13453999791117369 -0.31742182054041318 0 -0.13140268735698349 -0.33096063226810019 0 -0.11646167228658311 -0.31979613983946681 0 -0.14373961468808691 -0.32758439851204901 0 -0.13453999791117369 -0.31742182054041318 0 -0.13140268735698349 -0.33096063226810019 0 -0.14497305788217291 -0.34011039238300939 0 -0.13140268735698349 -0.33096063226810019 0 -0.13089818046718299 -0.34308263243415388 0 -0.14497305788217291 -0.34011039238300939 0 -0.14373961468808691 -0.32758439851204901 0 -0.13140268735698349 -0.33096063226810019 0 -0.13140268735698349 -0.33096063226810019 0 -0.13089818046718299 -0.34308263243415388 0 -0.1178036009067016 -0.3377684098995094 0 -0.1384587404421978 -0.35291637192140651 0 -0.13159180640157669 -0.36556315754359331 0 -0.1208370249582805 -0.35298790454159518 0 -0.13089818046718299 -0.34308263243415388 0 -0.1384587404421978 -0.35291637192140651 0 -0.1208370249582805 -0.35298790454159518 0 -0.14497305788217291 -0.34011039238300939 0 -0.13089818046718299 -0.34308263243415388 0 -0.1384587404421978 -0.35291637192140651 0 -0.16154716053498699 -0.34100037605770939 0 -0.14497305788217291 -0.34011039238300939 0 -0.15414170249971379 -0.35089765172805198 0 -0.14497305788217291 -0.34011039238300939 0 -0.1384587404421978 -0.35291637192140651 0 -0.15414170249971379 -0.35089765172805198 0 -0.1384587404421978 -0.35291637192140651 0 -0.15414170249971379 -0.35089765172805198 0 -0.14779090680012361 -0.36406231591511029 0 -0.16300410113913211 -0.36179663637792769 0 -0.15414170249971379 -0.35089765172805198 0 -0.14779090680012361 -0.36406231591511029 0 -0.1418640802831225 -0.3800896878219624 0 -0.15768501003499871 -0.37311039009772029 0 -0.14779090680012361 -0.36406231591511029 0 -0.16300410113913211 -0.36179663637792769 0 -0.15768501003499871 -0.37311039009772029 0 -0.14779090680012361 -0.36406231591511029 0 -0.1418640802831225 -0.3800896878219624 0 -0.14779090680012361 -0.36406231591511029 0 -0.13159180640157669 -0.36556315754359331 0 -0.1418640802831225 -0.3800896878219624 0 -0.13159180640157669 -0.36556315754359331 0 -0.124955730377648 -0.37850958160027037 0 -0.1384587404421978 -0.35291637192140651 0 -0.14779090680012361 -0.36406231591511029 0 -0.13159180640157669 -0.36556315754359331 0 -0.13159180640157669 -0.36556315754359331 0 -0.114091831981016 -0.36743125989175601 0 -0.1208370249582805 -0.35298790454159518 0 -0.114091831981016 -0.36743125989175601 0 -0.1031082202438616 -0.36081256809475443 0 -0.1208370249582805 -0.35298790454159518 0 -0.13159180640157669 -0.36556315754359331 0 -0.114091831981016 -0.36743125989175601 0 -0.124955730377648 -0.37850958160027037 0 -0.114091831981016 -0.36743125989175601 0 -0.124955730377648 -0.37850958160027037 0 -0.11148549312298189 -0.37887339587891028 0 -0.114091831981016 -0.36743125989175601 0 -0.1031082202438616 -0.36081256809475443 0 -0.097212284735574139 -0.37476738923440972 0 -0.114091831981016 -0.36743125989175601 0 -0.097212284735574139 -0.37476738923440972 0 -0.11148549312298189 -0.37887339587891028 0 -0.1031082202438616 -0.36081256809475443 0 -0.097212284735574139 -0.37476738923440972 0 -0.08495561442614509 -0.36261306670648252 0 -0.1031082202438616 -0.36081256809475443 0 -0.09844434511829224 -0.3462632200995287 0 -0.1208370249582805 -0.35298790454159518 0 -0.1031082202438616 -0.36081256809475443 0 -0.09844434511829224 -0.3462632200995287 0 -0.08495561442614509 -0.36261306670648252 0 -0.09844434511829224 -0.3462632200995287 0 -0.1208370249582805 -0.35298790454159518 0 -0.1178036009067016 -0.3377684098995094 0 -0.13089818046718299 -0.34308263243415388 0 -0.1208370249582805 -0.35298790454159518 0 -0.1178036009067016 -0.3377684098995094 0 -0.13140268735698349 -0.33096063226810019 0 -0.1178036009067016 -0.3377684098995094 0 -0.11646167228658311 -0.31979613983946681 0 -0.1178036009067016 -0.3377684098995094 0 -0.11646167228658311 -0.31979613983946681 0 -0.1046142919879274 -0.33141211292136552 0 -0.13453999791117369 -0.31742182054041318 0 -0.11646167228658311 -0.31979613983946681 0 -0.1208937279770773 -0.30210941793067481 0 -0.11646167228658311 -0.31979613983946681 0 -0.098271166911538393 -0.31859671004452272 0 -0.1046142919879274 -0.33141211292136552 0 -0.11646167228658311 -0.31979613983946681 0 -0.098271166911538393 -0.31859671004452272 0 -0.099171836639797131 -0.30064349748434072 0 -0.098271166911538393 -0.31859671004452272 0 -0.1046142919879274 -0.33141211292136552 0 -0.085146446941706269 -0.3324494221129356 0 -0.09844434511829224 -0.3462632200995287 0 -0.1178036009067016 -0.3377684098995094 0 -0.1046142919879274 -0.33141211292136552 0 -0.09844434511829224 -0.3462632200995287 0 -0.1046142919879274 -0.33141211292136552 0 -0.085146446941706269 -0.3324494221129356 0 -0.085146446941706269 -0.3324494221129356 0 -0.067498326966893007 -0.31708604053044059 0 -0.084206929797358512 -0.31030605451394949 0 -0.098271166911538393 -0.31859671004452272 0 -0.085146446941706269 -0.3324494221129356 0 -0.084206929797358512 -0.31030605451394949 0 -0.085146446941706269 -0.3324494221129356 0 -0.067498326966893007 -0.31708604053044059 0 -0.067626868613950439 -0.34127286210280888 0 -0.067626868613950439 -0.34127286210280888 0 -0.065867376412572093 -0.36121841830446683 0 -0.08495561442614509 -0.36261306670648252 0 -0.065867376412572093 -0.36121841830446683 0 -0.08495561442614509 -0.36261306670648252 0 -0.071466883733997261 -0.37896291331343562 0 -0.097212284735574139 -0.37476738923440972 0 -0.08495561442614509 -0.36261306670648252 0 -0.071466883733997261 -0.37896291331343562 0 -0.08495561442614509 -0.36261306670648252 0 -0.071466883733997261 -0.37896291331343562 0 -0.09844434511829224 -0.3462632200995287 0 -0.085146446941706269 -0.3324494221129356 0 -0.08495561442614509 -0.36261306670648252 0 -0.085146446941706269 -0.3324494221129356 0 -0.067626868613950439 -0.34127286210280888 0 -0.08495561442614509 -0.36261306670648252 0 -0.09844434511829224 -0.3462632200995287 0 -0.08495561442614509 -0.36261306670648252 0 -0.093885119133546413 -0.25511337893554392 0 -0.1000977181664397 -0.26205778212475189 0 -0.09360118810888525 -0.27148461271119728 0 -0.093885119133546413 -0.25511337893554392 0 -0.10485287250875 -0.25412820996193308 0 -0.10035283963873751 -0.24477265519535091 0 -0.093885119133546413 -0.25511337893554392 0 -0.1000977181664397 -0.26205778212475189 0 -0.10485287250875 -0.25412820996193308 0 -0.1000977181664397 -0.26205778212475189 0 -0.10485287250875 -0.25412820996193308 0 -0.1112410037919065 -0.26392030625282109 0 -0.10485287250875 -0.25412820996193308 0 -0.11496564275178781 -0.25512371850097981 0 -0.1104397953155342 -0.2460620685137129 0 -0.10485287250875 -0.25412820996193308 0 -0.11496564275178781 -0.25512371850097981 0 -0.1112410037919065 -0.26392030625282109 0 -0.1245362794138561 -0.2563814981668231 0 -0.1206374119890138 -0.24754094674274421 0 -0.1288697670490809 -0.24942989056467491 0 -0.11496564275178781 -0.25512371850097981 0 -0.1245362794138561 -0.2563814981668231 0 -0.1202909712735742 -0.26170973953712828 0 -0.11496564275178781 -0.25512371850097981 0 -0.1245362794138561 -0.2563814981668231 0 -0.1206374119890138 -0.24754094674274421 0 -0.1202909712735742 -0.26170973953712828 0 -0.1112410037919065 -0.26392030625282109 0 -0.12071714922167449 -0.26596341484238778 0 -0.12770498154625809 -0.26464102946514312 0 -0.1245362794138561 -0.2563814981668231 0 -0.1202909712735742 -0.26170973953712828 0 -0.12770498154625809 -0.26464102946514312 0 -0.1202909712735742 -0.26170973953712828 0 -0.12071714922167449 -0.26596341484238778 0 -0.11496564275178781 -0.25512371850097981 0 -0.1202909712735742 -0.26170973953712828 0 -0.1112410037919065 -0.26392030625282109 0 -0.12439789517749961 -0.27967156350959133 0 -0.098039066438163694 -0.27298282676036639 0 -0.12439789517749961 -0.27967156350959133 0 -0.098039066438163694 -0.27298282676036639 0 -0.1158602487308419 -0.28558713078687581 0 -0.1112410037919065 -0.26392030625282109 0 -0.1236316402749592 -0.27358258411445879 0 -0.09360118810888525 -0.27148461271119728 0 -0.1236316402749592 -0.27358258411445879 0 -0.12439789517749961 -0.27967156350959133 0 -0.098039066438163694 -0.27298282676036639 0 -0.1112410037919065 -0.26392030625282109 0 -0.12071714922167449 -0.26596341484238778 0 -0.1236316402749592 -0.27358258411445879 0 -0.12770498154625809 -0.26464102946514312 0 -0.12071714922167449 -0.26596341484238778 0 -0.1236316402749592 -0.27358258411445879 0 -0.1236316402749592 -0.27358258411445879 0 -0.098039066438163694 -0.27298282676036639 0 -0.09360118810888525 -0.27148461271119728 0 -0.1236316402749592 -0.27358258411445879 0 -0.09360118810888525 -0.27148461271119728 0 -0.1000977181664397 -0.26205778212475189 0 -0.1112410037919065 -0.26392030625282109 0 -0.09360118810888525 -0.27148461271119728 0 -0.098039066438163694 -0.27298282676036639 0 -0.1072474580429809 -0.28679701532093638 0 -0.09360118810888525 -0.27148461271119728 0 -0.1072474580429809 -0.28679701532093638 0 -0.09360118810888525 -0.27148461271119728 0 -0.1072474580429809 -0.28679701532093638 0 -0.1208937279770773 -0.30210941793067481 0 -0.099171836639797131 -0.30064349748434072 0 -0.098039066438163694 -0.27298282676036639 0 -0.1072474580429809 -0.28679701532093638 0 -0.1158602487308419 -0.28558713078687581 0 -0.1072474580429809 -0.28679701532093638 0 -0.093626992134597797 -0.28599306477789382 0 -0.09360118810888525 -0.27148461271119728 0 -0.1072474580429809 -0.28679701532093638 0 -0.099171836639797131 -0.30064349748434072 0 -0.093626992134597797 -0.28599306477789382 0 -0.12542149340276029 -0.28928767497972763 0 -0.1158602487308419 -0.28558713078687581 0 -0.1208937279770773 -0.30210941793067481 0 -0.1072474580429809 -0.28679701532093638 0 -0.1158602487308419 -0.28558713078687581 0 -0.1208937279770773 -0.30210941793067481 0 -0.12542149340276029 -0.28928767497972763 0 -0.12439789517749961 -0.27967156350959133 0 -0.1158602487308419 -0.28558713078687581 0 -0.1072474580429809 -0.28679701532093638 0 -0.1208937279770773 -0.30210941793067481 0 -0.11646167228658311 -0.31979613983946681 0 -0.1208937279770773 -0.30210941793067481 0 -0.099171836639797131 -0.30064349748434072 0 -0.098271166911538393 -0.31859671004452272 0 -0.099171836639797131 -0.30064349748434072 0 -0.084206929797358512 -0.31030605451394949 0 -0.099171836639797131 -0.30064349748434072 0 -0.084206929797358512 -0.31030605451394949 0 -0.083687536873350579 -0.29314416146079819 0 -0.084206929797358512 -0.31030605451394949 0 -0.071466264450865763 -0.29991649545065979 0 -0.083687536873350579 -0.29314416146079819 0 -0.067498326966893007 -0.31708604053044059 0 -0.084206929797358512 -0.31030605451394949 0 -0.071466264450865763 -0.29991649545065979 0 -0.067498326966893007 -0.31708604053044059 0 -0.071466264450865763 -0.29991649545065979 0 -0.051557567256956108 -0.29517484154477691 0 -0.071466264450865763 -0.29991649545065979 0 -0.068393649104716916 -0.28547721131202169 0 -0.051557567256956108 -0.29517484154477691 0 -0.071466264450865763 -0.29991649545065979 0 -0.068393649104716916 -0.28547721131202169 0 -0.083687536873350579 -0.29314416146079819 0 -0.068393649104716916 -0.28547721131202169 0 -0.083687536873350579 -0.29314416146079819 0 -0.082144657847540603 -0.2797943210643955 0 -0.099171836639797131 -0.30064349748434072 0 -0.083687536873350579 -0.29314416146079819 0 -0.093626992134597797 -0.28599306477789382 0 -0.083687536873350579 -0.29314416146079819 0 -0.093626992134597797 -0.28599306477789382 0 -0.082144657847540603 -0.2797943210643955 0 -0.09360118810888525 -0.27148461271119728 0 -0.082144657847540603 -0.2797943210643955 0 -0.077526313164027513 -0.27036159838697582 0 -0.09360118810888525 -0.27148461271119728 0 -0.077526313164027513 -0.27036159838697582 0 -0.093626992134597797 -0.28599306477789382 0 -0.09360118810888525 -0.27148461271119728 0 -0.082144657847540603 -0.2797943210643955 0 -0.082144657847540603 -0.2797943210643955 0 -0.070765718028606317 -0.27590464660352532 0 -0.077526313164027513 -0.27036159838697582 0 -0.068393649104716916 -0.28547721131202169 0 -0.070765718028606317 -0.27590464660352532 0 -0.061451438219169659 -0.26923858406275503 0 -0.070765718028606317 -0.27590464660352532 0 -0.077526313164027513 -0.27036159838697582 0 -0.061451438219169659 -0.26923858406275503 0 -0.068393649104716916 -0.28547721131202169 0 -0.082144657847540603 -0.2797943210643955 0 -0.070765718028606317 -0.27590464660352532 0 -0.077526313164027513 -0.27036159838697582 0 -0.071307038986693647 -0.26482467407681282 0 -0.061451438219169659 -0.26923858406275503 0 -0.077526313164027513 -0.27036159838697582 0 -0.061451438219169659 -0.26923858406275503 0 -0.071307038986693647 -0.26482467407681282 0 -0.06974257071205095 -0.25876633676731248 0 -0.077752960335739599 -0.25370140561613042 0 -0.077526313164027513 -0.27036159838697582 0 -0.071307038986693647 -0.26482467407681282 0 -0.077752960335739599 -0.25370140561613042 0 -0.06974257071205095 -0.25876633676731248 0 -0.065077589800267482 -0.26231990223666662 0 -0.064832693725503099 -0.25421936513964022 0 -0.071307038986693647 -0.26482467407681282 0 -0.065077589800267482 -0.26231990223666662 0 -0.061451438219169659 -0.26923858406275503 0 -0.071307038986693647 -0.26482467407681282 0 -0.06974257071205095 -0.25876633676731248 0 -0.065077589800267482 -0.26231990223666662 0 -0.06974257071205095 -0.25876633676731248 0 -0.064832693725503099 -0.25421936513964022 0 -0.077752960335739599 -0.25370140561613042 0 -0.09360118810888525 -0.27148461271119728 0 -0.077752960335739599 -0.25370140561613042 0 -0.093885119133546413 -0.25511337893554392 0 -0.077752960335739599 -0.25370140561613042 0 -0.087421165994072444 -0.24480117043732741 0 -0.09360118810888525 -0.27148461271119728 0 -0.077526313164027513 -0.27036159838697582 0 -0.077752960335739599 -0.25370140561613042 0 -0.093885119133546413 -0.25511337893554392 0 -0.09360118810888525 -0.27148461271119728 0 -0.077752960335739599 -0.25370140561613042 0 -0.044803438133147008 -0.26211191530816341 0 -0.052284537972840932 -0.25080050745650051 0 -0.035995696606004352 -0.2480320455971681 0 -0.044803438133147008 -0.26211191530816341 0 -0.029087055506795419 -0.2670922165312461 0 -0.035995696606004352 -0.2480320455971681 0 -0.05340504822218993 -0.2581288041766806 0 -0.057546540607521728 -0.26675175816387697 0 -0.063823891233619409 -0.23807167565324761 0 -0.044803438133147008 -0.26211191530816341 0 -0.052284537972840932 -0.25080050745650051 0 -0.05340504822218993 -0.2581288041766806 0 -0.064832693725503099 -0.25421936513964022 0 -0.057546540607521728 -0.26675175816387697 0 -0.063823891233619409 -0.23807167565324761 0 -0.057546540607521728 -0.26675175816387697 0 -0.063823891233619409 -0.23807167565324761 0 -0.065077589800267482 -0.26231990223666662 0 -0.064832693725503099 -0.25421936513964022 0 -0.057546540607521728 -0.26675175816387697 0 -0.044803438133147008 -0.26211191530816341 0 -0.05340504822218993 -0.2581288041766806 0 -0.057546540607521728 -0.26675175816387697 0 -0.057546540607521728 -0.26675175816387697 0 -0.042642272429949682 -0.27498304800041729 0 -0.051557567256956108 -0.29517484154477691 0 -0.044803438133147008 -0.26211191530816341 0 -0.057546540607521728 -0.26675175816387697 0 -0.042642272429949682 -0.27498304800041729 0 -0.057546540607521728 -0.26675175816387697 0 -0.051557567256956108 -0.29517484154477691 0 -0.057546540607521728 -0.26675175816387697 0 -0.061451438219169659 -0.26923858406275503 0 -0.051557567256956108 -0.29517484154477691 0 -0.065077589800267482 -0.26231990223666662 0 -0.057546540607521728 -0.26675175816387697 0 -0.061451438219169659 -0.26923858406275503 0 -0.042642272429949682 -0.27498304800041729 0 -0.03021676064532813 -0.28378450845402342 0 -0.029087055506795419 -0.2670922165312461 0 -0.044803438133147008 -0.26211191530816341 0 -0.042642272429949682 -0.27498304800041729 0 -0.029087055506795419 -0.2670922165312461 0 -0.051557567256956108 -0.29517484154477691 0 -0.02941203949822558 -0.30124733016845601 0 -0.03021676064532813 -0.28378450845402342 0 -0.042642272429949682 -0.27498304800041729 0 -0.051557567256956108 -0.29517484154477691 0 -0.03021676064532813 -0.28378450845402342 0 -0.068393649104716916 -0.28547721131202169 0 -0.061451438219169659 -0.26923858406275503 0 -0.051557567256956108 -0.29517484154477691 0 -0.067498326966893007 -0.31708604053044059 0 -0.051557567256956108 -0.29517484154477691 0 -0.04556859390639053 -0.32359792492567663 0 -0.051557567256956108 -0.29517484154477691 0 -0.04556859390639053 -0.32359792492567663 0 -0.051557567256956108 -0.29517484154477691 0 -0.02941203949822558 -0.30124733016845601 0 -0.04556859390639053 -0.32359792492567663 0 -0.02941203949822558 -0.30124733016845601 0 -0.01213660741314929 -0.30307738599414408 0 -0.019471231994578321 -0.31851372346275902 0 -0.01213660741314929 -0.30307738599414408 0 0.0044736946811961831 -0.30612601905659248 0 0.00100270429184503 -0.29012155845902521 0 -0.01213660741314929 -0.30307738599414408 0 -0.0045912301602451886 -0.31996128635815002 0 0.0044736946811961831 -0.30612601905659248 0 -0.01213660741314929 -0.30307738599414408 0 -0.0141084036346712 -0.28620586166050171 0 0.00100270429184503 -0.29012155845902521 0 -0.0141084036346712 -0.28620586166050171 0 -0.0049256651120513258 -0.26924560509015011 0 0.00100270429184503 -0.29012155845902521 0 -0.02941203949822558 -0.30124733016845601 0 -0.01213660741314929 -0.30307738599414408 0 -0.0141084036346712 -0.28620586166050171 0 -0.02941203949822558 -0.30124733016845601 0 -0.0141084036346712 -0.28620586166050171 0 -0.03021676064532813 -0.28378450845402342 0 -0.0141084036346712 -0.28620586166050171 0 -0.03021676064532813 -0.28378450845402342 0 -0.029087055506795419 -0.2670922165312461 0 -0.0141084036346712 -0.28620586166050171 0 -0.029087055506795419 -0.2670922165312461 0 -0.0049256651120513258 -0.26924560509015011 0 -0.0049256651120513258 -0.26924560509015011 0 -0.020066556454128609 -0.24364419553564079 0 0.0061580371269623164 -0.25217897573375531 0 -0.029087055506795419 -0.2670922165312461 0 -0.0049256651120513258 -0.26924560509015011 0 -0.020066556454128609 -0.24364419553564079 0 -0.029087055506795419 -0.2670922165312461 0 -0.020066556454128609 -0.24364419553564079 0 -0.035995696606004352 -0.2480320455971681 0 -0.039579620555824951 -0.35202100830657629 0 -0.047384527428299912 -0.36336454942594648 0 -0.02330217112260255 -0.34776618553845762 0 -0.047384527428299912 -0.36336454942594648 0 -0.02330217112260255 -0.34776618553845762 0 -0.039579620555824951 -0.35202100830657629 0 -0.047384527428299912 -0.36336454942594648 0 -0.053205397383407571 -0.34829495261309501 0 -0.039744014037522687 -0.37425574047174409 0 -0.047384527428299912 -0.36336454942594648 0 -0.049376242964408477 -0.38213026070143569 0 -0.039744014037522687 -0.37425574047174409 0 -0.047384527428299912 -0.36336454942594648 0 -0.029699718575091912 -0.36842731628391923 0 -0.047384527428299912 -0.36336454942594648 0 -0.02330217112260255 -0.34776618553845762 0 -0.029699718575091912 -0.36842731628391923 0 -0.039744014037522687 -0.37425574047174409 0 -0.029699718575091912 -0.36842731628391923 0 -0.032354299329470322 -0.37811305258775912 0 -0.047384527428299912 -0.36336454942594648 0 -0.071466883733997261 -0.37896291331343562 0 -0.047384527428299912 -0.36336454942594648 0 -0.049376242964408477 -0.38213026070143569 0 -0.071466883733997261 -0.37896291331343562 0 -0.065867376412572093 -0.36121841830446683 0 -0.047384527428299912 -0.36336454942594648 0 -0.071466883733997261 -0.37896291331343562 0 -0.065867376412572093 -0.36121841830446683 0 -0.047384527428299912 -0.36336454942594648 0 -0.053205397383407571 -0.34829495261309501 0 -0.067626868613950439 -0.34127286210280888 0 -0.065867376412572093 -0.36121841830446683 0 -0.053205397383407571 -0.34829495261309501 0 -0.067626868613950439 -0.34127286210280888 0 -0.053205397383407571 -0.34829495261309501 0 -0.04556859390639053 -0.32359792492567663 0 -0.067498326966893007 -0.31708604053044059 0 -0.067626868613950439 -0.34127286210280888 0 -0.04556859390639053 -0.32359792492567663 0 -0.02941203949822558 -0.30124733016845601 0 -0.04556859390639053 -0.32359792492567663 0 -0.019471231994578321 -0.31851372346275902 0 -0.039579620555824951 -0.35202100830657629 0 -0.04556859390639053 -0.32359792492567663 0 -0.039579620555824951 -0.35202100830657629 0 -0.053205397383407571 -0.34829495261309501 0 -0.04556859390639053 -0.32359792492567663 0 -0.039579620555824951 -0.35202100830657629 0 -0.04556859390639053 -0.32359792492567663 0 -0.027125569256193222 -0.33434649885244189 0 -0.027125569256193222 -0.33434649885244189 0 -0.019471231994578321 -0.31851372346275902 0 -0.011972638391845539 -0.33867386325302579 0 -0.027125569256193222 -0.33434649885244189 0 -0.011972638391845539 -0.33867386325302579 0 -0.02330217112260255 -0.34776618553845762 0 -0.04556859390639053 -0.32359792492567663 0 -0.027125569256193222 -0.33434649885244189 0 -0.019471231994578321 -0.31851372346275902 0 -0.019471231994578321 -0.31851372346275902 0 -0.0045912301602451886 -0.31996128635815002 0 -0.011972638391845539 -0.33867386325302579 0 -0.01213660741314929 -0.30307738599414408 0 -0.019471231994578321 -0.31851372346275902 0 -0.0045912301602451886 -0.31996128635815002 0 -0.011972638391845539 -0.33867386325302579 0 0.0039673412990155234 -0.34469365406948788 0 0.0021746651842241222 -0.33271200960203462 0 -0.0045912301602451886 -0.31996128635815002 0 -0.011972638391845539 -0.33867386325302579 0 0.0021746651842241222 -0.33271200960203462 0 -0.011972638391845539 -0.33867386325302579 0 -0.0044328014758989263 -0.35109076688156282 0 0.0039673412990155234 -0.34469365406948788 0 -0.011972638391845539 -0.33867386325302579 0 -0.0044328014758989263 -0.35109076688156282 0 -0.013965876349863021 -0.35638161977142369 0 -0.0044328014758989263 -0.35109076688156282 0 -0.013965876349863021 -0.35638161977142369 0 -0.0043527135031165157 -0.36157487366530711 0 -0.0044328014758989263 -0.35109076688156282 0 -0.0043527135031165157 -0.36157487366530711 0 0.0019367105191192089 -0.35545760108654478 0 -0.039579620555824951 -0.35202100830657629 0 -0.027125569256193222 -0.33434649885244189 0 -0.02330217112260255 -0.34776618553845762 0 -0.011972638391845539 -0.33867386325302579 0 -0.013965876349863021 -0.35638161977142369 0 -0.02330217112260255 -0.34776618553845762 0 -0.013965876349863021 -0.35638161977142369 0 -0.02330217112260255 -0.34776618553845762 0 -0.019467038065869191 -0.36260486281221871 0 -0.02330217112260255 -0.34776618553845762 0 -0.029699718575091912 -0.36842731628391923 0 -0.019467038065869191 -0.36260486281221871 0 -0.029699718575091912 -0.36842731628391923 0 -0.018472592564965289 -0.37338757667570133 0 -0.02440830323259149 -0.37955946540938668 0 -0.019467038065869191 -0.36260486281221871 0 -0.018472592564965289 -0.37338757667570133 0 -0.01189483171682318 -0.36706161579159141 0 -0.029699718575091912 -0.36842731628391923 0 -0.019467038065869191 -0.36260486281221871 0 -0.018472592564965289 -0.37338757667570133 0 -0.018472592564965289 -0.37338757667570133 0 -0.01189483171682318 -0.36706161579159141 0 -0.0078864721673483767 -0.37747243072329262 0 -0.013965876349863021 -0.35638161977142369 0 -0.01189483171682318 -0.36706161579159141 0 -0.0043527135031165157 -0.36157487366530711 0 -0.013965876349863021 -0.35638161977142369 0 -0.019467038065869191 -0.36260486281221871 0 -0.01189483171682318 -0.36706161579159141 0 -0.0043527135031165157 -0.36157487366530711 0 -0.0036489443119300958 -0.36971777816109702 0 0.0042558161556252201 -0.36674594463017951 0 -0.01189483171682318 -0.36706161579159141 0 -0.0043527135031165157 -0.36157487366530711 0 -0.0036489443119300958 -0.36971777816109702 0 -0.0036489443119300958 -0.36971777816109702 0 -0.0078864721673483767 -0.37747243072329262 0 0.0028156023817716949 -0.37527393221209099 0 -0.01189483171682318 -0.36706161579159141 0 -0.0036489443119300958 -0.36971777816109702 0 -0.0078864721673483767 -0.37747243072329262 0 -0.0078864721673483767 -0.37747243072329262 0 0.00153955741265579 -0.38494663991977968 0 0.0028156023817716949 -0.37527393221209099 0 -0.0080111561899116283 -0.38850431899663629 0 0.00153955741265579 -0.38494663991977968 0 0.00099799187633770091 -0.39581748028721808 0 -0.0080111561899116283 -0.38850431899663629 0 -0.0078864721673483767 -0.37747243072329262 0 0.00153955741265579 -0.38494663991977968 0 -0.0080111561899116283 -0.38850431899663629 0 -0.0078864721673483767 -0.37747243072329262 0 -0.01716473068735784 -0.38302883420803407 0 -0.0080111561899116283 -0.38850431899663629 0 -0.016491551140194578 -0.39250851304652529 0 -0.01716473068735784 -0.38302883420803407 0 -0.018472592564965289 -0.37338757667570133 0 -0.0078864721673483767 -0.37747243072329262 0 -0.01716473068735784 -0.38302883420803407 0 -0.0089993799504815893 -0.40002535260990552 0 -0.01142269623463206 -0.40742521689593453 0 -0.0024605100744230458 -0.41122706381672358 0 -0.0089993799504815893 -0.40002535260990552 0 -0.0024605100744230458 -0.41122706381672358 0 0.00099799187633770091 -0.39581748028721808 0 -0.0080111561899116283 -0.38850431899663629 0 -0.0089993799504815893 -0.40002535260990552 0 0.00099799187633770091 -0.39581748028721808 0 -0.0080111561899116283 -0.38850431899663629 0 -0.0089993799504815893 -0.40002535260990552 0 -0.016491551140194578 -0.39250851304652529 0 -0.0089993799504815893 -0.40002535260990552 0 -0.01831492796334451 -0.40279410818465589 0 -0.01142269623463206 -0.40742521689593453 0 -0.0089993799504815893 -0.40002535260990552 0 -0.01831492796334451 -0.40279410818465589 0 -0.016491551140194578 -0.39250851304652529 0 -0.01831492796334451 -0.40279410818465589 0 -0.023815265348509938 -0.39564620701332742 0 -0.02649650196232509 -0.40203380431367441 0 -0.01831492796334451 -0.40279410818465589 0 -0.016491551140194578 -0.39250851304652529 0 -0.023815265348509938 -0.39564620701332742 0 -0.016491551140194578 -0.39250851304652529 0 -0.023815265348509938 -0.39564620701332742 0 -0.022572866707722891 -0.38874014439670462 0 -0.028472425060187861 -0.39166237730804221 0 -0.023815265348509938 -0.39564620701332742 0 -0.022572866707722891 -0.38874014439670462 0 -0.028472425060187861 -0.39166237730804221 0 -0.031016480565069001 -0.39643867812037797 0 -0.023815265348509938 -0.39564620701332742 0 -0.031016480565069001 -0.39643867812037797 0 -0.023815265348509938 -0.39564620701332742 0 -0.02649650196232509 -0.40203380431367441 0 -0.031016480565069001 -0.39643867812037797 0 -0.02649650196232509 -0.40203380431367441 0 -0.032574962064518737 -0.4050855132182431 0 -0.01831492796334451 -0.40279410818465589 0 -0.02649650196232509 -0.40203380431367441 0 -0.02584541573146917 -0.40849681463880222 0 -0.02649650196232509 -0.40203380431367441 0 -0.032574962064518737 -0.4050855132182431 0 -0.02584541573146917 -0.40849681463880222 0 -0.018472592564965289 -0.37338757667570133 0 -0.01716473068735784 -0.38302883420803407 0 -0.02440830323259149 -0.37955946540938668 0 -0.01716473068735784 -0.38302883420803407 0 -0.022572866707722891 -0.38874014439670462 0 -0.02440830323259149 -0.37955946540938668 0 -0.016491551140194578 -0.39250851304652529 0 -0.01716473068735784 -0.38302883420803407 0 -0.022572866707722891 -0.38874014439670462 0 -0.022572866707722891 -0.38874014439670462 0 -0.0285432539643726 -0.38521235108202068 0 -0.02440830323259149 -0.37955946540938668 0 -0.028472425060187861 -0.39166237730804221 0 -0.022572866707722891 -0.38874014439670462 0 -0.0285432539643726 -0.38521235108202068 0 -0.028472425060187861 -0.39166237730804221 0 -0.0285432539643726 -0.38521235108202068 0 -0.034639684699263498 -0.39053136528963189 0 -0.029699718575091912 -0.36842731628391923 0 -0.02440830323259149 -0.37955946540938668 0 -0.032354299329470322 -0.37811305258775912 0 -0.0285432539643726 -0.38521235108202068 0 -0.02440830323259149 -0.37955946540938668 0 -0.032354299329470322 -0.37811305258775912 0 -0.039744014037522687 -0.37425574047174409 0 -0.032354299329470322 -0.37811305258775912 0 -0.039246531078110193 -0.38345790796444829 0 -0.0285432539643726 -0.38521235108202068 0 -0.032354299329470322 -0.37811305258775912 0 -0.039246531078110193 -0.38345790796444829 0 -0.039744014037522687 -0.37425574047174409 0 -0.039246531078110193 -0.38345790796444829 0 -0.049376242964408477 -0.38213026070143569 0 -0.039246531078110193 -0.38345790796444829 0 -0.040100044255608917 -0.39367280157934958 0 -0.049376242964408477 -0.38213026070143569 0 -0.039246531078110193 -0.38345790796444829 0 -0.034639684699263498 -0.39053136528963189 0 -0.040100044255608917 -0.39367280157934958 0 -0.0285432539643726 -0.38521235108202068 0 -0.039246531078110193 -0.38345790796444829 0 -0.034639684699263498 -0.39053136528963189 0 -0.032574962064518737 -0.4050855132182431 0 -0.052849239675475002 -0.40152957518006671 0 -0.031016480565069001 -0.39643867812037797 0 -0.032574962064518737 -0.4050855132182431 0 -0.040100044255608917 -0.39367280157934958 0 -0.032574962064518737 -0.4050855132182431 0 -0.040100044255608917 -0.39367280157934958 0 -0.052849239675475002 -0.40152957518006671 0 -0.031016480565069001 -0.39643867812037797 0 -0.034639684699263498 -0.39053136528963189 0 -0.040100044255608917 -0.39367280157934958 0 -0.028472425060187861 -0.39166237730804221 0 -0.031016480565069001 -0.39643867812037797 0 -0.034639684699263498 -0.39053136528963189 0 -0.052849239675475002 -0.40152957518006671 0 -0.055863313179489678 -0.41302987329568952 0 -0.07388280018048142 -0.39784046529841111 0 -0.040100044255608917 -0.39367280157934958 0 -0.052849239675475002 -0.40152957518006671 0 -0.049376242964408477 -0.38213026070143569 0 -0.052849239675475002 -0.40152957518006671 0 -0.071466883733997261 -0.37896291331343562 0 -0.052849239675475002 -0.40152957518006671 0 -0.049376242964408477 -0.38213026070143569 0 -0.071466883733997261 -0.37896291331343562 0 -0.050915468833902598 -0.42385907141118362 0 -0.049461077066223803 -0.4315821495054678 0 -0.058285406949547057 -0.43018811872326762 0 -0.049461077066223803 -0.4315821495054678 0 -0.04816279955439523 -0.44214649727999328 0 -0.056369137429052737 -0.43851185525700892 0 -0.049461077066223803 -0.4315821495054678 0 -0.058285406949547057 -0.43018811872326762 0 -0.056369137429052737 -0.43851185525700892 0 -0.058285406949547057 -0.43018811872326762 0 -0.056369137429052737 -0.43851185525700892 0 -0.063952400703455856 -0.43630370316536909 0 -0.050915468833902598 -0.42385907141118362 0 -0.058285406949547057 -0.43018811872326762 0 -0.066351051525990537 -0.41914086775688242 0 -0.050915468833902598 -0.42385907141118362 0 -0.055863313179489678 -0.41302987329568952 0 -0.066351051525990537 -0.41914086775688242 0 -0.050915468833902598 -0.42385907141118362 0 -0.055863313179489678 -0.41302987329568952 0 -0.035318005681599228 -0.4227793868319043 0 -0.052849239675475002 -0.40152957518006671 0 -0.055863313179489678 -0.41302987329568952 0 -0.035318005681599228 -0.4227793868319043 0 -0.032574962064518737 -0.4050855132182431 0 -0.052849239675475002 -0.40152957518006671 0 -0.035318005681599228 -0.4227793868319043 0 -0.052849239675475002 -0.40152957518006671 0 -0.035318005681599228 -0.4227793868319043 0 -0.035318005681599228 -0.4227793868319043 0 -0.04816279955439523 -0.44214649727999328 0 -0.035318005681599228 -0.4227793868319043 0 -0.03524431077607508 -0.43824240511356571 0 -0.04816279955439523 -0.44214649727999328 0 -0.049461077066223803 -0.4315821495054678 0 -0.035318005681599228 -0.4227793868319043 0 -0.04816279955439523 -0.44214649727999328 0 -0.050915468833902598 -0.42385907141118362 0 -0.049461077066223803 -0.4315821495054678 0 -0.035318005681599228 -0.4227793868319043 0 -0.035318005681599228 -0.4227793868319043 0 -0.018239472130674079 -0.44348047503673349 0 -0.03524431077607508 -0.43824240511356571 0 -0.020669077122952819 -0.42243125818705862 0 -0.0080283306003810992 -0.42294177797489702 0 -0.018239472130674079 -0.44348047503673349 0 -0.035318005681599228 -0.4227793868319043 0 -0.020669077122952819 -0.42243125818705862 0 -0.018239472130674079 -0.44348047503673349 0 -0.035318005681599228 -0.4227793868319043 0 -0.018239472130674079 -0.44348047503673349 0 -0.032574962064518737 -0.4050855132182431 0 -0.035318005681599228 -0.4227793868319043 0 -0.02584541573146917 -0.40849681463880222 0 -0.035318005681599228 -0.4227793868319043 0 -0.02584541573146917 -0.40849681463880222 0 -0.035318005681599228 -0.4227793868319043 0 -0.020669077122952819 -0.42243125818705862 0 -0.02584541573146917 -0.40849681463880222 0 -0.020669077122952819 -0.42243125818705862 0 -0.02584541573146917 -0.40849681463880222 0 -0.015914161470640509 -0.4144578364529562 0 -0.01831492796334451 -0.40279410818465589 0 -0.02584541573146917 -0.40849681463880222 0 -0.015914161470640509 -0.4144578364529562 0 -0.0024605100744230458 -0.41122706381672358 0 -0.0080283306003810992 -0.42294177797489702 0 0.009085303075653391 -0.42243466128078733 0 -0.015914161470640509 -0.4144578364529562 0 -0.01142269623463206 -0.40742521689593453 0 -0.0024605100744230458 -0.41122706381672358 0 -0.01831492796334451 -0.40279410818465589 0 -0.015914161470640509 -0.4144578364529562 0 -0.01142269623463206 -0.40742521689593453 0 -0.015914161470640509 -0.4144578364529562 0 -0.0024605100744230458 -0.41122706381672358 0 -0.0080283306003810992 -0.42294177797489702 0 -0.020669077122952819 -0.42243125818705862 0 -0.015914161470640509 -0.4144578364529562 0 -0.0080283306003810992 -0.42294177797489702 0 -0.0080283306003810992 -0.42294177797489702 0 -0.018239472130674079 -0.44348047503673349 0 0.0097782444849433964 -0.43955268821716259 0 -0.0011609385797494069 -0.46418156324156318 0 -0.018239472130674079 -0.44348047503673349 0 0.0097782444849433964 -0.43955268821716259 0 -0.0011609385797494069 -0.46418156324156318 0 -0.018239472130674079 -0.44348047503673349 0 -0.034205646593923868 -0.46534632372824691 0 -0.0011609385797494069 -0.46418156324156318 0 -0.018239472130674079 -0.44348047503673349 0 -0.018239472130674079 -0.44348047503673349 0 -0.036644034732620033 -0.44864995365254667 0 -0.034205646593923868 -0.46534632372824691 0 -0.018239472130674079 -0.44348047503673349 0 -0.03524431077607508 -0.43824240511356571 0 -0.036644034732620033 -0.44864995365254667 0 -0.0011609385797494069 -0.46418156324156318 0 -0.0082424424520847334 -0.48178225059712759 0 -0.034205646593923868 -0.46534632372824691 0 -0.0082347401716454383 -0.5 0 -0.0082424424520847334 -0.48178225059712759 0 -0.027684363220958359 -0.48407690706256079 0 -0.0082347401716454383 -0.5 0 -0.0082424424520847334 -0.48178225059712759 0 0.0061358941282492058 -0.4926676825830727 0 -0.0082424424520847334 -0.48178225059712759 0 -0.027684363220958359 -0.48407690706256079 0 -0.034205646593923868 -0.46534632372824691 0 -0.0082347401716454383 -0.5 0 -0.027684363220958359 -0.48407690706256079 0 -0.038152360356289439 -0.5 0 -0.027684363220958359 -0.48407690706256079 0 -0.038152360356289439 -0.5 0 -0.046425982400570602 -0.47981472158606592 0 -0.038152360356289439 -0.5 0 -0.046425982400570602 -0.47981472158606592 0 -0.055332745122129053 -0.49042038907025848 0 -0.027684363220958359 -0.48407690706256079 0 -0.046425982400570602 -0.47981472158606592 0 -0.034205646593923868 -0.46534632372824691 0 -0.046425982400570602 -0.47981472158606592 0 -0.034205646593923868 -0.46534632372824691 0 -0.049711090619319373 -0.46690327506143281 0 -0.0568921203513513 -0.47364842510892968 0 -0.0610075934271892 -0.46151360772808359 0 -0.067199377066854943 -0.47978134973544673 0 -0.046425982400570602 -0.47981472158606592 0 -0.0568921203513513 -0.47364842510892968 0 -0.049711090619319373 -0.46690327506143281 0 -0.0568921203513513 -0.47364842510892968 0 -0.057971934445991177 -0.48142664776620858 0 -0.067199377066854943 -0.47978134973544673 0 -0.046425982400570602 -0.47981472158606592 0 -0.057971934445991177 -0.48142664776620858 0 -0.055332745122129053 -0.49042038907025848 0 -0.046425982400570602 -0.47981472158606592 0 -0.0568921203513513 -0.47364842510892968 0 -0.057971934445991177 -0.48142664776620858 0 -0.038152360356289439 -0.5 0 -0.055332745122129053 -0.49042038907025848 0 -0.068069980540933439 -0.5 0 -0.057971934445991177 -0.48142664776620858 0 -0.055332745122129053 -0.49042038907025848 0 -0.069360501810205963 -0.48981636191976291 0 -0.036644034732620033 -0.44864995365254667 0 -0.045734862729899517 -0.45658824982101609 0 -0.04816279955439523 -0.44214649727999328 0 -0.03524431077607508 -0.43824240511356571 0 -0.036644034732620033 -0.44864995365254667 0 -0.04816279955439523 -0.44214649727999328 0 -0.036644034732620033 -0.44864995365254667 0 -0.034205646593923868 -0.46534632372824691 0 -0.045734862729899517 -0.45658824982101609 0 -0.034205646593923868 -0.46534632372824691 0 -0.045734862729899517 -0.45658824982101609 0 -0.049711090619319373 -0.46690327506143281 0 -0.045734862729899517 -0.45658824982101609 0 -0.0610075934271892 -0.46151360772808359 0 -0.04816279955439523 -0.44214649727999328 0 -0.045734862729899517 -0.45658824982101609 0 -0.049711090619319373 -0.46690327506143281 0 -0.0610075934271892 -0.46151360772808359 0 -0.0568921203513513 -0.47364842510892968 0 -0.049711090619319373 -0.46690327506143281 0 -0.0610075934271892 -0.46151360772808359 0 -0.0610075934271892 -0.46151360772808359 0 -0.04816279955439523 -0.44214649727999328 0 -0.0610075934271892 -0.46151360772808359 0 -0.056369137429052737 -0.43851185525700892 0 -0.069200849887482874 -0.45423234100697601 0 -0.0610075934271892 -0.46151360772808359 0 -0.04816279955439523 -0.44214649727999328 0 -0.056369137429052737 -0.43851185525700892 0 -0.056369137429052737 -0.43851185525700892 0 -0.067765006811692535 -0.44378223145644058 0 -0.063952400703455856 -0.43630370316536909 0 -0.056369137429052737 -0.43851185525700892 0 -0.067765006811692535 -0.44378223145644058 0 -0.069200849887482874 -0.45423234100697601 0 -0.067765006811692535 -0.44378223145644058 0 -0.072235539824001063 -0.43790139038000803 0 -0.063952400703455856 -0.43630370316536909 0 -0.056369137429052737 -0.43851185525700892 0 -0.069200849887482874 -0.45423234100697601 0 -0.072235539824001063 -0.43790139038000803 0 -0.076829359160786856 -0.44663490190545418 0 -0.082037934577217086 -0.43743467741443032 0 -0.067765006811692535 -0.44378223145644058 0 -0.072235539824001063 -0.43790139038000803 0 -0.076829359160786856 -0.44663490190545418 0 -0.076829359160786856 -0.44663490190545418 0 -0.069200849887482874 -0.45423234100697601 0 -0.08148386098626513 -0.4558317546900747 0 -0.067765006811692535 -0.44378223145644058 0 -0.076829359160786856 -0.44663490190545418 0 -0.069200849887482874 -0.45423234100697601 0 -0.069200849887482874 -0.45423234100697601 0 -0.082032562345912982 -0.46995282675694289 0 -0.069200849887482874 -0.45423234100697601 0 -0.071687473319611797 -0.46463632605781108 0 -0.082032562345912982 -0.46995282675694289 0 -0.0610075934271892 -0.46151360772808359 0 -0.069200849887482874 -0.45423234100697601 0 -0.071687473319611797 -0.46463632605781108 0 -0.069200849887482874 -0.45423234100697601 0 -0.08148386098626513 -0.4558317546900747 0 -0.082032562345912982 -0.46995282675694289 0 -0.0610075934271892 -0.46151360772808359 0 -0.071687473319611797 -0.46463632605781108 0 -0.073830629677796925 -0.47087389082974418 0 -0.071687473319611797 -0.46463632605781108 0 -0.073830629677796925 -0.47087389082974418 0 -0.082032562345912982 -0.46995282675694289 0 -0.092841208427491453 -0.4593238836131634 0 -0.082032562345912982 -0.46995282675694289 0 -0.099409540128611459 -0.46952705048456322 0 -0.08148386098626513 -0.4558317546900747 0 -0.092841208427491453 -0.4593238836131634 0 -0.082032562345912982 -0.46995282675694289 0 -0.08148386098626513 -0.4558317546900747 0 -0.092841208427491453 -0.4593238836131634 0 -0.089092310505662312 -0.44776841533744688 0 -0.089092310505662312 -0.44776841533744688 0 -0.082037934577217086 -0.43743467741443032 0 -0.092260605626245079 -0.43705799558106728 0 -0.076829359160786856 -0.44663490190545418 0 -0.089092310505662312 -0.44776841533744688 0 -0.082037934577217086 -0.43743467741443032 0 -0.076829359160786856 -0.44663490190545418 0 -0.08148386098626513 -0.4558317546900747 0 -0.089092310505662312 -0.44776841533744688 0 -0.068069980540933439 -0.5 0 -0.069360501810205963 -0.48981636191976291 0 -0.079554992581213374 -0.49023162085007821 0 -0.055332745122129053 -0.49042038907025848 0 -0.068069980540933439 -0.5 0 -0.069360501810205963 -0.48981636191976291 0 -0.069360501810205963 -0.48981636191976291 0 -0.067199377066854943 -0.47978134973544673 0 -0.079554992581213374 -0.49023162085007821 0 -0.0610075934271892 -0.46151360772808359 0 -0.073787688433114659 -0.48118450277310298 0 -0.067199377066854943 -0.47978134973544673 0 -0.0610075934271892 -0.46151360772808359 0 -0.073787688433114659 -0.48118450277310298 0 -0.073830629677796925 -0.47087389082974418 0 -0.0610075934271892 -0.46151360772808359 0 -0.073787688433114659 -0.48118450277310298 0 -0.073787688433114659 -0.48118450277310298 0 -0.067199377066854943 -0.47978134973544673 0 -0.079554992581213374 -0.49023162085007821 0 -0.073787688433114659 -0.48118450277310298 0 -0.067199377066854943 -0.47978134973544673 0 -0.057971934445991177 -0.48142664776620858 0 -0.069360501810205963 -0.48981636191976291 0 -0.067199377066854943 -0.47978134973544673 0 -0.073787688433114659 -0.48118450277310298 0 -0.073830629677796925 -0.47087389082974418 0 -0.080981583093231502 -0.47699969802809039 0 -0.082032562345912982 -0.46995282675694289 0 -0.094864274804343396 -0.48567331250690959 0 -0.073787688433114659 -0.48118450277310298 0 -0.094864274804343396 -0.48567331250690959 0 -0.082032562345912982 -0.46995282675694289 0 -0.094864274804343396 -0.48567331250690959 0 -0.099409540128611459 -0.46952705048456322 0 -0.082032562345912982 -0.46995282675694289 0 -0.080981583093231502 -0.47699969802809039 0 -0.094864274804343396 -0.48567331250690959 0 -0.073787688433114659 -0.48118450277310298 0 -0.080981583093231502 -0.47699969802809039 0 -0.094864274804343396 -0.48567331250690959 0 -0.073830629677796925 -0.47087389082974418 0 -0.082032562345912982 -0.46995282675694289 0 -0.080981583093231502 -0.47699969802809039 0 -0.073787688433114659 -0.48118450277310298 0 -0.079554992581213374 -0.49023162085007821 0 -0.094864274804343396 -0.48567331250690959 0 -0.068069980540933439 -0.5 0 -0.079554992581213374 -0.49023162085007821 0 -0.097987600725577439 -0.5 0 -0.079554992581213374 -0.49023162085007821 0 -0.097987600725577439 -0.5 0 -0.094864274804343396 -0.48567331250690959 0 -0.1046824604396539 -0.49770184321709049 0 -0.094864274804343396 -0.48567331250690959 0 -0.11547280033821331 -0.49006243645641662 0 -0.094864274804343396 -0.48567331250690959 0 -0.1070986317613755 -0.47880538368464232 0 -0.11547280033821331 -0.49006243645641662 0 -0.094864274804343396 -0.48567331250690959 0 -0.11547280033821331 -0.49006243645641662 0 -0.1046824604396539 -0.49770184321709049 0 -0.097987600725577439 -0.5 0 -0.094864274804343396 -0.48567331250690959 0 -0.1046824604396539 -0.49770184321709049 0 -0.094864274804343396 -0.48567331250690959 0 -0.094864274804343396 -0.48567331250690959 0 -0.1070986317613755 -0.47880538368464232 0 -0.099409540128611459 -0.46952705048456322 0 -0.1070986317613755 -0.47880538368464232 0 -0.099409540128611459 -0.46952705048456322 0 -0.1149920780783089 -0.46799273705995981 0 -0.1070986317613755 -0.47880538368464232 0 -0.118055148581599 -0.47893773754811297 0 -0.1149920780783089 -0.46799273705995981 0 -0.12744103810887039 -0.46735050644273091 0 -0.118055148581599 -0.47893773754811297 0 -0.1149920780783089 -0.46799273705995981 0 -0.12744103810887039 -0.46735050644273091 0 -0.12927495944201009 -0.48095836372688411 0 -0.118055148581599 -0.47893773754811297 0 -0.12927495944201009 -0.48095836372688411 0 -0.118055148581599 -0.47893773754811297 0 -0.11547280033821331 -0.49006243645641662 0 -0.1070986317613755 -0.47880538368464232 0 -0.118055148581599 -0.47893773754811297 0 -0.11547280033821331 -0.49006243645641662 0 -0.12790522091022141 -0.50000000000000089 0 -0.1046824604396539 -0.49770184321709049 0 -0.097987600725577439 -0.5 0 -0.12790522091022141 -0.50000000000000089 0 -0.1046824604396539 -0.49770184321709049 0 -0.11547280033821331 -0.49006243645641662 0 -0.10040920193911911 -0.44176555659073891 0 -0.1130925996039758 -0.44174588419916749 0 -0.1040287984620886 -0.43356863604668722 0 -0.1026082393561174 -0.45122354198435738 0 -0.10040920193911911 -0.44176555659073891 0 -0.1130925996039758 -0.44174588419916749 0 -0.089092310505662312 -0.44776841533744688 0 -0.10040920193911911 -0.44176555659073891 0 -0.092260605626245079 -0.43705799558106728 0 -0.092841208427491453 -0.4593238836131634 0 -0.089092310505662312 -0.44776841533744688 0 -0.1026082393561174 -0.45122354198435738 0 -0.089092310505662312 -0.44776841533744688 0 -0.1026082393561174 -0.45122354198435738 0 -0.10040920193911911 -0.44176555659073891 0 -0.092841208427491453 -0.4593238836131634 0 -0.1026082393561174 -0.45122354198435738 0 -0.10699919380827121 -0.46053836809911119 0 -0.092841208427491453 -0.4593238836131634 0 -0.099409540128611459 -0.46952705048456322 0 -0.10699919380827121 -0.46053836809911119 0 -0.099409540128611459 -0.46952705048456322 0 -0.10699919380827121 -0.46053836809911119 0 -0.1149920780783089 -0.46799273705995981 0 -0.1026082393561174 -0.45122354198435738 0 -0.10699919380827121 -0.46053836809911119 0 -0.1171369931367106 -0.45478980130860291 0 -0.10699919380827121 -0.46053836809911119 0 -0.1171369931367106 -0.45478980130860291 0 -0.1149920780783089 -0.46799273705995981 0 -0.12744103810887039 -0.46735050644273091 0 -0.1171369931367106 -0.45478980130860291 0 -0.1149920780783089 -0.46799273705995981 0 -0.1171369931367106 -0.45478980130860291 0 -0.1242289782594084 -0.44595218199602821 0 -0.1130925996039758 -0.44174588419916749 0 -0.13329939248391171 -0.45278852121549151 0 -0.1171369931367106 -0.45478980130860291 0 -0.1242289782594084 -0.44595218199602821 0 -0.1026082393561174 -0.45122354198435738 0 -0.1171369931367106 -0.45478980130860291 0 -0.1130925996039758 -0.44174588419916749 0 -0.12743044717381319 -0.43401292598451502 0 -0.1242289782594084 -0.44595218199602821 0 -0.1130925996039758 -0.44174588419916749 0 -0.12743044717381319 -0.43401292598451502 0 -0.1130925996039758 -0.44174588419916749 0 -0.11567241641471759 -0.43050419260607609 0 -0.12743044717381319 -0.43401292598451502 0 -0.1235211899689982 -0.42609855759077209 0 -0.11567241641471759 -0.43050419260607609 0 -0.125610645568554 -0.42054724893143208 0 -0.1235211899689982 -0.42609855759077209 0 -0.1159793776709734 -0.42097345011739429 0 -0.1235211899689982 -0.42609855759077209 0 -0.11567241641471759 -0.43050419260607609 0 -0.1159793776709734 -0.42097345011739429 0 -0.11567241641471759 -0.43050419260607609 0 -0.1066956083191964 -0.4233717229412004 0 -0.1159793776709734 -0.42097345011739429 0 -0.1130925996039758 -0.44174588419916749 0 -0.11567241641471759 -0.43050419260607609 0 -0.1040287984620886 -0.43356863604668722 0 -0.1040287984620886 -0.43356863604668722 0 -0.1066956083191964 -0.4233717229412004 0 -0.096218552496235898 -0.42605813178826629 0 -0.11567241641471759 -0.43050419260607609 0 -0.1040287984620886 -0.43356863604668722 0 -0.1066956083191964 -0.4233717229412004 0 -0.1040287984620886 -0.43356863604668722 0 -0.096218552496235898 -0.42605813178826629 0 -0.092260605626245079 -0.43705799558106728 0 -0.10040920193911911 -0.44176555659073891 0 -0.1040287984620886 -0.43356863604668722 0 -0.092260605626245079 -0.43705799558106728 0 -0.099796490182230635 -0.41551419781900478 0 -0.1102309629241011 -0.40407076427682431 0 -0.09137025378447873 -0.40713687705024471 0 -0.1066956083191964 -0.4233717229412004 0 -0.096218552496235898 -0.42605813178826629 0 -0.099796490182230635 -0.41551419781900478 0 -0.096218552496235898 -0.42605813178826629 0 -0.099796490182230635 -0.41551419781900478 0 -0.088955200615826305 -0.41831060106797469 0 -0.1066956083191964 -0.4233717229412004 0 -0.099796490182230635 -0.41551419781900478 0 -0.1101449403809685 -0.41446431902168512 0 -0.099796490182230635 -0.41551419781900478 0 -0.1101449403809685 -0.41446431902168512 0 -0.1102309629241011 -0.40407076427682431 0 -0.12554556516271331 -0.4139901731368944 0 -0.1101449403809685 -0.41446431902168512 0 -0.1102309629241011 -0.40407076427682431 0 -0.1066956083191964 -0.4233717229412004 0 -0.1101449403809685 -0.41446431902168512 0 -0.1159793776709734 -0.42097345011739429 0 -0.12554556516271331 -0.4139901731368944 0 -0.1101449403809685 -0.41446431902168512 0 -0.1159793776709734 -0.42097345011739429 0 -0.12554556516271331 -0.4139901731368944 0 -0.125610645568554 -0.42054724893143208 0 -0.1159793776709734 -0.42097345011739429 0 -0.12554556516271331 -0.4139901731368944 0 -0.1159793776709734 -0.42097345011739429 0 -0.12554556516271331 -0.4139901731368944 0 -0.1102309629241011 -0.40407076427682431 0 -0.12664320176620131 -0.39980621084949208 0 -0.12554556516271331 -0.4139901731368944 0 -0.1102309629241011 -0.40407076427682431 0 -0.12664320176620131 -0.39980621084949208 0 -0.1102309629241011 -0.40407076427682431 0 -0.1193894030107009 -0.38985898930714408 0 -0.124955730377648 -0.37850958160027037 0 -0.1193894030107009 -0.38985898930714408 0 -0.11148549312298189 -0.37887339587891028 0 -0.1193894030107009 -0.38985898930714408 0 -0.11148549312298189 -0.37887339587891028 0 -0.094916360685487852 -0.39415135541675578 0 -0.097212284735574139 -0.37476738923440972 0 -0.11148549312298189 -0.37887339587891028 0 -0.094916360685487852 -0.39415135541675578 0 -0.1102309629241011 -0.40407076427682431 0 -0.094916360685487852 -0.39415135541675578 0 -0.09137025378447873 -0.40713687705024471 0 -0.1193894030107009 -0.38985898930714408 0 -0.094916360685487852 -0.39415135541675578 0 -0.1102309629241011 -0.40407076427682431 0 -0.1193894030107009 -0.38985898930714408 0 -0.094916360685487852 -0.39415135541675578 0 -0.1102309629241011 -0.40407076427682431 0 -0.094916360685487852 -0.39415135541675578 0 -0.07388280018048142 -0.39784046529841111 0 -0.09137025378447873 -0.40713687705024471 0 -0.080448471416028733 -0.41244478741936952 0 -0.094916360685487852 -0.39415135541675578 0 -0.07388280018048142 -0.39784046529841111 0 -0.094916360685487852 -0.39415135541675578 0 -0.07388280018048142 -0.39784046529841111 0 -0.09137025378447873 -0.40713687705024471 0 -0.094916360685487852 -0.39415135541675578 0 -0.071466883733997261 -0.37896291331343562 0 -0.097212284735574139 -0.37476738923440972 0 -0.094916360685487852 -0.39415135541675578 0 -0.071466883733997261 -0.37896291331343562 0 -0.094916360685487852 -0.39415135541675578 0 -0.071466883733997261 -0.37896291331343562 0 -0.07388280018048142 -0.39784046529841111 0 -0.052849239675475002 -0.40152957518006671 0 -0.07388280018048142 -0.39784046529841111 0 -0.052849239675475002 -0.40152957518006671 0 -0.071466883733997261 -0.37896291331343562 0 -0.07388280018048142 -0.39784046529841111 0 -0.07388280018048142 -0.39784046529841111 0 -0.066351051525990537 -0.41914086775688242 0 -0.080448471416028733 -0.41244478741936952 0 -0.055863313179489678 -0.41302987329568952 0 -0.07388280018048142 -0.39784046529841111 0 -0.066351051525990537 -0.41914086775688242 0 -0.066351051525990537 -0.41914086775688242 0 -0.080448471416028733 -0.41244478741936952 0 -0.079388720439028213 -0.42136004588861847 0 -0.066351051525990537 -0.41914086775688242 0 -0.066852345620363643 -0.43070910198613932 0 -0.075605503568183782 -0.42886742692833002 0 -0.058285406949547057 -0.43018811872326762 0 -0.066351051525990537 -0.41914086775688242 0 -0.066852345620363643 -0.43070910198613932 0 -0.058285406949547057 -0.43018811872326762 0 -0.066852345620363643 -0.43070910198613932 0 -0.063952400703455856 -0.43630370316536909 0 -0.072235539824001063 -0.43790139038000803 0 -0.066852345620363643 -0.43070910198613932 0 -0.063952400703455856 -0.43630370316536909 0 -0.072235539824001063 -0.43790139038000803 0 -0.075605503568183782 -0.42886742692833002 0 -0.082037934577217086 -0.43743467741443032 0 -0.072235539824001063 -0.43790139038000803 0 -0.066852345620363643 -0.43070910198613932 0 -0.075605503568183782 -0.42886742692833002 0 -0.066351051525990537 -0.41914086775688242 0 -0.075605503568183782 -0.42886742692833002 0 -0.079388720439028213 -0.42136004588861847 0 -0.075605503568183782 -0.42886742692833002 0 -0.085583375069111692 -0.42803654627053628 0 -0.079388720439028213 -0.42136004588861847 0 -0.085583375069111692 -0.42803654627053628 0 -0.088955200615826305 -0.41831060106797469 0 -0.079388720439028213 -0.42136004588861847 0 -0.075605503568183782 -0.42886742692833002 0 -0.085583375069111692 -0.42803654627053628 0 -0.082037934577217086 -0.43743467741443032 0 -0.096218552496235898 -0.42605813178826629 0 -0.085583375069111692 -0.42803654627053628 0 -0.092260605626245079 -0.43705799558106728 0 -0.085583375069111692 -0.42803654627053628 0 -0.082037934577217086 -0.43743467741443032 0 -0.092260605626245079 -0.43705799558106728 0 -0.096218552496235898 -0.42605813178826629 0 -0.085583375069111692 -0.42803654627053628 0 -0.088955200615826305 -0.41831060106797469 0 -0.088955200615826305 -0.41831060106797469 0 -0.09137025378447873 -0.40713687705024471 0 -0.080448471416028733 -0.41244478741936952 0 -0.099796490182230635 -0.41551419781900478 0 -0.088955200615826305 -0.41831060106797469 0 -0.09137025378447873 -0.40713687705024471 0 -0.088955200615826305 -0.41831060106797469 0 -0.080448471416028733 -0.41244478741936952 0 -0.079388720439028213 -0.42136004588861847 0 -0.081589551791680481 -0.086009319714381444 0 -0.090778859146776303 -0.083365648814622467 0 -0.080898851290351903 -0.076112391450370243 0 -0.081589551791680481 -0.086009319714381444 0 -0.087508749944973444 -0.093351015157550316 0 -0.077305948958690349 -0.097119587230656571 0 -0.081589551791680481 -0.086009319714381444 0 -0.087508749944973444 -0.093351015157550316 0 -0.090778859146776303 -0.083365648814622467 0 -0.087508749944973444 -0.093351015157550316 0 -0.090778859146776303 -0.083365648814622467 0 -0.096754742844046907 -0.089547378586286586 0 -0.092504611119950397 -0.067201287763640885 0 -0.080898851290351903 -0.076112391450370243 0 -0.09560096305255282 -0.074831072854587108 0 -0.092504611119950397 -0.067201287763640885 0 -0.080898851290351903 -0.076112391450370243 0 -0.072476569947184849 -0.056620717676255122 0 -0.090778859146776303 -0.083365648814622467 0 -0.080898851290351903 -0.076112391450370243 0 -0.09560096305255282 -0.074831072854587108 0 -0.080898851290351903 -0.076112391450370243 0 -0.072476569947184849 -0.056620717676255122 0 -0.059983775479952053 -0.079188722709304563 0 -0.071734052952108607 -0.086850978329682374 0 -0.059983775479952053 -0.079188722709304563 0 -0.060088502496756742 -0.097909326991494697 0 -0.080898851290351903 -0.076112391450370243 0 -0.071734052952108607 -0.086850978329682374 0 -0.059983775479952053 -0.079188722709304563 0 -0.081589551791680481 -0.086009319714381444 0 -0.080898851290351903 -0.076112391450370243 0 -0.071734052952108607 -0.086850978329682374 0 -0.081589551791680481 -0.086009319714381444 0 -0.071734052952108607 -0.086850978329682374 0 -0.077305948958690349 -0.097119587230656571 0 -0.071734052952108607 -0.086850978329682374 0 -0.077305948958690349 -0.097119587230656571 0 -0.060088502496756742 -0.097909326991494697 0 -0.077305948958690349 -0.097119587230656571 0 -0.074261741796154287 -0.11327631787650461 0 -0.060088502496756742 -0.097909326991494697 0 -0.074261741796154287 -0.11327631787650461 0 -0.057160290781826932 -0.12220698996120891 0 -0.060088502496756742 -0.097909326991494697 0 -0.074261741796154287 -0.11327631787650461 0 -0.071434290508659765 -0.124737680966256 0 -0.057160290781826932 -0.12220698996120891 0 -0.074261741796154287 -0.11327631787650461 0 -0.071434290508659765 -0.124737680966256 0 -0.084420917546410831 -0.1236539464779329 0 -0.074261741796154287 -0.11327631787650461 0 -0.084420917546410831 -0.1236539464779329 0 -0.087878698761563873 -0.1113471024435308 0 -0.087878698761563873 -0.1113471024435308 0 -0.092817590808727521 -0.11795355067178449 0 -0.09607691543610844 -0.1105052835435433 0 -0.084420917546410831 -0.1236539464779329 0 -0.092817590808727521 -0.11795355067178449 0 -0.095679988813174424 -0.1248627582016288 0 -0.084420917546410831 -0.1236539464779329 0 -0.087878698761563873 -0.1113471024435308 0 -0.092817590808727521 -0.11795355067178449 0 -0.077305948958690349 -0.097119587230656571 0 -0.074261741796154287 -0.11327631787650461 0 -0.084533465379255573 -0.1030338199268967 0 -0.087508749944973444 -0.093351015157550316 0 -0.077305948958690349 -0.097119587230656571 0 -0.084533465379255573 -0.1030338199268967 0 -0.074261741796154287 -0.11327631787650461 0 -0.087878698761563873 -0.1113471024435308 0 -0.084533465379255573 -0.1030338199268967 0 -0.087878698761563873 -0.1113471024435308 0 -0.094089931549391062 -0.1010303366724583 0 -0.09607691543610844 -0.1105052835435433 0 -0.087878698761563873 -0.1113471024435308 0 -0.084533465379255573 -0.1030338199268967 0 -0.094089931549391062 -0.1010303366724583 0 -0.087508749944973444 -0.093351015157550316 0 -0.084533465379255573 -0.1030338199268967 0 -0.094089931549391062 -0.1010303366724583 0 -0.087508749944973444 -0.093351015157550316 0 -0.094089931549391062 -0.1010303366724583 0 -0.096754742844046907 -0.089547378586286586 0 -0.094089931549391062 -0.1010303366724583 0 -0.1005009785166066 -0.096491619319760441 0 -0.101339503582853 -0.1055642954938479 0 -0.094089931549391062 -0.1010303366724583 0 -0.1005009785166066 -0.096491619319760441 0 -0.096754742844046907 -0.089547378586286586 0 -0.094089931549391062 -0.1010303366724583 0 -0.101339503582853 -0.1055642954938479 0 -0.09607691543610844 -0.1105052835435433 0 -0.101339503582853 -0.1055642954938479 0 -0.1085473446424851 -0.1092858186631377 0 -0.1061241857838711 -0.1000414643157312 0 -0.1085473446424851 -0.1092858186631377 0 -0.1061241857838711 -0.1000414643157312 0 -0.1122631407638703 -0.10273571940527371 0 -0.1005009785166066 -0.096491619319760441 0 -0.101339503582853 -0.1055642954938479 0 -0.1061241857838711 -0.1000414643157312 0 -0.1061241857838711 -0.1000414643157312 0 -0.11122272143621841 -0.096332001118227872 0 -0.1053673609839785 -0.092617405208582887 0 -0.1005009785166066 -0.096491619319760441 0 -0.1061241857838711 -0.1000414643157312 0 -0.1053673609839785 -0.092617405208582887 0 -0.092817590808727521 -0.11795355067178449 0 -0.095679988813174424 -0.1248627582016288 0 -0.1010029228696035 -0.1161947953274791 0 -0.095679988813174424 -0.1248627582016288 0 -0.1010029228696035 -0.1161947953274791 0 -0.1038441868150269 -0.12583202922259679 0 -0.092817590808727521 -0.11795355067178449 0 -0.1010029228696035 -0.1161947953274791 0 -0.09607691543610844 -0.1105052835435433 0 -0.101339503582853 -0.1055642954938479 0 -0.1010029228696035 -0.1161947953274791 0 -0.09607691543610844 -0.1105052835435433 0 -0.1085473446424851 -0.1092858186631377 0 -0.1010029228696035 -0.1161947953274791 0 -0.1086429439304394 -0.119234385597785 0 -0.101339503582853 -0.1055642954938479 0 -0.1085473446424851 -0.1092858186631377 0 -0.1010029228696035 -0.1161947953274791 0 -0.1010029228696035 -0.1161947953274791 0 -0.1086429439304394 -0.119234385597785 0 -0.1038441868150269 -0.12583202922259679 0 -0.1086429439304394 -0.119234385597785 0 -0.1038441868150269 -0.12583202922259679 0 -0.11347884238861169 -0.12959468075276201 0 -0.1086429439304394 -0.119234385597785 0 -0.1180082975936961 -0.12167537897152481 0 -0.11347884238861169 -0.12959468075276201 0 -0.1086429439304394 -0.119234385597785 0 -0.1138351667619972 -0.11459461855928289 0 -0.1180082975936961 -0.12167537897152481 0 -0.1085473446424851 -0.1092858186631377 0 -0.1086429439304394 -0.119234385597785 0 -0.1138351667619972 -0.11459461855928289 0 -0.1085473446424851 -0.1092858186631377 0 -0.1138351667619972 -0.11459461855928289 0 -0.1178143643410086 -0.1069429185936188 0 -0.1138351667619972 -0.11459461855928289 0 -0.1178143643410086 -0.1069429185936188 0 -0.12531190319144311 -0.1150702994765193 0 -0.1138351667619972 -0.11459461855928289 0 -0.1180082975936961 -0.12167537897152481 0 -0.12531190319144311 -0.1150702994765193 0 -0.1180082975936961 -0.12167537897152481 0 -0.12554151884180961 -0.12764916924995121 0 -0.12531190319144311 -0.1150702994765193 0 -0.1164915281959351 -0.098899255498729466 0 -0.11122272143621841 -0.096332001118227872 0 -0.1122631407638703 -0.10273571940527371 0 -0.1165198300846441 -0.093923607192879816 0 -0.11122272143621841 -0.096332001118227872 0 -0.1122466854673192 -0.091501275943818988 0 -0.1164915281959351 -0.098899255498729466 0 -0.1165198300846441 -0.093923607192879816 0 -0.11122272143621841 -0.096332001118227872 0 -0.1061241857838711 -0.1000414643157312 0 -0.11122272143621841 -0.096332001118227872 0 -0.1122631407638703 -0.10273571940527371 0 -0.1085473446424851 -0.1092858186631377 0 -0.1122631407638703 -0.10273571940527371 0 -0.1178143643410086 -0.1069429185936188 0 -0.1164915281959351 -0.098899255498729466 0 -0.1122631407638703 -0.10273571940527371 0 -0.1178143643410086 -0.1069429185936188 0 -0.1178143643410086 -0.1069429185936188 0 -0.12573623839760259 -0.1057777850674905 0 -0.12531190319144311 -0.1150702994765193 0 -0.1164915281959351 -0.098899255498729466 0 -0.1178143643410086 -0.1069429185936188 0 -0.1216066115956778 -0.10133705626495031 0 -0.1178143643410086 -0.1069429185936188 0 -0.1216066115956778 -0.10133705626495031 0 -0.12573623839760259 -0.1057777850674905 0 -0.1216066115956778 -0.10133705626495031 0 -0.1261970561378295 -0.1001749939599331 0 -0.12573623839760259 -0.1057777850674905 0 -0.1165198300846441 -0.093923607192879816 0 -0.12126553586269249 -0.096573758946141564 0 -0.1259969610691038 -0.091711489476953068 0 -0.12126553586269249 -0.096573758946141564 0 -0.1259969610691038 -0.091711489476953068 0 -0.1261970561378295 -0.1001749939599331 0 -0.1216066115956778 -0.10133705626495031 0 -0.12126553586269249 -0.096573758946141564 0 -0.1261970561378295 -0.1001749939599331 0 -0.1164915281959351 -0.098899255498729466 0 -0.1216066115956778 -0.10133705626495031 0 -0.12126553586269249 -0.096573758946141564 0 -0.1164915281959351 -0.098899255498729466 0 -0.1165198300846441 -0.093923607192879816 0 -0.12126553586269249 -0.096573758946141564 0 -0.1122466854673192 -0.091501275943818988 0 -0.1068058709600808 -0.087704409063340871 0 -0.1259969610691038 -0.091711489476953068 0 -0.11253265229271681 -0.077781857851025205 0 -0.1297469080322998 -0.086875939383199791 0 -0.1068481012646893 -0.080110113040012518 0 -0.11253265229271681 -0.077781857851025205 0 -0.1259969610691038 -0.091711489476953068 0 -0.1165198300846441 -0.093923607192879816 0 -0.1122466854673192 -0.091501275943818988 0 -0.1259969610691038 -0.091711489476953068 0 -0.11253265229271681 -0.077781857851025205 0 -0.1297469080322998 -0.086875939383199791 0 -0.1259969610691038 -0.091711489476953068 0 -0.1006980400715474 -0.081297974870776418 0 -0.1259969610691038 -0.091711489476953068 0 -0.1068058709600808 -0.087704409063340871 0 -0.1006980400715474 -0.081297974870776418 0 -0.1259969610691038 -0.091711489476953068 0 -0.1068481012646893 -0.080110113040012518 0 -0.1006980400715474 -0.081297974870776418 0 -0.1259969610691038 -0.091711489476953068 0 -0.1068481012646893 -0.080110113040012518 0 -0.11253265229271681 -0.077781857851025205 0 -0.11122272143621841 -0.096332001118227872 0 -0.1122466854673192 -0.091501275943818988 0 -0.1053673609839785 -0.092617405208582887 0 -0.1122466854673192 -0.091501275943818988 0 -0.1053673609839785 -0.092617405208582887 0 -0.1068058709600808 -0.087704409063340871 0 -0.1053673609839785 -0.092617405208582887 0 -0.1068058709600808 -0.087704409063340871 0 -0.096754742844046907 -0.089547378586286586 0 -0.1068481012646893 -0.080110113040012518 0 -0.1006980400715474 -0.081297974870776418 0 -0.09560096305255282 -0.074831072854587108 0 -0.090778859146776303 -0.083365648814622467 0 -0.1006980400715474 -0.081297974870776418 0 -0.09560096305255282 -0.074831072854587108 0 -0.090778859146776303 -0.083365648814622467 0 -0.1006980400715474 -0.081297974870776418 0 -0.096754742844046907 -0.089547378586286586 0 -0.1068058709600808 -0.087704409063340871 0 -0.1006980400715474 -0.081297974870776418 0 -0.096754742844046907 -0.089547378586286586 0 -0.1005009785166066 -0.096491619319760441 0 -0.1053673609839785 -0.092617405208582887 0 -0.096754742844046907 -0.089547378586286586 0 -0.1068481012646893 -0.080110113040012518 0 -0.09560096305255282 -0.074831072854587108 0 -0.11253265229271681 -0.077781857851025205 0 -0.092504611119950397 -0.067201287763640885 0 -0.10776694705580669 -0.062556996972686824 0 -0.11253265229271681 -0.077781857851025205 0 -0.092504611119950397 -0.067201287763640885 0 -0.09560096305255282 -0.074831072854587108 0 -0.11253265229271681 -0.077781857851025205 0 -0.092504611119950397 -0.067201287763640885 0 -0.11253265229271681 -0.077781857851025205 0 -0.10776694705580669 -0.062556996972686824 0 -0.11253265229271681 -0.077781857851025205 0 -0.1206513656981477 -0.062004608611923938 0 -0.11253265229271681 -0.077781857851025205 0 -0.1206513656981477 -0.062004608611923938 0 -0.13770826720440121 -0.067470532336457278 0 -0.1206513656981477 -0.062004608611923938 0 -0.11400232901182469 -0.049908498072096873 0 -0.13063428894667981 -0.049606957765919592 0 -0.10776694705580669 -0.062556996972686824 0 -0.1206513656981477 -0.062004608611923938 0 -0.11400232901182469 -0.049908498072096873 0 -0.11400232901182469 -0.049908498072096873 0 -0.10109419074243051 -0.035131920015378792 0 -0.12267695647093491 -0.030269102549975859 0 -0.11400232901182469 -0.049908498072096873 0 -0.12267695647093491 -0.030269102549975859 0 -0.13063428894667981 -0.049606957765919592 0 -0.11400232901182469 -0.049908498072096873 0 -0.10109419074243051 -0.035131920015378792 0 -0.095916070747947071 -0.051012093741318661 0 -0.10109419074243051 -0.035131920015378792 0 -0.095916070747947071 -0.051012093741318661 0 -0.085192090145231075 -0.038413510490872778 0 -0.092504611119950397 -0.067201287763640885 0 -0.10776694705580669 -0.062556996972686824 0 -0.095916070747947071 -0.051012093741318661 0 -0.10776694705580669 -0.062556996972686824 0 -0.11400232901182469 -0.049908498072096873 0 -0.095916070747947071 -0.051012093741318661 0 -0.1108998672526338 -0.0026279391134738411 0 -0.10499781940529759 -0.020945305380196819 0 -0.12663994540340251 -0.011591863091793461 0 -0.1108998672526338 -0.0026279391134738411 0 -0.12663994540340251 -0.011591863091793461 0 -0.12333940972355011 0.0061911796357587787 0 -0.12267695647093491 -0.030269102549975859 0 -0.10499781940529759 -0.020945305380196819 0 -0.12663994540340251 -0.011591863091793461 0 -0.10109419074243051 -0.035131920015378792 0 -0.12267695647093491 -0.030269102549975859 0 -0.10499781940529759 -0.020945305380196819 0 -0.10109419074243051 -0.035131920015378792 0 -0.10499781940529759 -0.020945305380196819 0 -0.083779878673347422 -0.020243009857811741 0 -0.1108998672526338 -0.0026279391134738411 0 -0.10499781940529759 -0.020945305380196819 0 -0.092434386403602548 0.002283238537225573 0 -0.10499781940529759 -0.020945305380196819 0 -0.083779878673347422 -0.020243009857811741 0 -0.092434386403602548 0.002283238537225573 0 -0.083779878673347422 -0.020243009857811741 0 -0.071844526775559886 -0.0035400727110954898 0 -0.092434386403602548 0.002283238537225573 0 -0.083779878673347422 -0.020243009857811741 0 -0.06536008148121826 -0.027407925108508261 0 -0.06503774802396578 -0.015067583669644009 0 -0.083779878673347422 -0.020243009857811741 0 -0.06536008148121826 -0.027407925108508261 0 -0.085192090145231075 -0.038413510490872778 0 -0.083779878673347422 -0.020243009857811741 0 -0.06503774802396578 -0.015067583669644009 0 -0.071844526775559886 -0.0035400727110954898 0 -0.06503774802396578 -0.015067583669644009 0 -0.071844526775559886 -0.0035400727110954898 0 -0.057000060913748749 -0.0056521365782699132 0 -0.071844526775559886 -0.0035400727110954898 0 -0.057000060913748749 -0.0056521365782699132 0 -0.059254541600900663 0.0061397564835512178 0 -0.092504611119950397 -0.067201287763640885 0 -0.072476569947184849 -0.056620717676255122 0 -0.095916070747947071 -0.051012093741318661 0 -0.085192090145231075 -0.038413510490872778 0 -0.072476569947184849 -0.056620717676255122 0 -0.092504611119950397 -0.067201287763640885 0 -0.095916070747947071 -0.051012093741318661 0 -0.072476569947184849 -0.056620717676255122 0 -0.10109419074243051 -0.035131920015378792 0 -0.083779878673347422 -0.020243009857811741 0 -0.085192090145231075 -0.038413510490872778 0 -0.06536008148121826 -0.027407925108508261 0 -0.085192090145231075 -0.038413510490872778 0 -0.085192090145231075 -0.038413510490872778 0 -0.070022448232043177 -0.041769898588833357 0 -0.072476569947184849 -0.056620717676255122 0 -0.06536008148121826 -0.027407925108508261 0 -0.085192090145231075 -0.038413510490872778 0 -0.070022448232043177 -0.041769898588833357 0 -0.06536008148121826 -0.027407925108508261 0 -0.070022448232043177 -0.041769898588833357 0 -0.052448528774419308 -0.046040147588869339 0 -0.070022448232043177 -0.041769898588833357 0 -0.072476569947184849 -0.056620717676255122 0 -0.052448528774419308 -0.046040147588869339 0 -0.072476569947184849 -0.056620717676255122 0 -0.052448528774419308 -0.046040147588869339 0 -0.072476569947184849 -0.056620717676255122 0 -0.052448528774419308 -0.046040147588869339 0 -0.044102701805377627 -0.06393186933173936 0 -0.06536008148121826 -0.027407925108508261 0 -0.052448528774419308 -0.046040147588869339 0 -0.041745908695482531 -0.034513905948218293 0 -0.052448528774419308 -0.046040147588869339 0 -0.041745908695482531 -0.034513905948218293 0 -0.035957873990033168 -0.049015109034488732 0 -0.041745908695482531 -0.034513905948218293 0 -0.034084810083427799 -0.018419812730608678 0 -0.021062489790799391 -0.043659877835053637 0 -0.041745908695482531 -0.034513905948218293 0 -0.035957873990033168 -0.049015109034488732 0 -0.021062489790799391 -0.043659877835053637 0 -0.035957873990033168 -0.049015109034488732 0 -0.02207580946752101 -0.058598873219413011 0 -0.044102701805377627 -0.06393186933173936 0 -0.052448528774419308 -0.046040147588869339 0 -0.035957873990033168 -0.049015109034488732 0 -0.044102701805377627 -0.06393186933173936 0 -0.057000060913748749 -0.0056521365782699132 0 -0.047799288890126357 -0.0091200604068786949 0 -0.045570980439012948 0.0038428625116655318 0 -0.06503774802396578 -0.015067583669644009 0 -0.057000060913748749 -0.0056521365782699132 0 -0.051779227268799931 -0.015300247110927281 0 -0.057000060913748749 -0.0056521365782699132 0 -0.051779227268799931 -0.015300247110927281 0 -0.047799288890126357 -0.0091200604068786949 0 -0.051779227268799931 -0.015300247110927281 0 -0.047799288890126357 -0.0091200604068786949 0 -0.045528072817206153 -0.01640233972614244 0 -0.06536008148121826 -0.027407925108508261 0 -0.045528072817206153 -0.01640233972614244 0 -0.06536008148121826 -0.027407925108508261 0 -0.051779227268799931 -0.015300247110927281 0 -0.045528072817206153 -0.01640233972614244 0 -0.06536008148121826 -0.027407925108508261 0 -0.041745908695482531 -0.034513905948218293 0 -0.040968882310439721 -0.024004530587081119 0 -0.06536008148121826 -0.027407925108508261 0 -0.040968882310439721 -0.024004530587081119 0 -0.045528072817206153 -0.01640233972614244 0 -0.051779227268799931 -0.015300247110927281 0 -0.045528072817206153 -0.01640233972614244 0 -0.06536008148121826 -0.027407925108508261 0 -0.06503774802396578 -0.015067583669644009 0 -0.051779227268799931 -0.015300247110927281 0 -0.041745908695482531 -0.034513905948218293 0 -0.040968882310439721 -0.024004530587081119 0 -0.034084810083427799 -0.018419812730608678 0 -0.034084810083427799 -0.018419812730608678 0 -0.045528072817206153 -0.01640233972614244 0 -0.040968882310439721 -0.024004530587081119 0 -0.034084810083427799 -0.018419812730608678 0 -0.045528072817206153 -0.01640233972614244 0 -0.037441119375986681 -0.01191456150416049 0 -0.032608598788502759 0.0038132000627956659 0 -0.045570980439012948 0.0038428625116655318 0 -0.037441119375986681 -0.01191456150416049 0 -0.045570980439012948 0.0038428625116655318 0 -0.047799288890126357 -0.0091200604068786949 0 -0.037441119375986681 -0.01191456150416049 0 -0.045570980439012948 0.0038428625116655318 0 -0.047799288890126357 -0.0091200604068786949 0 -0.045528072817206153 -0.01640233972614244 0 -0.037441119375986681 -0.01191456150416049 0 -0.045528072817206153 -0.01640233972614244 0 -0.037441119375986681 -0.01191456150416049 0 -0.034084810083427799 -0.018419812730608678 0 -0.037441119375986681 -0.01191456150416049 0 -0.02332989214869927 -0.0040836695995159593 0 -0.034084810083427799 -0.018419812730608678 0 -0.037441119375986681 -0.01191456150416049 0 -0.034084810083427799 -0.018419812730608678 0 -0.045528072817206153 -0.01640233972614244 0 -0.037441119375986681 -0.01191456150416049 0 -0.034084810083427799 -0.018419812730608678 0 -0.02332989214869927 -0.0040836695995159593 0 -0.013940483806282751 -0.01049787560087621 0 -0.037441119375986681 -0.01191456150416049 0 -0.02332989214869927 -0.0040836695995159593 0 -0.032608598788502759 0.0038132000627956659 0 -0.02332989214869927 -0.0040836695995159593 0 -0.0092186649214118371 0.0037472223051285558 0 -0.037441119375986681 -0.01191456150416049 0 -0.02332989214869927 -0.0040836695995159593 0 -0.034084810083427799 -0.018419812730608678 0 -0.018080704607743411 -0.030228950215765781 0 -0.0062981840802609386 -0.023318657505106841 0 -0.034084810083427799 -0.018419812730608678 0 -0.0062981840802609386 -0.023318657505106841 0 -0.034084810083427799 -0.018419812730608678 0 -0.018080704607743411 -0.030228950215765781 0 -0.021062489790799391 -0.043659877835053637 0 -0.034084810083427799 -0.018419812730608678 0 -0.021062489790799391 -0.043659877835053637 0 -0.034084810083427799 -0.018419812730608678 0 -0.0062981840802609386 -0.023318657505106841 0 -0.013940483806282751 -0.01049787560087621 0 -0.018080704607743411 -0.030228950215765781 0 -0.0062981840802609386 -0.023318657505106841 0 -0.0086262527361008375 -0.035598332787020397 0 -0.0062981840802609386 -0.023318657505106841 0 -0.0086262527361008375 -0.035598332787020397 0 0.0063638206618580884 -0.032752155460221047 0 -0.0062981840802609386 -0.023318657505106841 0 -0.013940483806282751 -0.01049787560087621 0 0.0032291322023869518 -0.01041446047427772 0 -0.013940483806282751 -0.01049787560087621 0 -0.0092186649214118371 0.0037472223051285558 0 0.0032291322023869518 -0.01041446047427772 0 -0.0092186649214118371 0.0037472223051285558 0 0.0032291322023869518 -0.01041446047427772 0 -0.02332989214869927 -0.0040836695995159593 0 -0.013940483806282751 -0.01049787560087621 0 -0.0092186649214118371 0.0037472223051285558 0 -0.02207580946752101 -0.058598873219413011 0 -0.021062489790799391 -0.043659877835053637 0 -0.004053705863558534 -0.048032022918954698 0 -0.035957873990033168 -0.049015109034488732 0 -0.02207580946752101 -0.058598873219413011 0 -0.021062489790799391 -0.043659877835053637 0 -0.018080704607743411 -0.030228950215765781 0 -0.021062489790799391 -0.043659877835053637 0 -0.0086262527361008375 -0.035598332787020397 0 -0.021062489790799391 -0.043659877835053637 0 -0.0086262527361008375 -0.035598332787020397 0 -0.004053705863558534 -0.048032022918954698 0 -0.0086262527361008375 -0.035598332787020397 0 -0.004053705863558534 -0.048032022918954698 0 0.0063638206618580884 -0.032752155460221047 0 -0.004053705863558534 -0.048032022918954698 0 -0.0081501720496046787 -0.069207564710174446 0 0.0045058291932612363 -0.064941181292892863 0 -0.02207580946752101 -0.058598873219413011 0 -0.004053705863558534 -0.048032022918954698 0 -0.0081501720496046787 -0.069207564710174446 0 -0.0081501720496046787 -0.069207564710174446 0 0.0035349053293221109 -0.080547440569343112 0 0.0045058291932612363 -0.064941181292892863 0 -0.015297822034500429 -0.09153768872354949 0 0.0072938313470748382 -0.097347981282853727 0 0.0035349053293221109 -0.080547440569343112 0 -0.0081501720496046787 -0.069207564710174446 0 -0.015297822034500429 -0.09153768872354949 0 0.0035349053293221109 -0.080547440569343112 0 -0.015297822034500429 -0.09153768872354949 0 -0.025923849470266519 -0.074725661950665115 0 -0.041041369681575027 -0.084691052961671148 0 -0.0081501720496046787 -0.069207564710174446 0 -0.015297822034500429 -0.09153768872354949 0 -0.025923849470266519 -0.074725661950665115 0 -0.02207580946752101 -0.058598873219413011 0 -0.025923849470266519 -0.074725661950665115 0 -0.044102701805377627 -0.06393186933173936 0 -0.02207580946752101 -0.058598873219413011 0 -0.0081501720496046787 -0.069207564710174446 0 -0.025923849470266519 -0.074725661950665115 0 -0.025923849470266519 -0.074725661950665115 0 -0.044102701805377627 -0.06393186933173936 0 -0.041041369681575027 -0.084691052961671148 0 -0.015297822034500429 -0.09153768872354949 0 -0.041041369681575027 -0.084691052961671148 0 -0.038331590436159552 -0.1036179398943342 0 -0.041041369681575027 -0.084691052961671148 0 -0.059983775479952053 -0.079188722709304563 0 -0.060088502496756742 -0.097909326991494697 0 -0.044102701805377627 -0.06393186933173936 0 -0.041041369681575027 -0.084691052961671148 0 -0.059983775479952053 -0.079188722709304563 0 -0.072476569947184849 -0.056620717676255122 0 -0.044102701805377627 -0.06393186933173936 0 -0.059983775479952053 -0.079188722709304563 0 -0.057160290781826932 -0.12220698996120891 0 -0.038331590436159552 -0.1036179398943342 0 -0.057160290781826932 -0.12220698996120891 0 -0.060088502496756742 -0.097909326991494697 0 -0.038331590436159552 -0.1036179398943342 0 -0.041041369681575027 -0.084691052961671148 0 -0.060088502496756742 -0.097909326991494697 0 -0.038331590436159552 -0.1036179398943342 0 -0.038331590436159552 -0.1036179398943342 0 -0.039090766149008728 -0.12023954501479329 0 -0.021336113703233021 -0.1080240070053792 0 -0.057160290781826932 -0.12220698996120891 0 -0.038331590436159552 -0.1036179398943342 0 -0.039090766149008728 -0.12023954501479329 0 -0.039090766149008728 -0.12023954501479329 0 -0.021336113703233021 -0.1080240070053792 0 -0.01858699346923302 -0.12600835141775571 0 -0.015297822034500429 -0.09153768872354949 0 -0.038331590436159552 -0.1036179398943342 0 -0.021336113703233021 -0.1080240070053792 0 -0.015297822034500429 -0.09153768872354949 0 -0.0036533751203966431 -0.1100663247657067 0 0.0072938313470748382 -0.097347981282853727 0 -0.015297822034500429 -0.09153768872354949 0 -0.021336113703233021 -0.1080240070053792 0 -0.0036533751203966431 -0.1100663247657067 0 -0.0036533751203966431 -0.1100663247657067 0 -0.01858699346923302 -0.12600835141775571 0 0.0066263282709386221 -0.1243780805145081 0 -0.021336113703233021 -0.1080240070053792 0 -0.0036533751203966431 -0.1100663247657067 0 -0.01858699346923302 -0.12600835141775571 0 -0.001313448483517794 -0.14061658186307241 0 -0.01858699346923302 -0.12600835141775571 0 -0.016494681383712611 -0.14468419953019401 0 -0.001313448483517794 -0.14061658186307241 0 -0.01858699346923302 -0.12600835141775571 0 0.0066263282709386221 -0.1243780805145081 0 -0.01858699346923302 -0.12600835141775571 0 -0.029797465673141801 -0.14324589555905309 0 -0.043997226137209147 -0.1371339309768233 0 -0.01858699346923302 -0.12600835141775571 0 -0.029797465673141801 -0.14324589555905309 0 -0.016494681383712611 -0.14468419953019401 0 -0.025457665856280339 -0.15539622579363749 0 -0.016494681383712611 -0.14468419953019401 0 -0.0082540668978505448 -0.15621517637297619 0 -0.025457665856280339 -0.15539622579363749 0 -0.029797465673141801 -0.14324589555905309 0 -0.016494681383712611 -0.14468419953019401 0 -0.001313448483517794 -0.14061658186307241 0 -0.016494681383712611 -0.14468419953019401 0 -0.0082540668978505448 -0.15621517637297619 0 -0.0082540668978505448 -0.15621517637297619 0 -0.01870035764974181 -0.17095062382888621 0 0.00051739558066551071 -0.16959198372737599 0 -0.0090159429888823275 -0.18094254030710241 0 -0.020629834021809689 -0.1869703964535066 0 -0.0045118657734242876 -0.19316788787933009 0 -0.0090159429888823275 -0.18094254030710241 0 -0.01870035764974181 -0.17095062382888621 0 0.00051739558066551071 -0.16959198372737599 0 -0.0090159429888823275 -0.18094254030710241 0 0.00051739558066551071 -0.16959198372737599 0 0.0083053002087310167 -0.1810215848489993 0 -0.0090159429888823275 -0.18094254030710241 0 -0.0045118657734242876 -0.19316788787933009 0 0.0083053002087310167 -0.1810215848489993 0 -0.01870035764974181 -0.17095062382888621 0 -0.035637988872997822 -0.16690130687160989 0 -0.033505585660117299 -0.18000961790560641 0 -0.020629834021809689 -0.1869703964535066 0 -0.01870035764974181 -0.17095062382888621 0 -0.033505585660117299 -0.18000961790560641 0 -0.0090159429888823275 -0.18094254030710241 0 -0.020629834021809689 -0.1869703964535066 0 -0.01870035764974181 -0.17095062382888621 0 -0.020629834021809689 -0.1869703964535066 0 -0.033505585660117299 -0.18000961790560641 0 -0.033183486743473913 -0.1928066984974329 0 -0.025457665856280339 -0.15539622579363749 0 -0.0082540668978505448 -0.15621517637297619 0 -0.01870035764974181 -0.17095062382888621 0 -0.025457665856280339 -0.15539622579363749 0 -0.01870035764974181 -0.17095062382888621 0 -0.035637988872997822 -0.16690130687160989 0 -0.025457665856280339 -0.15539622579363749 0 -0.035637988872997822 -0.16690130687160989 0 -0.044450761519273893 -0.15300677007685509 0 -0.035637988872997822 -0.16690130687160989 0 -0.047417805321238508 -0.1763701909503825 0 -0.049267089304246808 -0.16540616638286981 0 -0.035637988872997822 -0.16690130687160989 0 -0.049267089304246808 -0.16540616638286981 0 -0.044450761519273893 -0.15300677007685509 0 -0.033505585660117299 -0.18000961790560641 0 -0.033183486743473913 -0.1928066984974329 0 -0.046261387329486273 -0.18753949345362619 0 -0.035637988872997822 -0.16690130687160989 0 -0.033505585660117299 -0.18000961790560641 0 -0.047417805321238508 -0.1763701909503825 0 -0.033505585660117299 -0.18000961790560641 0 -0.047417805321238508 -0.1763701909503825 0 -0.046261387329486273 -0.18753949345362619 0 -0.047417805321238508 -0.1763701909503825 0 -0.058049538462354153 -0.1789136155275215 0 -0.046261387329486273 -0.18753949345362619 0 -0.058049538462354153 -0.1789136155275215 0 -0.058360955273653002 -0.18745284760025691 0 -0.046261387329486273 -0.18753949345362619 0 -0.047417805321238508 -0.1763701909503825 0 -0.058049538462354153 -0.1789136155275215 0 -0.060751246018258223 -0.16997717185075789 0 -0.058049538462354153 -0.1789136155275215 0 -0.060751246018258223 -0.16997717185075789 0 -0.067993458904953855 -0.17731182373847471 0 -0.058049538462354153 -0.1789136155275215 0 -0.058360955273653002 -0.18745284760025691 0 -0.066413649077764272 -0.18411211924427009 0 -0.049267089304246808 -0.16540616638286981 0 -0.058892773955764581 -0.1598949621036741 0 -0.044450761519273893 -0.15300677007685509 0 -0.047417805321238508 -0.1763701909503825 0 -0.049267089304246808 -0.16540616638286981 0 -0.060751246018258223 -0.16997717185075789 0 -0.049267089304246808 -0.16540616638286981 0 -0.060751246018258223 -0.16997717185075789 0 -0.058892773955764581 -0.1598949621036741 0 -0.05488079027843161 -0.15088035889713239 0 -0.043997226137209147 -0.1371339309768233 0 -0.069407458805185243 -0.1482595105358909 0 -0.043997226137209147 -0.1371339309768233 0 -0.069407458805185243 -0.1482595105358909 0 -0.05488079027843161 -0.15088035889713239 0 -0.043997226137209147 -0.1371339309768233 0 -0.044450761519273893 -0.15300677007685509 0 -0.05488079027843161 -0.15088035889713239 0 -0.069407458805185243 -0.1482595105358909 0 -0.06315202225490385 -0.1547506401647549 0 -0.058892773955764581 -0.1598949621036741 0 -0.05488079027843161 -0.15088035889713239 0 -0.06315202225490385 -0.1547506401647549 0 -0.058892773955764581 -0.1598949621036741 0 -0.05488079027843161 -0.15088035889713239 0 -0.044450761519273893 -0.15300677007685509 0 -0.057160290781826932 -0.12220698996120891 0 -0.043997226137209147 -0.1371339309768233 0 -0.069407458805185243 -0.1482595105358909 0 -0.01858699346923302 -0.12600835141775571 0 -0.043997226137209147 -0.1371339309768233 0 -0.039090766149008728 -0.12023954501479329 0 -0.01858699346923302 -0.12600835141775571 0 -0.043997226137209147 -0.1371339309768233 0 -0.057160290781826932 -0.12220698996120891 0 -0.039090766149008728 -0.12023954501479329 0 -0.043997226137209147 -0.1371339309768233 0 -0.029797465673141801 -0.14324589555905309 0 -0.043997226137209147 -0.1371339309768233 0 -0.044450761519273893 -0.15300677007685509 0 -0.025457665856280339 -0.15539622579363749 0 -0.029797465673141801 -0.14324589555905309 0 -0.044450761519273893 -0.15300677007685509 0 -0.020066556454128609 -0.24364419553564079 0 -0.026925816535623669 -0.22911116333671969 0 -0.046291150035219317 -0.23510941533752641 0 -0.020066556454128609 -0.24364419553564079 0 -0.0092222590394638801 -0.23057724323260681 0 -0.026925816535623669 -0.22911116333671969 0 -0.020066556454128609 -0.24364419553564079 0 -0.0092222590394638801 -0.23057724323260681 0 0.0061580371269623164 -0.25217897573375531 0 -0.020066556454128609 -0.24364419553564079 0 0.0061580371269623164 -0.25217897573375531 0 -0.0092222590394638801 -0.23057724323260681 0 -0.0024065835568814978 -0.21088715889361889 0 0.01015861848124725 -0.23032516797085009 0 -0.0092222590394638801 -0.23057724323260681 0 -0.021903039362197469 -0.21615846710736619 0 -0.0024065835568814978 -0.21088715889361889 0 -0.0092222590394638801 -0.23057724323260681 0 -0.026925816535623669 -0.22911116333671969 0 -0.021903039362197469 -0.21615846710736619 0 -0.026925816535623669 -0.22911116333671969 0 -0.021903039362197469 -0.21615846710736619 0 -0.037146077787109058 -0.22006649547045801 0 -0.021903039362197469 -0.21615846710736619 0 -0.033428012486184572 -0.20608672077543161 0 -0.037146077787109058 -0.22006649547045801 0 -0.021903039362197469 -0.21615846710736619 0 -0.019557621299794881 -0.20079669573736261 0 -0.033428012486184572 -0.20608672077543161 0 -0.021903039362197469 -0.21615846710736619 0 -0.0024065835568814978 -0.21088715889361889 0 -0.019557621299794881 -0.20079669573736261 0 -0.0024065835568814978 -0.21088715889361889 0 -0.0045118657734242876 -0.19316788787933009 0 -0.019557621299794881 -0.20079669573736261 0 -0.020629834021809689 -0.1869703964535066 0 -0.0045118657734242876 -0.19316788787933009 0 -0.019557621299794881 -0.20079669573736261 0 -0.019557621299794881 -0.20079669573736261 0 -0.033183486743473913 -0.1928066984974329 0 -0.033428012486184572 -0.20608672077543161 0 -0.020629834021809689 -0.1869703964535066 0 -0.019557621299794881 -0.20079669573736261 0 -0.033183486743473913 -0.1928066984974329 0 -0.033183486743473913 -0.1928066984974329 0 -0.045144761664232438 -0.19914539362499031 0 -0.033428012486184572 -0.20608672077543161 0 -0.033183486743473913 -0.1928066984974329 0 -0.045144761664232438 -0.19914539362499031 0 -0.046261387329486273 -0.18753949345362619 0 -0.058360955273653002 -0.18745284760025691 0 -0.046261387329486273 -0.18753949345362619 0 -0.055711431717937951 -0.1946347475341719 0 -0.045144761664232438 -0.19914539362499031 0 -0.046261387329486273 -0.18753949345362619 0 -0.055711431717937951 -0.1946347475341719 0 -0.058360955273653002 -0.18745284760025691 0 -0.055711431717937951 -0.1946347475341719 0 -0.065368769780722299 -0.19206426224169471 0 -0.055711431717937951 -0.1946347475341719 0 -0.055109961670057807 -0.2025622508672856 0 -0.063287413456091929 -0.1993095142691711 0 -0.055109961670057807 -0.2025622508672856 0 -0.063522533935824813 -0.20637963886510069 0 -0.063287413456091929 -0.1993095142691711 0 -0.055711431717937951 -0.1946347475341719 0 -0.063287413456091929 -0.1993095142691711 0 -0.065368769780722299 -0.19206426224169471 0 -0.045144761664232438 -0.19914539362499031 0 -0.055711431717937951 -0.1946347475341719 0 -0.055109961670057807 -0.2025622508672856 0 -0.045144761664232438 -0.19914539362499031 0 -0.055109961670057807 -0.2025622508672856 0 -0.047174290038254213 -0.2112424506219942 0 -0.055109961670057807 -0.2025622508672856 0 -0.057605574583222949 -0.21062215680240959 0 -0.047174290038254213 -0.2112424506219942 0 -0.055109961670057807 -0.2025622508672856 0 -0.057605574583222949 -0.21062215680240959 0 -0.063522533935824813 -0.20637963886510069 0 -0.057605574583222949 -0.21062215680240959 0 -0.064972777260098744 -0.21244582584035279 0 -0.063522533935824813 -0.20637963886510069 0 -0.057605574583222949 -0.21062215680240959 0 -0.054490132493942953 -0.21756473916225999 0 -0.061475078784120743 -0.21937927548975891 0 -0.057605574583222949 -0.21062215680240959 0 -0.061475078784120743 -0.21937927548975891 0 -0.064972777260098744 -0.21244582584035279 0 -0.047174290038254213 -0.2112424506219942 0 -0.054490132493942953 -0.21756473916225999 0 -0.048122206590579697 -0.2221422634134213 0 -0.057605574583222949 -0.21062215680240959 0 -0.047174290038254213 -0.2112424506219942 0 -0.054490132493942953 -0.21756473916225999 0 -0.047174290038254213 -0.2112424506219942 0 -0.033428012486184572 -0.20608672077543161 0 -0.037146077787109058 -0.22006649547045801 0 -0.047174290038254213 -0.2112424506219942 0 -0.037146077787109058 -0.22006649547045801 0 -0.048122206590579697 -0.2221422634134213 0 -0.045144761664232438 -0.19914539362499031 0 -0.047174290038254213 -0.2112424506219942 0 -0.033428012486184572 -0.20608672077543161 0 -0.026925816535623669 -0.22911116333671969 0 -0.037146077787109058 -0.22006649547045801 0 -0.046291150035219317 -0.23510941533752641 0 -0.037146077787109058 -0.22006649547045801 0 -0.048122206590579697 -0.2221422634134213 0 -0.046291150035219317 -0.23510941533752641 0 -0.054490132493942953 -0.21756473916225999 0 -0.048122206590579697 -0.2221422634134213 0 -0.055509382598372958 -0.22672821647486799 0 -0.054490132493942953 -0.21756473916225999 0 -0.061475078784120743 -0.21937927548975891 0 -0.055509382598372958 -0.22672821647486799 0 -0.061883332487688403 -0.22629440114818691 0 -0.061475078784120743 -0.21937927548975891 0 -0.055509382598372958 -0.22672821647486799 0 -0.060325100617576372 -0.23098218552700031 0 -0.055509382598372958 -0.22672821647486799 0 -0.055796682115632983 -0.23484323359057491 0 -0.060325100617576372 -0.23098218552700031 0 -0.055796682115632983 -0.23484323359057491 0 -0.06190473256259478 -0.23591819852106269 0 -0.061883332487688403 -0.22629440114818691 0 -0.060325100617576372 -0.23098218552700031 0 -0.055509382598372958 -0.22672821647486799 0 -0.055509382598372958 -0.22672821647486799 0 -0.055796682115632983 -0.23484323359057491 0 -0.046291150035219317 -0.23510941533752641 0 -0.048122206590579697 -0.2221422634134213 0 -0.055509382598372958 -0.22672821647486799 0 -0.046291150035219317 -0.23510941533752641 0 -0.051741034731246562 -0.24083740269345649 0 -0.055796682115632983 -0.23484323359057491 0 -0.046291150035219317 -0.23510941533752641 0 -0.051741034731246562 -0.24083740269345649 0 -0.046553817348638067 -0.24399925342291701 0 -0.046291150035219317 -0.23510941533752641 0 -0.052284537972840932 -0.25080050745650051 0 -0.05340504822218993 -0.2581288041766806 0 -0.063823891233619409 -0.23807167565324761 0 -0.055796682115632983 -0.23484323359057491 0 -0.057052500268080522 -0.24014560340891439 0 -0.06190473256259478 -0.23591819852106269 0 -0.051741034731246562 -0.24083740269345649 0 -0.055796682115632983 -0.23484323359057491 0 -0.057052500268080522 -0.24014560340891439 0 -0.057052500268080522 -0.24014560340891439 0 -0.06190473256259478 -0.23591819852106269 0 -0.063823891233619409 -0.23807167565324761 0 -0.052284537972840932 -0.25080050745650051 0 -0.057052500268080522 -0.24014560340891439 0 -0.063823891233619409 -0.23807167565324761 0 -0.052284537972840932 -0.25080050745650051 0 -0.051741034731246562 -0.24083740269345649 0 -0.046553817348638067 -0.24399925342291701 0 -0.052284537972840932 -0.25080050745650051 0 -0.051741034731246562 -0.24083740269345649 0 -0.057052500268080522 -0.24014560340891439 0 -0.052284537972840932 -0.25080050745650051 0 -0.046553817348638067 -0.24399925342291701 0 -0.035995696606004352 -0.2480320455971681 0 -0.020066556454128609 -0.24364419553564079 0 -0.046291150035219317 -0.23510941533752641 0 -0.046553817348638067 -0.24399925342291701 0 -0.046291150035219317 -0.23510941533752641 0 -0.035995696606004352 -0.2480320455971681 0 -0.020066556454128609 -0.24364419553564079 0 -0.046291150035219317 -0.23510941533752641 0 -0.035995696606004352 -0.2480320455971681 0 -0.087421165994072444 -0.24480117043732741 0 -0.082135948073937912 -0.2338418282529679 0 -0.098257869891523936 -0.2314032389884681 0 -0.087421165994072444 -0.24480117043732741 0 -0.075610235330979214 -0.2428532656996365 0 -0.082135948073937912 -0.2338418282529679 0 -0.077752960335739599 -0.25370140561613042 0 -0.087421165994072444 -0.24480117043732741 0 -0.075610235330979214 -0.2428532656996365 0 -0.064832693725503099 -0.25421936513964022 0 -0.077752960335739599 -0.25370140561613042 0 -0.063823891233619409 -0.23807167565324761 0 -0.077752960335739599 -0.25370140561613042 0 -0.063823891233619409 -0.23807167565324761 0 -0.077752960335739599 -0.25370140561613042 0 -0.075610235330979214 -0.2428532656996365 0 -0.063823891233619409 -0.23807167565324761 0 -0.06190473256259478 -0.23591819852106269 0 -0.075610235330979214 -0.2428532656996365 0 -0.068985757042945337 -0.2353835578994041 0 -0.06190473256259478 -0.23591819852106269 0 -0.075610235330979214 -0.2428532656996365 0 -0.063823891233619409 -0.23807167565324761 0 -0.06190473256259478 -0.23591819852106269 0 -0.063823891233619409 -0.23807167565324761 0 -0.075610235330979214 -0.2428532656996365 0 -0.068985757042945337 -0.2353835578994041 0 -0.072587634427707909 -0.2323343767294819 0 -0.075610235330979214 -0.2428532656996365 0 -0.072587634427707909 -0.2323343767294819 0 -0.082135948073937912 -0.2338418282529679 0 -0.072587634427707909 -0.2323343767294819 0 -0.069988223567210739 -0.22769083948134239 0 -0.075258159402763203 -0.2240466529465806 0 -0.072587634427707909 -0.2323343767294819 0 -0.075258159402763203 -0.2240466529465806 0 -0.082135948073937912 -0.2338418282529679 0 -0.068985757042945337 -0.2353835578994041 0 -0.072587634427707909 -0.2323343767294819 0 -0.065840425850499373 -0.23042839064743531 0 -0.069988223567210739 -0.22769083948134239 0 -0.065840425850499373 -0.23042839064743531 0 -0.066266674587872526 -0.22395393760187191 0 -0.072587634427707909 -0.2323343767294819 0 -0.069988223567210739 -0.22769083948134239 0 -0.065840425850499373 -0.23042839064743531 0 -0.061883332487688403 -0.22629440114818691 0 -0.065840425850499373 -0.23042839064743531 0 -0.066266674587872526 -0.22395393760187191 0 -0.061883332487688403 -0.22629440114818691 0 -0.060325100617576372 -0.23098218552700031 0 -0.065840425850499373 -0.23042839064743531 0 -0.06190473256259478 -0.23591819852106269 0 -0.068985757042945337 -0.2353835578994041 0 -0.065840425850499373 -0.23042839064743531 0 -0.060325100617576372 -0.23098218552700031 0 -0.06190473256259478 -0.23591819852106269 0 -0.065840425850499373 -0.23042839064743531 0 -0.066266674587872526 -0.22395393760187191 0 -0.075258159402763203 -0.2240466529465806 0 -0.068971911984362949 -0.217689766906393 0 -0.061475078784120743 -0.21937927548975891 0 -0.066266674587872526 -0.22395393760187191 0 -0.068971911984362949 -0.217689766906393 0 -0.061883332487688403 -0.22629440114818691 0 -0.061475078784120743 -0.21937927548975891 0 -0.066266674587872526 -0.22395393760187191 0 -0.075258159402763203 -0.2240466529465806 0 -0.079848207804291513 -0.21902499409018991 0 -0.075301798809562032 -0.21492461381503469 0 -0.075258159402763203 -0.2240466529465806 0 -0.075301798809562032 -0.21492461381503469 0 -0.068971911984362949 -0.217689766906393 0 -0.069988223567210739 -0.22769083948134239 0 -0.066266674587872526 -0.22395393760187191 0 -0.075258159402763203 -0.2240466529465806 0 -0.075258159402763203 -0.2240466529465806 0 -0.079848207804291513 -0.21902499409018991 0 -0.08679118008227045 -0.2223809266544495 0 -0.082135948073937912 -0.2338418282529679 0 -0.08679118008227045 -0.2223809266544495 0 -0.098257869891523936 -0.2314032389884681 0 -0.075258159402763203 -0.2240466529465806 0 -0.082135948073937912 -0.2338418282529679 0 -0.08679118008227045 -0.2223809266544495 0 -0.08679118008227045 -0.2223809266544495 0 -0.088034019092070231 -0.21090978397172561 0 -0.09887183142529285 -0.21701604640063271 0 -0.088034019092070231 -0.21090978397172561 0 -0.088842935355873537 -0.20235159398714531 0 -0.097477128148337977 -0.2050388735869437 0 -0.088034019092070231 -0.21090978397172561 0 -0.078975799026620663 -0.20657177005636149 0 -0.088842935355873537 -0.20235159398714531 0 -0.088034019092070231 -0.21090978397172561 0 -0.078975799026620663 -0.20657177005636149 0 -0.08109521297553253 -0.2125869293154499 0 -0.079848207804291513 -0.21902499409018991 0 -0.08679118008227045 -0.2223809266544495 0 -0.08109521297553253 -0.2125869293154499 0 -0.078975799026620663 -0.20657177005636149 0 -0.08109521297553253 -0.2125869293154499 0 -0.075301798809562032 -0.21492461381503469 0 -0.08679118008227045 -0.2223809266544495 0 -0.088034019092070231 -0.21090978397172561 0 -0.08109521297553253 -0.2125869293154499 0 -0.079848207804291513 -0.21902499409018991 0 -0.08109521297553253 -0.2125869293154499 0 -0.075301798809562032 -0.21492461381503469 0 -0.075301798809562032 -0.21492461381503469 0 -0.068971911984362949 -0.217689766906393 0 -0.070306770604213351 -0.2102144672445998 0 -0.068971911984362949 -0.217689766906393 0 -0.064972777260098744 -0.21244582584035279 0 -0.070306770604213351 -0.2102144672445998 0 -0.061475078784120743 -0.21937927548975891 0 -0.068971911984362949 -0.217689766906393 0 -0.064972777260098744 -0.21244582584035279 0 -0.064972777260098744 -0.21244582584035279 0 -0.063522533935824813 -0.20637963886510069 0 -0.070306770604213351 -0.2102144672445998 0 -0.063522533935824813 -0.20637963886510069 0 -0.070306770604213351 -0.2102144672445998 0 -0.06991788802107371 -0.20346622092768829 0 -0.078975799026620663 -0.20657177005636149 0 -0.070306770604213351 -0.2102144672445998 0 -0.06991788802107371 -0.20346622092768829 0 -0.078975799026620663 -0.20657177005636149 0 -0.06991788802107371 -0.20346622092768829 0 -0.075043257637632477 -0.1995225603797372 0 -0.078975799026620663 -0.20657177005636149 0 -0.075301798809562032 -0.21492461381503469 0 -0.070306770604213351 -0.2102144672445998 0 -0.075043257637632477 -0.1995225603797372 0 -0.075065370233996606 -0.1925242832570789 0 -0.081396528848818969 -0.1986167490817794 0 -0.075043257637632477 -0.1995225603797372 0 -0.069860702057652421 -0.19643377857577779 0 -0.075065370233996606 -0.1925242832570789 0 -0.06991788802107371 -0.20346622092768829 0 -0.075043257637632477 -0.1995225603797372 0 -0.069860702057652421 -0.19643377857577779 0 -0.06991788802107371 -0.20346622092768829 0 -0.069860702057652421 -0.19643377857577779 0 -0.063287413456091929 -0.1993095142691711 0 -0.069860702057652421 -0.19643377857577779 0 -0.063287413456091929 -0.1993095142691711 0 -0.065368769780722299 -0.19206426224169471 0 -0.063522533935824813 -0.20637963886510069 0 -0.06991788802107371 -0.20346622092768829 0 -0.063287413456091929 -0.1993095142691711 0 -0.058360955273653002 -0.18745284760025691 0 -0.065368769780722299 -0.19206426224169471 0 -0.066413649077764272 -0.18411211924427009 0 -0.065368769780722299 -0.19206426224169471 0 -0.070213194589240607 -0.18886475843099529 0 -0.066413649077764272 -0.18411211924427009 0 -0.069860702057652421 -0.19643377857577779 0 -0.065368769780722299 -0.19206426224169471 0 -0.070213194589240607 -0.18886475843099529 0 -0.070213194589240607 -0.18886475843099529 0 -0.075065370233996606 -0.1925242832570789 0 -0.074903496678709033 -0.18376066401279681 0 -0.075065370233996606 -0.1925242832570789 0 -0.082723399869521541 -0.1890860071990505 0 -0.074903496678709033 -0.18376066401279681 0 -0.069860702057652421 -0.19643377857577779 0 -0.070213194589240607 -0.18886475843099529 0 -0.075065370233996606 -0.1925242832570789 0 -0.082723399869521541 -0.1890860071990505 0 -0.081396528848818969 -0.1986167490817794 0 -0.092469361939046063 -0.19469975756837321 0 -0.075065370233996606 -0.1925242832570789 0 -0.082723399869521541 -0.1890860071990505 0 -0.081396528848818969 -0.1986167490817794 0 -0.078975799026620663 -0.20657177005636149 0 -0.081396528848818969 -0.1986167490817794 0 -0.088842935355873537 -0.20235159398714531 0 -0.078975799026620663 -0.20657177005636149 0 -0.075043257637632477 -0.1995225603797372 0 -0.081396528848818969 -0.1986167490817794 0 -0.081396528848818969 -0.1986167490817794 0 -0.088842935355873537 -0.20235159398714531 0 -0.092469361939046063 -0.19469975756837321 0 -0.088842935355873537 -0.20235159398714531 0 -0.092469361939046063 -0.19469975756837321 0 -0.097477128148337977 -0.2050388735869437 0 -0.082723399869521541 -0.1890860071990505 0 -0.092469361939046063 -0.19469975756837321 0 -0.090546212791401626 -0.18447481516710501 0 -0.092469361939046063 -0.19469975756837321 0 -0.1050005125618057 -0.19660135531579581 0 -0.09984142154181859 -0.18699441063616959 0 -0.092469361939046063 -0.19469975756837321 0 -0.090546212791401626 -0.18447481516710501 0 -0.09984142154181859 -0.18699441063616959 0 -0.092469361939046063 -0.19469975756837321 0 -0.1050005125618057 -0.19660135531579581 0 -0.097477128148337977 -0.2050388735869437 0 -0.1050005125618057 -0.19660135531579581 0 -0.09984142154181859 -0.18699441063616959 0 -0.1101002639846923 -0.18718894139141259 0 -0.1050005125618057 -0.19660135531579581 0 -0.1153305645783024 -0.19686372129236529 0 -0.1101002639846923 -0.18718894139141259 0 -0.1153305645783024 -0.19686372129236529 0 -0.1101002639846923 -0.18718894139141259 0 -0.12308533304665489 -0.18720508618478421 0 -0.1249447348442419 -0.20195145197702249 0 -0.1153305645783024 -0.19686372129236529 0 -0.12308533304665489 -0.18720508618478421 0 -0.1249447348442419 -0.20195145197702249 0 -0.1153305645783024 -0.19686372129236529 0 -0.11164410851593951 -0.20865470427798991 0 -0.1050005125618057 -0.19660135531579581 0 -0.1153305645783024 -0.19686372129236529 0 -0.11164410851593951 -0.20865470427798991 0 -0.1234582632166365 -0.2127905766840163 0 -0.1115977853837294 -0.2205059476543503 0 -0.12817948899913709 -0.22279308622493851 0 -0.1249447348442419 -0.20195145197702249 0 -0.11164410851593951 -0.20865470427798991 0 -0.1234582632166365 -0.2127905766840163 0 -0.11164410851593951 -0.20865470427798991 0 -0.1234582632166365 -0.2127905766840163 0 -0.1115977853837294 -0.2205059476543503 0 -0.11164410851593951 -0.20865470427798991 0 -0.09887183142529285 -0.21701604640063271 0 -0.1115977853837294 -0.2205059476543503 0 -0.1050005125618057 -0.19660135531579581 0 -0.11164410851593951 -0.20865470427798991 0 -0.097477128148337977 -0.2050388735869437 0 -0.11164410851593951 -0.20865470427798991 0 -0.097477128148337977 -0.2050388735869437 0 -0.09887183142529285 -0.21701604640063271 0 -0.088034019092070231 -0.21090978397172561 0 -0.097477128148337977 -0.2050388735869437 0 -0.09887183142529285 -0.21701604640063271 0 -0.08679118008227045 -0.2223809266544495 0 -0.09887183142529285 -0.21701604640063271 0 -0.098257869891523936 -0.2314032389884681 0 -0.098257869891523936 -0.2314032389884681 0 -0.1115977853837294 -0.2205059476543503 0 -0.11382233118747739 -0.23081896565303101 0 -0.098257869891523936 -0.2314032389884681 0 -0.11382233118747739 -0.23081896565303101 0 -0.107777793594149 -0.23843013613307729 0 -0.09887183142529285 -0.21701604640063271 0 -0.098257869891523936 -0.2314032389884681 0 -0.1115977853837294 -0.2205059476543503 0 -0.11382233118747739 -0.23081896565303101 0 -0.12656728854982019 -0.23898913306644609 0 -0.12817948899913709 -0.22279308622493851 0 -0.1115977853837294 -0.2205059476543503 0 -0.11382233118747739 -0.23081896565303101 0 -0.12817948899913709 -0.22279308622493851 0 -0.1158489241271989 -0.24036825002180229 0 -0.1104397953155342 -0.2460620685137129 0 -0.107777793594149 -0.23843013613307729 0 -0.11382233118747739 -0.23081896565303101 0 -0.1158489241271989 -0.24036825002180229 0 -0.107777793594149 -0.23843013613307729 0 -0.11382233118747739 -0.23081896565303101 0 -0.1158489241271989 -0.24036825002180229 0 -0.12656728854982019 -0.23898913306644609 0 -0.1158489241271989 -0.24036825002180229 0 -0.1206374119890138 -0.24754094674274421 0 -0.12656728854982019 -0.23898913306644609 0 -0.11496564275178781 -0.25512371850097981 0 -0.1206374119890138 -0.24754094674274421 0 -0.1104397953155342 -0.2460620685137129 0 -0.1158489241271989 -0.24036825002180229 0 -0.1206374119890138 -0.24754094674274421 0 -0.1104397953155342 -0.2460620685137129 0 -0.1104397953155342 -0.2460620685137129 0 -0.107777793594149 -0.23843013613307729 0 -0.10035283963873751 -0.24477265519535091 0 -0.10485287250875 -0.25412820996193308 0 -0.1104397953155342 -0.2460620685137129 0 -0.10035283963873751 -0.24477265519535091 0 -0.098257869891523936 -0.2314032389884681 0 -0.107777793594149 -0.23843013613307729 0 -0.10035283963873751 -0.24477265519535091 0 -0.087421165994072444 -0.24480117043732741 0 -0.098257869891523936 -0.2314032389884681 0 -0.10035283963873751 -0.24477265519535091 0 -0.093885119133546413 -0.25511337893554392 0 -0.087421165994072444 -0.24480117043732741 0 -0.10035283963873751 -0.24477265519535091 0 -0.069407458805185243 -0.1482595105358909 0 -0.080321879216256872 -0.16044594685834601 0 -0.094817691473161325 -0.15938509009495819 0 -0.069407458805185243 -0.1482595105358909 0 -0.075988991127494188 -0.14079604002808341 0 -0.094817691473161325 -0.15938509009495819 0 -0.087593259576316904 -0.14552556679107051 0 -0.075988991127494188 -0.14079604002808341 0 -0.094817691473161325 -0.15938509009495819 0 -0.069407458805185243 -0.1482595105358909 0 -0.094817691473161325 -0.15938509009495819 0 -0.075988991127494188 -0.14079604002808341 0 -0.094817691473161325 -0.15938509009495819 0 -0.087593259576316904 -0.14552556679107051 0 -0.094817691473161325 -0.15938509009495819 0 -0.094627278342608936 -0.14945974756595151 0 -0.087593259576316904 -0.14552556679107051 0 -0.086349112822499782 -0.1346038132294384 0 -0.094290648971662103 -0.14365997276484141 0 -0.087593259576316904 -0.14552556679107051 0 -0.094290648971662103 -0.14365997276484141 0 -0.094627278342608936 -0.14945974756595151 0 -0.086349112822499782 -0.1346038132294384 0 -0.094290648971662103 -0.14365997276484141 0 -0.097014868665502338 -0.13726356026694261 0 -0.086349112822499782 -0.1346038132294384 0 -0.092525277700275965 -0.1312291247647287 0 -0.097014868665502338 -0.13726356026694261 0 -0.084420917546410831 -0.1236539464779329 0 -0.095679988813174424 -0.1248627582016288 0 -0.092525277700275965 -0.1312291247647287 0 -0.084420917546410831 -0.1236539464779329 0 -0.086349112822499782 -0.1346038132294384 0 -0.092525277700275965 -0.1312291247647287 0 -0.071434290508659765 -0.124737680966256 0 -0.084420917546410831 -0.1236539464779329 0 -0.078844921233451604 -0.13059179296315651 0 -0.084420917546410831 -0.1236539464779329 0 -0.086349112822499782 -0.1346038132294384 0 -0.078844921233451604 -0.13059179296315651 0 -0.086349112822499782 -0.1346038132294384 0 -0.078844921233451604 -0.13059179296315651 0 -0.075988991127494188 -0.14079604002808341 0 -0.087593259576316904 -0.14552556679107051 0 -0.086349112822499782 -0.1346038132294384 0 -0.075988991127494188 -0.14079604002808341 0 -0.057160290781826932 -0.12220698996120891 0 -0.069407458805185243 -0.1482595105358909 0 -0.075988991127494188 -0.14079604002808341 0 -0.071434290508659765 -0.124737680966256 0 -0.057160290781826932 -0.12220698996120891 0 -0.075988991127494188 -0.14079604002808341 0 -0.057160290781826932 -0.12220698996120891 0 -0.075988991127494188 -0.14079604002808341 0 -0.071434290508659765 -0.124737680966256 0 -0.078844921233451604 -0.13059179296315651 0 -0.075988991127494188 -0.14079604002808341 0 -0.069407458805185243 -0.1482595105358909 0 -0.069427065980233973 -0.15996772912232221 0 -0.080321879216256872 -0.16044594685834601 0 -0.069407458805185243 -0.1482595105358909 0 -0.06315202225490385 -0.1547506401647549 0 -0.069427065980233973 -0.15996772912232221 0 -0.060751246018258223 -0.16997717185075789 0 -0.058892773955764581 -0.1598949621036741 0 -0.069427065980233973 -0.15996772912232221 0 -0.058892773955764581 -0.1598949621036741 0 -0.06315202225490385 -0.1547506401647549 0 -0.069427065980233973 -0.15996772912232221 0 -0.060751246018258223 -0.16997717185075789 0 -0.069427065980233973 -0.15996772912232221 0 -0.071037051532692838 -0.17011856725056709 0 -0.077805966336160215 -0.16741097560039439 0 -0.071037051532692838 -0.17011856725056709 0 -0.076321565759411694 -0.17545718095058399 0 -0.069427065980233973 -0.15996772912232221 0 -0.077805966336160215 -0.16741097560039439 0 -0.071037051532692838 -0.17011856725056709 0 -0.069427065980233973 -0.15996772912232221 0 -0.077805966336160215 -0.16741097560039439 0 -0.080321879216256872 -0.16044594685834601 0 -0.058049538462354153 -0.1789136155275215 0 -0.066413649077764272 -0.18411211924427009 0 -0.067993458904953855 -0.17731182373847471 0 -0.066413649077764272 -0.18411211924427009 0 -0.067993458904953855 -0.17731182373847471 0 -0.074903496678709033 -0.18376066401279681 0 -0.060751246018258223 -0.16997717185075789 0 -0.071037051532692838 -0.17011856725056709 0 -0.067993458904953855 -0.17731182373847471 0 -0.071037051532692838 -0.17011856725056709 0 -0.067993458904953855 -0.17731182373847471 0 -0.076321565759411694 -0.17545718095058399 0 -0.067993458904953855 -0.17731182373847471 0 -0.076321565759411694 -0.17545718095058399 0 -0.074903496678709033 -0.18376066401279681 0 -0.070213194589240607 -0.18886475843099529 0 -0.066413649077764272 -0.18411211924427009 0 -0.074903496678709033 -0.18376066401279681 0 -0.076321565759411694 -0.17545718095058399 0 -0.074903496678709033 -0.18376066401279681 0 -0.082949418951291418 -0.18059255319507089 0 -0.082723399869521541 -0.1890860071990505 0 -0.082949418951291418 -0.18059255319507089 0 -0.090546212791401626 -0.18447481516710501 0 -0.082723399869521541 -0.1890860071990505 0 -0.074903496678709033 -0.18376066401279681 0 -0.082949418951291418 -0.18059255319507089 0 -0.077805966336160215 -0.16741097560039439 0 -0.076321565759411694 -0.17545718095058399 0 -0.083240002152662862 -0.17354850190620019 0 -0.082949418951291418 -0.18059255319507089 0 -0.083240002152662862 -0.17354850190620019 0 -0.089599650441241574 -0.176412880938453 0 -0.076321565759411694 -0.17545718095058399 0 -0.082949418951291418 -0.18059255319507089 0 -0.083240002152662862 -0.17354850190620019 0 -0.089599650441241574 -0.176412880938453 0 -0.087342215003574045 -0.16814050375371031 0 -0.098622444511375612 -0.1731796275264891 0 -0.083240002152662862 -0.17354850190620019 0 -0.089599650441241574 -0.176412880938453 0 -0.087342215003574045 -0.16814050375371031 0 -0.089599650441241574 -0.176412880938453 0 -0.090546212791401626 -0.18447481516710501 0 -0.096236351184511529 -0.1799904162573342 0 -0.082949418951291418 -0.18059255319507089 0 -0.089599650441241574 -0.176412880938453 0 -0.090546212791401626 -0.18447481516710501 0 -0.077805966336160215 -0.16741097560039439 0 -0.080321879216256872 -0.16044594685834601 0 -0.087342215003574045 -0.16814050375371031 0 -0.077805966336160215 -0.16741097560039439 0 -0.083240002152662862 -0.17354850190620019 0 -0.087342215003574045 -0.16814050375371031 0 -0.087342215003574045 -0.16814050375371031 0 -0.094817691473161325 -0.15938509009495819 0 -0.098622444511375612 -0.1731796275264891 0 -0.080321879216256872 -0.16044594685834601 0 -0.087342215003574045 -0.16814050375371031 0 -0.094817691473161325 -0.15938509009495819 0 -0.094817691473161325 -0.15938509009495819 0 -0.10711916815772091 -0.16477115087355829 0 -0.11246458504250351 -0.17680737533307811 0 -0.094817691473161325 -0.15938509009495819 0 -0.10711916815772091 -0.16477115087355829 0 -0.094817691473161325 -0.15938509009495819 0 -0.11246458504250351 -0.17680737533307811 0 -0.094817691473161325 -0.15938509009495819 0 -0.098622444511375612 -0.1731796275264891 0 -0.11246458504250351 -0.17680737533307811 0 -0.094817691473161325 -0.15938509009495819 0 -0.10711916815772091 -0.16477115087355829 0 -0.1065661583809735 -0.15632500838289959 0 -0.10711916815772091 -0.16477115087355829 0 -0.1065661583809735 -0.15632500838289959 0 -0.1098980430969988 -0.16464348803014209 0 -0.090546212791401626 -0.18447481516710501 0 -0.09984142154181859 -0.18699441063616959 0 -0.096236351184511529 -0.1799904162573342 0 -0.09984142154181859 -0.18699441063616959 0 -0.096236351184511529 -0.1799904162573342 0 -0.1034530132529803 -0.18083215422889681 0 -0.089599650441241574 -0.176412880938453 0 -0.096236351184511529 -0.1799904162573342 0 -0.098622444511375612 -0.1731796275264891 0 -0.096236351184511529 -0.1799904162573342 0 -0.098622444511375612 -0.1731796275264891 0 -0.1034530132529803 -0.18083215422889681 0 -0.098622444511375612 -0.1731796275264891 0 -0.1034530132529803 -0.18083215422889681 0 -0.11246458504250351 -0.17680737533307811 0 -0.09984142154181859 -0.18699441063616959 0 -0.1034530132529803 -0.18083215422889681 0 -0.1101002639846923 -0.18718894139141259 0 -0.1034530132529803 -0.18083215422889681 0 -0.1101002639846923 -0.18718894139141259 0 -0.11246458504250351 -0.17680737533307811 0 -0.11246458504250351 -0.17680737533307811 0 -0.12308533304665489 -0.18720508618478421 0 -0.1176882124130768 -0.1668132859675002 0 -0.1101002639846923 -0.18718894139141259 0 -0.11246458504250351 -0.17680737533307811 0 -0.12308533304665489 -0.18720508618478421 0 -0.1065661583809735 -0.15632500838289959 0 -0.1176882124130768 -0.1668132859675002 0 -0.1065661583809735 -0.15632500838289959 0 -0.1167972165880508 -0.1566169194314895 0 -0.1176882124130768 -0.1668132859675002 0 -0.1065661583809735 -0.15632500838289959 0 -0.1098980430969988 -0.16464348803014209 0 -0.1176882124130768 -0.1668132859675002 0 -0.10711916815772091 -0.16477115087355829 0 -0.11246458504250351 -0.17680737533307811 0 -0.1098980430969988 -0.16464348803014209 0 -0.11246458504250351 -0.17680737533307811 0 -0.1098980430969988 -0.16464348803014209 0 -0.1176882124130768 -0.1668132859675002 0 -0.1098980430969988 -0.16464348803014209 0 -0.1176882124130768 -0.1668132859675002 0 -0.1167972165880508 -0.1566169194314895 0 -0.1176882124130768 -0.1668132859675002 0 -0.12510995618198331 -0.15753753810013621 0 -0.1167972165880508 -0.1566169194314895 0 -0.1235683392716786 -0.14960846632435679 0 -0.112980736116664 -0.14897207002985821 0 -0.1167972165880508 -0.1566169194314895 0 -0.1235683392716786 -0.14960846632435679 0 -0.12510995618198331 -0.15753753810013621 0 -0.1235683392716786 -0.14960846632435679 0 -0.112980736116664 -0.14897207002985821 0 -0.1196832825520317 -0.13980560058769331 0 -0.10946190655795419 -0.14220806483977361 0 -0.112980736116664 -0.14897207002985821 0 -0.1196832825520317 -0.13980560058769331 0 -0.1065661583809735 -0.15632500838289959 0 -0.1167972165880508 -0.1566169194314895 0 -0.112980736116664 -0.14897207002985821 0 -0.1065661583809735 -0.15632500838289959 0 -0.112980736116664 -0.14897207002985821 0 -0.1018075133492954 -0.14926836061293611 0 -0.10946190655795419 -0.14220806483977361 0 -0.1018075133492954 -0.14926836061293611 0 -0.1018426749104749 -0.1413546658169213 0 -0.10946190655795419 -0.14220806483977361 0 -0.112980736116664 -0.14897207002985821 0 -0.1018075133492954 -0.14926836061293611 0 -0.1018075133492954 -0.14926836061293611 0 -0.1018426749104749 -0.1413546658169213 0 -0.094290648971662103 -0.14365997276484141 0 -0.1018426749104749 -0.1413546658169213 0 -0.094290648971662103 -0.14365997276484141 0 -0.097014868665502338 -0.13726356026694261 0 -0.1018075133492954 -0.14926836061293611 0 -0.094290648971662103 -0.14365997276484141 0 -0.094627278342608936 -0.14945974756595151 0 -0.094817691473161325 -0.15938509009495819 0 -0.1018075133492954 -0.14926836061293611 0 -0.094627278342608936 -0.14945974756595151 0 -0.094817691473161325 -0.15938509009495819 0 -0.1065661583809735 -0.15632500838289959 0 -0.1018075133492954 -0.14926836061293611 0 -0.095679988813174424 -0.1248627582016288 0 -0.098781060997248843 -0.1309370818880968 0 -0.1038441868150269 -0.12583202922259679 0 -0.095679988813174424 -0.1248627582016288 0 -0.092525277700275965 -0.1312291247647287 0 -0.098781060997248843 -0.1309370818880968 0 -0.092525277700275965 -0.1312291247647287 0 -0.098781060997248843 -0.1309370818880968 0 -0.097014868665502338 -0.13726356026694261 0 -0.1018426749104749 -0.1413546658169213 0 -0.097014868665502338 -0.13726356026694261 0 -0.1047617247304847 -0.13449284036800299 0 -0.098781060997248843 -0.1309370818880968 0 -0.097014868665502338 -0.13726356026694261 0 -0.1047617247304847 -0.13449284036800299 0 -0.10946190655795419 -0.14220806483977361 0 -0.1047617247304847 -0.13449284036800299 0 -0.11347884238861169 -0.12959468075276201 0 -0.10946190655795419 -0.14220806483977361 0 -0.1018426749104749 -0.1413546658169213 0 -0.1047617247304847 -0.13449284036800299 0 -0.1047617247304847 -0.13449284036800299 0 -0.1038441868150269 -0.12583202922259679 0 -0.11347884238861169 -0.12959468075276201 0 -0.098781060997248843 -0.1309370818880968 0 -0.1047617247304847 -0.13449284036800299 0 -0.1038441868150269 -0.12583202922259679 0 -0.10946190655795419 -0.14220806483977361 0 -0.11347884238861169 -0.12959468075276201 0 -0.1196832825520317 -0.13980560058769331 0 -0.11347884238861169 -0.12959468075276201 0 -0.1196832825520317 -0.13980560058769331 0 -0.12554151884180961 -0.12764916924995121 0 -0.1180082975936961 -0.12167537897152481 0 -0.11347884238861169 -0.12959468075276201 0 -0.12554151884180961 -0.12764916924995121 0 -0.12554151884180961 -0.12764916924995121 0 -0.13397579276261981 -0.1393230469244317 0 -0.1397715252346643 -0.1214991847797665 0 -0.13397579276261981 -0.1393230469244317 0 -0.14725076422361849 -0.13702521936307049 0 -0.1397715252346643 -0.1214991847797665 0 -0.1196832825520317 -0.13980560058769331 0 -0.12554151884180961 -0.12764916924995121 0 -0.13397579276261981 -0.1393230469244317 0 -0.14725076422361849 -0.13702521936307049 0 -0.1589285559705054 -0.12667206953298241 0 -0.1397715252346643 -0.1214991847797665 0 -0.14725076422361849 -0.13702521936307049 0 -0.1589285559705054 -0.12667206953298241 0 -0.1589172079460533 -0.14900162777212411 0 -0.14466073920424999 -0.14863016780604771 0 -0.14515084863308039 -0.16130611696558969 0 -0.1589172079460533 -0.14900162777212411 0 -0.14725076422361849 -0.13702521936307049 0 -0.14466073920424999 -0.14863016780604771 0 -0.1589172079460533 -0.14900162777212411 0 -0.13397579276261981 -0.1393230469244317 0 -0.14725076422361849 -0.13702521936307049 0 -0.14466073920424999 -0.14863016780604771 0 -0.14466073920424999 -0.14863016780604771 0 -0.13425617052899699 -0.1532592717365785 0 -0.14515084863308039 -0.16130611696558969 0 -0.13397579276261981 -0.1393230469244317 0 -0.14466073920424999 -0.14863016780604771 0 -0.13425617052899699 -0.1532592717365785 0 -0.1235683392716786 -0.14960846632435679 0 -0.13397579276261981 -0.1393230469244317 0 -0.13425617052899699 -0.1532592717365785 0 -0.1235683392716786 -0.14960846632435679 0 -0.1196832825520317 -0.13980560058769331 0 -0.13397579276261981 -0.1393230469244317 0 -0.1235683392716786 -0.14960846632435679 0 -0.13425617052899699 -0.1532592717365785 0 -0.12510995618198331 -0.15753753810013621 0 -0.1176882124130768 -0.1668132859675002 0 -0.12510995618198331 -0.15753753810013621 0 -0.1330713471203703 -0.16315029429890909 0 -0.1176882124130768 -0.1668132859675002 0 -0.14388781376206 -0.17411066791904031 0 -0.13425617052899699 -0.1532592717365785 0 -0.12510995618198331 -0.15753753810013621 0 -0.1330713471203703 -0.16315029429890909 0 -0.1176882124130768 -0.1668132859675002 0 -0.1330713471203703 -0.16315029429890909 0 -0.14388781376206 -0.17411066791904031 0 -0.13425617052899699 -0.1532592717365785 0 -0.1330713471203703 -0.16315029429890909 0 -0.14515084863308039 -0.16130611696558969 0 -0.1176882124130768 -0.1668132859675002 0 -0.1378876264181178 -0.18586166143121169 0 -0.12308533304665489 -0.18720508618478421 0 -0.1176882124130768 -0.1668132859675002 0 -0.1378876264181178 -0.18586166143121169 0 -0.1176882124130768 -0.1668132859675002 0 -0.1378876264181178 -0.18586166143121169 0 -0.14388781376206 -0.17411066791904031 0 -0.1378876264181178 -0.18586166143121169 0 -0.14388781376206 -0.17411066791904031 0 -0.1552361385465546 -0.18810879793652549 0 -0.14515084863308039 -0.16130611696558969 0 -0.15858676992463239 -0.16559712362584689 0 -0.1589172079460533 -0.14900162777212411 0 -0.1330713471203703 -0.16315029429890909 0 -0.14388781376206 -0.17411066791904031 0 -0.14515084863308039 -0.16130611696558969 0 -0.14388781376206 -0.17411066791904031 0 -0.14515084863308039 -0.16130611696558969 0 -0.15858676992463239 -0.16559712362584689 0 -0.15858676992463239 -0.16559712362584689 0 -0.17468989876146751 -0.160753197606331 0 -0.1589172079460533 -0.14900162777212411 0 -0.15858676992463239 -0.16559712362584689 0 -0.17008741511104281 -0.18140804987058151 0 -0.17468989876146751 -0.160753197606331 0 -0.14388781376206 -0.17411066791904031 0 -0.17008741511104281 -0.18140804987058151 0 -0.14388781376206 -0.17411066791904031 0 -0.17008741511104281 -0.18140804987058151 0 -0.1552361385465546 -0.18810879793652549 0 -0.14388781376206 -0.17411066791904031 0 -0.15858676992463239 -0.16559712362584689 0 -0.17008741511104281 -0.18140804987058151 0 -0.17008741511104281 -0.18140804987058151 0 -0.1962870164600255 -0.18870543182212271 0 -0.17008741511104281 -0.18140804987058151 0 -0.1962870164600255 -0.18870543182212271 0 -0.18770361034852681 -0.17157468634317341 0 -0.17468989876146751 -0.160753197606331 0 -0.19211226995652469 -0.15548625625359061 0 -0.18770361034852681 -0.17157468634317341 0 -0.17008741511104281 -0.18140804987058151 0 -0.17468989876146751 -0.160753197606331 0 -0.18770361034852681 -0.17157468634317341 0 -0.17468989876146751 -0.160753197606331 0 -0.17868322852502569 -0.13870721016858559 0 -0.19211226995652469 -0.15548625625359061 0 -0.17868322852502569 -0.13870721016858559 0 -0.19263508395206819 -0.12727273287962559 0 -0.17659480306421629 -0.1125385186893063 0 -0.17868322852502569 -0.13870721016858559 0 -0.1589285559705054 -0.12667206953298241 0 -0.17659480306421629 -0.1125385186893063 0 -0.17868322852502569 -0.13870721016858559 0 -0.1589285559705054 -0.12667206953298241 0 -0.1589172079460533 -0.14900162777212411 0 -0.17468989876146751 -0.160753197606331 0 -0.17868322852502569 -0.13870721016858559 0 -0.1589172079460533 -0.14900162777212411 0 -0.15346796410309879 -0.2454973833824379 0 -0.14220092495670911 -0.234005164599734 0 -0.15794269577188719 -0.2278331612018403 0 -0.15346796410309879 -0.2454973833824379 0 -0.13841560433952829 -0.24726482034791281 0 -0.14220092495670911 -0.234005164599734 0 -0.13841560433952829 -0.24726482034791281 0 -0.12656728854982019 -0.23898913306644609 0 -0.14220092495670911 -0.234005164599734 0 -0.1206374119890138 -0.24754094674274421 0 -0.1288697670490809 -0.24942989056467491 0 -0.12656728854982019 -0.23898913306644609 0 -0.13841560433952829 -0.24726482034791281 0 -0.1288697670490809 -0.24942989056467491 0 -0.12656728854982019 -0.23898913306644609 0 -0.12817948899913709 -0.22279308622493851 0 -0.14616331504429481 -0.22036602190456581 0 -0.14220092495670911 -0.234005164599734 0 -0.12656728854982019 -0.23898913306644609 0 -0.12817948899913709 -0.22279308622493851 0 -0.14220092495670911 -0.234005164599734 0 -0.14616331504429481 -0.22036602190456581 0 -0.14220092495670911 -0.234005164599734 0 -0.15794269577188719 -0.2278331612018403 0 -0.14092519834013489 -0.21004769328578049 0 -0.13684799152344521 -0.1982759945304344 0 -0.15808704042315991 -0.20491003689492249 0 -0.14616331504429481 -0.22036602190456581 0 -0.15808704042315991 -0.20491003689492249 0 -0.15794269577188719 -0.2278331612018403 0 -0.14616331504429481 -0.22036602190456581 0 -0.14092519834013489 -0.21004769328578049 0 -0.15808704042315991 -0.20491003689492249 0 -0.12817948899913709 -0.22279308622493851 0 -0.14616331504429481 -0.22036602190456581 0 -0.14092519834013489 -0.21004769328578049 0 -0.1249447348442419 -0.20195145197702249 0 -0.1234582632166365 -0.2127905766840163 0 -0.14092519834013489 -0.21004769328578049 0 -0.1234582632166365 -0.2127905766840163 0 -0.12817948899913709 -0.22279308622493851 0 -0.14092519834013489 -0.21004769328578049 0 -0.1249447348442419 -0.20195145197702249 0 -0.14092519834013489 -0.21004769328578049 0 -0.13684799152344521 -0.1982759945304344 0 -0.1249447348442419 -0.20195145197702249 0 -0.12308533304665489 -0.18720508618478421 0 -0.13684799152344521 -0.1982759945304344 0 -0.12308533304665489 -0.18720508618478421 0 -0.1378876264181178 -0.18586166143121169 0 -0.13684799152344521 -0.1982759945304344 0 -0.1378876264181178 -0.18586166143121169 0 -0.13684799152344521 -0.1982759945304344 0 -0.15808704042315991 -0.20491003689492249 0 -0.1378876264181178 -0.18586166143121169 0 -0.15808704042315991 -0.20491003689492249 0 -0.1378876264181178 -0.18586166143121169 0 -0.1552361385465546 -0.18810879793652549 0 -0.15808704042315991 -0.20491003689492249 0 -0.1552361385465546 -0.18810879793652549 0 -0.1678653236526422 -0.19488443113533679 0 -0.15808704042315991 -0.20491003689492249 0 -0.1678653236526422 -0.19488443113533679 0 -0.18412433016625629 -0.20914848573818981 0 -0.15808704042315991 -0.20491003689492249 0 -0.17008741511104281 -0.18140804987058151 0 -0.1552361385465546 -0.18810879793652549 0 -0.1678653236526422 -0.19488443113533679 0 -0.17008741511104281 -0.18140804987058151 0 -0.1796374218605957 -0.1938749015650994 0 -0.1962870164600255 -0.18870543182212271 0 -0.1678653236526422 -0.19488443113533679 0 -0.1796374218605957 -0.1938749015650994 0 -0.18412433016625629 -0.20914848573818981 0 -0.17008741511104281 -0.18140804987058151 0 -0.1678653236526422 -0.19488443113533679 0 -0.1796374218605957 -0.1938749015650994 0 -0.18412433016625629 -0.20914848573818981 0 -0.15808704042315991 -0.20491003689492249 0 -0.17828645442820179 -0.22395841235863331 0 -0.18412433016625629 -0.20914848573818981 0 -0.17828645442820179 -0.22395841235863331 0 -0.19980773410951341 -0.21187714115588491 0 -0.15808704042315991 -0.20491003689492249 0 -0.17828645442820179 -0.22395841235863331 0 -0.15808704042315991 -0.20491003689492249 0 -0.15794269577188719 -0.2278331612018403 0 -0.17828645442820179 -0.22395841235863331 0 -0.15794269577188719 -0.2278331612018403 0 -0.17828645442820179 -0.22395841235863331 0 -0.16860858026473449 -0.23827646196428839 0 -0.17828645442820179 -0.22395841235863331 0 -0.1818472777520645 -0.24220011596527949 0 -0.1977019435332206 -0.23395467038880391 0 -0.17828645442820179 -0.22395841235863331 0 -0.1818472777520645 -0.24220011596527949 0 -0.16860858026473449 -0.23827646196428839 0 -0.16783186375118561 -0.25469217480889389 0 -0.1818472777520645 -0.24220011596527949 0 -0.16860858026473449 -0.23827646196428839 0 -0.16783186375118561 -0.25469217480889389 0 -0.15346796410309879 -0.2454973833824379 0 -0.16860858026473449 -0.23827646196428839 0 -0.15346796410309879 -0.2454973833824379 0 -0.15794269577188719 -0.2278331612018403 0 -0.16860858026473449 -0.23827646196428839 0 -0.20954167890587461 -0.25260800656003901 0 -0.1977019435332206 -0.23395467038880391 0 -0.21892515107028429 -0.2409181453631303 0 -0.1977019435332206 -0.23395467038880391 0 -0.2199780463584311 -0.2298793807466703 0 -0.21892515107028429 -0.2409181453631303 0 -0.1977019435332206 -0.23395467038880391 0 -0.21892515107028429 -0.2409181453631303 0 -0.22311506288638949 -0.25484027484165528 0 -0.20954167890587461 -0.25260800656003901 0 -0.21892515107028429 -0.2409181453631303 0 -0.1953802954998527 -0.25292887446024409 0 -0.20954167890587461 -0.25260800656003901 0 -0.1977019435332206 -0.23395467038880391 0 -0.1953802954998527 -0.25292887446024409 0 -0.1818472777520645 -0.24220011596527949 0 -0.1977019435332206 -0.23395467038880391 0 -0.17828645442820179 -0.22395841235863331 0 -0.1977019435332206 -0.23395467038880391 0 -0.19980773410951341 -0.21187714115588491 0 -0.19980773410951341 -0.21187714115588491 0 -0.2199780463584311 -0.2298793807466703 0 -0.1977019435332206 -0.23395467038880391 0 -0.19980773410951341 -0.21187714115588491 0 -0.2199780463584311 -0.2298793807466703 0 -0.2184136492534951 -0.21001300110367649 0 -0.19980773410951341 -0.21187714115588491 0 -0.2199780463584311 -0.2298793807466703 0 -0.2184136492534951 -0.21001300110367649 0 -0.19980773410951341 -0.21187714115588491 0 -0.20893945820463941 -0.1987482997187752 0 -0.1796374218605957 -0.1938749015650994 0 -0.18412433016625629 -0.20914848573818981 0 -0.19980773410951341 -0.21187714115588491 0 -0.19980773410951341 -0.21187714115588491 0 -0.1962870164600255 -0.18870543182212271 0 -0.20893945820463941 -0.1987482997187752 0 -0.1796374218605957 -0.1938749015650994 0 -0.19980773410951341 -0.21187714115588491 0 -0.1796374218605957 -0.1938749015650994 0 -0.19980773410951341 -0.21187714115588491 0 -0.1962870164600255 -0.18870543182212271 0 -0.1962870164600255 -0.18870543182212271 0 -0.20893945820463941 -0.1987482997187752 0 -0.20948704206891411 -0.18645302162385641 0 -0.2184136492534951 -0.21001300110367649 0 -0.20893945820463941 -0.1987482997187752 0 -0.22066708115827399 -0.19298491606030579 0 -0.20893945820463941 -0.1987482997187752 0 -0.22066708115827399 -0.19298491606030579 0 -0.20948704206891411 -0.18645302162385641 0 -0.22066708115827399 -0.19298491606030579 0 -0.23360193916061339 -0.20486400468421481 0 -0.23498312013478581 -0.18267155675086669 0 -0.2184136492534951 -0.21001300110367649 0 -0.22066708115827399 -0.19298491606030579 0 -0.23360193916061339 -0.20486400468421481 0 -0.24558916237281661 -0.19647797946370191 0 -0.23498312013478581 -0.18267155675086669 0 -0.25398084399247728 -0.18550096804705579 0 -0.24558916237281661 -0.19647797946370191 0 -0.23360193916061339 -0.20486400468421481 0 -0.23498312013478581 -0.18267155675086669 0 -0.24903815087271819 -0.20980198510371079 0 -0.23880623052551 -0.21786024212466479 0 -0.24796523233855711 -0.22801179113098649 0 -0.24903815087271819 -0.20980198510371079 0 -0.23880623052551 -0.21786024212466479 0 -0.23360193916061339 -0.20486400468421481 0 -0.24558916237281661 -0.19647797946370191 0 -0.24903815087271819 -0.20980198510371079 0 -0.23360193916061339 -0.20486400468421481 0 -0.23880623052551 -0.21786024212466479 0 -0.23360193916061339 -0.20486400468421481 0 -0.2281226693708083 -0.2192467209581494 0 -0.2184136492534951 -0.21001300110367649 0 -0.23360193916061339 -0.20486400468421481 0 -0.2281226693708083 -0.2192467209581494 0 -0.2184136492534951 -0.21001300110367649 0 -0.2199780463584311 -0.2298793807466703 0 -0.2281226693708083 -0.2192467209581494 0 -0.2199780463584311 -0.2298793807466703 0 -0.2281226693708083 -0.2192467209581494 0 -0.23479648240476539 -0.22877759206246279 0 -0.23880623052551 -0.21786024212466479 0 -0.2281226693708083 -0.2192467209581494 0 -0.23479648240476539 -0.22877759206246279 0 -0.23880623052551 -0.21786024212466479 0 -0.24796523233855711 -0.22801179113098649 0 -0.23479648240476539 -0.22877759206246279 0 -0.24796523233855711 -0.22801179113098649 0 -0.23479648240476539 -0.22877759206246279 0 -0.2401483586073484 -0.24788162033745609 0 -0.24796523233855711 -0.22801179113098649 0 -0.2401483586073484 -0.24788162033745609 0 -0.25889125550673731 -0.2370825085690528 0 -0.2401483586073484 -0.24788162033745609 0 -0.21892515107028429 -0.2409181453631303 0 -0.2199780463584311 -0.2298793807466703 0 -0.2401483586073484 -0.24788162033745609 0 -0.21892515107028429 -0.2409181453631303 0 -0.2199780463584311 -0.2298793807466703 0 -0.23479648240476539 -0.22877759206246279 0 -0.2401483586073484 -0.24788162033745609 0 -0.22311506288638949 -0.25484027484165528 0 -0.2401483586073484 -0.24788162033745609 0 -0.21892515107028429 -0.2409181453631303 0 -0.2199780463584311 -0.2298793807466703 0 -0.2401483586073484 -0.24788162033745609 0 -0.20851090948470399 -0.15154125275459371 0 -0.20803457937036771 -0.13287639966569659 0 -0.22285127452046 -0.14310205449146479 0 -0.20851090948470399 -0.15154125275459371 0 -0.2246248004201197 -0.1661653965950099 0 -0.22285127452046 -0.14310205449146479 0 -0.20851090948470399 -0.15154125275459371 0 -0.20803457937036771 -0.13287639966569659 0 -0.19613084636586861 -0.1405035639075512 0 -0.20803457937036771 -0.13287639966569659 0 -0.22285127452046 -0.14310205449146479 0 -0.2205033303237578 -0.12585055429113509 0 -0.17868322852502569 -0.13870721016858559 0 -0.19613084636586861 -0.1405035639075512 0 -0.19263508395206819 -0.12727273287962559 0 -0.20803457937036771 -0.13287639966569659 0 -0.19613084636586861 -0.1405035639075512 0 -0.19263508395206819 -0.12727273287962559 0 -0.17868322852502569 -0.13870721016858559 0 -0.19613084636586861 -0.1405035639075512 0 -0.19211226995652469 -0.15548625625359061 0 -0.20851090948470399 -0.15154125275459371 0 -0.19613084636586861 -0.1405035639075512 0 -0.19211226995652469 -0.15548625625359061 0 -0.20851090948470399 -0.15154125275459371 0 -0.19211226995652469 -0.15548625625359061 0 -0.20498574125270569 -0.17104406706530981 0 -0.19211226995652469 -0.15548625625359061 0 -0.18770361034852681 -0.17157468634317341 0 -0.20498574125270569 -0.17104406706530981 0 -0.1962870164600255 -0.18870543182212271 0 -0.18770361034852681 -0.17157468634317341 0 -0.20498574125270569 -0.17104406706530981 0 -0.21809874666504989 -0.1792437729313954 0 -0.20498574125270569 -0.17104406706530981 0 -0.2246248004201197 -0.1661653965950099 0 -0.1962870164600255 -0.18870543182212271 0 -0.20948704206891411 -0.18645302162385641 0 -0.20498574125270569 -0.17104406706530981 0 -0.20948704206891411 -0.18645302162385641 0 -0.21809874666504989 -0.1792437729313954 0 -0.20498574125270569 -0.17104406706530981 0 -0.22066708115827399 -0.19298491606030579 0 -0.20948704206891411 -0.18645302162385641 0 -0.21809874666504989 -0.1792437729313954 0 -0.20851090948470399 -0.15154125275459371 0 -0.20498574125270569 -0.17104406706530981 0 -0.2246248004201197 -0.1661653965950099 0 -0.2246248004201197 -0.1661653965950099 0 -0.23498312013478581 -0.18267155675086669 0 -0.23853954499121041 -0.1659979292527107 0 -0.2246248004201197 -0.1661653965950099 0 -0.23853954499121041 -0.1659979292527107 0 -0.23777425357905349 -0.15063733106700941 0 -0.21809874666504989 -0.1792437729313954 0 -0.2246248004201197 -0.1661653965950099 0 -0.23498312013478581 -0.18267155675086669 0 -0.22066708115827399 -0.19298491606030579 0 -0.21809874666504989 -0.1792437729313954 0 -0.23498312013478581 -0.18267155675086669 0 -0.23498312013478581 -0.18267155675086669 0 -0.24777736424178451 -0.17360814126043181 0 -0.25398084399247728 -0.18550096804705579 0 -0.23498312013478581 -0.18267155675086669 0 -0.24777736424178451 -0.17360814126043181 0 -0.23853954499121041 -0.1659979292527107 0 -0.23853954499121041 -0.1659979292527107 0 -0.23777425357905349 -0.15063733106700941 0 -0.25008459541694028 -0.15997912546696291 0 -0.24777736424178451 -0.17360814126043181 0 -0.23853954499121041 -0.1659979292527107 0 -0.25008459541694028 -0.15997912546696291 0 -0.23777425357905349 -0.15063733106700941 0 -0.25008459541694028 -0.15997912546696291 0 -0.2534284378823593 -0.13778824075457749 0 -0.2246248004201197 -0.1661653965950099 0 -0.23777425357905349 -0.15063733106700941 0 -0.22285127452046 -0.14310205449146479 0 -0.23777425357905349 -0.15063733106700941 0 -0.22285127452046 -0.14310205449146479 0 -0.23600169940802529 -0.13179026958102719 0 -0.22285127452046 -0.14310205449146479 0 -0.2205033303237578 -0.12585055429113509 0 -0.23600169940802529 -0.13179026958102719 0 -0.23777425357905349 -0.15063733106700941 0 -0.23600169940802529 -0.13179026958102719 0 -0.2534284378823593 -0.13778824075457749 0 -0.23600169940802529 -0.13179026958102719 0 -0.24259522288516391 -0.1160633818290983 0 -0.2534284378823593 -0.13778824075457749 0 -0.24259522288516391 -0.1160633818290983 0 -0.2534284378823593 -0.13778824075457749 0 -0.24259522288516391 -0.1160633818290983 0 -0.25448076350745041 -0.1163370521449871 0 -0.25017921809447152 -0.10694600216602899 0 -0.24259522288516391 -0.1160633818290983 0 -0.2317620078879685 -0.094338522903618965 0 -0.24259522288516391 -0.1160633818290983 0 -0.2446998387088084 -0.097628786904241607 0 -0.25017921809447152 -0.10694600216602899 0 -0.24259522288516391 -0.1160633818290983 0 -0.2446998387088084 -0.097628786904241607 0 -0.2317620078879685 -0.094338522903618965 0 -0.2446998387088084 -0.097628786904241607 0 -0.25017921809447152 -0.10694600216602899 0 -0.25280053461179369 -0.097114712358828931 0 -0.2446998387088084 -0.097628786904241607 0 -0.24981698947287109 -0.087618785451733627 0 -0.25280053461179369 -0.097114712358828931 0 -0.2317620078879685 -0.094338522903618965 0 -0.224016148812962 -0.11055467251260211 0 -0.21203059821789871 -0.089319075444177054 0 -0.24259522288516391 -0.1160633818290983 0 -0.2317620078879685 -0.094338522903618965 0 -0.224016148812962 -0.11055467251260211 0 -0.23600169940802529 -0.13179026958102719 0 -0.24259522288516391 -0.1160633818290983 0 -0.224016148812962 -0.11055467251260211 0 -0.2205033303237578 -0.12585055429113509 0 -0.23600169940802529 -0.13179026958102719 0 -0.224016148812962 -0.11055467251260211 0 -0.23600169940802529 -0.13179026958102719 0 -0.224016148812962 -0.11055467251260211 0 -0.23756906745419601 -0.064920410947201315 0 -0.24647672175563981 -0.070865428272562689 0 -0.24104505930058159 -0.083691316716140982 0 -0.23756906745419601 -0.064920410947201315 0 -0.24647672175563981 -0.070865428272562689 0 -0.24738317470025689 -0.061297447514744821 0 -0.24647672175563981 -0.070865428272562689 0 -0.24738317470025689 -0.061297447514744821 0 -0.25416352061093822 -0.067690893157952015 0 -0.24647672175563981 -0.070865428272562689 0 -0.24104505930058159 -0.083691316716140982 0 -0.2525527445343636 -0.07717384830629026 0 -0.24104505930058159 -0.083691316716140982 0 -0.24981698947287109 -0.087618785451733627 0 -0.2525527445343636 -0.07717384830629026 0 -0.2446998387088084 -0.097628786904241607 0 -0.24104505930058159 -0.083691316716140982 0 -0.24981698947287109 -0.087618785451733627 0 -0.2446998387088084 -0.097628786904241607 0 -0.2317620078879685 -0.094338522903618965 0 -0.24104505930058159 -0.083691316716140982 0 -0.2317620078879685 -0.094338522903618965 0 -0.22092879289077311 -0.07261366397813955 0 -0.2317620078879685 -0.094338522903618965 0 -0.22092879289077311 -0.07261366397813955 0 -0.21203059821789871 -0.089319075444177054 0 -0.2317620078879685 -0.094338522903618965 0 -0.24104505930058159 -0.083691316716140982 0 -0.22092879289077311 -0.07261366397813955 0 -0.24104505930058159 -0.083691316716140982 0 -0.22146253662060211 -0.06243932358116501 0 -0.24104505930058159 -0.083691316716140982 0 -0.22092879289077311 -0.07261366397813955 0 -0.22146253662060211 -0.06243932358116501 0 -0.23756906745419601 -0.064920410947201315 0 -0.24104505930058159 -0.083691316716140982 0 -0.22146253662060211 -0.06243932358116501 0 -0.22092879289077311 -0.07261366397813955 0 -0.21203059821789871 -0.089319075444177054 0 -0.2000450476228354 -0.068083478375752071 0 -0.22092879289077311 -0.07261366397813955 0 -0.2000450476228354 -0.068083478375752071 0 -0.20532068269575329 -0.059632486491388852 0 -0.21203059821789871 -0.089319075444177054 0 -0.2000450476228354 -0.068083478375752071 0 -0.21203059821789871 -0.089319075444177054 0 -0.18976627108320909 -0.088072729042458914 0 -0.2000450476228354 -0.068083478375752071 0 -0.18976627108320909 -0.088072729042458914 0 -0.2000450476228354 -0.068083478375752071 0 -0.18113460271294241 -0.067507654563434299 0 -0.2205033303237578 -0.12585055429113509 0 -0.224016148812962 -0.11055467251260211 0 -0.20365419173065949 -0.1121239848321644 0 -0.20803457937036771 -0.13287639966569659 0 -0.2205033303237578 -0.12585055429113509 0 -0.20365419173065949 -0.1121239848321644 0 -0.224016148812962 -0.11055467251260211 0 -0.21203059821789871 -0.089319075444177054 0 -0.20365419173065949 -0.1121239848321644 0 -0.224016148812962 -0.11055467251260211 0 -0.21203059821789871 -0.089319075444177054 0 -0.21203059821789871 -0.089319075444177054 0 -0.18976627108320909 -0.088072729042458914 0 -0.20365419173065949 -0.1121239848321644 0 -0.18976627108320909 -0.088072729042458914 0 -0.20365419173065949 -0.1121239848321644 0 -0.17659480306421629 -0.1125385186893063 0 -0.19263508395206819 -0.12727273287962559 0 -0.20365419173065949 -0.1121239848321644 0 -0.17659480306421629 -0.1125385186893063 0 -0.20803457937036771 -0.13287639966569659 0 -0.19263508395206819 -0.12727273287962559 0 -0.20365419173065949 -0.1121239848321644 0 -0.17659480306421629 -0.1125385186893063 0 -0.16855288202773319 -0.081013513424670003 0 -0.15129588206666009 -0.1021250040831297 0 -0.18976627108320909 -0.088072729042458914 0 -0.17659480306421629 -0.1125385186893063 0 -0.16855288202773319 -0.081013513424670003 0 -0.1589285559705054 -0.12667206953298241 0 -0.17659480306421629 -0.1125385186893063 0 -0.15129588206666009 -0.1021250040831297 0 -0.17659480306421629 -0.1125385186893063 0 -0.15129588206666009 -0.1021250040831297 0 -0.18976627108320909 -0.088072729042458914 0 -0.18113460271294241 -0.067507654563434299 0 -0.16855288202773319 -0.081013513424670003 0 -0.16855288202773319 -0.081013513424670003 0 -0.1484954991325903 -0.083231992963117923 0 -0.16288388211608651 -0.057159206821891753 0 -0.18113460271294241 -0.067507654563434299 0 -0.16855288202773319 -0.081013513424670003 0 -0.16288388211608651 -0.057159206821891753 0 -0.1484954991325903 -0.083231992963117923 0 -0.1297469080322998 -0.086875939383199791 0 -0.15129588206666009 -0.1021250040831297 0 -0.16855288202773319 -0.081013513424670003 0 -0.1484954991325903 -0.083231992963117923 0 -0.15129588206666009 -0.1021250040831297 0 -0.1484954991325903 -0.083231992963117923 0 -0.13770826720440121 -0.067470532336457278 0 -0.16288388211608651 -0.057159206821891753 0 -0.11253265229271681 -0.077781857851025205 0 -0.13770826720440121 -0.067470532336457278 0 -0.1297469080322998 -0.086875939383199791 0 -0.11253265229271681 -0.077781857851025205 0 -0.13770826720440121 -0.067470532336457278 0 -0.1297469080322998 -0.086875939383199791 0 -0.1259969610691038 -0.091711489476953068 0 -0.15129588206666009 -0.1021250040831297 0 -0.1484954991325903 -0.083231992963117923 0 -0.13770826720440121 -0.067470532336457278 0 -0.1297469080322998 -0.086875939383199791 0 -0.1259969610691038 -0.091711489476953068 0 -0.15129588206666009 -0.1021250040831297 0 -0.1259969610691038 -0.091711489476953068 0 -0.13637993376407101 -0.1054748800441299 0 -0.15129588206666009 -0.1021250040831297 0 -0.1259969610691038 -0.091711489476953068 0 -0.1261970561378295 -0.1001749939599331 0 -0.13637993376407101 -0.1054748800441299 0 -0.13637993376407101 -0.1054748800441299 0 -0.12573623839760259 -0.1057777850674905 0 -0.12531190319144311 -0.1150702994765193 0 -0.1261970561378295 -0.1001749939599331 0 -0.13637993376407101 -0.1054748800441299 0 -0.12573623839760259 -0.1057777850674905 0 -0.13637993376407101 -0.1054748800441299 0 -0.12531190319144311 -0.1150702994765193 0 -0.1397715252346643 -0.1214991847797665 0 -0.12554151884180961 -0.12764916924995121 0 -0.12531190319144311 -0.1150702994765193 0 -0.1397715252346643 -0.1214991847797665 0 -0.1589285559705054 -0.12667206953298241 0 -0.1397715252346643 -0.1214991847797665 0 -0.15129588206666009 -0.1021250040831297 0 -0.13637993376407101 -0.1054748800441299 0 -0.1397715252346643 -0.1214991847797665 0 -0.15129588206666009 -0.1021250040831297 0 -0.15422669740446879 -0.023839112453168498 0 -0.13992394752662521 -0.019172317748712489 0 -0.14178122663499279 -0.035888015702032948 0 -0.15422669740446879 -0.023839112453168498 0 -0.15271470662049741 -0.0095049592561810056 0 -0.13992394752662521 -0.019172317748712489 0 -0.15271470662049741 -0.0095049592561810056 0 -0.13951035854237309 -0.003771269238144566 0 -0.15418827881318489 0.0031911046980804551 0 -0.15271470662049741 -0.0095049592561810056 0 -0.13951035854237309 -0.003771269238144566 0 -0.13992394752662521 -0.019172317748712489 0 -0.13951035854237309 -0.003771269238144566 0 -0.12663994540340251 -0.011591863091793461 0 -0.12333940972355011 0.0061911796357587787 0 -0.13951035854237309 -0.003771269238144566 0 -0.12663994540340251 -0.011591863091793461 0 -0.13992394752662521 -0.019172317748712489 0 -0.12267695647093491 -0.030269102549975859 0 -0.13992394752662521 -0.019172317748712489 0 -0.14178122663499279 -0.035888015702032948 0 -0.12267695647093491 -0.030269102549975859 0 -0.12663994540340251 -0.011591863091793461 0 -0.13992394752662521 -0.019172317748712489 0 -0.12267695647093491 -0.030269102549975859 0 -0.13063428894667981 -0.049606957765919592 0 -0.14178122663499279 -0.035888015702032948 0 -0.13063428894667981 -0.049606957765919592 0 -0.14597154682774771 -0.049991991920505248 0 -0.14178122663499279 -0.035888015702032948 0 -0.13770826720440121 -0.067470532336457278 0 -0.13063428894667981 -0.049606957765919592 0 -0.14597154682774771 -0.049991991920505248 0 -0.1206513656981477 -0.062004608611923938 0 -0.13770826720440121 -0.067470532336457278 0 -0.13063428894667981 -0.049606957765919592 0 -0.14597154682774771 -0.049991991920505248 0 -0.15685006923657799 -0.039835246976224703 0 -0.16288388211608651 -0.057159206821891753 0 -0.13770826720440121 -0.067470532336457278 0 -0.16288388211608651 -0.057159206821891753 0 -0.13770826720440121 -0.067470532336457278 0 -0.14597154682774771 -0.049991991920505248 0 -0.16288388211608651 -0.057159206821891753 0 -0.15422669740446879 -0.023839112453168498 0 -0.14178122663499279 -0.035888015702032948 0 -0.15685006923657799 -0.039835246976224703 0 -0.14597154682774771 -0.049991991920505248 0 -0.14178122663499279 -0.035888015702032948 0 -0.15685006923657799 -0.039835246976224703 0 -0.15685006923657799 -0.039835246976224703 0 -0.17304985035121559 -0.042615728964245578 0 -0.16683373700019211 -0.027218057886309429 0 -0.15685006923657799 -0.039835246976224703 0 -0.16288388211608651 -0.057159206821891753 0 -0.17304985035121559 -0.042615728964245578 0 -0.16288388211608651 -0.057159206821891753 0 -0.17304985035121559 -0.042615728964245578 0 -0.18805949702777219 -0.046847881307327081 0 -0.18113460271294241 -0.067507654563434299 0 -0.16288388211608651 -0.057159206821891753 0 -0.18805949702777219 -0.046847881307327081 0 -0.16288388211608651 -0.057159206821891753 0 -0.18805949702777219 -0.046847881307327081 0 -0.17762768014929109 -0.03397228323029558 0 -0.17304985035121559 -0.042615728964245578 0 -0.18243761800544209 -0.040538859668193102 0 -0.17762768014929109 -0.03397228323029558 0 -0.17304985035121559 -0.042615728964245578 0 -0.16683373700019211 -0.027218057886309429 0 -0.17304985035121559 -0.042615728964245578 0 -0.187067630652863 -0.045090525688473451 0 -0.18805949702777219 -0.046847881307327081 0 -0.17304985035121559 -0.042615728964245578 0 -0.18243761800544209 -0.040538859668193102 0 -0.187067630652863 -0.045090525688473451 0 -0.18243761800544209 -0.040538859668193102 0 -0.18620707012108939 -0.041172131482050081 0 -0.18658881563631149 -0.037707175591847733 0 -0.18243761800544209 -0.040538859668193102 0 -0.187067630652863 -0.045090525688473451 0 -0.18620707012108939 -0.041172131482050081 0 -0.187067630652863 -0.045090525688473451 0 -0.18620707012108939 -0.041172131482050081 0 -0.18873421618974109 -0.041351964979686032 0 -0.18620707012108939 -0.041172131482050081 0 -0.18658881563631149 -0.037707175591847733 0 -0.18873421618974109 -0.041351964979686032 0 -0.18243761800544209 -0.040538859668193102 0 -0.18362243205931511 -0.035248148584618021 0 -0.18658881563631149 -0.037707175591847733 0 -0.18362243205931511 -0.035248148584618021 0 -0.18658881563631149 -0.037707175591847733 0 -0.18765210954605291 -0.032694634011561988 0 -0.17762768014929109 -0.03397228323029558 0 -0.18243761800544209 -0.040538859668193102 0 -0.18362243205931511 -0.035248148584618021 0 -0.17762768014929109 -0.03397228323029558 0 -0.18362243205931511 -0.035248148584618021 0 -0.18375293436900039 -0.030936331966626578 0 -0.18362243205931511 -0.035248148584618021 0 -0.18375293436900039 -0.030936331966626578 0 -0.18765210954605291 -0.032694634011561988 0 -0.18375293436900039 -0.030936331966626578 0 -0.17993693379836179 -0.026164460899116119 0 -0.1900339679158049 -0.028331372462112901 0 -0.18375293436900039 -0.030936331966626578 0 -0.1900339679158049 -0.028331372462112901 0 -0.18765210954605291 -0.032694634011561988 0 -0.17762768014929109 -0.03397228323029558 0 -0.18375293436900039 -0.030936331966626578 0 -0.17993693379836179 -0.026164460899116119 0 -0.17818792189098709 -0.015475414478036759 0 -0.18964306329938879 -0.02132831315496099 0 -0.1900339679158049 -0.028331372462112901 0 -0.17818792189098709 -0.015475414478036759 0 -0.1900339679158049 -0.028331372462112901 0 -0.17993693379836179 -0.026164460899116119 0 -0.17818792189098709 -0.015475414478036759 0 -0.1900339679158049 -0.028331372462112901 0 -0.17818792189098709 -0.015475414478036759 0 -0.18949681973245031 -0.01633808188886457 0 -0.18964306329938879 -0.02132831315496099 0 -0.17993693379836179 -0.026164460899116119 0 -0.16683373700019211 -0.027218057886309429 0 -0.17818792189098709 -0.015475414478036759 0 -0.16683373700019211 -0.027218057886309429 0 -0.17818792189098709 -0.015475414478036759 0 -0.17762768014929109 -0.03397228323029558 0 -0.17993693379836179 -0.026164460899116119 0 -0.16683373700019211 -0.027218057886309429 0 -0.15422669740446879 -0.023839112453168498 0 -0.15685006923657799 -0.039835246976224703 0 -0.16683373700019211 -0.027218057886309429 0 -0.16683373700019211 -0.027218057886309429 0 -0.16528066400791269 -0.01460689591905597 0 -0.17818792189098709 -0.015475414478036759 0 -0.15422669740446879 -0.023839112453168498 0 -0.15271470662049741 -0.0095049592561810056 0 -0.16528066400791269 -0.01460689591905597 0 -0.15422669740446879 -0.023839112453168498 0 -0.16683373700019211 -0.027218057886309429 0 -0.16528066400791269 -0.01460689591905597 0 -0.15271470662049741 -0.0095049592561810056 0 -0.16306537930264739 -0.004956473469638574 0 -0.15418827881318489 0.0031911046980804551 0 -0.15271470662049741 -0.0095049592561810056 0 -0.16306537930264739 -0.004956473469638574 0 -0.16528066400791269 -0.01460689591905597 0 -0.16528066400791269 -0.01460689591905597 0 -0.1697595385142607 -0.0077047478668585238 0 -0.1750962278648239 -0.012120144000722659 0 -0.16306537930264739 -0.004956473469638574 0 -0.16528066400791269 -0.01460689591905597 0 -0.1697595385142607 -0.0077047478668585238 0 -0.16306537930264739 -0.004956473469638574 0 -0.1697852684253211 -0.0020214300530346659 0 -0.16583183213526409 0.0037077952859764771 0 -0.1697595385142607 -0.0077047478668585238 0 -0.1697852684253211 -0.0020214300530346659 0 -0.17544937606470309 -0.0044735151234277159 0 -0.16306537930264739 -0.004956473469638574 0 -0.1697595385142607 -0.0077047478668585238 0 -0.1697852684253211 -0.0020214300530346659 0 -0.1697852684253211 -0.0020214300530346659 0 -0.17544937606470309 -0.0044735151234277159 0 -0.17482021610973039 0.0033197909087750088 0 -0.17544937606470309 -0.0044735151234277159 0 -0.17793187613996811 -0.0090794641897100105 0 -0.18299397873935819 -0.0042487831566529102 0 -0.17544937606470309 -0.0044735151234277159 0 -0.17905463857798479 -0.00034341548230351751 0 -0.18299397873935819 -0.0042487831566529102 0 -0.17544937606470309 -0.0044735151234277159 0 -0.17905463857798479 -0.00034341548230351751 0 -0.17482021610973039 0.0033197909087750088 0 -0.16528066400791269 -0.01460689591905597 0 -0.1750962278648239 -0.012120144000722659 0 -0.17818792189098709 -0.015475414478036759 0 -0.1697595385142607 -0.0077047478668585238 0 -0.17544937606470309 -0.0044735151234277159 0 -0.1750962278648239 -0.012120144000722659 0 -0.17544937606470309 -0.0044735151234277159 0 -0.1750962278648239 -0.012120144000722659 0 -0.17793187613996811 -0.0090794641897100105 0 -0.1750962278648239 -0.012120144000722659 0 -0.17793187613996811 -0.0090794641897100105 0 -0.17818792189098709 -0.015475414478036759 0 -0.1750962278648239 -0.012120144000722659 0 -0.17818792189098709 -0.015475414478036759 0 -0.17818792189098709 -0.015475414478036759 0 -0.18822976167332209 -0.010556561353138341 0 -0.1932573724190047 0.0001096042275012081 0 -0.17818792189098709 -0.015475414478036759 0 -0.18822976167332209 -0.010556561353138341 0 -0.18949681973245031 -0.01633808188886457 0 -0.17793187613996811 -0.0090794641897100105 0 -0.17818792189098709 -0.015475414478036759 0 -0.18299397873935819 -0.0042487831566529102 0 -0.17818792189098709 -0.015475414478036759 0 -0.1932573724190047 0.0001096042275012081 0 -0.17818792189098709 -0.015475414478036759 0 -0.18299397873935819 -0.0042487831566529102 0 -0.1932573724190047 0.0001096042275012081 0 -0.18299397873935819 -0.0042487831566529102 0 -0.18276157163681811 0.0037831987323030261 0 -0.1932573724190047 0.0001096042275012081 0 -0.17905463857798479 -0.00034341548230351751 0 -0.18299397873935819 -0.0042487831566529102 0 -0.18276157163681811 0.0037831987323030261 0 -0.19197693265084639 -0.010522353273153271 0 -0.18822976167332209 -0.010556561353138341 0 -0.1932573724190047 0.0001096042275012081 0 -0.19729045371005921 -0.0090005099914065596 0 -0.19197693265084639 -0.010522353273153271 0 -0.1932573724190047 0.0001096042275012081 0 -0.19729045371005921 -0.0090005099914065596 0 -0.2054589689683386 -0.0010856236147789901 0 -0.2056220956167964 -0.008885053838046806 0 -0.19729045371005921 -0.0090005099914065596 0 -0.2054589689683386 -0.0010856236147789901 0 -0.1932573724190047 0.0001096042275012081 0 -0.19729045371005921 -0.0090005099914065596 0 -0.20536168290830081 -0.015675673499664131 0 -0.2056220956167964 -0.008885053838046806 0 -0.19729045371005921 -0.0090005099914065596 0 -0.1955860632675672 -0.014108704720967121 0 -0.20536168290830081 -0.015675673499664131 0 -0.1955860632675672 -0.014108704720967121 0 -0.19197693265084639 -0.010522353273153271 0 -0.18949681973245031 -0.01633808188886457 0 -0.19729045371005921 -0.0090005099914065596 0 -0.1955860632675672 -0.014108704720967121 0 -0.19197693265084639 -0.010522353273153271 0 -0.19197693265084639 -0.010522353273153271 0 -0.18822976167332209 -0.010556561353138341 0 -0.18949681973245031 -0.01633808188886457 0 -0.18964306329938879 -0.02132831315496099 0 -0.1946628030608962 -0.027204154705604128 0 -0.1958338038968058 -0.019292542240186589 0 -0.18949681973245031 -0.01633808188886457 0 -0.18964306329938879 -0.02132831315496099 0 -0.1958338038968058 -0.019292542240186589 0 -0.1955860632675672 -0.014108704720967121 0 -0.18949681973245031 -0.01633808188886457 0 -0.1958338038968058 -0.019292542240186589 0 -0.1900339679158049 -0.028331372462112901 0 -0.1946628030608962 -0.027204154705604128 0 -0.19964029140009501 -0.031847011424910393 0 -0.18964306329938879 -0.02132831315496099 0 -0.1900339679158049 -0.028331372462112901 0 -0.1946628030608962 -0.027204154705604128 0 -0.1946628030608962 -0.027204154705604128 0 -0.2092475295977903 -0.029450249854080408 0 -0.19964029140009501 -0.031847011424910393 0 -0.1946628030608962 -0.027204154705604128 0 -0.1958338038968058 -0.019292542240186589 0 -0.20536168290830081 -0.015675673499664131 0 -0.1955860632675672 -0.014108704720967121 0 -0.1958338038968058 -0.019292542240186589 0 -0.20536168290830081 -0.015675673499664131 0 -0.1946628030608962 -0.027204154705604128 0 -0.2092475295977903 -0.029450249854080408 0 -0.22048682438131201 -0.019988677594990741 0 -0.1946628030608962 -0.027204154705604128 0 -0.20536168290830081 -0.015675673499664131 0 -0.22048682438131201 -0.019988677594990741 0 -0.1946628030608962 -0.027204154705604128 0 -0.22048682438131201 -0.019988677594990741 0 -0.20536168290830081 -0.015675673499664131 0 -0.2143772768804873 -0.009778408246337536 0 -0.22048682438131201 -0.019988677594990741 0 -0.2143772768804873 -0.009778408246337536 0 -0.2054589689683386 -0.0010856236147789901 0 -0.21730051697206129 0.00049915192769001766 0 -0.2143772768804873 -0.009778408246337536 0 -0.2054589689683386 -0.0010856236147789901 0 -0.2056220956167964 -0.008885053838046806 0 -0.20536168290830081 -0.015675673499664131 0 -0.2143772768804873 -0.009778408246337536 0 -0.2056220956167964 -0.008885053838046806 0 -0.2000450476228354 -0.068083478375752071 0 -0.18805949702777219 -0.046847881307327081 0 -0.2000450476228354 -0.068083478375752071 0 -0.20032056924205949 -0.053075829987324921 0 -0.18805949702777219 -0.046847881307327081 0 -0.2000450476228354 -0.068083478375752071 0 -0.18113460271294241 -0.067507654563434299 0 -0.18805949702777219 -0.046847881307327081 0 -0.2000450476228354 -0.068083478375752071 0 -0.20032056924205949 -0.053075829987324921 0 -0.20532068269575329 -0.059632486491388852 0 -0.20032056924205949 -0.053075829987324921 0 -0.20188001394062241 -0.041187330446189371 0 -0.18805949702777219 -0.046847881307327081 0 -0.20188001394062241 -0.041187330446189371 0 -0.19319450302594879 -0.040776597524052167 0 -0.19153435032539529 -0.036399041886523237 0 -0.20188001394062241 -0.041187330446189371 0 -0.18805949702777219 -0.046847881307327081 0 -0.20188001394062241 -0.041187330446189371 0 -0.18805949702777219 -0.046847881307327081 0 -0.19319450302594879 -0.040776597524052167 0 -0.18805949702777219 -0.046847881307327081 0 -0.18873421618974109 -0.041351964979686032 0 -0.19319450302594879 -0.040776597524052167 0 -0.187067630652863 -0.045090525688473451 0 -0.18805949702777219 -0.046847881307327081 0 -0.18873421618974109 -0.041351964979686032 0 -0.187067630652863 -0.045090525688473451 0 -0.18805949702777219 -0.046847881307327081 0 -0.18873421618974109 -0.041351964979686032 0 -0.19319450302594879 -0.040776597524052167 0 -0.19153435032539529 -0.036399041886523237 0 -0.1900339679158049 -0.028331372462112901 0 -0.20188001394062241 -0.041187330446189371 0 -0.19153435032539529 -0.036399041886523237 0 -0.1900339679158049 -0.028331372462112901 0 -0.19153435032539529 -0.036399041886523237 0 -0.18765210954605291 -0.032694634011561988 0 -0.18658881563631149 -0.037707175591847733 0 -0.18873421618974109 -0.041351964979686032 0 -0.19153435032539529 -0.036399041886523237 0 -0.18658881563631149 -0.037707175591847733 0 -0.19153435032539529 -0.036399041886523237 0 -0.18765210954605291 -0.032694634011561988 0 -0.1900339679158049 -0.028331372462112901 0 -0.20188001394062241 -0.041187330446189371 0 -0.1900339679158049 -0.028331372462112901 0 -0.20188001394062241 -0.041187330446189371 0 -0.19964029140009501 -0.031847011424910393 0 -0.2092475295977903 -0.029450249854080408 0 -0.20188001394062241 -0.041187330446189371 0 -0.22909078806979549 -0.03004245273283674 0 -0.20188001394062241 -0.041187330446189371 0 -0.2243285090686272 -0.041226981500611271 0 -0.22909078806979549 -0.03004245273283674 0 -0.20188001394062241 -0.041187330446189371 0 -0.22909078806979549 -0.03004245273283674 0 -0.20188001394062241 -0.041187330446189371 0 -0.21672358209531881 -0.047157908947388603 0 -0.2243285090686272 -0.041226981500611271 0 -0.2092475295977903 -0.029450249854080408 0 -0.20188001394062241 -0.041187330446189371 0 -0.19964029140009501 -0.031847011424910393 0 -0.20188001394062241 -0.041187330446189371 0 -0.21048702136236641 -0.05052811179641821 0 -0.21672358209531881 -0.047157908947388603 0 -0.20188001394062241 -0.041187330446189371 0 -0.21048702136236641 -0.05052811179641821 0 -0.22092879289077311 -0.07261366397813955 0 -0.21048702136236641 -0.05052811179641821 0 -0.22146253662060211 -0.06243932358116501 0 -0.22092879289077311 -0.07261366397813955 0 -0.21048702136236641 -0.05052811179641821 0 -0.22092879289077311 -0.07261366397813955 0 -0.21048702136236641 -0.05052811179641821 0 -0.20532068269575329 -0.059632486491388852 0 -0.20032056924205949 -0.053075829987324921 0 -0.21048702136236641 -0.05052811179641821 0 -0.20532068269575329 -0.059632486491388852 0 -0.20032056924205949 -0.053075829987324921 0 -0.20188001394062241 -0.041187330446189371 0 -0.21048702136236641 -0.05052811179641821 0 -0.21048702136236641 -0.05052811179641821 0 -0.21672358209531881 -0.047157908947388603 0 -0.22146253662060211 -0.06243932358116501 0 -0.21048702136236641 -0.05052811179641821 0 -0.22146253662060211 -0.06243932358116501 0 -0.23756906745419601 -0.064920410947201315 0 -0.23099548123994021 -0.0566464184711769 0 -0.22146253662060211 -0.06243932358116501 0 -0.23099548123994021 -0.0566464184711769 0 -0.22146253662060211 -0.06243932358116501 0 -0.2252422877045272 -0.051091950418200471 0 -0.21672358209531881 -0.047157908947388603 0 -0.22146253662060211 -0.06243932358116501 0 -0.2252422877045272 -0.051091950418200471 0 -0.23099548123994021 -0.0566464184711769 0 -0.2252422877045272 -0.051091950418200471 0 -0.23270132949814781 -0.047989119590660587 0 -0.2252422877045272 -0.051091950418200471 0 -0.23270132949814781 -0.047989119590660587 0 -0.2243285090686272 -0.041226981500611271 0 -0.23270132949814781 -0.047989119590660587 0 -0.2243285090686272 -0.041226981500611271 0 -0.23489602449188049 -0.037517219581190517 0 -0.21672358209531881 -0.047157908947388603 0 -0.2252422877045272 -0.051091950418200471 0 -0.2243285090686272 -0.041226981500611271 0 -0.2243285090686272 -0.041226981500611271 0 -0.23489602449188049 -0.037517219581190517 0 -0.22909078806979549 -0.03004245273283674 0 -0.23489602449188049 -0.037517219581190517 0 -0.2476769693068587 -0.040863407463960263 0 -0.23993583262821089 -0.025875887197533531 0 -0.23270132949814781 -0.047989119590660587 0 -0.23489602449188049 -0.037517219581190517 0 -0.2476769693068587 -0.040863407463960263 0 -0.23099548123994021 -0.0566464184711769 0 -0.23270132949814781 -0.047989119590660587 0 -0.2410860573753312 -0.053909140781314743 0 -0.23270132949814781 -0.047989119590660587 0 -0.2476769693068587 -0.040863407463960263 0 -0.2410860573753312 -0.053909140781314743 0 -0.2476769693068587 -0.040863407463960263 0 -0.2410860573753312 -0.053909140781314743 0 -0.25052027987472442 -0.052184815979660452 0 -0.2410860573753312 -0.053909140781314743 0 -0.24738317470025689 -0.061297447514744821 0 -0.25052027987472442 -0.052184815979660452 0 -0.23756906745419601 -0.064920410947201315 0 -0.23099548123994021 -0.0566464184711769 0 -0.2410860573753312 -0.053909140781314743 0 -0.23756906745419601 -0.064920410947201315 0 -0.2410860573753312 -0.053909140781314743 0 -0.24738317470025689 -0.061297447514744821 0 -0.2143772768804873 -0.009778408246337536 0 -0.23117628256096459 -0.0062870967849217281 0 -0.21730051697206129 0.00049915192769001766 0 -0.2143772768804873 -0.009778408246337536 0 -0.23117628256096459 -0.0062870967849217281 0 -0.22048682438131201 -0.019988677594990741 0 -0.23117628256096459 -0.0062870967849217281 0 -0.22048682438131201 -0.019988677594990741 0 -0.24631084570172779 -0.012773200484377349 0 -0.2092475295977903 -0.029450249854080408 0 -0.22048682438131201 -0.019988677594990741 0 -0.22909078806979549 -0.03004245273283674 0 -0.22048682438131201 -0.019988677594990741 0 -0.22909078806979549 -0.03004245273283674 0 -0.23993583262821089 -0.025875887197533531 0 -0.22048682438131201 -0.019988677594990741 0 -0.24631084570172779 -0.012773200484377349 0 -0.23993583262821089 -0.025875887197533531 0 -0.24631084570172779 -0.012773200484377349 0 -0.25804161100988149 -0.023866308801484541 0 -0.2476769693068587 -0.040863407463960263 0 -0.23993583262821089 -0.025875887197533531 0 -0.25804161100988149 -0.023866308801484541 0 -0.22048682438131201 -0.019988677594990741 0 -0.23993583262821089 -0.025875887197533531 0 -0.24631084570172779 -0.012773200484377349 0 -0.23489602449188049 -0.037517219581190517 0 -0.22909078806979549 -0.03004245273283674 0 -0.23993583262821089 -0.025875887197533531 0 -0.23117628256096459 -0.0062870967849217281 0 -0.24631084570172779 -0.012773200484377349 0 -0.25297652059449782 0.001886630878395203 0 -0.24631084570172779 -0.012773200484377349 0 -0.27213486702214351 -0.0055577233737640168 0 -0.24631084570172779 -0.012773200484377349 0 -0.27213486702214351 -0.0055577233737640168 0 -0.25297652059449782 0.001886630878395203 0 -0.24631084570172779 -0.012773200484377349 0 -0.25804161100988149 -0.023866308801484541 0 -0.27213486702214351 -0.0055577233737640168 0 -0.25804161100988149 -0.023866308801484541 0 -0.27533982752070812 -0.023144333529836129 0 -0.27213486702214351 -0.0055577233737640168 0 -0.25804161100988149 -0.023866308801484541 0 -0.27533982752070812 -0.023144333529836129 0 -0.2664432948837836 -0.03687952297031255 0 -0.27533982752070812 -0.023144333529836129 0 -0.27213486702214351 -0.0055577233737640168 0 -0.29467278944859882 -0.014645877710286781 0 -0.27213486702214351 -0.0055577233737640168 0 -0.29467278944859882 -0.014645877710286781 0 -0.28955342758803898 0.01071723915139774 0 -0.29467278944859882 -0.014645877710286781 0 -0.30719106935187412 -0.032624655729901253 0 -0.28655968289597711 -0.036477322491251282 0 -0.27533982752070812 -0.023144333529836129 0 -0.29467278944859882 -0.014645877710286781 0 -0.28655968289597711 -0.036477322491251282 0 -0.29467278944859882 -0.014645877710286781 0 -0.30719106935187412 -0.032624655729901253 0 -0.31633995620591931 -0.018146765071417648 0 -0.29467278944859882 -0.014645877710286781 0 -0.31633995620591931 -0.018146765071417648 0 -0.31718547691204613 0.00098802130721883756 0 -0.29467278944859882 -0.014645877710286781 0 -0.28955342758803898 0.01071723915139774 0 -0.31718547691204613 0.00098802130721883756 0 -0.30719106935187412 -0.032624655729901253 0 -0.28655968289597711 -0.036477322491251282 0 -0.30057140953506278 -0.055912162299811247 0 -0.30719106935187412 -0.032624655729901253 0 -0.28655968289597711 -0.036477322491251282 0 -0.30057140953506278 -0.055912162299811247 0 -0.30719106935187412 -0.032624655729901253 0 -0.32281636372229078 -0.047776047833797033 0 -0.28655968289597711 -0.036477322491251282 0 -0.28451405678248581 -0.053686723327505417 0 -0.27279575795465127 -0.048640543761931533 0 -0.30057140953506278 -0.055912162299811247 0 -0.28655968289597711 -0.036477322491251282 0 -0.28451405678248581 -0.053686723327505417 0 -0.30057140953506278 -0.055912162299811247 0 -0.28451405678248581 -0.053686723327505417 0 -0.28423062932231868 -0.072534686913188984 0 -0.28451405678248581 -0.053686723327505417 0 -0.2739707469665642 -0.061152225597081028 0 -0.28423062932231868 -0.072534686913188984 0 -0.28451405678248581 -0.053686723327505417 0 -0.2739707469665642 -0.061152225597081028 0 -0.27279575795465127 -0.048640543761931533 0 -0.27279575795465127 -0.048640543761931533 0 -0.26566049680300491 -0.056330174358570143 0 -0.25986097433034988 -0.048510544327807673 0 -0.2739707469665642 -0.061152225597081028 0 -0.27279575795465127 -0.048640543761931533 0 -0.26566049680300491 -0.056330174358570143 0 -0.2739707469665642 -0.061152225597081028 0 -0.26566049680300491 -0.056330174358570143 0 -0.26447328107853318 -0.064593461098188476 0 -0.28655968289597711 -0.036477322491251282 0 -0.27279575795465127 -0.048640543761931533 0 -0.2664432948837836 -0.03687952297031255 0 -0.27533982752070812 -0.023144333529836129 0 -0.28655968289597711 -0.036477322491251282 0 -0.2664432948837836 -0.03687952297031255 0 -0.27279575795465127 -0.048640543761931533 0 -0.2664432948837836 -0.03687952297031255 0 -0.25986097433034988 -0.048510544327807673 0 -0.2476769693068587 -0.040863407463960263 0 -0.2664432948837836 -0.03687952297031255 0 -0.25986097433034988 -0.048510544327807673 0 -0.2476769693068587 -0.040863407463960263 0 -0.25804161100988149 -0.023866308801484541 0 -0.2664432948837836 -0.03687952297031255 0 -0.26566049680300491 -0.056330174358570143 0 -0.25727623719264631 -0.058562630525428053 0 -0.26447328107853318 -0.064593461098188476 0 -0.26566049680300491 -0.056330174358570143 0 -0.25986097433034988 -0.048510544327807673 0 -0.25727623719264631 -0.058562630525428053 0 -0.25986097433034988 -0.048510544327807673 0 -0.25052027987472442 -0.052184815979660452 0 -0.25727623719264631 -0.058562630525428053 0 -0.2476769693068587 -0.040863407463960263 0 -0.25986097433034988 -0.048510544327807673 0 -0.25052027987472442 -0.052184815979660452 0 -0.24738317470025689 -0.061297447514744821 0 -0.25052027987472442 -0.052184815979660452 0 -0.25727623719264631 -0.058562630525428053 0 -0.24738317470025689 -0.061297447514744821 0 -0.25727623719264631 -0.058562630525428053 0 -0.25416352061093822 -0.067690893157952015 0 -0.25416352061093822 -0.067690893157952015 0 -0.26447328107853318 -0.064593461098188476 0 -0.26139200303496202 -0.072102724739072172 0 -0.26447328107853318 -0.064593461098188476 0 -0.26139200303496202 -0.072102724739072172 0 -0.27054701204371517 -0.06987784609348012 0 -0.25727623719264631 -0.058562630525428053 0 -0.25416352061093822 -0.067690893157952015 0 -0.26447328107853318 -0.064593461098188476 0 -0.26139200303496202 -0.072102724739072172 0 -0.26083851822441412 -0.081219989933518519 0 -0.26892454005638572 -0.07617249270444558 0 -0.26139200303496202 -0.072102724739072172 0 -0.2525527445343636 -0.07717384830629026 0 -0.26083851822441412 -0.081219989933518519 0 -0.25416352061093822 -0.067690893157952015 0 -0.26139200303496202 -0.072102724739072172 0 -0.2525527445343636 -0.07717384830629026 0 -0.24647672175563981 -0.070865428272562689 0 -0.25416352061093822 -0.067690893157952015 0 -0.2525527445343636 -0.07717384830629026 0 -0.24981698947287109 -0.087618785451733627 0 -0.2525527445343636 -0.07717384830629026 0 -0.26083851822441412 -0.081219989933518519 0 -0.24981698947287109 -0.087618785451733627 0 -0.26083851822441412 -0.081219989933518519 0 -0.25280053461179369 -0.097114712358828931 0 -0.26083851822441412 -0.081219989933518519 0 -0.26761453765651821 -0.085127215842968049 0 -0.26892454005638572 -0.07617249270444558 0 -0.26083851822441412 -0.081219989933518519 0 -0.26761453765651821 -0.085127215842968049 0 -0.26945203623114661 -0.1084916891555987 0 -0.26761453765651821 -0.085127215842968049 0 -0.27657380513782398 -0.096177106093565376 0 -0.28886502297119371 -0.092994742451823403 0 -0.26761453765651821 -0.085127215842968049 0 -0.26892454005638572 -0.07617249270444558 0 -0.28423062932231868 -0.072534686913188984 0 -0.27054701204371517 -0.06987784609348012 0 -0.26892454005638572 -0.07617249270444558 0 -0.28423062932231868 -0.072534686913188984 0 -0.2739707469665642 -0.061152225597081028 0 -0.27054701204371517 -0.06987784609348012 0 -0.28423062932231868 -0.072534686913188984 0 -0.2739707469665642 -0.061152225597081028 0 -0.26447328107853318 -0.064593461098188476 0 -0.27054701204371517 -0.06987784609348012 0 -0.26139200303496202 -0.072102724739072172 0 -0.27054701204371517 -0.06987784609348012 0 -0.26892454005638572 -0.07617249270444558 0 -0.25448076350745041 -0.1163370521449871 0 -0.26945203623114661 -0.1084916891555987 0 -0.26627315887266417 -0.12605022026133331 0 -0.25448076350745041 -0.1163370521449871 0 -0.26627315887266417 -0.12605022026133331 0 -0.25419439578690939 -0.1240597237474991 0 -0.25448076350745041 -0.1163370521449871 0 -0.26627315887266417 -0.12605022026133331 0 -0.24259522288516391 -0.1160633818290983 0 -0.25419439578690939 -0.1240597237474991 0 -0.25448076350745041 -0.1163370521449871 0 -0.25448076350745041 -0.1163370521449871 0 -0.25874945028638491 -0.1052017616020841 0 -0.25017921809447152 -0.10694600216602899 0 -0.25448076350745041 -0.1163370521449871 0 -0.25874945028638491 -0.1052017616020841 0 -0.26945203623114661 -0.1084916891555987 0 -0.26083851822441412 -0.081219989933518519 0 -0.26945203623114661 -0.1084916891555987 0 -0.26083851822441412 -0.081219989933518519 0 -0.25874945028638491 -0.1052017616020841 0 -0.26945203623114661 -0.1084916891555987 0 -0.26083851822441412 -0.081219989933518519 0 -0.25874945028638491 -0.1052017616020841 0 -0.25280053461179369 -0.097114712358828931 0 -0.25874945028638491 -0.1052017616020841 0 -0.25017921809447152 -0.10694600216602899 0 -0.25280053461179369 -0.097114712358828931 0 -0.27657380513782398 -0.096177106093565376 0 -0.26945203623114661 -0.1084916891555987 0 -0.28724243469814209 -0.10558714815811231 0 -0.26761453765651821 -0.085127215842968049 0 -0.27657380513782398 -0.096177106093565376 0 -0.26945203623114661 -0.1084916891555987 0 -0.26945203623114661 -0.1084916891555987 0 -0.28666431646467572 -0.1202917555800465 0 -0.28724243469814209 -0.10558714815811231 0 -0.26945203623114661 -0.1084916891555987 0 -0.27806555423787838 -0.13576338837767921 0 -0.26945203623114661 -0.1084916891555987 0 -0.28666431646467572 -0.1202917555800465 0 -0.27806555423787838 -0.13576338837767921 0 -0.26945203623114661 -0.1084916891555987 0 -0.26627315887266417 -0.12605022026133331 0 -0.27806555423787838 -0.13576338837767921 0 -0.29666118840673072 -0.1245832356479377 0 -0.28666431646467572 -0.1202917555800465 0 -0.29836465479419683 -0.116020652427151 0 -0.28666431646467572 -0.1202917555800465 0 -0.28724243469814209 -0.10558714815811231 0 -0.29836465479419683 -0.116020652427151 0 -0.27657380513782398 -0.096177106093565376 0 -0.28724243469814209 -0.10558714815811231 0 -0.28886502297119371 -0.092994742451823403 0 -0.28724243469814209 -0.10558714815811231 0 -0.29977327066170339 -0.096512830838272695 0 -0.28886502297119371 -0.092994742451823403 0 -0.29977327066170339 -0.096512830838272695 0 -0.31247412832000421 -0.1086888136510946 0 -0.31226352117675632 -0.090604248020653866 0 -0.28724243469814209 -0.10558714815811231 0 -0.31247412832000421 -0.1086888136510946 0 -0.28724243469814209 -0.10558714815811231 0 -0.29977327066170339 -0.096512830838272695 0 -0.31247412832000421 -0.1086888136510946 0 -0.28724243469814209 -0.10558714815811231 0 -0.31247412832000421 -0.1086888136510946 0 -0.29836465479419683 -0.116020652427151 0 -0.31247412832000421 -0.1086888136510946 0 -0.29836465479419683 -0.116020652427151 0 -0.30943206117001432 -0.11748980133738279 0 -0.29666118840673072 -0.1245832356479377 0 -0.29836465479419683 -0.116020652427151 0 -0.30463191227272618 -0.12262491486386599 0 -0.29836465479419683 -0.116020652427151 0 -0.30943206117001432 -0.11748980133738279 0 -0.30463191227272618 -0.12262491486386599 0 -0.30057140953506278 -0.055912162299811247 0 -0.28423062932231868 -0.072534686913188984 0 -0.29607039382268208 -0.079444742679993643 0 -0.26761453765651821 -0.085127215842968049 0 -0.29607039382268208 -0.079444742679993643 0 -0.28886502297119371 -0.092994742451823403 0 -0.26761453765651821 -0.085127215842968049 0 -0.28423062932231868 -0.072534686913188984 0 -0.29607039382268208 -0.079444742679993643 0 -0.29977327066170339 -0.096512830838272695 0 -0.29607039382268208 -0.079444742679993643 0 -0.28886502297119371 -0.092994742451823403 0 -0.26761453765651821 -0.085127215842968049 0 -0.29607039382268208 -0.079444742679993643 0 -0.29977327066170339 -0.096512830838272695 0 -0.29607039382268208 -0.079444742679993643 0 -0.31226352117675632 -0.090604248020653866 0 -0.29607039382268208 -0.079444742679993643 0 -0.31226352117675632 -0.090604248020653866 0 -0.32452624998884583 -0.07376226951701928 0 -0.29607039382268208 -0.079444742679993643 0 -0.32452624998884583 -0.07376226951701928 0 -0.30057140953506278 -0.055912162299811247 0 -0.29607039382268208 -0.079444742679993643 0 -0.32452624998884583 -0.07376226951701928 0 -0.31226352117675632 -0.090604248020653866 0 -0.32452624998884583 -0.07376226951701928 0 -0.32847356309054621 -0.094612583416889051 0 -0.32452624998884583 -0.07376226951701928 0 -0.34085083098099078 -0.083554233476194867 0 -0.32847356309054621 -0.094612583416889051 0 -0.34085083098099078 -0.083554233476194867 0 -0.32847356309054621 -0.094612583416889051 0 -0.34341673685987362 -0.095380758124231774 0 -0.32452624998884583 -0.07376226951701928 0 -0.34085083098099078 -0.083554233476194867 0 -0.35298210615500991 -0.068079796354044986 0 -0.32452624998884583 -0.07376226951701928 0 -0.35298210615500991 -0.068079796354044986 0 -0.32452624998884583 -0.07376226951701928 0 -0.35298210615500991 -0.068079796354044986 0 -0.33744882760403289 -0.056797153001651307 0 -0.31247412832000421 -0.1086888136510946 0 -0.33770582194186638 -0.1117904791440769 0 -0.31247412832000421 -0.1086888136510946 0 -0.31789086802895722 -0.113698902543945 0 -0.33770582194186638 -0.1117904791440769 0 -0.3262712898567256 -0.11868087869514141 0 -0.31789086802895722 -0.113698902543945 0 -0.33770582194186638 -0.1117904791440769 0 -0.31789086802895722 -0.113698902543945 0 -0.31036258713323028 -0.13493191658294321 0 -0.30943206117001432 -0.11748980133738279 0 -0.31789086802895722 -0.113698902543945 0 -0.31036258713323028 -0.13493191658294321 0 -0.31789086802895722 -0.113698902543945 0 -0.31036258713323028 -0.13493191658294321 0 -0.32022531112609087 -0.12531135898068271 0 -0.3262712898567256 -0.11868087869514141 0 -0.31789086802895722 -0.113698902543945 0 -0.32022531112609087 -0.12531135898068271 0 -0.3262712898567256 -0.11868087869514141 0 -0.32926315832998809 -0.1239227741118608 0 -0.32022531112609087 -0.12531135898068271 0 -0.31247412832000421 -0.1086888136510946 0 -0.30943206117001432 -0.11748980133738279 0 -0.31789086802895722 -0.113698902543945 0 -0.31247412832000421 -0.1086888136510946 0 -0.32847356309054621 -0.094612583416889051 0 -0.33770582194186638 -0.1117904791440769 0 -0.31247412832000421 -0.1086888136510946 0 -0.31226352117675632 -0.090604248020653866 0 -0.32847356309054621 -0.094612583416889051 0 -0.32847356309054621 -0.094612583416889051 0 -0.34341673685987362 -0.095380758124231774 0 -0.33770582194186638 -0.1117904791440769 0 -0.33770582194186638 -0.1117904791440769 0 -0.32926315832998809 -0.1239227741118608 0 -0.34790234846918627 -0.12521674409909919 0 -0.3262712898567256 -0.11868087869514141 0 -0.33770582194186638 -0.1117904791440769 0 -0.32926315832998809 -0.1239227741118608 0 -0.33770582194186638 -0.1117904791440769 0 -0.3629375155637285 -0.1148921446370593 0 -0.34790234846918627 -0.12521674409909919 0 -0.33770582194186638 -0.1117904791440769 0 -0.3629375155637285 -0.1148921446370593 0 -0.33770582194186638 -0.1117904791440769 0 -0.3567288914663454 -0.1037917235835336 0 -0.3629375155637285 -0.1148921446370593 0 -0.37067300385311669 -0.1213455297714067 0 -0.34790234846918627 -0.12521674409909919 0 -0.3567288914663454 -0.1037917235835336 0 -0.36634853666931633 -0.094462816129831942 0 -0.35485549881067829 -0.085935759968789216 0 -0.34341673685987362 -0.095380758124231774 0 -0.33770582194186638 -0.1117904791440769 0 -0.3567288914663454 -0.1037917235835336 0 -0.34341673685987362 -0.095380758124231774 0 -0.3567288914663454 -0.1037917235835336 0 -0.35485549881067829 -0.085935759968789216 0 -0.3567288914663454 -0.1037917235835336 0 -0.35485549881067829 -0.085935759968789216 0 -0.3567288914663454 -0.1037917235835336 0 -0.37456999750816078 -0.1050445773152916 0 -0.3629375155637285 -0.1148921446370593 0 -0.3567288914663454 -0.1037917235835336 0 -0.36634853666931633 -0.094462816129831942 0 -0.37456999750816078 -0.1050445773152916 0 -0.36634853666931633 -0.094462816129831942 0 -0.37456999750816078 -0.1050445773152916 0 -0.37846699116320343 -0.088743624859176112 0 -0.37456999750816078 -0.1050445773152916 0 -0.37067300385311669 -0.1213455297714067 0 -0.37067300385311669 -0.1213455297714067 0 -0.3629375155637285 -0.1148921446370593 0 -0.34790234846918627 -0.12521674409909919 0 -0.37456999750816078 -0.1050445773152916 0 -0.37067300385311669 -0.1213455297714067 0 -0.3629375155637285 -0.1148921446370593 0 -0.35298210615500991 -0.068079796354044986 0 -0.35485549881067829 -0.085935759968789216 0 -0.35298210615500991 -0.068079796354044986 0 -0.35485549881067829 -0.085935759968789216 0 -0.36879928889637492 -0.076529036854359273 0 -0.34085083098099078 -0.083554233476194867 0 -0.35298210615500991 -0.068079796354044986 0 -0.35485549881067829 -0.085935759968789216 0 -0.34085083098099078 -0.083554233476194867 0 -0.34341673685987362 -0.095380758124231774 0 -0.35485549881067829 -0.085935759968789216 0 -0.36634853666931633 -0.094462816129831942 0 -0.36879928889637492 -0.076529036854359273 0 -0.37846699116320343 -0.088743624859176112 0 -0.36634853666931633 -0.094462816129831942 0 -0.35485549881067829 -0.085935759968789216 0 -0.36879928889637492 -0.076529036854359273 0 -0.35298210615500991 -0.068079796354044986 0 -0.37942215516748479 -0.062799868452252591 0 -0.35298210615500991 -0.068079796354044986 0 -0.36879928889637492 -0.076529036854359273 0 -0.37942215516748479 -0.062799868452252591 0 -0.35298210615500991 -0.068079796354044986 0 -0.36871718545481741 -0.04783498968793308 0 -0.37942215516748479 -0.062799868452252591 0 -0.35298210615500991 -0.068079796354044986 0 -0.35071797420933898 -0.04649955928062309 0 -0.35298210615500991 -0.068079796354044986 0 -0.35071797420933898 -0.04649955928062309 0 -0.33744882760403289 -0.056797153001651307 0 -0.35298210615500991 -0.068079796354044986 0 -0.36871718545481741 -0.04783498968793308 0 -0.35071797420933898 -0.04649955928062309 0 -0.35071797420933898 -0.04649955928062309 0 -0.34845384226366788 -0.024919322207201128 0 -0.33928954670148159 -0.037927510715312591 0 -0.35071797420933898 -0.04649955928062309 0 -0.34845384226366788 -0.024919322207201128 0 -0.35071797420933898 -0.04649955928062309 0 -0.36205139995488972 -0.034401599781735903 0 -0.34845384226366788 -0.024919322207201128 0 -0.36871718545481741 -0.04783498968793308 0 -0.35071797420933898 -0.04649955928062309 0 -0.36205139995488972 -0.034401599781735903 0 -0.36871718545481741 -0.04783498968793308 0 -0.36205139995488972 -0.034401599781735903 0 -0.37404039716282678 -0.034315173118312871 0 -0.37131051382082891 -0.020651109841948411 0 -0.34845384226366788 -0.024919322207201128 0 -0.36205139995488972 -0.034401599781735903 0 -0.37131051382082891 -0.020651109841948411 0 -0.34845384226366788 -0.024919322207201128 0 -0.36205139995488972 -0.034401599781735903 0 -0.37404039716282678 -0.034315173118312871 0 -0.37131051382082891 -0.020651109841948411 0 -0.37131051382082891 -0.020651109841948411 0 -0.36759221201957082 -0.0067866350721588206 0 -0.35667456843434991 -0.015754811637489201 0 -0.35667456843434991 -0.015754811637489201 0 -0.34816857836587672 -0.022200371770338911 0 -0.34238884446580847 -0.002899306882469992 0 -0.36759221201957082 -0.0067866350721588206 0 -0.34238884446580847 -0.002899306882469992 0 -0.35457892559290949 0.0068399040172769203 0 -0.36759221201957082 -0.0067866350721588206 0 -0.34238884446580847 -0.002899306882469992 0 -0.36759221201957082 -0.0067866350721588206 0 -0.35667456843434991 -0.015754811637489201 0 -0.34238884446580847 -0.002899306882469992 0 -0.37131051382082891 -0.020651109841948411 0 -0.35667456843434991 -0.015754811637489201 0 -0.34845384226366788 -0.024919322207201128 0 -0.35667456843434991 -0.015754811637489201 0 -0.34816857836587672 -0.022200371770338911 0 -0.34845384226366788 -0.024919322207201128 0 -0.34816857836587672 -0.022200371770338911 0 -0.34845384226366788 -0.024919322207201128 0 -0.33482798950930631 -0.015679324255567811 0 -0.34816857836587672 -0.022200371770338911 0 -0.34845384226366788 -0.024919322207201128 0 -0.34845384226366788 -0.024919322207201128 0 -0.32782245580777097 -0.028771988968551231 0 -0.33928954670148159 -0.037927510715312591 0 -0.34845384226366788 -0.024919322207201128 0 -0.32782245580777097 -0.028771988968551231 0 -0.34845384226366788 -0.024919322207201128 0 -0.33482798950930631 -0.015679324255567811 0 -0.32782245580777097 -0.028771988968551231 0 -0.34238884446580847 -0.002899306882469992 0 -0.31718547691204613 0.00098802130721883756 0 -0.33482798950930631 -0.015679324255567811 0 -0.34238884446580847 -0.002899306882469992 0 -0.31718547691204613 0.00098802130721883756 0 -0.34816857836587672 -0.022200371770338911 0 -0.33482798950930631 -0.015679324255567811 0 -0.34238884446580847 -0.002899306882469992 0 -0.33482798950930631 -0.015679324255567811 0 -0.31633995620591931 -0.018146765071417648 0 -0.31718547691204613 0.00098802130721883756 0 -0.33482798950930631 -0.015679324255567811 0 -0.31633995620591931 -0.018146765071417648 0 -0.32782245580777097 -0.028771988968551231 0 -0.30719106935187412 -0.032624655729901253 0 -0.32782245580777097 -0.028771988968551231 0 -0.30719106935187412 -0.032624655729901253 0 -0.31633995620591931 -0.018146765071417648 0 -0.32782245580777097 -0.028771988968551231 0 -0.30719106935187412 -0.032624655729901253 0 -0.32782245580777097 -0.028771988968551231 0 -0.32281636372229078 -0.047776047833797033 0 -0.30057140953506278 -0.055912162299811247 0 -0.32452624998884583 -0.07376226951701928 0 -0.32281636372229078 -0.047776047833797033 0 -0.32281636372229078 -0.047776047833797033 0 -0.33744882760403289 -0.056797153001651307 0 -0.33928954670148159 -0.037927510715312591 0 -0.35071797420933898 -0.04649955928062309 0 -0.33744882760403289 -0.056797153001651307 0 -0.33928954670148159 -0.037927510715312591 0 -0.32452624998884583 -0.07376226951701928 0 -0.32281636372229078 -0.047776047833797033 0 -0.33744882760403289 -0.056797153001651307 0 -0.32782245580777097 -0.028771988968551231 0 -0.32281636372229078 -0.047776047833797033 0 -0.33928954670148159 -0.037927510715312591 0 -0.296948063810199 -0.2432409236042366 0 -0.3056946904908569 -0.2267352945727763 0 -0.31598713604409601 -0.23890923099090611 0 -0.31002315199531089 -0.25570020651770081 0 -0.296948063810199 -0.2432409236042366 0 -0.31598713604409601 -0.23890923099090611 0 -0.296948063810199 -0.2432409236042366 0 -0.3056946904908569 -0.2267352945727763 0 -0.29366004669426499 -0.23073552464932179 0 -0.3056946904908569 -0.2267352945727763 0 -0.29005369644273749 -0.21745429927400509 0 -0.30475869934280952 -0.21569750253696399 0 -0.3056946904908569 -0.2267352945727763 0 -0.30475869934280952 -0.21569750253696399 0 -0.31548815511549838 -0.21743110901875851 0 -0.29366004669426499 -0.23073552464932179 0 -0.28194373603326672 -0.23551158114626899 0 -0.29005369644273749 -0.21745429927400509 0 -0.28194373603326672 -0.23551158114626899 0 -0.29005369644273749 -0.21745429927400509 0 -0.3056946904908569 -0.2267352945727763 0 -0.29366004669426499 -0.23073552464932179 0 -0.29005369644273749 -0.21745429927400509 0 -0.28194373603326672 -0.23551158114626899 0 -0.27570102800053758 -0.2162324152774534 0 -0.29005369644273749 -0.21745429927400509 0 -0.296948063810199 -0.2432409236042366 0 -0.28194373603326672 -0.23551158114626899 0 -0.28113285450429992 -0.2485518844273871 0 -0.296948063810199 -0.2432409236042366 0 -0.29366004669426499 -0.23073552464932179 0 -0.28194373603326672 -0.23551158114626899 0 -0.28194373603326672 -0.23551158114626899 0 -0.27122498682176699 -0.24138418791233121 0 -0.26972257928420962 -0.2295624160980646 0 -0.28194373603326672 -0.23551158114626899 0 -0.28113285450429992 -0.2485518844273871 0 -0.27122498682176699 -0.24138418791233121 0 -0.27122498682176699 -0.24138418791233121 0 -0.25889125550673731 -0.2370825085690528 0 -0.26972257928420962 -0.2295624160980646 0 -0.26556528910471161 -0.25622108359405871 0 -0.28113285450429992 -0.2485518844273871 0 -0.27122498682176699 -0.24138418791233121 0 -0.26556528910471161 -0.25622108359405871 0 -0.27122498682176699 -0.24138418791233121 0 -0.25889125550673731 -0.2370825085690528 0 -0.26556528910471161 -0.25622108359405871 0 -0.2401483586073484 -0.24788162033745609 0 -0.25889125550673731 -0.2370825085690528 0 -0.24796523233855711 -0.22801179113098649 0 -0.25889125550673731 -0.2370825085690528 0 -0.26085189005873932 -0.2176013875852166 0 -0.25889125550673731 -0.2370825085690528 0 -0.26972257928420962 -0.2295624160980646 0 -0.26085189005873932 -0.2176013875852166 0 -0.28194373603326672 -0.23551158114626899 0 -0.26972257928420962 -0.2295624160980646 0 -0.27570102800053758 -0.2162324152774534 0 -0.26972257928420962 -0.2295624160980646 0 -0.27570102800053758 -0.2162324152774534 0 -0.26085189005873932 -0.2176013875852166 0 -0.27570102800053758 -0.2162324152774534 0 -0.27131191216848982 -0.2030485758327758 0 -0.28533418122222681 -0.20552286575750561 0 -0.27570102800053758 -0.2162324152774534 0 -0.26085189005873932 -0.2176013875852166 0 -0.27131191216848982 -0.2030485758327758 0 -0.24903815087271819 -0.20980198510371079 0 -0.24796523233855711 -0.22801179113098649 0 -0.26085189005873932 -0.2176013875852166 0 -0.24903815087271819 -0.20980198510371079 0 -0.26085189005873932 -0.2176013875852166 0 -0.25746568723671009 -0.199291322269781 0 -0.26085189005873932 -0.2176013875852166 0 -0.25746568723671009 -0.199291322269781 0 -0.27131191216848982 -0.2030485758327758 0 -0.24558916237281661 -0.19647797946370191 0 -0.25746568723671009 -0.199291322269781 0 -0.25398084399247728 -0.18550096804705579 0 -0.24558916237281661 -0.19647797946370191 0 -0.24903815087271819 -0.20980198510371079 0 -0.25746568723671009 -0.199291322269781 0 -0.25746568723671009 -0.199291322269781 0 -0.2672553385477443 -0.18832923868404339 0 -0.27131191216848982 -0.2030485758327758 0 -0.25746568723671009 -0.199291322269781 0 -0.2672553385477443 -0.18832923868404339 0 -0.25398084399247728 -0.18550096804705579 0 -0.2672553385477443 -0.18832923868404339 0 -0.27131191216848982 -0.2030485758327758 0 -0.27929238083168961 -0.19139405057560149 0 -0.27131191216848982 -0.2030485758327758 0 -0.27929238083168961 -0.19139405057560149 0 -0.28533418122222681 -0.20552286575750561 0 -0.27929238083168961 -0.19139405057560149 0 -0.28533418122222681 -0.20552286575750561 0 -0.29314262482482101 -0.1834996714940326 0 -0.28533418122222681 -0.20552286575750561 0 -0.2981636568522083 -0.19939701740174109 0 -0.29314262482482101 -0.1834996714940326 0 -0.2981636568522083 -0.19939701740174109 0 -0.29314262482482101 -0.1834996714940326 0 -0.28533418122222681 -0.20552286575750561 0 -0.29314262482482101 -0.1834996714940326 0 -0.29005369644273749 -0.21745429927400509 0 -0.2981636568522083 -0.19939701740174109 0 -0.28533418122222681 -0.20552286575750561 0 -0.29005369644273749 -0.21745429927400509 0 -0.2981636568522083 -0.19939701740174109 0 -0.29005369644273749 -0.21745429927400509 0 -0.30111564043739431 -0.20874344337783871 0 -0.2981636568522083 -0.19939701740174109 0 -0.27570102800053758 -0.2162324152774534 0 -0.28533418122222681 -0.20552286575750561 0 -0.29005369644273749 -0.21745429927400509 0 -0.30111564043739431 -0.20874344337783871 0 -0.30748257211187968 -0.2014162228858529 0 -0.2981636568522083 -0.19939701740174109 0 -0.30111564043739431 -0.20874344337783871 0 -0.2981636568522083 -0.19939701740174109 0 -0.29005369644273749 -0.21745429927400509 0 -0.30111564043739431 -0.20874344337783871 0 -0.30475869934280952 -0.21569750253696399 0 -0.30475869934280952 -0.21569750253696399 0 -0.31144131422756027 -0.2081233664414415 0 -0.31548815511549838 -0.21743110901875851 0 -0.30111564043739431 -0.20874344337783871 0 -0.30475869934280952 -0.21569750253696399 0 -0.31144131422756027 -0.2081233664414415 0 -0.30111564043739431 -0.20874344337783871 0 -0.31144131422756027 -0.2081233664414415 0 -0.30748257211187968 -0.2014162228858529 0 -0.30748257211187968 -0.2014162228858529 0 -0.30885094590648082 -0.19389989398659291 0 -0.31663882543940719 -0.1981383202933919 0 -0.31144131422756027 -0.2081233664414415 0 -0.30748257211187968 -0.2014162228858529 0 -0.31663882543940719 -0.1981383202933919 0 -0.2981636568522083 -0.19939701740174109 0 -0.30588096108877438 -0.18221400652896849 0 -0.29314262482482101 -0.1834996714940326 0 -0.2981636568522083 -0.19939701740174109 0 -0.30588096108877438 -0.18221400652896849 0 -0.30748257211187968 -0.2014162228858529 0 -0.30885094590648082 -0.19389989398659291 0 -0.2981636568522083 -0.19939701740174109 0 -0.30885094590648082 -0.19389989398659291 0 -0.2981636568522083 -0.19939701740174109 0 -0.30588096108877438 -0.18221400652896849 0 -0.30885094590648082 -0.19389989398659291 0 -0.30588096108877438 -0.18221400652896849 0 -0.316088714040134 -0.1883339028230101 0 -0.30588096108877438 -0.18221400652896849 0 -0.31359826532533941 -0.16503099565619561 0 -0.30588096108877438 -0.18221400652896849 0 -0.29314262482482101 -0.1834996714940326 0 -0.30283430623750313 -0.15616493062194131 0 -0.30588096108877438 -0.18221400652896849 0 -0.31359826532533941 -0.16503099565619561 0 -0.31703944774848669 -0.17423181222537851 0 -0.30588096108877438 -0.18221400652896849 0 -0.30283430623750313 -0.15616493062194131 0 -0.31359826532533941 -0.16503099565619561 0 -0.29314262482482101 -0.1834996714940326 0 -0.30283430623750313 -0.15616493062194131 0 -0.30283430623750313 -0.15616493062194131 0 -0.3120714725783289 -0.15239682791089659 0 -0.31359826532533941 -0.16503099565619561 0 -0.30283430623750313 -0.15616493062194131 0 -0.31359826532533941 -0.16503099565619561 0 -0.28560408953135069 -0.15963152993585561 0 -0.29314262482482101 -0.1834996714940326 0 -0.30283430623750313 -0.15616493062194131 0 -0.28560408953135069 -0.15963152993585561 0 -0.29314262482482101 -0.1834996714940326 0 -0.28560408953135069 -0.15963152993585561 0 -0.29314262482482101 -0.1834996714940326 0 -0.27649714606192671 -0.17618407492902791 0 -0.27929238083168961 -0.19139405057560149 0 -0.29314262482482101 -0.1834996714940326 0 -0.27649714606192671 -0.17618407492902791 0 -0.2672553385477443 -0.18832923868404339 0 -0.27649714606192671 -0.17618407492902791 0 -0.25999952334599591 -0.173865963225355 0 -0.2672553385477443 -0.18832923868404339 0 -0.27929238083168961 -0.19139405057560149 0 -0.27649714606192671 -0.17618407492902791 0 -0.2672553385477443 -0.18832923868404339 0 -0.25999952334599591 -0.173865963225355 0 -0.25398084399247728 -0.18550096804705579 0 -0.24777736424178451 -0.17360814126043181 0 -0.25999952334599591 -0.173865963225355 0 -0.25398084399247728 -0.18550096804705579 0 -0.24777736424178451 -0.17360814126043181 0 -0.25999952334599591 -0.173865963225355 0 -0.25008459541694028 -0.15997912546696291 0 -0.25999952334599591 -0.173865963225355 0 -0.25008459541694028 -0.15997912546696291 0 -0.26426165287955472 -0.15951309968005681 0 -0.28560408953135069 -0.15963152993585561 0 -0.27649714606192671 -0.17618407492902791 0 -0.26426165287955472 -0.15951309968005681 0 -0.27649714606192671 -0.17618407492902791 0 -0.25999952334599591 -0.173865963225355 0 -0.26426165287955472 -0.15951309968005681 0 -0.28560408953135069 -0.15963152993585561 0 -0.26641280600287942 -0.1448769666390427 0 -0.27806555423787838 -0.13576338837767921 0 -0.28560408953135069 -0.15963152993585561 0 -0.26426165287955472 -0.15951309968005681 0 -0.26641280600287942 -0.1448769666390427 0 -0.26426165287955472 -0.15951309968005681 0 -0.2534284378823593 -0.13778824075457749 0 -0.25008459541694028 -0.15997912546696291 0 -0.26426165287955472 -0.15951309968005681 0 -0.2534284378823593 -0.13778824075457749 0 -0.26426165287955472 -0.15951309968005681 0 -0.26641280600287942 -0.1448769666390427 0 -0.2534284378823593 -0.13778824075457749 0 -0.26641280600287942 -0.1448769666390427 0 -0.2534284378823593 -0.13778824075457749 0 -0.26627315887266417 -0.12605022026133331 0 -0.24259522288516391 -0.1160633818290983 0 -0.25419439578690939 -0.1240597237474991 0 -0.2534284378823593 -0.13778824075457749 0 -0.25419439578690939 -0.1240597237474991 0 -0.2534284378823593 -0.13778824075457749 0 -0.26627315887266417 -0.12605022026133331 0 -0.26641280600287942 -0.1448769666390427 0 -0.26627315887266417 -0.12605022026133331 0 -0.27806555423787838 -0.13576338837767921 0 -0.26627315887266417 -0.12605022026133331 0 -0.27806555423787838 -0.13576338837767921 0 -0.28666431646467572 -0.1202917555800465 0 -0.27806555423787838 -0.13576338837767921 0 -0.29262699558470839 -0.1331095534584518 0 -0.29666118840673072 -0.1245832356479377 0 -0.28666431646467572 -0.1202917555800465 0 -0.29262699558470839 -0.1331095534584518 0 -0.29666118840673072 -0.1245832356479377 0 -0.29262699558470839 -0.1331095534584518 0 -0.30101806291734617 -0.13086930191017301 0 -0.29262699558470839 -0.1331095534584518 0 -0.2904499302376905 -0.14596415949981051 0 -0.30002663392382378 -0.13994729350597379 0 -0.27806555423787838 -0.13576338837767921 0 -0.29262699558470839 -0.1331095534584518 0 -0.2904499302376905 -0.14596415949981051 0 -0.27806555423787838 -0.13576338837767921 0 -0.2904499302376905 -0.14596415949981051 0 -0.28560408953135069 -0.15963152993585561 0 -0.2904499302376905 -0.14596415949981051 0 -0.30283430623750313 -0.15616493062194131 0 -0.28560408953135069 -0.15963152993585561 0 -0.27806555423787838 -0.13576338837767921 0 -0.28560408953135069 -0.15963152993585561 0 -0.27806555423787838 -0.13576338837767921 0 -0.2904499302376905 -0.14596415949981051 0 -0.2904499302376905 -0.14596415949981051 0 -0.30283430623750313 -0.15616493062194131 0 -0.30283430623750313 -0.15616493062194131 0 -0.31036258713323028 -0.13493191658294321 0 -0.30002663392382378 -0.13994729350597379 0 -0.2904499302376905 -0.14596415949981051 0 -0.30283430623750313 -0.15616493062194131 0 -0.30002663392382378 -0.13994729350597379 0 -0.30283430623750313 -0.15616493062194131 0 -0.3120714725783289 -0.15239682791089659 0 -0.31036258713323028 -0.13493191658294321 0 -0.30283430623750313 -0.15616493062194131 0 -0.31036258713323028 -0.13493191658294321 0 -0.30943206117001432 -0.11748980133738279 0 -0.30463191227272618 -0.12262491486386599 0 -0.31036258713323028 -0.13493191658294321 0 -0.30463191227272618 -0.12262491486386599 0 -0.31036258713323028 -0.13493191658294321 0 -0.30101806291734617 -0.13086930191017301 0 -0.29666118840673072 -0.1245832356479377 0 -0.30463191227272618 -0.12262491486386599 0 -0.30101806291734617 -0.13086930191017301 0 -0.29262699558470839 -0.1331095534584518 0 -0.30101806291734617 -0.13086930191017301 0 -0.30002663392382378 -0.13994729350597379 0 -0.31036258713323028 -0.13493191658294321 0 -0.30101806291734617 -0.13086930191017301 0 -0.30002663392382378 -0.13994729350597379 0 -0.32926315832998809 -0.1239227741118608 0 -0.32083623402571593 -0.1349761242783496 0 -0.32022531112609087 -0.12531135898068271 0 -0.32926315832998809 -0.1239227741118608 0 -0.32083623402571593 -0.1349761242783496 0 -0.33180517536608189 -0.13262829275757729 0 -0.31036258713323028 -0.13493191658294321 0 -0.32083623402571593 -0.1349761242783496 0 -0.32022531112609087 -0.12531135898068271 0 -0.31036258713323028 -0.13493191658294321 0 -0.32083623402571593 -0.1349761242783496 0 -0.31989517390797728 -0.1498021340682896 0 -0.32083623402571593 -0.1349761242783496 0 -0.31989517390797728 -0.1498021340682896 0 -0.33490634911924588 -0.158549755415646 0 -0.32083623402571593 -0.1349761242783496 0 -0.33490634911924588 -0.158549755415646 0 -0.3120714725783289 -0.15239682791089659 0 -0.31036258713323028 -0.13493191658294321 0 -0.31989517390797728 -0.1498021340682896 0 -0.3120714725783289 -0.15239682791089659 0 -0.31989517390797728 -0.1498021340682896 0 -0.31727983423786499 -0.15683377591292999 0 -0.31989517390797728 -0.1498021340682896 0 -0.32541737782266061 -0.16164476507426051 0 -0.31727983423786499 -0.15683377591292999 0 -0.33816375877582411 -0.14061979637860339 0 -0.34944349023055338 -0.15152521716996009 0 -0.33490634911924588 -0.158549755415646 0 -0.32083623402571593 -0.1349761242783496 0 -0.33816375877582411 -0.14061979637860339 0 -0.33490634911924588 -0.158549755415646 0 -0.32083623402571593 -0.1349761242783496 0 -0.33816375877582411 -0.14061979637860339 0 -0.33180517536608189 -0.13262829275757729 0 -0.32926315832998809 -0.1239227741118608 0 -0.33180517536608189 -0.13262829275757729 0 -0.34790234846918627 -0.12521674409909919 0 -0.33816375877582411 -0.14061979637860339 0 -0.33180517536608189 -0.13262829275757729 0 -0.34790234846918627 -0.12521674409909919 0 -0.37067300385311669 -0.1213455297714067 0 -0.34790234846918627 -0.12521674409909919 0 -0.3586428059203905 -0.13162880012936401 0 -0.33816375877582411 -0.14061979637860339 0 -0.34790234846918627 -0.12521674409909919 0 -0.35195821329930788 -0.13827890254277581 0 -0.35195821329930788 -0.13827890254277581 0 -0.3586428059203905 -0.13162880012936401 0 -0.36563866310058513 -0.14240395493685259 0 -0.34790234846918627 -0.12521674409909919 0 -0.35195821329930788 -0.13827890254277581 0 -0.3586428059203905 -0.13162880012936401 0 -0.37067300385311669 -0.1213455297714067 0 -0.3586428059203905 -0.13162880012936401 0 -0.36563866310058513 -0.14240395493685259 0 -0.37067300385311669 -0.1213455297714067 0 -0.36563866310058513 -0.14240395493685259 0 -0.38395434388625937 -0.1338225967734869 0 -0.37067300385311669 -0.1213455297714067 0 -0.36563866310058513 -0.14240395493685259 0 -0.36563866310058513 -0.14240395493685259 0 -0.36060432234805179 -0.1634623801022981 0 -0.36563866310058513 -0.14240395493685259 0 -0.36060432234805179 -0.1634623801022981 0 -0.37834011292295888 -0.14994017992448669 0 -0.36563866310058513 -0.14240395493685259 0 -0.34944349023055338 -0.15152521716996009 0 -0.36060432234805179 -0.1634623801022981 0 -0.35195821329930788 -0.13827890254277581 0 -0.36563866310058513 -0.14240395493685259 0 -0.34944349023055338 -0.15152521716996009 0 -0.33816375877582411 -0.14061979637860339 0 -0.35195821329930788 -0.13827890254277581 0 -0.34944349023055338 -0.15152521716996009 0 -0.34944349023055338 -0.15152521716996009 0 -0.34848265647765669 -0.16391518481021169 0 -0.33490634911924588 -0.158549755415646 0 -0.34848265647765669 -0.16391518481021169 0 -0.36060432234805179 -0.1634623801022981 0 -0.34897646421277589 -0.1821233865529425 0 -0.34848265647765669 -0.16391518481021169 0 -0.34897646421277589 -0.1821233865529425 0 -0.33490634911924588 -0.158549755415646 0 -0.34944349023055338 -0.15152521716996009 0 -0.34848265647765669 -0.16391518481021169 0 -0.36060432234805179 -0.1634623801022981 0 -0.36060432234805179 -0.1634623801022981 0 -0.37527986153800352 -0.16521005897517549 0 -0.37834011292295888 -0.14994017992448669 0 -0.36060432234805179 -0.1634623801022981 0 -0.37175319982560517 -0.1756105465187405 0 -0.37527986153800352 -0.16521005897517549 0 -0.36060432234805179 -0.1634623801022981 0 -0.37175319982560517 -0.1756105465187405 0 -0.36417785316215268 -0.1800273441267991 0 -0.36060432234805179 -0.1634623801022981 0 -0.36417785316215268 -0.1800273441267991 0 -0.35556998159551861 -0.1845208052677437 0 -0.37267860412115772 -0.18693022148448191 0 -0.37175319982560517 -0.1756105465187405 0 -0.36417785316215268 -0.1800273441267991 0 -0.36417785316215268 -0.1800273441267991 0 -0.35556998159551861 -0.1845208052677437 0 -0.36028315792043009 -0.1896127672607314 0 -0.37267860412115772 -0.18693022148448191 0 -0.36417785316215268 -0.1800273441267991 0 -0.36028315792043009 -0.1896127672607314 0 -0.36060432234805179 -0.1634623801022981 0 -0.35556998159551861 -0.1845208052677437 0 -0.36060432234805179 -0.1634623801022981 0 -0.35556998159551861 -0.1845208052677437 0 -0.34897646421277589 -0.1821233865529425 0 -0.35556998159551861 -0.1845208052677437 0 -0.34897646421277589 -0.1821233865529425 0 -0.36028315792043009 -0.1896127672607314 0 -0.34897646421277589 -0.1821233865529425 0 -0.33869930783361157 -0.18515209592982351 0 -0.34548704897134658 -0.19036362880068031 0 -0.34897646421277589 -0.1821233865529425 0 -0.33869930783361157 -0.18515209592982351 0 -0.33252536945701883 -0.1738822833531545 0 -0.33869930783361157 -0.18515209592982351 0 -0.33016020889542558 -0.1814322373921633 0 -0.32854211353046309 -0.18754853465747201 0 -0.33869930783361157 -0.18515209592982351 0 -0.33016020889542558 -0.1814322373921633 0 -0.33252536945701883 -0.1738822833531545 0 -0.33016020889542558 -0.1814322373921633 0 -0.33252536945701883 -0.1738822833531545 0 -0.32420113420486601 -0.17770419390748821 0 -0.34897646421277589 -0.1821233865529425 0 -0.33490634911924588 -0.158549755415646 0 -0.34897646421277589 -0.1821233865529425 0 -0.33252536945701883 -0.1738822833531545 0 -0.33490634911924588 -0.158549755415646 0 -0.33252536945701883 -0.1738822833531545 0 -0.33490634911924588 -0.158549755415646 0 -0.32541737782266061 -0.16164476507426051 0 -0.33252536945701883 -0.1738822833531545 0 -0.32362307075955421 -0.17045066132989939 0 -0.32541737782266061 -0.16164476507426051 0 -0.32362307075955421 -0.17045066132989939 0 -0.32541737782266061 -0.16164476507426051 0 -0.31921129957676109 -0.16307177705532239 0 -0.32541737782266061 -0.16164476507426051 0 -0.31727983423786499 -0.15683377591292999 0 -0.31921129957676109 -0.16307177705532239 0 -0.31989517390797728 -0.1498021340682896 0 -0.33490634911924588 -0.158549755415646 0 -0.32541737782266061 -0.16164476507426051 0 -0.3120714725783289 -0.15239682791089659 0 -0.31727983423786499 -0.15683377591292999 0 -0.31359826532533941 -0.16503099565619561 0 -0.31727983423786499 -0.15683377591292999 0 -0.31921129957676109 -0.16307177705532239 0 -0.31359826532533941 -0.16503099565619561 0 -0.31727983423786499 -0.15683377591292999 0 -0.31359826532533941 -0.16503099565619561 0 -0.31774241389386049 -0.1684444507260541 0 -0.31359826532533941 -0.16503099565619561 0 -0.31703944774848669 -0.17423181222537851 0 -0.32362307075955421 -0.17045066132989939 0 -0.31774241389386049 -0.1684444507260541 0 -0.31703944774848669 -0.17423181222537851 0 -0.32362307075955421 -0.17045066132989939 0 -0.31921129957676109 -0.16307177705532239 0 -0.31774241389386049 -0.1684444507260541 0 -0.31921129957676109 -0.16307177705532239 0 -0.31774241389386049 -0.1684444507260541 0 -0.31359826532533941 -0.16503099565619561 0 -0.31774241389386049 -0.1684444507260541 0 -0.31359826532533941 -0.16503099565619561 0 -0.30588096108877438 -0.18221400652896849 0 -0.31703944774848669 -0.17423181222537851 0 -0.31719084121852581 -0.18154656520366469 0 -0.31703944774848669 -0.17423181222537851 0 -0.31719084121852581 -0.18154656520366469 0 -0.32420113420486601 -0.17770419390748821 0 -0.30588096108877438 -0.18221400652896849 0 -0.31719084121852581 -0.18154656520366469 0 -0.316088714040134 -0.1883339028230101 0 -0.31719084121852581 -0.18154656520366469 0 -0.32297482899343222 -0.1846442474614586 0 -0.316088714040134 -0.1883339028230101 0 -0.31719084121852581 -0.18154656520366469 0 -0.32297482899343222 -0.1846442474614586 0 -0.32420113420486601 -0.17770419390748821 0 -0.33016020889542558 -0.1814322373921633 0 -0.32297482899343222 -0.1846442474614586 0 -0.32854211353046309 -0.18754853465747201 0 -0.33016020889542558 -0.1814322373921633 0 -0.32297482899343222 -0.1846442474614586 0 -0.32420113420486601 -0.17770419390748821 0 -0.33252536945701883 -0.1738822833531545 0 -0.32362307075955421 -0.17045066132989939 0 -0.32420113420486601 -0.17770419390748821 0 -0.32362307075955421 -0.17045066132989939 0 -0.31703944774848669 -0.17423181222537851 0 -0.32420113420486601 -0.17770419390748821 0 -0.32694977817363652 -0.19812006754441969 0 -0.31663882543940719 -0.1981383202933919 0 -0.32196335689291172 -0.2086557073919835 0 -0.32694977817363652 -0.19812006754441969 0 -0.32234405873636751 -0.19155703792282641 0 -0.31663882543940719 -0.1981383202933919 0 -0.32694977817363652 -0.19812006754441969 0 -0.32234405873636751 -0.19155703792282641 0 -0.32854211353046309 -0.18754853465747201 0 -0.32297482899343222 -0.1846442474614586 0 -0.32234405873636751 -0.19155703792282641 0 -0.32854211353046309 -0.18754853465747201 0 -0.32297482899343222 -0.1846442474614586 0 -0.32234405873636751 -0.19155703792282641 0 -0.316088714040134 -0.1883339028230101 0 -0.32234405873636751 -0.19155703792282641 0 -0.316088714040134 -0.1883339028230101 0 -0.31663882543940719 -0.1981383202933919 0 -0.30885094590648082 -0.19389989398659291 0 -0.316088714040134 -0.1883339028230101 0 -0.31663882543940719 -0.1981383202933919 0 -0.31144131422756027 -0.2081233664414415 0 -0.31663882543940719 -0.1981383202933919 0 -0.32196335689291172 -0.2086557073919835 0 -0.31144131422756027 -0.2081233664414415 0 -0.31548815511549838 -0.21743110901875851 0 -0.32196335689291172 -0.2086557073919835 0 -0.31548815511549838 -0.21743110901875851 0 -0.32196335689291172 -0.2086557073919835 0 -0.32923141624033631 -0.2216892853878408 0 -0.32196335689291172 -0.2086557073919835 0 -0.33231493568033188 -0.20844396381444499 0 -0.32923141624033631 -0.2216892853878408 0 -0.32694977817363652 -0.19812006754441969 0 -0.32196335689291172 -0.2086557073919835 0 -0.33231493568033188 -0.20844396381444499 0 -0.33231493568033188 -0.20844396381444499 0 -0.3381011897988172 -0.21645367757230671 0 -0.32923141624033631 -0.2216892853878408 0 -0.3381011897988172 -0.21645367757230671 0 -0.34093733823660838 -0.20549589080535091 0 -0.34886692717918272 -0.2142070372151883 0 -0.33231493568033188 -0.20844396381444499 0 -0.3381011897988172 -0.21645367757230671 0 -0.34093733823660838 -0.20549589080535091 0 -0.33231493568033188 -0.20844396381444499 0 -0.34093733823660838 -0.20549589080535091 0 -0.33510506896846071 -0.20007500159998581 0 -0.34093733823660838 -0.20549589080535091 0 -0.34120750144150691 -0.19556852471116279 0 -0.33510506896846071 -0.20007500159998581 0 -0.34120750144150691 -0.19556852471116279 0 -0.33510506896846071 -0.20007500159998581 0 -0.3341157913102199 -0.1927465611245508 0 -0.32694977817363652 -0.19812006754441969 0 -0.33231493568033188 -0.20844396381444499 0 -0.33510506896846071 -0.20007500159998581 0 -0.32694977817363652 -0.19812006754441969 0 -0.33510506896846071 -0.20007500159998581 0 -0.3341157913102199 -0.1927465611245508 0 -0.32694977817363652 -0.19812006754441969 0 -0.32854211353046309 -0.18754853465747201 0 -0.3341157913102199 -0.1927465611245508 0 -0.33869930783361157 -0.18515209592982351 0 -0.32854211353046309 -0.18754853465747201 0 -0.3341157913102199 -0.1927465611245508 0 -0.33869930783361157 -0.18515209592982351 0 -0.34120750144150691 -0.19556852471116279 0 -0.34548704897134658 -0.19036362880068031 0 -0.33869930783361157 -0.18515209592982351 0 -0.34120750144150691 -0.19556852471116279 0 -0.3341157913102199 -0.1927465611245508 0 -0.34897646421277589 -0.1821233865529425 0 -0.36028315792043009 -0.1896127672607314 0 -0.36304657930630613 -0.20569701769023871 0 -0.34897646421277589 -0.1821233865529425 0 -0.35067447766322191 -0.1988236861063509 0 -0.36304657930630613 -0.20569701769023871 0 -0.34120750144150691 -0.19556852471116279 0 -0.34548704897134658 -0.19036362880068031 0 -0.35067447766322191 -0.1988236861063509 0 -0.34897646421277589 -0.1821233865529425 0 -0.34548704897134658 -0.19036362880068031 0 -0.35067447766322191 -0.1988236861063509 0 -0.34897646421277589 -0.1821233865529425 0 -0.36304657930630613 -0.20569701769023871 0 -0.34093733823660838 -0.20549589080535091 0 -0.34120750144150691 -0.19556852471116279 0 -0.35067447766322191 -0.1988236861063509 0 -0.36028315792043009 -0.1896127672607314 0 -0.36304657930630613 -0.20569701769023871 0 -0.37100157257058503 -0.195530293016939 0 -0.36304657930630613 -0.20569701769023871 0 -0.38799794893444561 -0.19988116563230399 0 -0.36028315792043009 -0.1896127672607314 0 -0.37100157257058503 -0.195530293016939 0 -0.36304657930630613 -0.20569701769023871 0 -0.37267860412115772 -0.18693022148448191 0 -0.36028315792043009 -0.1896127672607314 0 -0.37100157257058503 -0.195530293016939 0 -0.36304657930630613 -0.20569701769023871 0 -0.37340558697165288 -0.2230529116561436 0 -0.36304657930630613 -0.20569701769023871 0 -0.37340558697165288 -0.2230529116561436 0 -0.38799794893444561 -0.19988116563230399 0 -0.36304657930630613 -0.20569701769023871 0 -0.34886692717918272 -0.2142070372151883 0 -0.35468053046009013 -0.22484428452927099 0 -0.35067447766322191 -0.1988236861063509 0 -0.36304657930630613 -0.20569701769023871 0 -0.34886692717918272 -0.2142070372151883 0 -0.34093733823660838 -0.20549589080535091 0 -0.35067447766322191 -0.1988236861063509 0 -0.34886692717918272 -0.2142070372151883 0 -0.35468053046009013 -0.22484428452927099 0 -0.36760972074160991 -0.2322563799235241 0 -0.35075848344043631 -0.2391772824430547 0 -0.34886692717918272 -0.2142070372151883 0 -0.35468053046009013 -0.22484428452927099 0 -0.34146354050716032 -0.23087977788756059 0 -0.35468053046009013 -0.22484428452927099 0 -0.35075848344043631 -0.2391772824430547 0 -0.34146354050716032 -0.23087977788756059 0 -0.36304657930630613 -0.20569701769023871 0 -0.36760972074160991 -0.2322563799235241 0 -0.36304657930630613 -0.20569701769023871 0 -0.35468053046009013 -0.22484428452927099 0 -0.36760972074160991 -0.2322563799235241 0 -0.36304657930630613 -0.20569701769023871 0 -0.36760972074160991 -0.2322563799235241 0 -0.37340558697165288 -0.2230529116561436 0 -0.36760972074160991 -0.2322563799235241 0 -0.37340558697165288 -0.2230529116561436 0 -0.35318592144486771 -0.25516045911612412 0 -0.36760972074160991 -0.2322563799235241 0 -0.35318592144486771 -0.25516045911612412 0 -0.37269783597971851 -0.26187130587082602 0 -0.36760972074160991 -0.2322563799235241 0 -0.37269783597971851 -0.26187130587082602 0 -0.36760972074160991 -0.2322563799235241 0 -0.35318592144486771 -0.25516045911612412 0 -0.35075848344043631 -0.2391772824430547 0 -0.33353790179694431 -0.24873765578521631 0 -0.35318592144486771 -0.25516045911612412 0 -0.36760972074160991 -0.2322563799235241 0 -0.35075848344043631 -0.2391772824430547 0 -0.35075848344043631 -0.2391772824430547 0 -0.33353790179694431 -0.24873765578521631 0 -0.34146354050716032 -0.23087977788756059 0 -0.33353790179694431 -0.24873765578521631 0 -0.32879917418358418 -0.23461422421376951 0 -0.34146354050716032 -0.23087977788756059 0 -0.3381011897988172 -0.21645367757230671 0 -0.34886692717918272 -0.2142070372151883 0 -0.34146354050716032 -0.23087977788756059 0 -0.3381011897988172 -0.21645367757230671 0 -0.34146354050716032 -0.23087977788756059 0 -0.32923141624033631 -0.2216892853878408 0 -0.32879917418358418 -0.23461422421376951 0 -0.34146354050716032 -0.23087977788756059 0 -0.32923141624033631 -0.2216892853878408 0 -0.32879917418358418 -0.23461422421376951 0 -0.32923141624033631 -0.2216892853878408 0 -0.31966738702486719 -0.22758715782610719 0 -0.32879917418358418 -0.23461422421376951 0 -0.31966738702486719 -0.22758715782610719 0 -0.31598713604409601 -0.23890923099090611 0 -0.31548815511549838 -0.21743110901875851 0 -0.32923141624033631 -0.2216892853878408 0 -0.31966738702486719 -0.22758715782610719 0 -0.3056946904908569 -0.2267352945727763 0 -0.31548815511549838 -0.21743110901875851 0 -0.31966738702486719 -0.22758715782610719 0 -0.3056946904908569 -0.2267352945727763 0 -0.31966738702486719 -0.22758715782610719 0 -0.31598713604409601 -0.23890923099090611 0 -0.31002315199531089 -0.25570020651770081 0 -0.33353790179694431 -0.24873765578521631 0 -0.31598713604409601 -0.23890923099090611 0 -0.33353790179694431 -0.24873765578521631 0 -0.32879917418358418 -0.23461422421376951 0 -0.31598713604409601 -0.23890923099090611 0 -0.43351625733071197 -0.24166701006997601 0 -0.4292370607831183 -0.22775890890707731 0 -0.41667162400821772 -0.242006836922458 0 -0.43351625733071197 -0.24166701006997601 0 -0.4292370607831183 -0.22775890890707731 0 -0.44577780128170241 -0.2340707405231173 0 -0.42785077865552029 -0.25296768796737978 0 -0.43351625733071197 -0.24166701006997601 0 -0.41667162400821772 -0.242006836922458 0 -0.42785077865552029 -0.25296768796737978 0 -0.43351625733071197 -0.24166701006997601 0 -0.4453705982907411 -0.24929628175614749 0 -0.4292370607831183 -0.22775890890707731 0 -0.41260780633013688 -0.22447232972542991 0 -0.42726900636703802 -0.21220272625068751 0 -0.4292370607831183 -0.22775890890707731 0 -0.42726900636703802 -0.21220272625068751 0 -0.44582198799180728 -0.22073285673334611 0 -0.41260780633013688 -0.22447232972542991 0 -0.41667162400821772 -0.242006836922458 0 -0.40048039671529279 -0.23577908106857989 0 -0.4292370607831183 -0.22775890890707731 0 -0.41260780633013688 -0.22447232972542991 0 -0.41667162400821772 -0.242006836922458 0 -0.41276419394843727 -0.25959950138704402 0 -0.41667162400821772 -0.242006836922458 0 -0.40221729619780833 -0.24821156686486279 0 -0.41667162400821772 -0.242006836922458 0 -0.40221729619780833 -0.24821156686486279 0 -0.40048039671529279 -0.23577908106857989 0 -0.40221729619780833 -0.24821156686486279 0 -0.40048039671529279 -0.23577908106857989 0 -0.38540379156860821 -0.2431551814384596 0 -0.37269783597971851 -0.26187130587082602 0 -0.36760972074160991 -0.2322563799235241 0 -0.38540379156860821 -0.2431551814384596 0 -0.37340558697165288 -0.2230529116561436 0 -0.38540379156860821 -0.2431551814384596 0 -0.39113263134481852 -0.2210065941617948 0 -0.37340558697165288 -0.2230529116561436 0 -0.38540379156860821 -0.2431551814384596 0 -0.36760972074160991 -0.2322563799235241 0 -0.37340558697165288 -0.2230529116561436 0 -0.38540379156860821 -0.2431551814384596 0 -0.38540379156860821 -0.2431551814384596 0 -0.39113263134481852 -0.2210065941617948 0 -0.41260780633013688 -0.22447232972542991 0 -0.40048039671529279 -0.23577908106857989 0 -0.39113263134481852 -0.2210065941617948 0 -0.40048039671529279 -0.23577908106857989 0 -0.38540379156860821 -0.2431551814384596 0 -0.39113263134481852 -0.2210065941617948 0 -0.39113263134481852 -0.2210065941617948 0 -0.39686147112102899 -0.19885800688513 0 -0.41260780633013688 -0.22447232972542991 0 -0.39113263134481852 -0.2210065941617948 0 -0.41138333093371471 -0.2068481426301971 0 -0.39113263134481852 -0.2210065941617948 0 -0.39686147112102899 -0.19885800688513 0 -0.41138333093371471 -0.2068481426301971 0 -0.39113263134481852 -0.2210065941617948 0 -0.38799794893444561 -0.19988116563230399 0 -0.39686147112102899 -0.19885800688513 0 -0.37340558697165288 -0.2230529116561436 0 -0.39113263134481852 -0.2210065941617948 0 -0.38799794893444561 -0.19988116563230399 0 -0.37340558697165288 -0.2230529116561436 0 -0.38799794893444561 -0.19988116563230399 0 -0.37267860412115772 -0.18693022148448191 0 -0.38799794893444561 -0.19988116563230399 0 -0.38457334359570089 -0.17777306105820831 0 -0.37267860412115772 -0.18693022148448191 0 -0.37100157257058503 -0.195530293016939 0 -0.38799794893444561 -0.19988116563230399 0 -0.39686147112102899 -0.19885800688513 0 -0.40259031089723929 -0.1767094196084652 0 -0.39686147112102899 -0.19885800688513 0 -0.41193509246510163 -0.19091914079255509 0 -0.40259031089723929 -0.1767094196084652 0 -0.38799794893444561 -0.19988116563230399 0 -0.39686147112102899 -0.19885800688513 0 -0.40259031089723929 -0.1767094196084652 0 -0.38799794893444561 -0.19988116563230399 0 -0.40259031089723929 -0.1767094196084652 0 -0.41193509246510163 -0.19091914079255509 0 -0.41138333093371471 -0.2068481426301971 0 -0.42849397797416461 -0.19363005796558541 0 -0.41193509246510163 -0.19091914079255509 0 -0.42849397797416461 -0.19363005796558541 0 -0.42013351077853872 -0.18029130330814969 0 -0.39686147112102899 -0.19885800688513 0 -0.41193509246510163 -0.19091914079255509 0 -0.41138333093371471 -0.2068481426301971 0 -0.41260780633013688 -0.22447232972542991 0 -0.41138333093371471 -0.2068481426301971 0 -0.42726900636703802 -0.21220272625068751 0 -0.42726900636703802 -0.21220272625068751 0 -0.42849397797416461 -0.19363005796558541 0 -0.44582033127348542 -0.20371719462425439 0 -0.41138333093371471 -0.2068481426301971 0 -0.42726900636703802 -0.21220272625068751 0 -0.42849397797416461 -0.19363005796558541 0 -0.42849397797416461 -0.19363005796558541 0 -0.4341933188456073 -0.17522474790368139 0 -0.42013351077853872 -0.18029130330814969 0 -0.42849397797416461 -0.19363005796558541 0 -0.4341933188456073 -0.17522474790368139 0 -0.44626968021097208 -0.1867095766016183 0 -0.4341933188456073 -0.17522474790368139 0 -0.42226711743781481 -0.16802796711457349 0 -0.42013351077853872 -0.18029130330814969 0 -0.4341933188456073 -0.17522474790368139 0 -0.43616677352210581 -0.16178748360403719 0 -0.42226711743781481 -0.16802796711457349 0 -0.43616677352210581 -0.16178748360403719 0 -0.42226711743781481 -0.16802796711457349 0 -0.42672317081966238 -0.15553881376434389 0 -0.41335976819492248 -0.15960820392091751 0 -0.40259031089723929 -0.1767094196084652 0 -0.40791173895812538 -0.15613594950855841 0 -0.42226711743781481 -0.16802796711457349 0 -0.41335976819492248 -0.15960820392091751 0 -0.40259031089723929 -0.1767094196084652 0 -0.41335976819492248 -0.15960820392091751 0 -0.40259031089723929 -0.1767094196084652 0 -0.42226711743781481 -0.16802796711457349 0 -0.41335976819492248 -0.15960820392091751 0 -0.42672317081966238 -0.15553881376434389 0 -0.41193509246510163 -0.19091914079255509 0 -0.42013351077853872 -0.18029130330814969 0 -0.40259031089723929 -0.1767094196084652 0 -0.42226711743781481 -0.16802796711457349 0 -0.42013351077853872 -0.18029130330814969 0 -0.40259031089723929 -0.1767094196084652 0 -0.40259031089723929 -0.1767094196084652 0 -0.38457334359570089 -0.17777306105820831 0 -0.38726704179179422 -0.16446807172446029 0 -0.38799794893444561 -0.19988116563230399 0 -0.40259031089723929 -0.1767094196084652 0 -0.38457334359570089 -0.17777306105820831 0 -0.37175319982560517 -0.1756105465187405 0 -0.38457334359570089 -0.17777306105820831 0 -0.37527986153800352 -0.16521005897517549 0 -0.37267860412115772 -0.18693022148448191 0 -0.37175319982560517 -0.1756105465187405 0 -0.38457334359570089 -0.17777306105820831 0 -0.38726704179179422 -0.16446807172446029 0 -0.39542464051116011 -0.15472054362196719 0 -0.37834011292295888 -0.14994017992448669 0 -0.37527986153800352 -0.16521005897517549 0 -0.38726704179179422 -0.16446807172446029 0 -0.37834011292295888 -0.14994017992448669 0 -0.38457334359570089 -0.17777306105820831 0 -0.37527986153800352 -0.16521005897517549 0 -0.38726704179179422 -0.16446807172446029 0 -0.40259031089723929 -0.1767094196084652 0 -0.38726704179179422 -0.16446807172446029 0 -0.39542464051116011 -0.15472054362196719 0 -0.40259031089723929 -0.1767094196084652 0 -0.39542464051116011 -0.15472054362196719 0 -0.40791173895812538 -0.15613594950855841 0 -0.40259031089723929 -0.1767094196084652 0 -0.40791173895812538 -0.15613594950855841 0 -0.40143511259660852 -0.1436615216673183 0 -0.39542464051116011 -0.15472054362196719 0 -0.40791173895812538 -0.15613594950855841 0 -0.40143511259660852 -0.1436615216673183 0 -0.39067346425319638 -0.1423904991950431 0 -0.39542464051116011 -0.15472054362196719 0 -0.39067346425319638 -0.1423904991950431 0 -0.39542464051116011 -0.15472054362196719 0 -0.37834011292295888 -0.14994017992448669 0 -0.36563866310058513 -0.14240395493685259 0 -0.37834011292295888 -0.14994017992448669 0 -0.38395434388625937 -0.1338225967734869 0 -0.39067346425319638 -0.1423904991950431 0 -0.37834011292295888 -0.14994017992448669 0 -0.38395434388625937 -0.1338225967734869 0 -0.39842693546617508 -0.13241555302897301 0 -0.41323316701901142 -0.13556247940865149 0 -0.39922001375987209 -0.1164922837009474 0 -0.38395434388625937 -0.1338225967734869 0 -0.39842693546617508 -0.13241555302897301 0 -0.39922001375987209 -0.1164922837009474 0 -0.40143511259660852 -0.1436615216673183 0 -0.39067346425319638 -0.1423904991950431 0 -0.39842693546617508 -0.13241555302897301 0 -0.39067346425319638 -0.1423904991950431 0 -0.38395434388625937 -0.1338225967734869 0 -0.39842693546617508 -0.13241555302897301 0 -0.40143511259660852 -0.1436615216673183 0 -0.39842693546617508 -0.13241555302897301 0 -0.41323316701901142 -0.13556247940865149 0 -0.42006732180240453 -0.12745115235784901 0 -0.41323316701901142 -0.13556247940865149 0 -0.39922001375987209 -0.1164922837009474 0 -0.42006732180240453 -0.12745115235784901 0 -0.41323316701901142 -0.13556247940865149 0 -0.42412922549260579 -0.1425069882333698 0 -0.40143511259660852 -0.1436615216673183 0 -0.41323316701901142 -0.13556247940865149 0 -0.40791173895812538 -0.15613594950855841 0 -0.41335976819492248 -0.15960820392091751 0 -0.42412922549260579 -0.1425069882333698 0 -0.42672317081966238 -0.15553881376434389 0 -0.41335976819492248 -0.15960820392091751 0 -0.40791173895812538 -0.15613594950855841 0 -0.42412922549260579 -0.1425069882333698 0 -0.41323316701901142 -0.13556247940865149 0 -0.40791173895812538 -0.15613594950855841 0 -0.42412922549260579 -0.1425069882333698 0 -0.41323316701901142 -0.13556247940865149 0 -0.40791173895812538 -0.15613594950855841 0 -0.41335976819492248 -0.15960820392091751 0 -0.42412922549260579 -0.1425069882333698 0 -0.42412922549260579 -0.1425069882333698 0 -0.42672317081966238 -0.15553881376434389 0 -0.43744420832431069 -0.14747559357214909 0 -0.43616677352210581 -0.16178748360403719 0 -0.42672317081966238 -0.15553881376434389 0 -0.43744420832431069 -0.14747559357214909 0 -0.42006732180240453 -0.12745115235784901 0 -0.42412922549260579 -0.1425069882333698 0 -0.4359871790739055 -0.13105497281578771 0 -0.42412922549260579 -0.1425069882333698 0 -0.43744420832431069 -0.14747559357214909 0 -0.4359871790739055 -0.13105497281578771 0 -0.43744420832431069 -0.14747559357214909 0 -0.4359871790739055 -0.13105497281578771 0 -0.45320639995841461 -0.13854710375042351 0 -0.4359871790739055 -0.13105497281578771 0 -0.45320639995841461 -0.13854710375042351 0 -0.44843960772449759 -0.1222631839144504 0 -0.43744420832431069 -0.14747559357214909 0 -0.45033226915494262 -0.15561870115458151 0 -0.45320639995841461 -0.13854710375042351 0 -0.43616677352210581 -0.16178748360403719 0 -0.43744420832431069 -0.14747559357214909 0 -0.45033226915494262 -0.15561870115458151 0 -0.45033226915494262 -0.15561870115458151 0 -0.45320639995841461 -0.13854710375042351 0 -0.47534000351684691 -0.15068530163437999 0 -0.45320639995841461 -0.13854710375042351 0 -0.44843960772449759 -0.1222631839144504 0 -0.46892340235015711 -0.1232890138155224 0 -0.45320639995841461 -0.13854710375042351 0 -0.47534000351684691 -0.15068530163437999 0 -0.46892340235015711 -0.1232890138155224 0 -0.47534000351684691 -0.15068530163437999 0 -0.46892340235015711 -0.1232890138155224 0 -0.48444087137436109 -0.1337663256659794 0 -0.46892340235015711 -0.1232890138155224 0 -0.48327589852072211 -0.1179750193911588 0 -0.48444087137436109 -0.1337663256659794 0 -0.47534000351684691 -0.15068530163437999 0 -0.46892340235015711 -0.1232890138155224 0 -0.48444087137436109 -0.1337663256659794 0 -0.48327589852072211 -0.1179750193911588 0 -0.5 -0.1238515568465441 0 -0.48444087137436109 -0.1337663256659794 0 -0.5 -0.15110551721643331 0 -0.5 -0.1238515568465441 0 -0.48444087137436109 -0.1337663256659794 0 -0.5 -0.15110551721643331 0 -0.47534000351684691 -0.15068530163437999 0 -0.5 -0.15110551721643331 0 -0.47534000351684691 -0.15068530163437999 0 -0.49061270095508652 -0.16468706687014489 0 -0.47534000351684691 -0.15068530163437999 0 -0.48175660468353659 -0.1780815894532379 0 -0.46201412598260277 -0.16741324714051661 0 -0.47534000351684691 -0.15068530163437999 0 -0.48175660468353659 -0.1780815894532379 0 -0.47534000351684691 -0.15068530163437999 0 -0.49061270095508652 -0.16468706687014489 0 -0.48175660468353659 -0.1780815894532379 0 -0.5 -0.15110551721643331 0 -0.49061270095508652 -0.16468706687014489 0 -0.5 -0.1783594775863224 0 -0.5 -0.1783594775863224 0 -0.48175660468353659 -0.1780815894532379 0 -0.48817320585022639 -0.2054778772720956 0 -0.49061270095508652 -0.16468706687014489 0 -0.5 -0.1783594775863224 0 -0.48175660468353659 -0.1780815894532379 0 -0.48175660468353659 -0.1780815894532379 0 -0.45621440415571007 -0.18100585009303791 0 -0.46459224995181519 -0.19340705415384979 0 -0.45621440415571007 -0.18100585009303791 0 -0.44626968021097208 -0.1867095766016183 0 -0.46459224995181519 -0.19340705415384979 0 -0.48175660468353659 -0.1780815894532379 0 -0.45621440415571007 -0.18100585009303791 0 -0.46201412598260277 -0.16741324714051661 0 -0.45621440415571007 -0.18100585009303791 0 -0.46201412598260277 -0.16741324714051661 0 -0.44726810233398823 -0.17128415966154151 0 -0.45033226915494262 -0.15561870115458151 0 -0.47534000351684691 -0.15068530163437999 0 -0.46201412598260277 -0.16741324714051661 0 -0.45033226915494262 -0.15561870115458151 0 -0.46201412598260277 -0.16741324714051661 0 -0.44726810233398823 -0.17128415966154151 0 -0.43616677352210581 -0.16178748360403719 0 -0.45033226915494262 -0.15561870115458151 0 -0.44726810233398823 -0.17128415966154151 0 -0.4341933188456073 -0.17522474790368139 0 -0.43616677352210581 -0.16178748360403719 0 -0.44726810233398823 -0.17128415966154151 0 -0.4341933188456073 -0.17522474790368139 0 -0.44726810233398823 -0.17128415966154151 0 -0.44626968021097208 -0.1867095766016183 0 -0.45621440415571007 -0.18100585009303791 0 -0.44726810233398823 -0.17128415966154151 0 -0.44626968021097208 -0.1867095766016183 0 -0.44626968021097208 -0.1867095766016183 0 -0.44582033127348542 -0.20371719462425439 0 -0.46459224995181519 -0.19340705415384979 0 -0.42849397797416461 -0.19363005796558541 0 -0.44626968021097208 -0.1867095766016183 0 -0.44582033127348542 -0.20371719462425439 0 -0.42726900636703802 -0.21220272625068751 0 -0.44582033127348542 -0.20371719462425439 0 -0.44582198799180728 -0.22073285673334611 0 -0.44582033127348542 -0.20371719462425439 0 -0.46637297871695049 -0.2163485873787909 0 -0.44582198799180728 -0.22073285673334611 0 -0.44582033127348542 -0.20371719462425439 0 -0.46637297871695049 -0.2163485873787909 0 -0.46459224995181519 -0.19340705415384979 0 -0.48175660468353659 -0.1780815894532379 0 -0.46459224995181519 -0.19340705415384979 0 -0.47787984106575182 -0.19336837284592279 0 -0.48175660468353659 -0.1780815894532379 0 -0.47787984106575182 -0.19336837284592279 0 -0.48817320585022639 -0.2054778772720956 0 -0.46459224995181519 -0.19340705415384979 0 -0.47787984106575182 -0.19336837284592279 0 -0.47630835432128071 -0.20477486251896171 0 -0.47787984106575182 -0.19336837284592279 0 -0.48817320585022639 -0.2054778772720956 0 -0.47630835432128071 -0.20477486251896171 0 -0.48175660468353659 -0.1780815894532379 0 -0.48817320585022639 -0.2054778772720956 0 -0.5 -0.1783594775863224 0 -0.5 -0.20561343795621151 0 -0.48817320585022639 -0.2054778772720956 0 -0.5 -0.20561343795621151 0 -0.48817320585022639 -0.2054778772720956 0 -0.48434408210078761 -0.21742551782291369 0 -0.5 -0.20561343795621151 0 -0.48434408210078761 -0.21742551782291369 0 -0.5 -0.23286739832610059 0 -0.46637297871695049 -0.2163485873787909 0 -0.48434408210078761 -0.21742551782291369 0 -0.47630835432128071 -0.20477486251896171 0 -0.46637297871695049 -0.2163485873787909 0 -0.46459224995181519 -0.19340705415384979 0 -0.47630835432128071 -0.20477486251896171 0 -0.48817320585022639 -0.2054778772720956 0 -0.48434408210078761 -0.21742551782291369 0 -0.47630835432128071 -0.20477486251896171 0 -0.46637297871695049 -0.2163485873787909 0 -0.48434408210078761 -0.21742551782291369 0 -0.47758198581130012 -0.24002416460782011 0 -0.46637297871695049 -0.2163485873787909 0 -0.47758198581130012 -0.24002416460782011 0 -0.48434408210078761 -0.21742551782291369 0 -0.5 -0.23286739832610059 0 -0.47758198581130012 -0.24002416460782011 0 -0.5 -0.23286739832610059 0 -0.49051610323175598 -0.24872925106853949 0 -0.47758198581130012 -0.24002416460782011 0 -0.5 -0.26012135869598962 0 -0.5 -0.23286739832610059 0 -0.49051610323175598 -0.24872925106853949 0 -0.47088635052579592 -0.25972043196919398 0 -0.47758198581130012 -0.24002416460782011 0 -0.4616615542021596 -0.245320711869805 0 -0.45360688386344977 -0.26248923953274389 0 -0.4616615542021596 -0.245320711869805 0 -0.44577780128170241 -0.2340707405231173 0 -0.4616615542021596 -0.245320711869805 0 -0.45944326160078403 -0.23129941222257591 0 -0.44577780128170241 -0.2340707405231173 0 -0.47758198581130012 -0.24002416460782011 0 -0.4616615542021596 -0.245320711869805 0 -0.45944326160078403 -0.23129941222257591 0 -0.46637297871695049 -0.2163485873787909 0 -0.45944326160078403 -0.23129941222257591 0 -0.44582198799180728 -0.22073285673334611 0 -0.46637297871695049 -0.2163485873787909 0 -0.47758198581130012 -0.24002416460782011 0 -0.45944326160078403 -0.23129941222257591 0 -0.45944326160078403 -0.23129941222257591 0 -0.44577780128170241 -0.2340707405231173 0 -0.44582198799180728 -0.22073285673334611 0 -0.4292370607831183 -0.22775890890707731 0 -0.44577780128170241 -0.2340707405231173 0 -0.44582198799180728 -0.22073285673334611 0 -0.45360688386344977 -0.26248923953274389 0 -0.44577780128170241 -0.2340707405231173 0 -0.45360688386344977 -0.26248923953274389 0 -0.44577780128170241 -0.2340707405231173 0 -0.4453705982907411 -0.24929628175614749 0 -0.43351625733071197 -0.24166701006997601 0 -0.44577780128170241 -0.2340707405231173 0 -0.4453705982907411 -0.24929628175614749 0 -0.41403858171798408 -0.044944199182830318 0 -0.40772128426722259 -0.034698633401210703 0 -0.42497448426891521 -0.034677337150720917 0 -0.41403858171798408 -0.044944199182830318 0 -0.40772128426722259 -0.034698633401210703 0 -0.39782346804451391 -0.045275611990324177 0 -0.43195002141073502 -0.054793382849905162 0 -0.40586220417995961 -0.057519940550460349 0 -0.42630723386672592 -0.073802606045500402 0 -0.41403858171798408 -0.044944199182830318 0 -0.43195002141073502 -0.054793382849905162 0 -0.40586220417995961 -0.057519940550460349 0 -0.42497448426891521 -0.034677337150720917 0 -0.44126118254832081 -0.042866581184493643 0 -0.44309459292558923 -0.030926168057279959 0 -0.43195002141073502 -0.054793382849905162 0 -0.42497448426891521 -0.034677337150720917 0 -0.44126118254832081 -0.042866581184493643 0 -0.41403858171798408 -0.044944199182830318 0 -0.43195002141073502 -0.054793382849905162 0 -0.42497448426891521 -0.034677337150720917 0 -0.43195002141073502 -0.054793382849905162 0 -0.42497448426891521 -0.034677337150720917 0 -0.43564601936926678 -0.017283148411569062 0 -0.41799894712709562 -0.0145612914515366 0 -0.42497448426891521 -0.034677337150720917 0 -0.43564601936926678 -0.017283148411569062 0 -0.44309459292558923 -0.030926168057279959 0 -0.42497448426891521 -0.034677337150720917 0 -0.43564601936926678 -0.017283148411569062 0 -0.41799894712709562 -0.0145612914515366 0 -0.43564601936926678 -0.017283148411569062 0 -0.42845594780309321 -0.0053317049159490341 0 -0.41799894712709562 -0.0145612914515366 0 -0.42845594780309321 -0.0053317049159490341 0 -0.44207514470075221 -0.0081719034274755891 0 -0.43707440836750311 0.0069203135765213593 0 -0.43564601936926678 -0.017283148411569062 0 -0.42845594780309321 -0.0053317049159490341 0 -0.44207514470075221 -0.0081719034274755891 0 -0.42845594780309321 -0.0053317049159490341 0 -0.41799894712709562 -0.0145612914515366 0 -0.4105044297308148 0.0070513888871675916 0 -0.41799894712709562 -0.0145612914515366 0 -0.4105044297308148 0.0070513888871675916 0 -0.41799894712709562 -0.0145612914515366 0 -0.40426881942082582 -0.0035317344774063119 0 -0.4105044297308148 0.0070513888871675916 0 -0.42497448426891521 -0.034677337150720917 0 -0.41799894712709562 -0.0145612914515366 0 -0.40772128426722259 -0.034698633401210703 0 -0.42497448426891521 -0.034677337150720917 0 -0.40503364682916032 -0.02097890042008593 0 -0.42497448426891521 -0.034677337150720917 0 -0.41799894712709562 -0.0145612914515366 0 -0.40503364682916032 -0.02097890042008593 0 -0.40772128426722259 -0.034698633401210703 0 -0.40503364682916032 -0.02097890042008593 0 -0.39572333829439421 -0.031007749313345611 0 -0.40503364682916032 -0.02097890042008593 0 -0.39416718537799 -0.0163828974766956 0 -0.39279557957333322 -0.010673963261847649 0 -0.40503364682916032 -0.02097890042008593 0 -0.39416718537799 -0.0163828974766956 0 -0.39572333829439421 -0.031007749313345611 0 -0.39416718537799 -0.0163828974766956 0 -0.39572333829439421 -0.031007749313345611 0 -0.38394964194355929 -0.028004885238101389 0 -0.41799894712709562 -0.0145612914515366 0 -0.40503364682916032 -0.02097890042008593 0 -0.39279557957333322 -0.010673963261847649 0 -0.41799894712709562 -0.0145612914515366 0 -0.39279557957333322 -0.010673963261847649 0 -0.41799894712709562 -0.0145612914515366 0 -0.40426881942082582 -0.0035317344774063119 0 -0.39279557957333322 -0.010673963261847649 0 -0.40426881942082582 -0.0035317344774063119 0 -0.39279557957333322 -0.010673963261847649 0 -0.39577632125205953 0.0040569279165914062 0 -0.36759221201957082 -0.0067866350721588206 0 -0.39279557957333322 -0.010673963261847649 0 -0.38211321526304293 0.00143773175499627 0 -0.36759221201957082 -0.0067866350721588206 0 -0.39279557957333322 -0.010673963261847649 0 -0.37131051382082891 -0.020651109841948411 0 -0.36759221201957082 -0.0067866350721588206 0 -0.39279557957333322 -0.010673963261847649 0 -0.39279557957333322 -0.010673963261847649 0 -0.38211321526304293 0.00143773175499627 0 -0.39577632125205953 0.0040569279165914062 0 -0.37131051382082891 -0.020651109841948411 0 -0.39416718537799 -0.0163828974766956 0 -0.37131051382082891 -0.020651109841948411 0 -0.39416718537799 -0.0163828974766956 0 -0.38394964194355929 -0.028004885238101389 0 -0.37131051382082891 -0.020651109841948411 0 -0.39416718537799 -0.0163828974766956 0 -0.39279557957333322 -0.010673963261847649 0 -0.37404039716282678 -0.034315173118312871 0 -0.37131051382082891 -0.020651109841948411 0 -0.38394964194355929 -0.028004885238101389 0 -0.37404039716282678 -0.034315173118312871 0 -0.38394964194355929 -0.028004885238101389 0 -0.38417324464003832 -0.04068328104184557 0 -0.36871718545481741 -0.04783498968793308 0 -0.37404039716282678 -0.034315173118312871 0 -0.38417324464003832 -0.04068328104184557 0 -0.39572333829439421 -0.031007749313345611 0 -0.38394964194355929 -0.028004885238101389 0 -0.38417324464003832 -0.04068328104184557 0 -0.39572333829439421 -0.031007749313345611 0 -0.38417324464003832 -0.04068328104184557 0 -0.39782346804451391 -0.045275611990324177 0 -0.40772128426722259 -0.034698633401210703 0 -0.39572333829439421 -0.031007749313345611 0 -0.39782346804451391 -0.045275611990324177 0 -0.41403858171798408 -0.044944199182830318 0 -0.39782346804451391 -0.045275611990324177 0 -0.40586220417995961 -0.057519940550460349 0 -0.40586220417995961 -0.057519940550460349 0 -0.37942215516748479 -0.062799868452252591 0 -0.39782346804451391 -0.045275611990324177 0 -0.40586220417995961 -0.057519940550460349 0 -0.37942215516748479 -0.062799868452252591 0 -0.36871718545481741 -0.04783498968793308 0 -0.38417324464003832 -0.04068328104184557 0 -0.37942215516748479 -0.062799868452252591 0 -0.38417324464003832 -0.04068328104184557 0 -0.39782346804451391 -0.045275611990324177 0 -0.37942215516748479 -0.062799868452252591 0 -0.36879928889637492 -0.076529036854359273 0 -0.37942215516748479 -0.062799868452252591 0 -0.39165468827301192 -0.077169263307206068 0 -0.40586220417995961 -0.057519940550460349 0 -0.39165468827301192 -0.077169263307206068 0 -0.40981626645096531 -0.089779710647213795 0 -0.36879928889637492 -0.076529036854359273 0 -0.37846699116320343 -0.088743624859176112 0 -0.39165468827301192 -0.077169263307206068 0 -0.37846699116320343 -0.088743624859176112 0 -0.39165468827301192 -0.077169263307206068 0 -0.3912291275158713 -0.096769144715256231 0 -0.39165468827301192 -0.077169263307206068 0 -0.3912291275158713 -0.096769144715256231 0 -0.40981626645096531 -0.089779710647213795 0 -0.40586220417995961 -0.057519940550460349 0 -0.37942215516748479 -0.062799868452252591 0 -0.39165468827301192 -0.077169263307206068 0 -0.37067300385311669 -0.1213455297714067 0 -0.38395434388625937 -0.1338225967734869 0 -0.39922001375987209 -0.1164922837009474 0 -0.37456999750816078 -0.1050445773152916 0 -0.37067300385311669 -0.1213455297714067 0 -0.39922001375987209 -0.1164922837009474 0 -0.37067300385311669 -0.1213455297714067 0 -0.39922001375987209 -0.1164922837009474 0 -0.37456999750816078 -0.1050445773152916 0 -0.37846699116320343 -0.088743624859176112 0 -0.3912291275158713 -0.096769144715256231 0 -0.37456999750816078 -0.1050445773152916 0 -0.37846699116320343 -0.088743624859176112 0 -0.37456999750816078 -0.1050445773152916 0 -0.3912291275158713 -0.096769144715256231 0 -0.39922001375987209 -0.1164922837009474 0 -0.3912291275158713 -0.096769144715256231 0 -0.39922001375987209 -0.1164922837009474 0 -0.40981626645096531 -0.089779710647213795 0 -0.39922001375987209 -0.1164922837009474 0 -0.42776702366662761 -0.1116390376304886 0 -0.42006732180240453 -0.12745115235784901 0 -0.39922001375987209 -0.1164922837009474 0 -0.42776702366662761 -0.1116390376304886 0 -0.39922001375987209 -0.1164922837009474 0 -0.42776702366662761 -0.1116390376304886 0 -0.40981626645096531 -0.089779710647213795 0 -0.42776702366662761 -0.1116390376304886 0 -0.42911323146909108 -0.091302342490507366 0 -0.4426589783555871 -0.097776415594468161 0 -0.42776702366662761 -0.1116390376304886 0 -0.40981626645096531 -0.089779710647213795 0 -0.42911323146909108 -0.091302342490507366 0 -0.4359871790739055 -0.13105497281578771 0 -0.42776702366662761 -0.1116390376304886 0 -0.44843960772449759 -0.1222631839144504 0 -0.42006732180240453 -0.12745115235784901 0 -0.4359871790739055 -0.13105497281578771 0 -0.42776702366662761 -0.1116390376304886 0 -0.40586220417995961 -0.057519940550460349 0 -0.40981626645096531 -0.089779710647213795 0 -0.42630723386672592 -0.073802606045500402 0 -0.40981626645096531 -0.089779710647213795 0 -0.42911323146909108 -0.091302342490507366 0 -0.42630723386672592 -0.073802606045500402 0 -0.42911323146909108 -0.091302342490507366 0 -0.42630723386672592 -0.073802606045500402 0 -0.44279191497058729 -0.081417573454931197 0 -0.42630723386672592 -0.073802606045500402 0 -0.44251059026194312 -0.067100021172212407 0 -0.44279191497058729 -0.081417573454931197 0 -0.43195002141073502 -0.054793382849905162 0 -0.42630723386672592 -0.073802606045500402 0 -0.44251059026194312 -0.067100021172212407 0 -0.44251059026194312 -0.067100021172212407 0 -0.46090668883585761 -0.070137265438746474 0 -0.45059709222581013 -0.055349278071978779 0 -0.44251059026194312 -0.067100021172212407 0 -0.44279191497058729 -0.081417573454931197 0 -0.46090668883585761 -0.070137265438746474 0 -0.42911323146909108 -0.091302342490507366 0 -0.44279191497058729 -0.081417573454931197 0 -0.4426589783555871 -0.097776415594468161 0 -0.44279191497058729 -0.081417573454931197 0 -0.4576243479199249 -0.084054439349660892 0 -0.4426589783555871 -0.097776415594468161 0 -0.44279191497058729 -0.081417573454931197 0 -0.4576243479199249 -0.084054439349660892 0 -0.46090668883585761 -0.070137265438746474 0 -0.4576243479199249 -0.084054439349660892 0 -0.4426589783555871 -0.097776415594468161 0 -0.46471451207607922 -0.095808688176480875 0 -0.4576243479199249 -0.084054439349660892 0 -0.46471451207607922 -0.095808688176480875 0 -0.47098959701764598 -0.085038627440953488 0 -0.4576243479199249 -0.084054439349660892 0 -0.46929014379399009 -0.074685270680863447 0 -0.47098959701764598 -0.085038627440953488 0 -0.4576243479199249 -0.084054439349660892 0 -0.46090668883585761 -0.070137265438746474 0 -0.46929014379399009 -0.074685270680863447 0 -0.46090668883585761 -0.070137265438746474 0 -0.47018169249567138 -0.065891761655684875 0 -0.46668714798600802 -0.05717425583475659 0 -0.46090668883585761 -0.070137265438746474 0 -0.47018169249567138 -0.065891761655684875 0 -0.46929014379399009 -0.074685270680863447 0 -0.42776702366662761 -0.1116390376304886 0 -0.44843960772449759 -0.1222631839144504 0 -0.45631403357338329 -0.1067857915600299 0 -0.42776702366662761 -0.1116390376304886 0 -0.4426589783555871 -0.097776415594468161 0 -0.45631403357338329 -0.1067857915600299 0 -0.42776702366662761 -0.1116390376304886 0 -0.45631403357338329 -0.1067857915600299 0 -0.45631403357338329 -0.1067857915600299 0 -0.46471451207607922 -0.095808688176480875 0 -0.47576955009238042 -0.1042751317152039 0 -0.4426589783555871 -0.097776415594468161 0 -0.45631403357338329 -0.1067857915600299 0 -0.46471451207607922 -0.095808688176480875 0 -0.44843960772449759 -0.1222631839144504 0 -0.45631403357338329 -0.1067857915600299 0 -0.46892340235015711 -0.1232890138155224 0 -0.45631403357338329 -0.1067857915600299 0 -0.46892340235015711 -0.1232890138155224 0 -0.47576955009238042 -0.1042751317152039 0 -0.46892340235015711 -0.1232890138155224 0 -0.48327589852072211 -0.1179750193911588 0 -0.47576955009238042 -0.1042751317152039 0 -0.48327589852072211 -0.1179750193911588 0 -0.47576955009238042 -0.1042751317152039 0 -0.48991314254467289 -0.103730459199615 0 -0.46471451207607922 -0.095808688176480875 0 -0.47576955009238042 -0.1042751317152039 0 -0.4746629605125311 -0.093762601242932314 0 -0.47576955009238042 -0.1042751317152039 0 -0.48379705954630581 -0.093852052248965173 0 -0.48991314254467289 -0.103730459199615 0 -0.47576955009238042 -0.1042751317152039 0 -0.4746629605125311 -0.093762601242932314 0 -0.48379705954630581 -0.093852052248965173 0 -0.5 -0.09659759647665489 0 -0.48991314254467289 -0.103730459199615 0 -0.5 -0.1238515568465441 0 -0.48379705954630581 -0.093852052248965173 0 -0.49038731992522022 -0.094510427367105812 0 -0.48991314254467289 -0.103730459199615 0 -0.5 -0.09659759647665489 0 -0.49663503679552529 -0.095471158062359979 0 -0.48991314254467289 -0.103730459199615 0 -0.49038731992522022 -0.094510427367105812 0 -0.49663503679552529 -0.095471158062359979 0 -0.48991314254467289 -0.103730459199615 0 -0.48327589852072211 -0.1179750193911588 0 -0.48991314254467289 -0.103730459199615 0 -0.5 -0.1238515568465441 0 -0.47909392793209071 -0.076846372554417647 0 -0.48606671014570968 -0.079328715589768742 0 -0.48454253113270879 -0.070700005592335344 0 -0.47909392793209071 -0.076846372554417647 0 -0.47768399390701111 -0.068155983681178103 0 -0.48454253113270879 -0.070700005592335344 0 -0.48368274378618042 -0.063606321744544669 0 -0.47768399390701111 -0.068155983681178103 0 -0.47634048795549011 -0.059306032642879689 0 -0.48368274378618042 -0.063606321744544669 0 -0.47768399390701111 -0.068155983681178103 0 -0.48454253113270879 -0.070700005592335344 0 -0.47768399390701111 -0.068155983681178103 0 -0.47018169249567138 -0.065891761655684875 0 -0.47634048795549011 -0.059306032642879689 0 -0.47768399390701111 -0.068155983681178103 0 -0.47018169249567138 -0.065891761655684875 0 -0.46929014379399009 -0.074685270680863447 0 -0.47909392793209071 -0.076846372554417647 0 -0.47768399390701111 -0.068155983681178103 0 -0.46929014379399009 -0.074685270680863447 0 -0.47909392793209071 -0.076846372554417647 0 -0.46929014379399009 -0.074685270680863447 0 -0.47098959701764598 -0.085038627440953488 0 -0.4746629605125311 -0.093762601242932314 0 -0.47098959701764598 -0.085038627440953488 0 -0.47980543406301163 -0.085686827889863648 0 -0.46471451207607922 -0.095808688176480875 0 -0.4746629605125311 -0.093762601242932314 0 -0.47098959701764598 -0.085038627440953488 0 -0.48379705954630581 -0.093852052248965173 0 -0.47980543406301163 -0.085686827889863648 0 -0.484666464251091 -0.086098579601627354 0 -0.4746629605125311 -0.093762601242932314 0 -0.48379705954630581 -0.093852052248965173 0 -0.47980543406301163 -0.085686827889863648 0 -0.47909392793209071 -0.076846372554417647 0 -0.47980543406301163 -0.085686827889863648 0 -0.48606671014570968 -0.079328715589768742 0 -0.47909392793209071 -0.076846372554417647 0 -0.47098959701764598 -0.085038627440953488 0 -0.47980543406301163 -0.085686827889863648 0 -0.47980543406301163 -0.085686827889863648 0 -0.48606671014570968 -0.079328715589768742 0 -0.484666464251091 -0.086098579601627354 0 -0.48899665324933711 -0.085526722677911893 0 -0.49250712101031252 -0.085575811425672083 0 -0.49400947407116752 -0.066794937595310661 0 -0.49663503679552529 -0.095471158062359979 0 -0.49400947407116752 -0.066794937595310661 0 -0.49663503679552529 -0.095471158062359979 0 -0.49250712101031252 -0.085575811425672083 0 -0.49400947407116752 -0.066794937595310661 0 -0.5 -0.09659759647665489 0 -0.49663503679552529 -0.095471158062359979 0 -0.5 -0.069343636106765638 0 -0.48606671014570968 -0.079328715589768742 0 -0.48899665324933711 -0.085526722677911893 0 -0.484666464251091 -0.086098579601627354 0 -0.48379705954630581 -0.093852052248965173 0 -0.49038731992522022 -0.094510427367105812 0 -0.48899665324933711 -0.085526722677911893 0 -0.48379705954630581 -0.093852052248965173 0 -0.48899665324933711 -0.085526722677911893 0 -0.484666464251091 -0.086098579601627354 0 -0.49038731992522022 -0.094510427367105812 0 -0.48899665324933711 -0.085526722677911893 0 -0.49250712101031252 -0.085575811425672083 0 -0.49038731992522022 -0.094510427367105812 0 -0.49663503679552529 -0.095471158062359979 0 -0.49250712101031252 -0.085575811425672083 0 -0.49663503679552529 -0.095471158062359979 0 -0.5 -0.069343636106765638 0 -0.49400947407116752 -0.066794937595310661 0 -0.48606671014570968 -0.079328715589768742 0 -0.48899665324933711 -0.085526722677911893 0 -0.49400947407116752 -0.066794937595310661 0 -0.48606671014570968 -0.079328715589768742 0 -0.48454253113270879 -0.070700005592335344 0 -0.49400947407116752 -0.066794937595310661 0 -0.48368274378618042 -0.063606321744544669 0 -0.48454253113270879 -0.070700005592335344 0 -0.49400947407116752 -0.066794937595310661 0 -0.49400947407116752 -0.066794937595310661 0 -0.48481755324511261 -0.053352111461469273 0 -0.4913839113468097 -0.038118717128261363 0 -0.5 -0.069343636106765638 0 -0.49400947407116752 -0.066794937595310661 0 -0.5 -0.042089675736876393 0 -0.49400947407116752 -0.066794937595310661 0 -0.4913839113468097 -0.038118717128261363 0 -0.49400947407116752 -0.066794937595310661 0 -0.5 -0.042089675736876393 0 -0.4913839113468097 -0.038118717128261363 0 -0.48368274378618042 -0.063606321744544669 0 -0.49400947407116752 -0.066794937595310661 0 -0.48481755324511261 -0.053352111461469273 0 -0.5 -0.042089675736876393 0 -0.4913839113468097 -0.038118717128261363 0 -0.49999999999999961 -0.01483571536698715 0 -0.48481755324511261 -0.053352111461469273 0 -0.4913839113468097 -0.038118717128261363 0 -0.48187885221359822 -0.042675861393164871 0 -0.4913839113468097 -0.038118717128261363 0 -0.48202311752777721 -0.03386239137985754 0 -0.48311941105277328 -0.024392255640155409 0 -0.4913839113468097 -0.038118717128261363 0 -0.48202311752777721 -0.03386239137985754 0 -0.48187885221359822 -0.042675861393164871 0 -0.48202311752777721 -0.03386239137985754 0 -0.47544049729107418 -0.038377499481130867 0 -0.47560276080781672 -0.026429589753799311 0 -0.48202311752777721 -0.03386239137985754 0 -0.48187885221359822 -0.042675861393164871 0 -0.47544049729107418 -0.038377499481130867 0 -0.48187885221359822 -0.042675861393164871 0 -0.47544049729107418 -0.038377499481130867 0 -0.47532519572387782 -0.049216713897583392 0 -0.47544049729107418 -0.038377499481130867 0 -0.47532519572387782 -0.049216713897583392 0 -0.46678663565198408 -0.044414522572099047 0 -0.47544049729107418 -0.038377499481130867 0 -0.46678663565198408 -0.044414522572099047 0 -0.46557313778308629 -0.030853353783399429 0 -0.47544049729107418 -0.038377499481130867 0 -0.46557313778308629 -0.030853353783399429 0 -0.47560276080781672 -0.026429589753799311 0 -0.48368274378618042 -0.063606321744544669 0 -0.48481755324511261 -0.053352111461469273 0 -0.47634048795549011 -0.059306032642879689 0 -0.48481755324511261 -0.053352111461469273 0 -0.47532519572387782 -0.049216713897583392 0 -0.47634048795549011 -0.059306032642879689 0 -0.48481755324511261 -0.053352111461469273 0 -0.48187885221359822 -0.042675861393164871 0 -0.47532519572387782 -0.049216713897583392 0 -0.47532519572387782 -0.049216713897583392 0 -0.46668714798600802 -0.05717425583475659 0 -0.46678663565198408 -0.044414522572099047 0 -0.47018169249567138 -0.065891761655684875 0 -0.47634048795549011 -0.059306032642879689 0 -0.46668714798600802 -0.05717425583475659 0 -0.47532519572387782 -0.049216713897583392 0 -0.47634048795549011 -0.059306032642879689 0 -0.46668714798600802 -0.05717425583475659 0 -0.46668714798600802 -0.05717425583475659 0 -0.46678663565198408 -0.044414522572099047 0 -0.45059709222581013 -0.055349278071978779 0 -0.46090668883585761 -0.070137265438746474 0 -0.46668714798600802 -0.05717425583475659 0 -0.45059709222581013 -0.055349278071978779 0 -0.46678663565198408 -0.044414522572099047 0 -0.45568972191055451 -0.038586739792583369 0 -0.45059709222581013 -0.055349278071978779 0 -0.46678663565198408 -0.044414522572099047 0 -0.45568972191055451 -0.038586739792583369 0 -0.46557313778308629 -0.030853353783399429 0 -0.45568972191055451 -0.038586739792583369 0 -0.44126118254832081 -0.042866581184493643 0 -0.45059709222581013 -0.055349278071978779 0 -0.45568972191055451 -0.038586739792583369 0 -0.44126118254832081 -0.042866581184493643 0 -0.44309459292558923 -0.030926168057279959 0 -0.43195002141073502 -0.054793382849905162 0 -0.44251059026194312 -0.067100021172212407 0 -0.45059709222581013 -0.055349278071978779 0 -0.43195002141073502 -0.054793382849905162 0 -0.44126118254832081 -0.042866581184493643 0 -0.45059709222581013 -0.055349278071978779 0 -0.44207514470075221 -0.0081719034274755891 0 -0.45590625635245979 -0.0051599720147795809 0 -0.43707440836750311 0.0069203135765213593 0 -0.43564601936926678 -0.017283148411569062 0 -0.44207514470075221 -0.0081719034274755891 0 -0.45329309161143799 -0.020005005371601631 0 -0.44207514470075221 -0.0081719034274755891 0 -0.45329309161143799 -0.020005005371601631 0 -0.45590625635245979 -0.0051599720147795809 0 -0.45568972191055451 -0.038586739792583369 0 -0.44309459292558923 -0.030926168057279959 0 -0.45329309161143799 -0.020005005371601631 0 -0.43564601936926678 -0.017283148411569062 0 -0.45329309161143799 -0.020005005371601631 0 -0.43564601936926678 -0.017283148411569062 0 -0.44309459292558923 -0.030926168057279959 0 -0.45329309161143799 -0.020005005371601631 0 -0.45568972191055451 -0.038586739792583369 0 -0.45329309161143799 -0.020005005371601631 0 -0.46557313778308629 -0.030853353783399429 0 -0.45329309161143799 -0.020005005371601631 0 -0.46557313778308629 -0.030853353783399429 0 -0.46662611942565069 -0.017306765729182359 0 -0.46662611942565069 -0.017306765729182359 0 -0.45590625635245979 -0.0051599720147795809 0 -0.46991922741820907 -0.0042138520874283186 0 -0.45329309161143799 -0.020005005371601631 0 -0.46662611942565069 -0.017306765729182359 0 -0.45590625635245979 -0.0051599720147795809 0 -0.46991922741820907 -0.0042138520874283186 0 -0.47782891695901092 -0.01410808327764654 0 -0.48049594891115988 -0.0047101833485452141 0 -0.46991922741820907 -0.0042138520874283186 0 -0.48049594891115988 -0.0047101833485452141 0 -0.47702373801087311 0.0065826829812793541 0 -0.46662611942565069 -0.017306765729182359 0 -0.46991922741820907 -0.0042138520874283186 0 -0.47782891695901092 -0.01410808327764654 0 -0.47782891695901092 -0.01410808327764654 0 -0.48049594891115988 -0.0047101833485452141 0 -0.48875834862245199 -0.0094424966612123087 0 -0.46557313778308629 -0.030853353783399429 0 -0.46662611942565069 -0.017306765729182359 0 -0.47560276080781672 -0.026429589753799311 0 -0.46662611942565069 -0.017306765729182359 0 -0.47782891695901092 -0.01410808327764654 0 -0.47560276080781672 -0.026429589753799311 0 -0.47782891695901092 -0.01410808327764654 0 -0.48311941105277328 -0.024392255640155409 0 -0.48875834862245199 -0.0094424966612123087 0 -0.47782891695901092 -0.01410808327764654 0 -0.47560276080781672 -0.026429589753799311 0 -0.48311941105277328 -0.024392255640155409 0 -0.48202311752777721 -0.03386239137985754 0 -0.47560276080781672 -0.026429589753799311 0 -0.48311941105277328 -0.024392255640155409 0 -0.4913839113468097 -0.038118717128261363 0 -0.48875834862245199 -0.0094424966612123087 0 -0.4913839113468097 -0.038118717128261363 0 -0.48875834862245199 -0.0094424966612123087 0 -0.49999999999999961 -0.01483571536698715 0 -0.4913839113468097 -0.038118717128261363 0 -0.48311941105277328 -0.024392255640155409 0 -0.48875834862245199 -0.0094424966612123087 0 -0.49999999999999961 -0.01483571536698715 0 -0.48845596754586362 0.00051477039417656412 0 -0.48974313699213928 0.01138103852006596 0 -0.49999999999999961 -0.01483571536698715 0 -0.48974313699213928 0.01138103852006596 0 -0.48049594891115988 -0.0047101833485452141 0 -0.48875834862245199 -0.0094424966612123087 0 -0.48845596754586362 0.00051477039417656412 0 -0.48875834862245199 -0.0094424966612123087 0 -0.49999999999999961 -0.01483571536698715 0 -0.48845596754586362 0.00051477039417656412 0 -0.49999999999999961 -0.01483571536698715 0 -0.5 0.013417287615015649 0 -0.48974313699213928 0.01138103852006596 0 -0.48845596754586362 0.00051477039417656412 0 -0.48974313699213928 0.01138103852006596 0 -0.48845596754586362 0.00051477039417656412 0 -0.48974313699213928 0.01138103852006596 0 -0.47702373801087311 0.0065826829812793541 0 -0.48974313699213928 0.01138103852006596 0 -0.49255458662684948 0.035115260647236059 0 -0.5 0.013417287615015649 0 -0.48974313699213928 0.01138103852006596 0 -0.49255458662684948 0.035115260647236059 0 -0.5 0.013417287615015649 0 -0.5 0.041670290597018378 0 -0.49255458662684948 0.035115260647236059 0 -0.48974313699213928 0.01138103852006596 0 -0.48296546827597903 0.0287048998725488 0 -0.48974313699213928 0.01138103852006596 0 -0.48296546827597903 0.0287048998725488 0 -0.49255458662684948 0.035115260647236059 0 -0.48974313699213928 0.01138103852006596 0 -0.47896676852517173 0.017451095802138879 0 -0.48296546827597903 0.0287048998725488 0 -0.47896676852517173 0.017451095802138879 0 -0.48296546827597903 0.0287048998725488 0 -0.47417943165452969 0.024514982633775832 0 -0.48296546827597903 0.0287048998725488 0 -0.47417943165452969 0.024514982633775832 0 -0.47209192571778458 0.033520975553895119 0 -0.47417943165452969 0.024514982633775832 0 -0.47209192571778458 0.033520975553895119 0 -0.46290570634395539 0.025408595970659129 0 -0.47417943165452969 0.024514982633775832 0 -0.47055604464826822 0.016474590390969698 0 -0.46290570634395539 0.025408595970659129 0 -0.47896676852517173 0.017451095802138879 0 -0.47417943165452969 0.024514982633775832 0 -0.47055604464826822 0.016474590390969698 0 -0.47896676852517173 0.017451095802138879 0 -0.47055604464826822 0.016474590390969698 0 -0.47702373801087311 0.0065826829812793541 0 -0.47055604464826822 0.016474590390969698 0 -0.47702373801087311 0.0065826829812793541 0 -0.45968320861064949 0.0094324327551081194 0 -0.46991922741820907 -0.0042138520874283186 0 -0.47702373801087311 0.0065826829812793541 0 -0.45968320861064949 0.0094324327551081194 0 -0.48049594891115988 -0.0047101833485452141 0 -0.48845596754586362 0.00051477039417656412 0 -0.47702373801087311 0.0065826829812793541 0 -0.48974313699213928 0.01138103852006596 0 -0.47896676852517173 0.017451095802138879 0 -0.47702373801087311 0.0065826829812793541 0 -0.49536603626156023 0.058849482774406027 0 -0.49255458662684948 0.035115260647236059 0 -0.49536603626156023 0.058849482774406027 0 -0.48564910424921442 0.047952847490986328 0 -0.49255458662684948 0.035115260647236059 0 -0.49536603626156023 0.058849482774406027 0 -0.5 0.041670290597018378 0 -0.5 0.069923293579020884 0 -0.49536603626156023 0.058849482774406027 0 -0.48564910424921442 0.047952847490986328 0 -0.48021671788052511 0.059874797054368142 0 -0.49536603626156023 0.058849482774406027 0 -0.5 0.041670290597018378 0 -0.49255458662684948 0.035115260647236059 0 -0.48564910424921442 0.047952847490986328 0 -0.49255458662684948 0.035115260647236059 0 -0.48433923967796533 0.039450442308950659 0 -0.48296546827597903 0.0287048998725488 0 -0.49255458662684948 0.035115260647236059 0 -0.48433923967796533 0.039450442308950659 0 -0.48296546827597903 0.0287048998725488 0 -0.47618779955981833 0.04602876122503146 0 -0.48296546827597903 0.0287048998725488 0 -0.47209192571778458 0.033520975553895119 0 -0.47618779955981833 0.04602876122503146 0 -0.48296546827597903 0.0287048998725488 0 -0.47618779955981833 0.04602876122503146 0 -0.48433923967796533 0.039450442308950659 0 -0.47209192571778458 0.033520975553895119 0 -0.47618779955981833 0.04602876122503146 0 -0.46351054676266362 0.042736230655237961 0 -0.48564910424921442 0.047952847490986328 0 -0.47618779955981833 0.04602876122503146 0 -0.48433923967796533 0.039450442308950659 0 -0.47618779955981833 0.04602876122503146 0 -0.48021671788052511 0.059874797054368142 0 -0.46411999617557143 0.058700701988137871 0 -0.48564910424921442 0.047952847490986328 0 -0.47618779955981833 0.04602876122503146 0 -0.48021671788052511 0.059874797054368142 0 -0.47618779955981833 0.04602876122503146 0 -0.46411999617557143 0.058700701988137871 0 -0.46351054676266362 0.042736230655237961 0 -0.46411999617557143 0.058700701988137871 0 -0.46351054676266362 0.042736230655237961 0 -0.4386246944217384 0.059061204553033653 0 -0.47209192571778458 0.033520975553895119 0 -0.46351054676266362 0.042736230655237961 0 -0.46290570634395539 0.025408595970659129 0 -0.46351054676266362 0.042736230655237961 0 -0.45070134634816378 0.033764599382591493 0 -0.46290570634395539 0.025408595970659129 0 -0.46351054676266362 0.042736230655237961 0 -0.45070134634816378 0.033764599382591493 0 -0.4386246944217384 0.059061204553033653 0 -0.45070134634816378 0.033764599382591493 0 -0.4386246944217384 0.059061204553033653 0 -0.43567585422559862 0.03045941504519447 0 -0.46351054676266362 0.042736230655237961 0 -0.4386246944217384 0.059061204553033653 0 -0.45590625635245979 -0.0051599720147795809 0 -0.46991922741820907 -0.0042138520874283186 0 -0.45968320861064949 0.0094324327551081194 0 -0.47055604464826822 0.016474590390969698 0 -0.45968320861064949 0.0094324327551081194 0 -0.46290570634395539 0.025408595970659129 0 -0.45968320861064949 0.0094324327551081194 0 -0.46290570634395539 0.025408595970659129 0 -0.44920810477917411 0.021197071346014909 0 -0.45070134634816378 0.033764599382591493 0 -0.46290570634395539 0.025408595970659129 0 -0.44920810477917411 0.021197071346014909 0 -0.44920810477917411 0.021197071346014909 0 -0.43707440836750311 0.0069203135765213593 0 -0.43567585422559862 0.03045941504519447 0 -0.45070134634816378 0.033764599382591493 0 -0.44920810477917411 0.021197071346014909 0 -0.43567585422559862 0.03045941504519447 0 -0.45968320861064949 0.0094324327551081194 0 -0.44920810477917411 0.021197071346014909 0 -0.43707440836750311 0.0069203135765213593 0 -0.45590625635245979 -0.0051599720147795809 0 -0.45968320861064949 0.0094324327551081194 0 -0.43707440836750311 0.0069203135765213593 0 -0.42845594780309321 -0.0053317049159490341 0 -0.43707440836750311 0.0069203135765213593 0 -0.4105044297308148 0.0070513888871675916 0 -0.43707440836750311 0.0069203135765213593 0 -0.4105044297308148 0.0070513888871675916 0 -0.41989350621349902 0.022412948075780079 0 -0.4105044297308148 0.0070513888871675916 0 -0.40300991233453431 0.028664069225871891 0 -0.4105044297308148 0.0070513888871675916 0 -0.41989350621349902 0.022412948075780079 0 -0.40300991233453431 0.028664069225871891 0 -0.43707440836750311 0.0069203135765213593 0 -0.41989350621349902 0.022412948075780079 0 -0.43567585422559862 0.03045941504519447 0 -0.4386246944217384 0.059061204553033653 0 -0.43567585422559862 0.03045941504519447 0 -0.41543240377965329 0.047330252369718002 0 -0.41989350621349902 0.022412948075780079 0 -0.43567585422559862 0.03045941504519447 0 -0.41543240377965329 0.047330252369718002 0 -0.4386246944217384 0.059061204553033653 0 -0.41543240377965329 0.047330252369718002 0 -0.41373884208081319 0.075386178450829344 0 -0.41543240377965329 0.047330252369718002 0 -0.40078674704835032 0.063818497392900395 0 -0.41373884208081319 0.075386178450829344 0 -0.41989350621349902 0.022412948075780079 0 -0.41543240377965329 0.047330252369718002 0 -0.40300991233453431 0.028664069225871891 0 -0.41543240377965329 0.047330252369718002 0 -0.39551539493825372 0.050276749564576131 0 -0.40300991233453431 0.028664069225871891 0 -0.39551539493825372 0.050276749564576131 0 -0.38900476151631158 0.032379860665448047 0 -0.40300991233453431 0.028664069225871891 0 -0.39551539493825372 0.050276749564576131 0 -0.40300991233453431 0.028664069225871891 0 -0.39551539493825372 0.050276749564576131 0 -0.38519609633294633 0.066962249473076621 0 -0.40078674704835032 0.063818497392900395 0 -0.41543240377965329 0.047330252369718002 0 -0.39551539493825372 0.050276749564576131 0 -0.40078674704835032 0.063818497392900395 0 -0.39551539493825372 0.050276749564576131 0 -0.38519609633294633 0.066962249473076621 0 -0.37242421445053941 0.054455104815143769 0 -0.39551539493825372 0.050276749564576131 0 -0.37455541329823672 0.036289503171576858 0 -0.37242421445053941 0.054455104815143769 0 -0.39551539493825372 0.050276749564576131 0 -0.38900476151631158 0.032379860665448047 0 -0.37455541329823672 0.036289503171576858 0 -0.38900476151631158 0.032379860665448047 0 -0.38293832549422191 0.014289120699767319 0 -0.37455541329823672 0.036289503171576858 0 -0.38211321526304293 0.00143773175499627 0 -0.38293832549422191 0.014289120699767319 0 -0.36959522965105113 0.0065841086164104036 0 -0.38211321526304293 0.00143773175499627 0 -0.38293832549422191 0.014289120699767319 0 -0.39577632125205953 0.0040569279165914062 0 -0.4105044297308148 0.0070513888871675916 0 -0.39577632125205953 0.0040569279165914062 0 -0.40300991233453431 0.028664069225871891 0 -0.40426881942082582 -0.0035317344774063119 0 -0.4105044297308148 0.0070513888871675916 0 -0.39577632125205953 0.0040569279165914062 0 -0.38900476151631158 0.032379860665448047 0 -0.38293832549422191 0.014289120699767319 0 -0.40300991233453431 0.028664069225871891 0 -0.38293832549422191 0.014289120699767319 0 -0.39577632125205953 0.0040569279165914062 0 -0.40300991233453431 0.028664069225871891 0 -0.39475446025116062 0.1036707270855243 0 -0.39502077292678978 0.094278585441676555 0 -0.40468776249317479 0.101841495944342 0 -0.39475446025116062 0.1036707270855243 0 -0.39502077292678978 0.094278585441676555 0 -0.38885298973988902 0.091711152348626257 0 -0.39475446025116062 0.1036707270855243 0 -0.40468776249317479 0.101841495944342 0 -0.40702514097755721 0.1096951537532633 0 -0.40302070205565271 0.1237257677633832 0 -0.39483811630485721 0.11637682362553579 0 -0.40702514097755721 0.1096951537532633 0 -0.39475446025116062 0.1036707270855243 0 -0.39483811630485721 0.11637682362553579 0 -0.40702514097755721 0.1096951537532633 0 -0.3953150894391651 0.1242609248717423 0 -0.39483811630485721 0.11637682362553579 0 -0.38807025833791131 0.12504954913433611 0 -0.40302070205565271 0.1237257677633832 0 -0.3953150894391651 0.1242609248717423 0 -0.39483811630485721 0.11637682362553579 0 -0.38115682876955581 0.1103283330357792 0 -0.37346066779922188 0.12894551372293181 0 -0.39475446025116062 0.1036707270855243 0 -0.39483811630485721 0.11637682362553579 0 -0.38115682876955581 0.1103283330357792 0 -0.38115682876955581 0.1103283330357792 0 -0.38807025833791131 0.12504954913433611 0 -0.37346066779922188 0.12894551372293181 0 -0.39483811630485721 0.11637682362553579 0 -0.38115682876955581 0.1103283330357792 0 -0.38807025833791131 0.12504954913433611 0 -0.38115682876955581 0.1103283330357792 0 -0.38885298973988902 0.091711152348626257 0 -0.38885298973988902 0.091711152348626257 0 -0.36972159611154309 0.104261234914918 0 -0.39475446025116062 0.1036707270855243 0 -0.38115682876955581 0.1103283330357792 0 -0.38885298973988902 0.091711152348626257 0 -0.38115682876955581 0.1103283330357792 0 -0.38885298973988902 0.091711152348626257 0 -0.36972159611154309 0.104261234914918 0 -0.37781192793851243 0.084198958559004139 0 -0.38885298973988902 0.091711152348626257 0 -0.39405099811008509 0.079137057106301853 0 -0.37781192793851243 0.084198958559004139 0 -0.38885298973988902 0.091711152348626257 0 -0.36972159611154309 0.104261234914918 0 -0.37781192793851243 0.084198958559004139 0 -0.38519609633294633 0.066962249473076621 0 -0.36721495268790022 0.0728579419499161 0 -0.37781192793851243 0.084198958559004139 0 -0.38519609633294633 0.066962249473076621 0 -0.39405099811008509 0.079137057106301853 0 -0.40078674704835032 0.063818497392900395 0 -0.39405099811008509 0.079137057106301853 0 -0.41373884208081319 0.075386178450829344 0 -0.38519609633294633 0.066962249473076621 0 -0.40078674704835032 0.063818497392900395 0 -0.39405099811008509 0.079137057106301853 0 -0.38885298973988902 0.091711152348626257 0 -0.41373884208081319 0.075386178450829344 0 -0.39502077292678978 0.094278585441676555 0 -0.38885298973988902 0.091711152348626257 0 -0.41373884208081319 0.075386178450829344 0 -0.38885298973988902 0.091711152348626257 0 -0.39405099811008509 0.079137057106301853 0 -0.41373884208081319 0.075386178450829344 0 -0.38885298973988902 0.091711152348626257 0 -0.39405099811008509 0.079137057106301853 0 -0.39502077292678978 0.094278585441676555 0 -0.41442553266644983 0.088305833792031885 0 -0.41373884208081319 0.075386178450829344 0 -0.41442553266644983 0.088305833792031885 0 -0.42699183984100408 0.083837053778717946 0 -0.42195067581719192 0.099721517496903708 0 -0.41442553266644983 0.088305833792031885 0 -0.41373884208081319 0.075386178450829344 0 -0.42699183984100408 0.083837053778717946 0 -0.4386246944217384 0.059061204553033653 0 -0.41373884208081319 0.075386178450829344 0 -0.4386246944217384 0.059061204553033653 0 -0.41373884208081319 0.075386178450829344 0 -0.42699183984100408 0.083837053778717946 0 -0.4386246944217384 0.059061204553033653 0 -0.42699183984100408 0.083837053778717946 0 -0.44358032772935302 0.084402704420452807 0 -0.43535085552378577 0.093281431312051341 0 -0.42699183984100408 0.083837053778717946 0 -0.44358032772935302 0.084402704420452807 0 -0.43535085552378577 0.093281431312051341 0 -0.42699183984100408 0.083837053778717946 0 -0.42195067581719192 0.099721517496903708 0 -0.43535085552378577 0.093281431312051341 0 -0.42195067581719192 0.099721517496903708 0 -0.44888057870759418 0.1051644495521309 0 -0.43072976626338322 0.10699776147244699 0 -0.42195067581719192 0.099721517496903708 0 -0.44888057870759418 0.1051644495521309 0 -0.42195067581719192 0.099721517496903708 0 -0.44888057870759418 0.1051644495521309 0 -0.43072976626338322 0.10699776147244699 0 -0.42195067581719192 0.099721517496903708 0 -0.41872180265434461 0.1093686918662384 0 -0.39502077292678978 0.094278585441676555 0 -0.40468776249317479 0.101841495944342 0 -0.42195067581719192 0.099721517496903708 0 -0.40468776249317479 0.101841495944342 0 -0.42195067581719192 0.099721517496903708 0 -0.40702514097755721 0.1096951537532633 0 -0.39502077292678978 0.094278585441676555 0 -0.41442553266644983 0.088305833792031885 0 -0.42195067581719192 0.099721517496903708 0 -0.39502077292678978 0.094278585441676555 0 -0.42195067581719192 0.099721517496903708 0 -0.42195067581719192 0.099721517496903708 0 -0.41872180265434461 0.1093686918662384 0 -0.40702514097755721 0.1096951537532633 0 -0.40302070205565271 0.1237257677633832 0 -0.40702514097755721 0.1096951537532633 0 -0.41518162755924598 0.1210603347423395 0 -0.41872180265434461 0.1093686918662384 0 -0.40702514097755721 0.1096951537532633 0 -0.41518162755924598 0.1210603347423395 0 -0.43072976626338322 0.10699776147244699 0 -0.41872180265434461 0.1093686918662384 0 -0.41518162755924598 0.1210603347423395 0 -0.43072976626338322 0.10699776147244699 0 -0.41518162755924598 0.1210603347423395 0 -0.43491668828202612 0.1219568299715567 0 -0.43072976626338322 0.10699776147244699 0 -0.41518162755924598 0.1210603347423395 0 -0.43072976626338322 0.10699776147244699 0 -0.43491668828202612 0.1219568299715567 0 -0.44443120603095121 0.1162848738698302 0 -0.43072976626338322 0.10699776147244699 0 -0.44443120603095121 0.1162848738698302 0 -0.44888057870759418 0.1051644495521309 0 -0.43491668828202612 0.1219568299715567 0 -0.44443120603095121 0.1162848738698302 0 -0.45135110641501042 0.13022045524425011 0 -0.44443120603095121 0.1162848738698302 0 -0.45627789048674239 0.1170848731087664 0 -0.45135110641501042 0.13022045524425011 0 -0.44443120603095121 0.1162848738698302 0 -0.44888057870759418 0.1051644495521309 0 -0.45627789048674239 0.1170848731087664 0 -0.43535085552378577 0.093281431312051341 0 -0.44888057870759418 0.1051644495521309 0 -0.44358032772935302 0.084402704420452807 0 -0.44888057870759418 0.1051644495521309 0 -0.46267226140214018 0.089547160076238336 0 -0.47581048159799649 0.1106073816073581 0 -0.44888057870759418 0.1051644495521309 0 -0.47581048159799649 0.1106073816073581 0 -0.45627789048674239 0.1170848731087664 0 -0.45135110641501042 0.13022045524425011 0 -0.46855676567277649 0.12525024444303801 0 -0.44888057870759418 0.1051644495521309 0 -0.45627789048674239 0.1170848731087664 0 -0.47581048159799649 0.1106073816073581 0 -0.45627789048674239 0.1170848731087664 0 -0.47581048159799649 0.1106073816073581 0 -0.46855676567277649 0.12525024444303801 0 -0.46411999617557143 0.058700701988137871 0 -0.4386246944217384 0.059061204553033653 0 -0.45535755709802622 0.072668809015852751 0 -0.4386246944217384 0.059061204553033653 0 -0.44358032772935302 0.084402704420452807 0 -0.45535755709802622 0.072668809015852751 0 -0.44888057870759418 0.1051644495521309 0 -0.44358032772935302 0.084402704420452807 0 -0.46267226140214018 0.089547160076238336 0 -0.46267226140214018 0.089547160076238336 0 -0.45535755709802622 0.072668809015852751 0 -0.47156205612671892 0.073702822558664935 0 -0.44358032772935302 0.084402704420452807 0 -0.46267226140214018 0.089547160076238336 0 -0.45535755709802622 0.072668809015852751 0 -0.46411999617557143 0.058700701988137871 0 -0.45535755709802622 0.072668809015852751 0 -0.47156205612671892 0.073702822558664935 0 -0.48021671788052511 0.059874797054368142 0 -0.46411999617557143 0.058700701988137871 0 -0.47156205612671892 0.073702822558664935 0 -0.48021671788052511 0.059874797054368142 0 -0.47156205612671892 0.073702822558664935 0 -0.48583940377751161 0.073189947195177629 0 -0.46267226140214018 0.089547160076238336 0 -0.47156205612671892 0.073702822558664935 0 -0.48272834233584883 0.091772067561602666 0 -0.47156205612671892 0.073702822558664935 0 -0.48272834233584883 0.091772067561602666 0 -0.48583940377751161 0.073189947195177629 0 -0.49817748589627098 0.082583704901576085 0 -0.5 0.069923293579020884 0 -0.5 0.098176296561023446 0 -0.48272834233584883 0.091772067561602666 0 -0.49817748589627098 0.082583704901576085 0 -0.48583940377751161 0.073189947195177629 0 -0.48272834233584883 0.091772067561602666 0 -0.49817748589627098 0.082583704901576085 0 -0.5 0.098176296561023446 0 -0.49536603626156023 0.058849482774406027 0 -0.49817748589627098 0.082583704901576085 0 -0.49536603626156023 0.058849482774406027 0 -0.49817748589627098 0.082583704901576085 0 -0.48583940377751161 0.073189947195177629 0 -0.49536603626156023 0.058849482774406027 0 -0.49817748589627098 0.082583704901576085 0 -0.5 0.069923293579020884 0 -0.49536603626156023 0.058849482774406027 0 -0.48021671788052511 0.059874797054368142 0 -0.48583940377751161 0.073189947195177629 0 -0.48335103600585949 0.1238628718755046 0 -0.47581048159799649 0.1106073816073581 0 -0.48837797198794097 0.110169583429703 0 -0.48335103600585949 0.1238628718755046 0 -0.47581048159799649 0.1106073816073581 0 -0.46855676567277649 0.12525024444303801 0 -0.46267226140214018 0.089547160076238336 0 -0.48272834233584883 0.091772067561602666 0 -0.47581048159799649 0.1106073816073581 0 -0.48272834233584883 0.091772067561602666 0 -0.47581048159799649 0.1106073816073581 0 -0.48837797198794097 0.110169583429703 0 -0.48272834233584883 0.091772067561602666 0 -0.5 0.098176296561023446 0 -0.48837797198794097 0.110169583429703 0 -0.48335103600585949 0.1238628718755046 0 -0.48837797198794097 0.110169583429703 0 -0.5 0.12642929954302609 0 -0.5 0.098176296561023446 0 -0.48837797198794097 0.110169583429703 0 -0.5 0.12642929954302609 0 -0.5 0.12642929954302609 0 -0.48914102766347872 0.13668031936196329 0 -0.50000000000000144 0.15468230252502871 0 -0.48335103600585949 0.1238628718755046 0 -0.5 0.12642929954302609 0 -0.48914102766347872 0.13668031936196329 0 -0.48335103600585949 0.1238628718755046 0 -0.48914102766347872 0.13668031936196329 0 -0.47705618332511029 0.13592420261942609 0 -0.47705618332511029 0.13592420261942609 0 -0.48389276227399808 0.14658319152098581 0 -0.46778552454799549 0.1384840805169418 0 -0.48914102766347872 0.13668031936196329 0 -0.47705618332511029 0.13592420261942609 0 -0.48389276227399808 0.14658319152098581 0 -0.47705618332511029 0.13592420261942609 0 -0.46778552454799549 0.1384840805169418 0 -0.47705618332511029 0.13592420261942609 0 -0.46855676567277649 0.12525024444303801 0 -0.46778552454799549 0.1384840805169418 0 -0.48335103600585949 0.1238628718755046 0 -0.47705618332511029 0.13592420261942609 0 -0.46855676567277649 0.12525024444303801 0 -0.48389276227399808 0.14658319152098581 0 -0.46343474046482619 0.1576123747929466 0 -0.46778552454799549 0.1384840805169418 0 -0.48389276227399808 0.14658319152098581 0 -0.46778552454799549 0.1384840805169418 0 -0.48914102766347872 0.13668031936196329 0 -0.48389276227399808 0.14658319152098581 0 -0.50000000000000144 0.15468230252502871 0 -0.48389276227399808 0.14658319152098581 0 -0.50000000000000144 0.15468230252502871 0 -0.50000000000000144 0.15468230252502871 0 -0.5 0.18259479095605891 0 -0.48289262697321528 0.16863854674054241 0 -0.48389276227399808 0.14658319152098581 0 -0.50000000000000144 0.15468230252502871 0 -0.48289262697321528 0.16863854674054241 0 -0.5 0.18259479095605891 0 -0.48289262697321528 0.16863854674054241 0 -0.4803063952456807 0.19571559242323369 0 -0.48289262697321528 0.16863854674054241 0 -0.46061279049135839 0.18092390545937939 0 -0.4803063952456807 0.19571559242323369 0 -0.48289262697321528 0.16863854674054241 0 -0.46343474046482619 0.1576123747929466 0 -0.46061279049135839 0.18092390545937939 0 -0.48389276227399808 0.14658319152098581 0 -0.48289262697321528 0.16863854674054241 0 -0.46343474046482619 0.1576123747929466 0 -0.46343474046482619 0.1576123747929466 0 -0.46061279049135839 0.18092390545937939 0 -0.44091918573703631 0.16613221849552501 0 -0.46061279049135839 0.18092390545937939 0 -0.44091918573703631 0.16613221849552501 0 -0.46061279049135839 0.18092390545937939 0 -0.44091918573703631 0.16613221849552501 0 -0.44495661861883551 0.19062705355503951 0 -0.46343474046482619 0.1576123747929466 0 -0.44091918573703631 0.16613221849552501 0 -0.44450555276535419 0.14491230602430669 0 -0.44450555276535419 0.14491230602430669 0 -0.45135110641501042 0.13022045524425011 0 -0.4307889550258287 0.13565975442179651 0 -0.43491668828202612 0.1219568299715567 0 -0.45135110641501042 0.13022045524425011 0 -0.43491668828202612 0.1219568299715567 0 -0.45135110641501042 0.13022045524425011 0 -0.4307889550258287 0.13565975442179651 0 -0.45135110641501042 0.13022045524425011 0 -0.46778552454799549 0.1384840805169418 0 -0.44450555276535419 0.14491230602430669 0 -0.45135110641501042 0.13022045524425011 0 -0.46778552454799549 0.1384840805169418 0 -0.45135110641501042 0.13022045524425011 0 -0.46855676567277649 0.12525024444303801 0 -0.46778552454799549 0.1384840805169418 0 -0.46343474046482619 0.1576123747929466 0 -0.44450555276535419 0.14491230602430669 0 -0.46778552454799549 0.1384840805169418 0 -0.44450555276535419 0.14491230602430669 0 -0.46778552454799549 0.1384840805169418 0 -0.47029249263877071 0.23950557535216929 0 -0.47822411666752113 0.23766649629399511 0 -0.46850444540124481 0.23108571277019091 0 -0.47297208541441232 0.2472873218371015 0 -0.47029249263877071 0.23950557535216929 0 -0.47822411666752113 0.23766649629399511 0 -0.47822411666752113 0.23766649629399511 0 -0.48245485910970098 0.24465397801270039 0 -0.49064567966318401 0.23744519811699161 0 -0.47822411666752113 0.23766649629399511 0 -0.49064567966318401 0.23744519811699161 0 -0.47938003969556958 0.22816990261298739 0 -0.47297208541441232 0.2472873218371015 0 -0.47822411666752113 0.23766649629399511 0 -0.48245485910970098 0.24465397801270039 0 -0.47297208541441232 0.2472873218371015 0 -0.48245485910970098 0.24465397801270039 0 -0.48224381441187142 0.25207038703368251 0 -0.48245485910970098 0.24465397801270039 0 -0.48781849227701962 0.2496540844433055 0 -0.48224381441187142 0.25207038703368251 0 -0.48781849227701962 0.2496540844433055 0 -0.49064567966318401 0.23744519811699161 0 -0.4953228398315927 0.26008877056817148 0 -0.5 0.2345823005978433 0 -0.49064567966318401 0.23744519811699161 0 -0.5 0.25865732180859752 0 -0.49064567966318401 0.23744519811699161 0 -0.4953228398315927 0.26008877056817148 0 -0.48245485910970098 0.24465397801270039 0 -0.48781849227701962 0.2496540844433055 0 -0.49064567966318401 0.23744519811699161 0 -0.5 0.2345823005978433 0 -0.49064567966318401 0.23744519811699161 0 -0.48596851949477521 0.2148016256658116 0 -0.49064567966318401 0.23744519811699161 0 -0.48596851949477521 0.2148016256658116 0 -0.49064567966318401 0.23744519811699161 0 -0.47938003969556958 0.22816990261298739 0 -0.48596851949477521 0.2148016256658116 0 -0.5 0.2345823005978433 0 -0.50000000000000211 0.2105072793870891 0 -0.48596851949477521 0.2148016256658116 0 -0.47938003969556958 0.22816990261298739 0 -0.47355743725112281 0.21985048021794801 0 -0.48596851949477521 0.2148016256658116 0 -0.47822411666752113 0.23766649629399511 0 -0.47938003969556958 0.22816990261298739 0 -0.46850444540124481 0.23108571277019091 0 -0.47938003969556958 0.22816990261298739 0 -0.47355743725112281 0.21985048021794801 0 -0.46850444540124481 0.23108571277019091 0 -0.46914460366830979 0.20860653341106031 0 -0.48596851949477521 0.2148016256658116 0 -0.4803063952456807 0.19571559242323369 0 -0.47355743725112281 0.21985048021794801 0 -0.46914460366830979 0.20860653341106031 0 -0.48596851949477521 0.2148016256658116 0 -0.50000000000000211 0.2105072793870891 0 -0.48596851949477521 0.2148016256658116 0 -0.4803063952456807 0.19571559242323369 0 -0.5 0.18259479095605891 0 -0.50000000000000211 0.2105072793870891 0 -0.4803063952456807 0.19571559242323369 0 -0.50000000000000211 0.2105072793870891 0 -0.4803063952456807 0.19571559242323369 0 -0.46914460366830979 0.20860653341106031 0 -0.4803063952456807 0.19571559242323369 0 -0.46130678142283482 0.19636075522850871 0 -0.46061279049135839 0.18092390545937939 0 -0.4803063952456807 0.19571559242323369 0 -0.46061279049135839 0.18092390545937939 0 -0.4803063952456807 0.19571559242323369 0 -0.46130678142283482 0.19636075522850871 0 -0.46061279049135839 0.18092390545937939 0 -0.46130678142283482 0.19636075522850871 0 -0.44495661861883551 0.19062705355503951 0 -0.46130678142283482 0.19636075522850871 0 -0.44495661861883551 0.19062705355503951 0 -0.45151349908998961 0.20593069129383029 0 -0.44495661861883551 0.19062705355503951 0 -0.45151349908998961 0.20593069129383029 0 -0.42960910155995069 0.20686227419889741 0 -0.45151349908998961 0.20593069129383029 0 -0.46000181262142892 0.2192782015284172 0 -0.44375470870694111 0.219105865605255 0 -0.45151349908998961 0.20593069129383029 0 -0.44375470870694111 0.219105865605255 0 -0.42960910155995069 0.20686227419889741 0 -0.46914460366830979 0.20860653341106031 0 -0.45151349908998961 0.20593069129383029 0 -0.46000181262142892 0.2192782015284172 0 -0.46914460366830979 0.20860653341106031 0 -0.46130678142283482 0.19636075522850871 0 -0.45151349908998961 0.20593069129383029 0 -0.47355743725112281 0.21985048021794801 0 -0.46914460366830979 0.20860653341106031 0 -0.46000181262142892 0.2192782015284172 0 -0.47355743725112281 0.21985048021794801 0 -0.46850444540124481 0.23108571277019091 0 -0.46000181262142892 0.2192782015284172 0 -0.46850444540124481 0.23108571277019091 0 -0.45353618161096559 0.23108992587221849 0 -0.46000181262142892 0.2192782015284172 0 -0.45353618161096559 0.23108992587221849 0 -0.46000181262142892 0.2192782015284172 0 -0.44375470870694111 0.219105865605255 0 -0.45353618161096559 0.23108992587221849 0 -0.44375470870694111 0.219105865605255 0 -0.43932461092329322 0.23416651675909861 0 -0.45353618161096559 0.23108992587221849 0 -0.43932461092329322 0.23416651675909861 0 -0.44900290163534878 0.24176157398250289 0 -0.43932461092329322 0.23416651675909861 0 -0.44900290163534878 0.24176157398250289 0 -0.43750700376733198 0.2477906828514517 0 -0.44900290163534878 0.24176157398250289 0 -0.45792817544542508 0.25041690797386462 0 -0.4499815207792619 0.2552919627222493 0 -0.44900290163534878 0.24176157398250289 0 -0.43750700376733198 0.2477906828514517 0 -0.4499815207792619 0.2552919627222493 0 -0.44900290163534878 0.24176157398250289 0 -0.46146932307190469 0.24198277050738981 0 -0.45792817544542508 0.25041690797386462 0 -0.45353618161096559 0.23108992587221849 0 -0.44900290163534878 0.24176157398250289 0 -0.46146932307190469 0.24198277050738981 0 -0.47029249263877071 0.23950557535216929 0 -0.46850444540124481 0.23108571277019091 0 -0.46146932307190469 0.24198277050738981 0 -0.46850444540124481 0.23108571277019091 0 -0.45353618161096559 0.23108992587221849 0 -0.46146932307190469 0.24198277050738981 0 -0.47297208541441232 0.2472873218371015 0 -0.46146932307190469 0.24198277050738981 0 -0.46618942398389313 0.25430161183222733 0 -0.46146932307190469 0.24198277050738981 0 -0.46618942398389313 0.25430161183222733 0 -0.45792817544542508 0.25041690797386462 0 -0.47297208541441232 0.2472873218371015 0 -0.47029249263877071 0.23950557535216929 0 -0.46146932307190469 0.24198277050738981 0 -0.41159418707825368 0.24887521922966349 0 -0.42672909969765582 0.2414623173021696 0 -0.40690214483499482 0.23184492437880719 0 -0.41159418707825368 0.24887521922966349 0 -0.42672909969765582 0.2414623173021696 0 -0.42462146603435202 0.2560588456591526 0 -0.43750700376733198 0.2477906828514517 0 -0.42672909969765582 0.2414623173021696 0 -0.42462146603435202 0.2560588456591526 0 -0.43932461092329322 0.23416651675909861 0 -0.43750700376733198 0.2477906828514517 0 -0.42672909969765582 0.2414623173021696 0 -0.43932461092329322 0.23416651675909861 0 -0.42672909969765582 0.2414623173021696 0 -0.42541777012151599 0.2237887349409943 0 -0.44375470870694111 0.219105865605255 0 -0.43932461092329322 0.23416651675909861 0 -0.42541777012151599 0.2237887349409943 0 -0.42672909969765582 0.2414623173021696 0 -0.42541777012151599 0.2237887349409943 0 -0.40690214483499482 0.23184492437880719 0 -0.42541777012151599 0.2237887349409943 0 -0.40690214483499482 0.23184492437880719 0 -0.41310733799726701 0.2152316379294518 0 -0.41310733799726701 0.2152316379294518 0 -0.42960910155995069 0.20686227419889741 0 -0.41143643019234399 0.2005684720385888 0 -0.41310733799726701 0.2152316379294518 0 -0.41143643019234399 0.2005684720385888 0 -0.39567034534568202 0.21378237587612439 0 -0.44375470870694111 0.219105865605255 0 -0.42541777012151599 0.2237887349409943 0 -0.42960910155995069 0.20686227419889741 0 -0.42541777012151599 0.2237887349409943 0 -0.41310733799726701 0.2152316379294518 0 -0.42960910155995069 0.20686227419889741 0 -0.44495661861883551 0.19062705355503951 0 -0.42960910155995069 0.20686227419889741 0 -0.42474015436532891 0.18911494520261479 0 -0.42960910155995069 0.20686227419889741 0 -0.42474015436532891 0.18911494520261479 0 -0.41143643019234399 0.2005684720385888 0 -0.42474015436532891 0.18911494520261479 0 -0.41143643019234399 0.2005684720385888 0 -0.40336317927213439 0.1818253257944881 0 -0.41143643019234399 0.2005684720385888 0 -0.39642986357230409 0.19611979494665399 0 -0.40336317927213439 0.1818253257944881 0 -0.39642986357230409 0.19611979494665399 0 -0.3757695780416217 0.20507613788203499 0 -0.38641963405916419 0.18036202947114291 0 -0.3757695780416217 0.20507613788203499 0 -0.38641963405916419 0.18036202947114291 0 -0.3757695780416217 0.20507613788203499 0 -0.38641963405916419 0.18036202947114291 0 -0.37532236558729271 0.18449233808442711 0 -0.3757695780416217 0.20507613788203499 0 -0.39567034534568202 0.21378237587612439 0 -0.3805754624670511 0.22006255743299041 0 -0.39642986357230409 0.19611979494665399 0 -0.3757695780416217 0.20507613788203499 0 -0.39567034534568202 0.21378237587612439 0 -0.41143643019234399 0.2005684720385888 0 -0.39642986357230409 0.19611979494665399 0 -0.39567034534568202 0.21378237587612439 0 -0.40690214483499482 0.23184492437880719 0 -0.41310733799726701 0.2152316379294518 0 -0.39567034534568202 0.21378237587612439 0 -0.40690214483499482 0.23184492437880719 0 -0.39567034534568202 0.21378237587612439 0 -0.38574240445682062 0.23160146968087489 0 -0.3805754624670511 0.22006255743299041 0 -0.38574240445682062 0.23160146968087489 0 -0.36511952202407999 0.22979024629292749 0 -0.39567034534568202 0.21378237587612439 0 -0.3805754624670511 0.22006255743299041 0 -0.38574240445682062 0.23160146968087489 0 -0.38574240445682062 0.23160146968087489 0 -0.37213913804182203 0.24790348090003481 0 -0.39367234695481013 0.25091502910722768 0 -0.41159418707825368 0.24887521922966349 0 -0.40690214483499482 0.23184492437880719 0 -0.39367234695481013 0.25091502910722768 0 -0.40690214483499482 0.23184492437880719 0 -0.38574240445682062 0.23160146968087489 0 -0.39367234695481013 0.25091502910722768 0 -0.42122558098271301 0.15134053153167201 0 -0.40130962287375682 0.1568398625065969 0 -0.40315191905508202 0.14469855872759391 0 -0.42122558098271301 0.15134053153167201 0 -0.40315191905508202 0.14469855872759391 0 -0.39963348885510802 0.1351229080122309 0 -0.42122558098271301 0.15134053153167201 0 -0.41674259451358159 0.13615662206218651 0 -0.39963348885510802 0.1351229080122309 0 -0.42122558098271301 0.15134053153167201 0 -0.40130962287375682 0.1568398625065969 0 -0.42122558098271301 0.15134053153167201 0 -0.39963348885510802 0.1351229080122309 0 -0.41518162755924598 0.1210603347423395 0 -0.41674259451358159 0.13615662206218651 0 -0.39963348885510802 0.1351229080122309 0 -0.41518162755924598 0.1210603347423395 0 -0.39963348885510802 0.1351229080122309 0 -0.41518162755924598 0.1210603347423395 0 -0.41674259451358159 0.13615662206218651 0 -0.4307889550258287 0.13565975442179651 0 -0.41518162755924598 0.1210603347423395 0 -0.43491668828202612 0.1219568299715567 0 -0.4307889550258287 0.13565975442179651 0 -0.44450555276535419 0.14491230602430669 0 -0.42122558098271301 0.15134053153167201 0 -0.4307889550258287 0.13565975442179651 0 -0.44450555276535419 0.14491230602430669 0 -0.42122558098271301 0.15134053153167201 0 -0.44091918573703631 0.16613221849552501 0 -0.44450555276535419 0.14491230602430669 0 -0.42122558098271301 0.15134053153167201 0 -0.42122558098271301 0.15134053153167201 0 -0.41674259451358159 0.13615662206218651 0 -0.4307889550258287 0.13565975442179651 0 -0.44091918573703631 0.16613221849552501 0 -0.42122558098271301 0.15134053153167201 0 -0.44091918573703631 0.16613221849552501 0 -0.42122558098271301 0.15134053153167201 0 -0.41924216730986902 0.17134960693162299 0 -0.44091918573703631 0.16613221849552501 0 -0.44495661861883551 0.19062705355503951 0 -0.42474015436532891 0.18911494520261479 0 -0.44091918573703631 0.16613221849552501 0 -0.42474015436532891 0.18911494520261479 0 -0.41924216730986902 0.17134960693162299 0 -0.41924216730986902 0.17134960693162299 0 -0.40669182795520359 0.16851640697592221 0 -0.40336317927213439 0.1818253257944881 0 -0.42474015436532891 0.18911494520261479 0 -0.41924216730986902 0.17134960693162299 0 -0.40336317927213439 0.1818253257944881 0 -0.42122558098271301 0.15134053153167201 0 -0.41924216730986902 0.17134960693162299 0 -0.40669182795520359 0.16851640697592221 0 -0.42122558098271301 0.15134053153167201 0 -0.40669182795520359 0.16851640697592221 0 -0.40130962287375682 0.1568398625065969 0 -0.40130962287375682 0.1568398625065969 0 -0.3930846875283438 0.1703541562414114 0 -0.38139366476480019 0.16233919348152079 0 -0.40130962287375682 0.1568398625065969 0 -0.38139366476480019 0.16233919348152079 0 -0.40130962287375682 0.1568398625065969 0 -0.38139366476480019 0.16233919348152079 0 -0.38960699194527448 0.1534893445417547 0 -0.40669182795520359 0.16851640697592221 0 -0.40130962287375682 0.1568398625065969 0 -0.3930846875283438 0.1703541562414114 0 -0.3930846875283438 0.1703541562414114 0 -0.40336317927213439 0.1818253257944881 0 -0.38641963405916419 0.18036202947114291 0 -0.39642986357230409 0.19611979494665399 0 -0.40336317927213439 0.1818253257944881 0 -0.38641963405916419 0.18036202947114291 0 -0.40669182795520359 0.16851640697592221 0 -0.3930846875283438 0.1703541562414114 0 -0.40336317927213439 0.1818253257944881 0 -0.3930846875283438 0.1703541562414114 0 -0.38641963405916419 0.18036202947114291 0 -0.3800903513931187 0.1716933910182408 0 -0.37532236558729271 0.18449233808442711 0 -0.3800903513931187 0.1716933910182408 0 -0.37006060846550642 0.1742944641981034 0 -0.38641963405916419 0.18036202947114291 0 -0.37532236558729271 0.18449233808442711 0 -0.3800903513931187 0.1716933910182408 0 -0.3930846875283438 0.1703541562414114 0 -0.3800903513931187 0.1716933910182408 0 -0.38139366476480019 0.16233919348152079 0 -0.3800903513931187 0.1716933910182408 0 -0.38139366476480019 0.16233919348152079 0 -0.37400694655834132 0.15830093179757429 0 -0.38139366476480019 0.16233919348152079 0 -0.38960699194527448 0.1534893445417547 0 -0.37400694655834132 0.15830093179757429 0 -0.37905384404437947 0.14352422150842239 0 -0.39426148758849677 0.13998163501841451 0 -0.37400694655834132 0.15830093179757429 0 -0.38960699194527448 0.1534893445417547 0 -0.39426148758849677 0.13998163501841451 0 -0.37400694655834132 0.15830093179757429 0 -0.39426148758849677 0.13998163501841451 0 -0.37400694655834132 0.15830093179757429 0 -0.40130962287375682 0.1568398625065969 0 -0.38960699194527448 0.1534893445417547 0 -0.39708250536565248 0.1487523501985899 0 -0.39708250536565248 0.1487523501985899 0 -0.40315191905508202 0.14469855872759391 0 -0.39426148758849677 0.13998163501841451 0 -0.38960699194527448 0.1534893445417547 0 -0.39708250536565248 0.1487523501985899 0 -0.39426148758849677 0.13998163501841451 0 -0.40315191905508202 0.14469855872759391 0 -0.39426148758849677 0.13998163501841451 0 -0.40130962287375682 0.1568398625065969 0 -0.39708250536565248 0.1487523501985899 0 -0.40315191905508202 0.14469855872759391 0 -0.40302070205565271 0.1237257677633832 0 -0.39963348885510802 0.1351229080122309 0 -0.39533128105823923 0.13189155896371421 0 -0.40302070205565271 0.1237257677633832 0 -0.41518162755924598 0.1210603347423395 0 -0.39963348885510802 0.1351229080122309 0 -0.40315191905508202 0.14469855872759391 0 -0.39963348885510802 0.1351229080122309 0 -0.39426148758849677 0.13998163501841451 0 -0.39963348885510802 0.1351229080122309 0 -0.39533128105823923 0.13189155896371421 0 -0.39963348885510802 0.1351229080122309 0 -0.39426148758849677 0.13998163501841451 0 -0.39533128105823923 0.13189155896371421 0 -0.39963348885510802 0.1351229080122309 0 -0.39426148758849677 0.13998163501841451 0 -0.39426148758849677 0.13998163501841451 0 -0.39533128105823923 0.13189155896371421 0 -0.38807025833791131 0.12504954913433611 0 -0.40302070205565271 0.1237257677633832 0 -0.3953150894391651 0.1242609248717423 0 -0.39533128105823923 0.13189155896371421 0 -0.3953150894391651 0.1242609248717423 0 -0.39533128105823923 0.13189155896371421 0 -0.38807025833791131 0.12504954913433611 0 -0.39426148758849677 0.13998163501841451 0 -0.37346066779922188 0.12894551372293181 0 -0.39426148758849677 0.13998163501841451 0 -0.38807025833791131 0.12504954913433611 0 -0.37346066779922188 0.12894551372293181 0 -0.37905384404437947 0.14352422150842239 0 -0.39426148758849677 0.13998163501841451 0 -0.37346066779922188 0.12894551372293181 0 -0.37346066779922188 0.12894551372293181 0 -0.35809345660594172 0.13570893641240839 0 -0.35059020248319739 0.11681131748120981 0 -0.37346066779922188 0.12894551372293181 0 -0.35809345660594172 0.13570893641240839 0 -0.36360653666370357 0.15278287114983261 0 -0.35809345660594172 0.13570893641240839 0 -0.3462152029702793 0.13382593083360081 0 -0.35059020248319739 0.11681131748120981 0 -0.35809345660594172 0.13570893641240839 0 -0.3462152029702793 0.13382593083360081 0 -0.35659467311330623 0.1461790488744675 0 -0.35659467311330623 0.1461790488744675 0 -0.34938456719986732 0.1608591272220628 0 -0.33369260505058213 0.15010046216893311 0 -0.3462152029702793 0.13382593083360081 0 -0.35659467311330623 0.1461790488744675 0 -0.33369260505058213 0.15010046216893311 0 -0.35659467311330623 0.1461790488744675 0 -0.33369260505058213 0.15010046216893311 0 -0.35659467311330623 0.1461790488744675 0 -0.36360653666370357 0.15278287114983261 0 -0.34938456719986732 0.1608591272220628 0 -0.37905384404437947 0.14352422150842239 0 -0.37346066779922188 0.12894551372293181 0 -0.36360653666370357 0.15278287114983261 0 -0.35809345660594172 0.13570893641240839 0 -0.35659467311330623 0.1461790488744675 0 -0.36360653666370357 0.15278287114983261 0 -0.37346066779922188 0.12894551372293181 0 -0.36360653666370357 0.15278287114983261 0 -0.37905384404437947 0.14352422150842239 0 -0.36360653666370357 0.15278287114983261 0 -0.37400694655834132 0.15830093179757429 0 -0.3800903513931187 0.1716933910182408 0 -0.37400694655834132 0.15830093179757429 0 -0.37006060846550642 0.1742944641981034 0 -0.36360653666370357 0.15278287114983261 0 -0.37400694655834132 0.15830093179757429 0 -0.35375240552818532 0.1766202285767336 0 -0.37400694655834132 0.15830093179757429 0 -0.35375240552818532 0.1766202285767336 0 -0.37400694655834132 0.15830093179757429 0 -0.37006060846550642 0.1742944641981034 0 -0.35375240552818532 0.1766202285767336 0 -0.37532236558729271 0.18449233808442711 0 -0.37006060846550642 0.1742944641981034 0 -0.36427165597705219 0.19103566785261339 0 -0.37006060846550642 0.1742944641981034 0 -0.35895864157986712 0.1832920565874662 0 -0.36427165597705219 0.19103566785261339 0 -0.37006060846550642 0.1742944641981034 0 -0.35895864157986712 0.1832920565874662 0 -0.35375240552818532 0.1766202285767336 0 -0.35895864157986712 0.1832920565874662 0 -0.35375240552818532 0.1766202285767336 0 -0.34898410807173591 0.18815484377761291 0 -0.35895864157986712 0.1832920565874662 0 -0.36427165597705219 0.19103566785261339 0 -0.34898410807173591 0.18815484377761291 0 -0.35375240552818532 0.1766202285767336 0 -0.34993600211717302 0.1800719891775403 0 -0.34738476523476919 0.17260789650640579 0 -0.34514452176166233 0.17824727512245611 0 -0.34993600211717302 0.1800719891775403 0 -0.35375240552818532 0.1766202285767336 0 -0.34738476523476919 0.17260789650640579 0 -0.34993600211717302 0.1800719891775403 0 -0.34514452176166233 0.17824727512245611 0 -0.34993600211717302 0.1800719891775403 0 -0.34898410807173591 0.18815484377761291 0 -0.34514452176166233 0.17824727512245611 0 -0.3404421394636824 0.1856715865569582 0 -0.34898410807173591 0.18815484377761291 0 -0.35375240552818532 0.1766202285767336 0 -0.34993600211717302 0.1800719891775403 0 -0.34898410807173591 0.18815484377761291 0 -0.34514452176166233 0.17824727512245611 0 -0.34898410807173591 0.18815484377761291 0 -0.35375240552818532 0.1766202285767336 0 -0.34898410807173591 0.18815484377761291 0 -0.36360653666370357 0.15278287114983261 0 -0.35375240552818532 0.1766202285767336 0 -0.36360653666370357 0.15278287114983261 0 -0.35375240552818532 0.1766202285767336 0 -0.34938456719986732 0.1608591272220628 0 -0.35375240552818532 0.1766202285767336 0 -0.34738476523476919 0.17260789650640579 0 -0.34938456719986732 0.1608591272220628 0 -0.34738476523476919 0.17260789650640579 0 -0.34938456719986732 0.1608591272220628 0 -0.33870632956695762 0.16724086243323641 0 -0.33870632956695762 0.16724086243323641 0 -0.32756832216305409 0.16150037074178669 0 -0.33369260505058213 0.15010046216893311 0 -0.34938456719986732 0.1608591272220628 0 -0.33870632956695762 0.16724086243323641 0 -0.33369260505058213 0.15010046216893311 0 -0.33870632956695762 0.16724086243323641 0 -0.32862593212983188 0.1715492293422213 0 -0.32756832216305409 0.16150037074178669 0 -0.34514452176166233 0.17824727512245611 0 -0.3404421394636824 0.1856715865569582 0 -0.33526448893953581 0.1788100250177074 0 -0.3404421394636824 0.1856715865569582 0 -0.33526448893953581 0.1788100250177074 0 -0.33251058016251328 0.18840362931590679 0 -0.34738476523476919 0.17260789650640579 0 -0.34514452176166233 0.17824727512245611 0 -0.33870632956695762 0.16724086243323641 0 -0.34514452176166233 0.17824727512245611 0 -0.33870632956695762 0.16724086243323641 0 -0.33526448893953581 0.1788100250177074 0 -0.33870632956695762 0.16724086243323641 0 -0.32862593212983188 0.1715492293422213 0 -0.33526448893953581 0.1788100250177074 0 -0.32862593212983188 0.1715492293422213 0 -0.33526448893953581 0.1788100250177074 0 -0.32627877631075952 0.18089626779816451 0 -0.33526448893953581 0.1788100250177074 0 -0.32627877631075952 0.18089626779816451 0 -0.33251058016251328 0.18840362931590679 0 -0.32627877631075952 0.18089626779816451 0 -0.31677339138794031 0.1820089571965213 0 -0.32293035410659021 0.19077493320014971 0 -0.32627877631075952 0.18089626779816451 0 -0.33251058016251328 0.18840362931590679 0 -0.32293035410659021 0.19077493320014971 0 -0.32862593212983188 0.1715492293422213 0 -0.32627877631075952 0.18089626779816451 0 -0.32045309097897978 0.17493389356431099 0 -0.32627877631075952 0.18089626779816451 0 -0.32045309097897978 0.17493389356431099 0 -0.31677339138794031 0.1820089571965213 0 -0.32045309097897978 0.17493389356431099 0 -0.31677339138794031 0.1820089571965213 0 -0.31245486512370668 0.17379796526195501 0 -0.31677339138794031 0.1820089571965213 0 -0.32293035410659021 0.19077493320014971 0 -0.31149464316509129 0.18901826980624781 0 -0.32756832216305409 0.16150037074178669 0 -0.31814988903789571 0.16588524974390831 0 -0.31079053698785808 0.15402187546339871 0 -0.32862593212983188 0.1715492293422213 0 -0.32045309097897978 0.17493389356431099 0 -0.31814988903789571 0.16588524974390831 0 -0.32862593212983188 0.1715492293422213 0 -0.32756832216305409 0.16150037074178669 0 -0.31814988903789571 0.16588524974390831 0 -0.32045309097897978 0.17493389356431099 0 -0.31814988903789571 0.16588524974390831 0 -0.31245486512370668 0.17379796526195501 0 -0.31814988903789571 0.16588524974390831 0 -0.30937231970425022 0.16515341150343221 0 -0.31245486512370668 0.17379796526195501 0 -0.31814988903789571 0.16588524974390831 0 -0.31079053698785808 0.15402187546339871 0 -0.30937231970425022 0.16515341150343221 0 -0.33369260505058213 0.15010046216893311 0 -0.30878904677782182 0.14423263166564579 0 -0.31079053698785808 0.15402187546339871 0 -0.32756832216305409 0.16150037074178669 0 -0.33369260505058213 0.15010046216893311 0 -0.31079053698785808 0.15402187546339871 0 -0.32968962463050999 0.13052197457342829 0 -0.33369260505058213 0.15010046216893311 0 -0.30878904677782182 0.14423263166564579 0 -0.33369260505058213 0.15010046216893311 0 -0.31079053698785808 0.15402187546339871 0 -0.31302987508924779 0.1320666658772594 0 -0.32968962463050999 0.13052197457342829 0 -0.31729764035802871 0.1240912291001199 0 -0.31302987508924779 0.1320666658772594 0 -0.32968962463050999 0.13052197457342829 0 -0.30878904677782182 0.14423263166564579 0 -0.32968962463050999 0.13052197457342829 0 -0.30878904677782182 0.14423263166564579 0 -0.31302987508924779 0.1320666658772594 0 -0.30725896698654148 0.1232954686651863 0 -0.31729764035802871 0.1240912291001199 0 -0.3462152029702793 0.13382593083360081 0 -0.32968962463050999 0.13052197457342829 0 -0.35059020248319739 0.11681131748120981 0 -0.3462152029702793 0.13382593083360081 0 -0.32968962463050999 0.13052197457342829 0 -0.33369260505058213 0.15010046216893311 0 -0.35106560539716958 0.23753701095432039 0 -0.36511952202407999 0.22979024629292749 0 -0.35430692067581587 0.25488155111654259 0 -0.35106560539716958 0.23753701095432039 0 -0.3354072477425295 0.2407163488137522 0 -0.35430692067581587 0.25488155111654259 0 -0.36511952202407999 0.22979024629292749 0 -0.35430692067581587 0.25488155111654259 0 -0.36457159873950451 0.25483873847143151 0 -0.38574240445682062 0.23160146968087489 0 -0.37213913804182203 0.24790348090003481 0 -0.36511952202407999 0.22979024629292749 0 -0.36511952202407999 0.22979024629292749 0 -0.35430692067581587 0.25488155111654259 0 -0.37213913804182203 0.24790348090003481 0 -0.36511952202407999 0.22979024629292749 0 -0.37213913804182203 0.24790348090003481 0 -0.36511952202407999 0.22979024629292749 0 -0.36457159873950451 0.25483873847143151 0 -0.36511952202407999 0.22979024629292749 0 -0.35705181504790851 0.20897254503526999 0 -0.36511952202407999 0.22979024629292749 0 -0.35123947396922622 0.223197197015645 0 -0.35705181504790851 0.20897254503526999 0 -0.35106560539716958 0.23753701095432039 0 -0.36511952202407999 0.22979024629292749 0 -0.35123947396922622 0.223197197015645 0 -0.35106560539716958 0.23753701095432039 0 -0.34384030878697042 0.23161904666265429 0 -0.35123947396922622 0.223197197015645 0 -0.34384030878697042 0.23161904666265429 0 -0.35123947396922622 0.223197197015645 0 -0.33709497008544798 0.2257673002482348 0 -0.35705181504790851 0.20897254503526999 0 -0.3432263976950522 0.20208287034049011 0 -0.34063457577838419 0.21207693770483749 0 -0.35123947396922622 0.223197197015645 0 -0.35705181504790851 0.20897254503526999 0 -0.34063457577838419 0.21207693770483749 0 -0.3757695780416217 0.20507613788203499 0 -0.36511952202407999 0.22979024629292749 0 -0.35705181504790851 0.20897254503526999 0 -0.3757695780416217 0.20507613788203499 0 -0.36511952202407999 0.22979024629292749 0 -0.3757695780416217 0.20507613788203499 0 -0.3805754624670511 0.22006255743299041 0 -0.36511952202407999 0.22979024629292749 0 -0.3757695780416217 0.20507613788203499 0 -0.35705181504790851 0.20897254503526999 0 -0.36427165597705219 0.19103566785261339 0 -0.3757695780416217 0.20507613788203499 0 -0.37532236558729271 0.18449233808442711 0 -0.36427165597705219 0.19103566785261339 0 -0.35705181504790851 0.20897254503526999 0 -0.34898410807173591 0.18815484377761291 0 -0.3432263976950522 0.20208287034049011 0 -0.35705181504790851 0.20897254503526999 0 -0.34898410807173591 0.18815484377761291 0 -0.35705181504790851 0.20897254503526999 0 -0.36427165597705219 0.19103566785261339 0 -0.34898410807173591 0.18815484377761291 0 -0.34898410807173591 0.18815484377761291 0 -0.3432263976950522 0.20208287034049011 0 -0.3404421394636824 0.1856715865569582 0 -0.33880300713008082 0.1944176859678019 0 -0.33251058016251328 0.18840362931590679 0 -0.34898410807173591 0.18815484377761291 0 -0.33880300713008082 0.1944176859678019 0 -0.3432263976950522 0.20208287034049011 0 -0.3404421394636824 0.1856715865569582 0 -0.34898410807173591 0.18815484377761291 0 -0.33880300713008082 0.1944176859678019 0 -0.33880300713008082 0.1944176859678019 0 -0.3432263976950522 0.20208287034049011 0 -0.33429092997778842 0.20234994853887911 0 -0.33880300713008082 0.1944176859678019 0 -0.33429092997778842 0.20234994853887911 0 -0.33099105559145492 0.1953777329683157 0 -0.33429092997778842 0.20234994853887911 0 -0.33099105559145492 0.1953777329683157 0 -0.32642040658030141 0.2009424678188409 0 -0.33099105559145492 0.1953777329683157 0 -0.33251058016251328 0.18840362931590679 0 -0.32293035410659021 0.19077493320014971 0 -0.33880300713008082 0.1944176859678019 0 -0.33099105559145492 0.1953777329683157 0 -0.33251058016251328 0.18840362931590679 0 -0.32293035410659021 0.19077493320014971 0 -0.31614307366106592 0.19766337571744819 0 -0.31149464316509129 0.18901826980624781 0 -0.31614307366106592 0.19766337571744819 0 -0.32642040658030141 0.2009424678188409 0 -0.32500457300439428 0.20792799122619779 0 -0.32293035410659021 0.19077493320014971 0 -0.31614307366106592 0.19766337571744819 0 -0.32642040658030141 0.2009424678188409 0 -0.33099105559145492 0.1953777329683157 0 -0.32293035410659021 0.19077493320014971 0 -0.32642040658030141 0.2009424678188409 0 -0.31614307366106592 0.19766337571744819 0 -0.32500457300439428 0.20792799122619779 0 -0.31090407555067778 0.2100200696755273 0 -0.3199271087469534 0.22132364879979599 0 -0.31090407555067778 0.2100200696755273 0 -0.32500457300439428 0.20792799122619779 0 -0.3199271087469534 0.22132364879979599 0 -0.31090407555067778 0.2100200696755273 0 -0.34063457577838419 0.21207693770483749 0 -0.3199271087469534 0.22132364879979599 0 -0.32500457300439428 0.20792799122619779 0 -0.34063457577838419 0.21207693770483749 0 -0.3199271087469534 0.22132364879979599 0 -0.33429092997778842 0.20234994853887911 0 -0.32500457300439428 0.20792799122619779 0 -0.34063457577838419 0.21207693770483749 0 -0.33429092997778842 0.20234994853887911 0 -0.32642040658030141 0.2009424678188409 0 -0.32500457300439428 0.20792799122619779 0 -0.3432263976950522 0.20208287034049011 0 -0.33429092997778842 0.20234994853887911 0 -0.34063457577838419 0.21207693770483749 0 -0.33709497008544798 0.2257673002482348 0 -0.3199271087469534 0.22132364879979599 0 -0.3354072477425295 0.2407163488137522 0 -0.34063457577838419 0.21207693770483749 0 -0.33709497008544798 0.2257673002482348 0 -0.3199271087469534 0.22132364879979599 0 -0.35123947396922622 0.223197197015645 0 -0.34063457577838419 0.21207693770483749 0 -0.33709497008544798 0.2257673002482348 0 -0.34384030878697042 0.23161904666265429 0 -0.33709497008544798 0.2257673002482348 0 -0.3354072477425295 0.2407163488137522 0 -0.3199271087469534 0.22132364879979599 0 -0.3354072477425295 0.2407163488137522 0 -0.3199271087469534 0.22132364879979599 0 -0.3180615108422542 0.2457437345502152 0 -0.3354072477425295 0.2407163488137522 0 -0.3180615108422542 0.2457437345502152 0 -0.3354072477425295 0.2407163488137522 0 -0.33056550512559818 0.25454276955617988 0 -0.35106560539716958 0.23753701095432039 0 -0.34384030878697042 0.23161904666265429 0 -0.3354072477425295 0.2407163488137522 0 -0.2955368915069656 0.23221485495355071 0 -0.27114667426697842 0.2431060611073062 0 -0.2866366381640022 0.2533162449494728 0 -0.2955368915069656 0.23221485495355071 0 -0.30434827851869611 0.25883753389028341 0 -0.2866366381640022 0.2533162449494728 0 -0.2955368915069656 0.23221485495355071 0 -0.27114667426697842 0.2431060611073062 0 -0.3180615108422542 0.2457437345502152 0 -0.2955368915069656 0.23221485495355071 0 -0.30434827851869611 0.25883753389028341 0 -0.3199271087469534 0.22132364879979599 0 -0.2955368915069656 0.23221485495355071 0 -0.3199271087469534 0.22132364879979599 0 -0.3180615108422542 0.2457437345502152 0 -0.2955368915069656 0.23221485495355071 0 -0.3199271087469534 0.22132364879979599 0 -0.2955368915069656 0.23221485495355071 0 -0.31090407555067778 0.2100200696755273 0 -0.2955368915069656 0.23221485495355071 0 -0.2813961318675956 0.2139658248697813 0 -0.26717242094120219 0.22381783817129999 0 -0.2955368915069656 0.23221485495355071 0 -0.2813961318675956 0.2139658248697813 0 -0.29462839578807548 0.2080069254823648 0 -0.2813961318675956 0.2139658248697813 0 -0.29462839578807548 0.2080069254823648 0 -0.28112012419035581 0.200314880949963 0 -0.29462839578807548 0.2080069254823648 0 -0.31090407555067778 0.2100200696755273 0 -0.30300689542065667 0.19423525492537591 0 -0.2955368915069656 0.23221485495355071 0 -0.29462839578807548 0.2080069254823648 0 -0.31090407555067778 0.2100200696755273 0 -0.31614307366106592 0.19766337571744819 0 -0.31090407555067778 0.2100200696755273 0 -0.30300689542065667 0.19423525492537591 0 -0.31149464316509129 0.18901826980624781 0 -0.30300689542065667 0.19423525492537591 0 -0.30529040763371529 0.18180554027682039 0 -0.31614307366106592 0.19766337571744819 0 -0.31149464316509129 0.18901826980624781 0 -0.30300689542065667 0.19423525492537591 0 -0.30300689542065667 0.19423525492537591 0 -0.29033778141720101 0.19427564167229799 0 -0.29219009687813141 0.17983393783136231 0 -0.29462839578807548 0.2080069254823648 0 -0.30300689542065667 0.19423525492537591 0 -0.29033778141720101 0.19427564167229799 0 -0.29462839578807548 0.2080069254823648 0 -0.29033778141720101 0.19427564167229799 0 -0.28112012419035581 0.200314880949963 0 -0.29033778141720101 0.19427564167229799 0 -0.2807433948087853 0.18898720917242401 0 -0.29219009687813141 0.17983393783136231 0 -0.29033778141720101 0.19427564167229799 0 -0.2807433948087853 0.18898720917242401 0 -0.28112012419035581 0.200314880949963 0 -0.2807433948087853 0.18898720917242401 0 -0.28112012419035581 0.200314880949963 0 -0.26986889447759599 0.19538825878925251 0 -0.2807433948087853 0.18898720917242401 0 -0.26986889447759599 0.19538825878925251 0 -0.27025681763196879 0.18451516545373381 0 -0.28112012419035581 0.200314880949963 0 -0.26986889447759599 0.19538825878925251 0 -0.26859825043676511 0.20734770631785129 0 -0.26986889447759599 0.19538825878925251 0 -0.26160774229294148 0.18991007375860691 0 -0.27025681763196879 0.18451516545373381 0 -0.26986889447759599 0.19538825878925251 0 -0.26160774229294148 0.18991007375860691 0 -0.25827408055513862 0.1996542987792618 0 -0.26160774229294148 0.18991007375860691 0 -0.25234029760969873 0.19220263911668689 0 -0.25827408055513862 0.1996542987792618 0 -0.25234029760969873 0.19220263911668689 0 -0.25827408055513862 0.1996542987792618 0 -0.2467563005764106 0.20088517836930231 0 -0.26986889447759599 0.19538825878925251 0 -0.25827408055513862 0.1996542987792618 0 -0.26859825043676511 0.20734770631785129 0 -0.25827408055513862 0.1996542987792618 0 -0.25375785058870259 0.21094513634754961 0 -0.26859825043676511 0.20734770631785129 0 -0.25375785058870259 0.21094513634754961 0 -0.26859825043676511 0.20734770631785129 0 -0.26717242094120219 0.22381783817129999 0 -0.25827408055513862 0.1996542987792618 0 -0.25375785058870259 0.21094513634754961 0 -0.2467563005764106 0.20088517836930231 0 -0.2813961318675956 0.2139658248697813 0 -0.26859825043676511 0.20734770631785129 0 -0.26717242094120219 0.22381783817129999 0 -0.2813961318675956 0.2139658248697813 0 -0.28112012419035581 0.200314880949963 0 -0.26859825043676511 0.20734770631785129 0 -0.2955368915069656 0.23221485495355071 0 -0.26717242094120219 0.22381783817129999 0 -0.27114667426697842 0.2431060611073062 0 -0.26717242094120219 0.22381783817129999 0 -0.25372148055682298 0.2363534567957731 0 -0.24447038810111171 0.22277122801583349 0 -0.25375785058870259 0.21094513634754961 0 -0.26717242094120219 0.22381783817129999 0 -0.24447038810111171 0.22277122801583349 0 -0.26717242094120219 0.22381783817129999 0 -0.25372148055682298 0.2363534567957731 0 -0.27114667426697842 0.2431060611073062 0 -0.27114667426697842 0.2431060611073062 0 -0.24675645702699089 0.25399726726106192 0 -0.25372148055682298 0.2363534567957731 0 -0.27114667426697842 0.2431060611073062 0 -0.24675645702699089 0.25399726726106192 0 -0.29202403194856918 0.14325304336407149 0 -0.30878904677782182 0.14423263166564579 0 -0.28788846892513398 0.1579432887578637 0 -0.29202403194856918 0.14325304336407149 0 -0.28788846892513398 0.1579432887578637 0 -0.27843704373812128 0.1470993164671083 0 -0.29202403194856918 0.14325304336407149 0 -0.28469731009841293 0.1337079227171456 0 -0.27843704373812128 0.1470993164671083 0 -0.28469731009841293 0.1337079227171456 0 -0.30048938298077238 0.13319823277846449 0 -0.29423200519519399 0.1200670928866598 0 -0.29202403194856918 0.14325304336407149 0 -0.28469731009841293 0.1337079227171456 0 -0.30048938298077238 0.13319823277846449 0 -0.29202403194856918 0.14325304336407149 0 -0.30048938298077238 0.13319823277846449 0 -0.30878904677782182 0.14423263166564579 0 -0.30048938298077238 0.13319823277846449 0 -0.29423200519519399 0.1200670928866598 0 -0.30725896698654148 0.1232954686651863 0 -0.31302987508924779 0.1320666658772594 0 -0.30048938298077238 0.13319823277846449 0 -0.30725896698654148 0.1232954686651863 0 -0.31302987508924779 0.1320666658772594 0 -0.30048938298077238 0.13319823277846449 0 -0.30878904677782182 0.14423263166564579 0 -0.30878904677782182 0.14423263166564579 0 -0.31079053698785808 0.15402187546339871 0 -0.28788846892513398 0.1579432887578637 0 -0.31079053698785808 0.15402187546339871 0 -0.28788846892513398 0.1579432887578637 0 -0.30878904677782182 0.14423263166564579 0 -0.28788846892513398 0.1579432887578637 0 -0.31079053698785808 0.15402187546339871 0 -0.30130379765564019 0.1629495640306115 0 -0.28788846892513398 0.1579432887578637 0 -0.31079053698785808 0.15402187546339871 0 -0.30937231970425022 0.16515341150343221 0 -0.30130379765564019 0.1629495640306115 0 -0.30937231970425022 0.16515341150343221 0 -0.30479031078801178 0.1699375800489398 0 -0.30130379765564019 0.1629495640306115 0 -0.30937231970425022 0.16515341150343221 0 -0.30479031078801178 0.1699375800489398 0 -0.31245486512370668 0.17379796526195501 0 -0.30479031078801178 0.1699375800489398 0 -0.30130379765564019 0.1629495640306115 0 -0.29367735187294708 0.1676916643794229 0 -0.31677339138794031 0.1820089571965213 0 -0.31149464316509129 0.18901826980624781 0 -0.30529040763371529 0.18180554027682039 0 -0.30479031078801178 0.1699375800489398 0 -0.30529040763371529 0.18180554027682039 0 -0.31245486512370668 0.17379796526195501 0 -0.31677339138794031 0.1820089571965213 0 -0.30529040763371529 0.18180554027682039 0 -0.31245486512370668 0.17379796526195501 0 -0.30479031078801178 0.1699375800489398 0 -0.29219009687813141 0.17983393783136231 0 -0.29367735187294708 0.1676916643794229 0 -0.30479031078801178 0.1699375800489398 0 -0.30529040763371529 0.18180554027682039 0 -0.29219009687813141 0.17983393783136231 0 -0.30300689542065667 0.19423525492537591 0 -0.30529040763371529 0.18180554027682039 0 -0.29219009687813141 0.17983393783136231 0 -0.29219009687813141 0.17983393783136231 0 -0.29367735187294708 0.1676916643794229 0 -0.28295730626893278 0.16871400675472981 0 -0.29219009687813141 0.17983393783136231 0 -0.28295730626893278 0.16871400675472981 0 -0.27968063972129897 0.1768281983846525 0 -0.2807433948087853 0.18898720917242401 0 -0.29219009687813141 0.17983393783136231 0 -0.27968063972129897 0.1768281983846525 0 -0.30130379765564019 0.1629495640306115 0 -0.29367735187294708 0.1676916643794229 0 -0.28788846892513398 0.1579432887578637 0 -0.29367735187294708 0.1676916643794229 0 -0.28295730626893278 0.16871400675472981 0 -0.28788846892513398 0.1579432887578637 0 -0.27002747206514749 0.16818284641353459 0 -0.27208172932131391 0.16831241768728511 0 -0.25627498971749429 0.1786815466167071 0 -0.28788846892513398 0.1579432887578637 0 -0.27208172932131391 0.16831241768728511 0 -0.28788846892513398 0.1579432887578637 0 -0.27208172932131391 0.16831241768728511 0 -0.27275202374019619 0.16053503100649449 0 -0.28295730626893278 0.16871400675472981 0 -0.28788846892513398 0.1579432887578637 0 -0.27208172932131391 0.16831241768728511 0 -0.28788846892513398 0.1579432887578637 0 -0.27275202374019619 0.16053503100649449 0 -0.28295730626893278 0.16871400675472981 0 -0.27208172932131391 0.16831241768728511 0 -0.27650472758526301 0.17262838866597041 0 -0.27002747206514749 0.16818284641353459 0 -0.26808230958180612 0.16318065626756181 0 -0.26164949576814922 0.1680433860272382 0 -0.27002747206514749 0.16818284641353459 0 -0.27208172932131391 0.16831241768728511 0 -0.26808230958180612 0.16318065626756181 0 -0.26808230958180612 0.16318065626756181 0 -0.27275202374019619 0.16053503100649449 0 -0.26507619255133907 0.1522402686054212 0 -0.27208172932131391 0.16831241768728511 0 -0.26808230958180612 0.16318065626756181 0 -0.27275202374019619 0.16053503100649449 0 -0.27208172932131391 0.16831241768728511 0 -0.27129923502950609 0.17665893183721421 0 -0.25627498971749429 0.1786815466167071 0 -0.2807433948087853 0.18898720917242401 0 -0.27968063972129897 0.1768281983846525 0 -0.27025681763196879 0.18451516545373381 0 -0.28295730626893278 0.16871400675472981 0 -0.27968063972129897 0.1768281983846525 0 -0.27650472758526301 0.17262838866597041 0 -0.27968063972129897 0.1768281983846525 0 -0.27650472758526301 0.17262838866597041 0 -0.27129923502950609 0.17665893183721421 0 -0.27968063972129897 0.1768281983846525 0 -0.27129923502950609 0.17665893183721421 0 -0.27025681763196879 0.18451516545373381 0 -0.27208172932131391 0.16831241768728511 0 -0.27650472758526301 0.17262838866597041 0 -0.27129923502950609 0.17665893183721421 0 -0.27129923502950609 0.17665893183721421 0 -0.27025681763196879 0.18451516545373381 0 -0.25627498971749429 0.1786815466167071 0 -0.27208172932131391 0.16831241768728511 0 -0.25627498971749429 0.1786815466167071 0 -0.26160774229294148 0.18991007375860691 0 -0.27025681763196879 0.18451516545373381 0 -0.25627498971749429 0.1786815466167071 0 -0.27002747206514749 0.16818284641353459 0 -0.25627498971749429 0.1786815466167071 0 -0.25627498971749429 0.1786815466167071 0 -0.2530633310010415 0.1686288015332143 0 -0.24605353430501209 0.17667288236936979 0 -0.26160774229294148 0.18991007375860691 0 -0.25234029760969873 0.19220263911668689 0 -0.25627498971749429 0.1786815466167071 0 -0.26079937647525608 0.1615430793051732 0 -0.25224409863768998 0.1571230749140525 0 -0.26507619255133907 0.1522402686054212 0 -0.26808230958180612 0.16318065626756181 0 -0.26079937647525608 0.1615430793051732 0 -0.26507619255133907 0.1522402686054212 0 -0.26079937647525608 0.1615430793051732 0 -0.26164949576814922 0.1680433860272382 0 -0.2530633310010415 0.1686288015332143 0 -0.26808230958180612 0.16318065626756181 0 -0.26079937647525608 0.1615430793051732 0 -0.26164949576814922 0.1680433860272382 0 -0.27002747206514749 0.16818284641353459 0 -0.25627498971749429 0.1786815466167071 0 -0.26164949576814922 0.1680433860272382 0 -0.25627498971749429 0.1786815466167071 0 -0.26164949576814922 0.1680433860272382 0 -0.2530633310010415 0.1686288015332143 0 -0.26079937647525608 0.1615430793051732 0 -0.2530633310010415 0.1686288015332143 0 -0.25224409863768998 0.1571230749140525 0 -0.25302039422752087 0.14412828722383661 0 -0.26507619255133907 0.1522402686054212 0 -0.26623803040285771 0.1361826328996969 0 -0.25224409863768998 0.1571230749140525 0 -0.25302039422752087 0.14412828722383661 0 -0.26507619255133907 0.1522402686054212 0 -0.26507619255133907 0.1522402686054212 0 -0.27843704373812128 0.1470993164671083 0 -0.26623803040285771 0.1361826328996969 0 -0.27275202374019619 0.16053503100649449 0 -0.26507619255133907 0.1522402686054212 0 -0.27843704373812128 0.1470993164671083 0 -0.28788846892513398 0.1579432887578637 0 -0.27275202374019619 0.16053503100649449 0 -0.27843704373812128 0.1470993164671083 0 -0.28469731009841293 0.1337079227171456 0 -0.26623803040285771 0.1361826328996969 0 -0.27462181062846608 0.1169582168748817 0 -0.28469731009841293 0.1337079227171456 0 -0.27843704373812128 0.1470993164671083 0 -0.26623803040285771 0.1361826328996969 0 -0.26623803040285771 0.1361826328996969 0 -0.26004016544622027 0.1204502658365888 0 -0.24697456125405631 0.12806150044621009 0 -0.25302039422752087 0.14412828722383661 0 -0.26623803040285771 0.1361826328996969 0 -0.24697456125405631 0.12806150044621009 0 -0.26004016544622027 0.1204502658365888 0 -0.26092747304456931 0.10258150100720879 0 -0.27462181062846608 0.1169582168748817 0 -0.26004016544622027 0.1204502658365888 0 -0.26092747304456931 0.10258150100720879 0 -0.2488539522290748 0.11341160200186361 0 -0.26004016544622027 0.1204502658365888 0 -0.2488539522290748 0.11341160200186361 0 -0.24697456125405631 0.12806150044621009 0 -0.26092747304456931 0.10258150100720879 0 -0.28666607917384018 0.100072499466158 0 -0.27630466364012018 0.083084337370415678 0 -0.26092747304456931 0.10258150100720879 0 -0.28666607917384018 0.100072499466158 0 -0.26092747304456931 0.10258150100720879 0 -0.27462181062846608 0.1169582168748817 0 -0.28666607917384018 0.100072499466158 0 -0.26623803040285771 0.1361826328996969 0 -0.26004016544622027 0.1204502658365888 0 -0.27462181062846608 0.1169582168748817 0 -0.28469731009841293 0.1337079227171456 0 -0.27462181062846608 0.1169582168748817 0 -0.29423200519519399 0.1200670928866598 0 -0.29423200519519399 0.1200670928866598 0 -0.28666607917384018 0.100072499466158 0 -0.29833572329231522 0.10924062195414359 0 -0.27462181062846608 0.1169582168748817 0 -0.29423200519519399 0.1200670928866598 0 -0.28666607917384018 0.100072499466158 0 -0.28666607917384018 0.100072499466158 0 -0.30465538161759109 0.105551946273372 0 -0.29833572329231522 0.10924062195414359 0 -0.28666607917384018 0.100072499466158 0 -0.30465538161759109 0.105551946273372 0 -0.31240468530311122 0.097563497925107143 0 -0.28666607917384018 0.100072499466158 0 -0.31240468530311122 0.097563497925107143 0 -0.31007300458399312 0.09531443826689856 0 -0.28666607917384018 0.100072499466158 0 -0.31007300458399312 0.09531443826689856 0 -0.29928100461981388 0.089550227262043092 0 -0.28666607917384018 0.100072499466158 0 -0.31240468530311122 0.097563497925107143 0 -0.30465538161759109 0.105551946273372 0 -0.31207506069544078 0.10944554993262311 0 -0.31274638677652061 0.10468279721592989 0 -0.30465538161759109 0.105551946273372 0 -0.31240468530311122 0.097563497925107143 0 -0.31274638677652061 0.10468279721592989 0 -0.31207506069544078 0.10944554993262311 0 -0.30522039165972731 0.1140348648767541 0 -0.31435831217211402 0.11649321308770121 0 -0.30465538161759109 0.105551946273372 0 -0.31207506069544078 0.10944554993262311 0 -0.30522039165972731 0.1140348648767541 0 -0.30522039165972731 0.1140348648767541 0 -0.30725896698654148 0.1232954686651863 0 -0.31435831217211402 0.11649321308770121 0 -0.29423200519519399 0.1200670928866598 0 -0.30522039165972731 0.1140348648767541 0 -0.30725896698654148 0.1232954686651863 0 -0.29423200519519399 0.1200670928866598 0 -0.29833572329231522 0.10924062195414359 0 -0.30522039165972731 0.1140348648767541 0 -0.30465538161759109 0.105551946273372 0 -0.29833572329231522 0.10924062195414359 0 -0.30522039165972731 0.1140348648767541 0 -0.28632062341526898 0.06474693472157754 0 -0.31404789863104221 0.072167618733781108 0 -0.29630577468758612 0.079214473292797738 0 -0.28632062341526898 0.06474693472157754 0 -0.31404789863104221 0.072167618733781108 0 -0.28632062341526898 0.06474693472157754 0 -0.30418396801763509 0.059575555554716997 0 -0.31404789863104221 0.072167618733781108 0 -0.31012963701859891 0.084471807298615045 0 -0.30354072095491441 0.083476381100290889 0 -0.31404789863104221 0.072167618733781108 0 -0.30354072095491441 0.083476381100290889 0 -0.29630577468758612 0.079214473292797738 0 -0.31404789863104221 0.072167618733781108 0 -0.31012963701859891 0.084471807298615045 0 -0.30687553376979099 0.088834124641016907 0 -0.30354072095491441 0.083476381100290889 0 -0.31007300458399312 0.09531443826689856 0 -0.30687553376979099 0.088834124641016907 0 -0.29928100461981388 0.089550227262043092 0 -0.31007300458399312 0.09531443826689856 0 -0.31118068304190011 0.089549997660141767 0 -0.30687553376979099 0.088834124641016907 0 -0.31012963701859891 0.084471807298615045 0 -0.31118068304190011 0.089549997660141767 0 -0.30687553376979099 0.088834124641016907 0 -0.30687553376979099 0.088834124641016907 0 -0.29928100461981388 0.089550227262043092 0 -0.30354072095491441 0.083476381100290889 0 -0.29928100461981388 0.089550227262043092 0 -0.30354072095491441 0.083476381100290889 0 -0.29630577468758612 0.079214473292797738 0 -0.29928100461981388 0.089550227262043092 0 -0.29630577468758612 0.079214473292797738 0 -0.28872866769430222 0.085813481071365813 0 -0.28666607917384018 0.100072499466158 0 -0.28872866769430222 0.085813481071365813 0 -0.27630466364012018 0.083084337370415678 0 -0.29630577468758612 0.079214473292797738 0 -0.28872866769430222 0.085813481071365813 0 -0.28508581635015029 0.077145867965414505 0 -0.28666607917384018 0.100072499466158 0 -0.29928100461981388 0.089550227262043092 0 -0.28872866769430222 0.085813481071365813 0 -0.28872866769430222 0.085813481071365813 0 -0.28508581635015029 0.077145867965414505 0 -0.27630466364012018 0.083084337370415678 0 -0.28508581635015029 0.077145867965414505 0 -0.28632062341526898 0.06474693472157754 0 -0.27951282830846302 0.072413891717598947 0 -0.29630577468758612 0.079214473292797738 0 -0.28508581635015029 0.077145867965414505 0 -0.28632062341526898 0.06474693472157754 0 -0.28632062341526898 0.06474693472157754 0 -0.27066877890920632 0.067718201139568487 0 -0.25859334819949581 0.057326250709373958 0 -0.27066877890920632 0.067718201139568487 0 -0.27630466364012018 0.083084337370415678 0 -0.26007414183906291 0.081630841119292932 0 -0.28632062341526898 0.06474693472157754 0 -0.27951282830846302 0.072413891717598947 0 -0.27066877890920632 0.067718201139568487 0 -0.27951282830846302 0.072413891717598947 0 -0.27066877890920632 0.067718201139568487 0 -0.27630466364012018 0.083084337370415678 0 -0.28508581635015029 0.077145867965414505 0 -0.27951282830846302 0.072413891717598947 0 -0.27630466364012018 0.083084337370415678 0 -0.26092747304456931 0.10258150100720879 0 -0.27630466364012018 0.083084337370415678 0 -0.26007414183906291 0.081630841119292932 0 -0.26007414183906291 0.081630841119292932 0 -0.2483265292011142 0.069348084463038528 0 -0.24414326440030479 0.085422081616233159 0 -0.26092747304456931 0.10258150100720879 0 -0.26007414183906291 0.081630841119292932 0 -0.24414326440030479 0.085422081616233159 0 -0.27066877890920632 0.067718201139568487 0 -0.25859334819949581 0.057326250709373958 0 -0.2483265292011142 0.069348084463038528 0 -0.27066877890920632 0.067718201139568487 0 -0.26007414183906291 0.081630841119292932 0 -0.2483265292011142 0.069348084463038528 0 -0.25859334819949581 0.057326250709373958 0 -0.26204168907923098 0.03688362547369857 0 -0.26987364747799197 0.04871690276566025 0 -0.25859334819949581 0.057326250709373958 0 -0.26204168907923098 0.03688362547369857 0 -0.24567204509934989 0.051098034900063517 0 -0.25859334819949581 0.057326250709373958 0 -0.24567204509934989 0.051098034900063517 0 -0.2483265292011142 0.069348084463038528 0 -0.26204168907923098 0.03688362547369857 0 -0.26987364747799197 0.04871690276566025 0 -0.28804774816021228 0.036226338496291199 0 -0.26987364747799197 0.04871690276566025 0 -0.28196766415356528 0.048702236852056033 0 -0.28804774816021228 0.036226338496291199 0 -0.26204168907923098 0.03688362547369857 0 -0.28804774816021228 0.036226338496291199 0 -0.26204168907923098 0.03688362547369857 0 -0.27478269382067921 0.026187771559705732 0 -0.28804774816021228 0.036226338496291199 0 -0.27878756240533509 0.059758104896608988 0 -0.26987364747799197 0.04871690276566025 0 -0.28196766415356528 0.048702236852056033 0 -0.25859334819949581 0.057326250709373958 0 -0.27878756240533509 0.059758104896608988 0 -0.26987364747799197 0.04871690276566025 0 -0.28632062341526898 0.06474693472157754 0 -0.25859334819949581 0.057326250709373958 0 -0.27878756240533509 0.059758104896608988 0 -0.28632062341526898 0.06474693472157754 0 -0.25859334819949581 0.057326250709373958 0 -0.26280438288064339 0.01464417767413889 0 -0.25297652059449782 0.001886630878395203 0 -0.24067752610772239 0.012282621065736609 0 -0.27213486702214351 -0.0055577233737640168 0 -0.26280438288064339 0.01464417767413889 0 -0.25297652059449782 0.001886630878395203 0 -0.26204168907923098 0.03688362547369857 0 -0.26280438288064339 0.01464417767413889 0 -0.24726178217148859 0.025120047718177881 0 -0.26280438288064339 0.01464417767413889 0 -0.24726178217148859 0.025120047718177881 0 -0.24067752610772239 0.012282621065736609 0 -0.26204168907923098 0.03688362547369857 0 -0.26280438288064339 0.01464417767413889 0 -0.27478269382067921 0.026187771559705732 0 -0.26280438288064339 0.01464417767413889 0 -0.27478269382067921 0.026187771559705732 0 -0.28955342758803898 0.01071723915139774 0 -0.27213486702214351 -0.0055577233737640168 0 -0.26280438288064339 0.01464417767413889 0 -0.28955342758803898 0.01071723915139774 0 -0.27478269382067921 0.026187771559705732 0 -0.28955342758803898 0.01071723915139774 0 -0.28804774816021228 0.036226338496291199 0 -0.28955342758803898 0.01071723915139774 0 -0.30967236367350243 0.017739948890205439 0 -0.28804774816021228 0.036226338496291199 0 -0.30967236367350243 0.017739948890205439 0 -0.28804774816021228 0.036226338496291199 0 -0.31405380724119342 0.035569051518883822 0 -0.28955342758803898 0.01071723915139774 0 -0.30967236367350243 0.017739948890205439 0 -0.31718547691204613 0.00098802130721883756 0 -0.28632062341526898 0.06474693472157754 0 -0.27878756240533509 0.059758104896608988 0 -0.30418396801763509 0.059575555554716997 0 -0.27878756240533509 0.059758104896608988 0 -0.29116169857072211 0.050107601249663708 0 -0.30418396801763509 0.059575555554716997 0 -0.27878756240533509 0.059758104896608988 0 -0.30418396801763509 0.059575555554716997 0 -0.27878756240533509 0.059758104896608988 0 -0.29116169857072211 0.050107601249663708 0 -0.28196766415356528 0.048702236852056033 0 -0.29116169857072211 0.050107601249663708 0 -0.28196766415356528 0.048702236852056033 0 -0.28804774816021228 0.036226338496291199 0 -0.29116169857072211 0.050107601249663708 0 -0.28804774816021228 0.036226338496291199 0 -0.30285330518422759 0.046443347403059117 0 -0.28804774816021228 0.036226338496291199 0 -0.30285330518422759 0.046443347403059117 0 -0.31405380724119342 0.035569051518883822 0 -0.28804774816021228 0.036226338496291199 0 -0.31405380724119342 0.035569051518883822 0 -0.30285330518422759 0.046443347403059117 0 -0.31681930393137497 0.050738190195739878 0 -0.31405380724119342 0.035569051518883822 0 -0.30285330518422759 0.046443347403059117 0 -0.30418396801763509 0.059575555554716997 0 -0.31681930393137497 0.050738190195739878 0 -0.29116169857072211 0.050107601249663708 0 -0.30285330518422759 0.046443347403059117 0 -0.30418396801763509 0.059575555554716997 0 -0.30418396801763509 0.059575555554716997 0 -0.32958037362993498 0.059393006212825013 0 -0.30418396801763509 0.059575555554716997 0 -0.31681930393137497 0.050738190195739878 0 -0.32958037362993498 0.059393006212825013 0 -0.31681930393137497 0.050738190195739878 0 -0.31405380724119342 0.035569051518883822 0 -0.3400598663221745 0.034911764541476452 0 -0.31405380724119342 0.035569051518883822 0 -0.3400598663221745 0.034911764541476452 0 -0.32958037362993498 0.059393006212825013 0 -0.35497677924223492 0.059210456870933008 0 -0.31681930393137497 0.050738190195739878 0 -0.3400598663221745 0.034911764541476452 0 -0.32958037362993498 0.059393006212825013 0 -0.3400598663221745 0.034911764541476452 0 -0.32958037362993498 0.059393006212825013 0 -0.35497677924223492 0.059210456870933008 0 -0.30967236367350243 0.017739948890205439 0 -0.31718547691204613 0.00098802130721883756 0 -0.33409896487044921 0.015755686439251688 0 -0.30967236367350243 0.017739948890205439 0 -0.31405380724119342 0.035569051518883822 0 -0.33409896487044921 0.015755686439251688 0 -0.31405380724119342 0.035569051518883822 0 -0.3400598663221745 0.034911764541476452 0 -0.33409896487044921 0.015755686439251688 0 -0.34238884446580847 -0.002899306882469992 0 -0.33409896487044921 0.015755686439251688 0 -0.35457892559290949 0.0068399040172769203 0 -0.34238884446580847 -0.002899306882469992 0 -0.31718547691204613 0.00098802130721883756 0 -0.33409896487044921 0.015755686439251688 0 -0.33409896487044921 0.015755686439251688 0 -0.35457892559290949 0.0068399040172769203 0 -0.35921937695766798 0.02154566698535133 0 -0.3400598663221745 0.034911764541476452 0 -0.33409896487044921 0.015755686439251688 0 -0.35921937695766798 0.02154566698535133 0 -0.38293832549422191 0.014289120699767319 0 -0.35921937695766798 0.02154566698535133 0 -0.37455541329823672 0.036289503171576858 0 -0.38293832549422191 0.014289120699767319 0 -0.35921937695766798 0.02154566698535133 0 -0.36959522965105113 0.0065841086164104036 0 -0.35457892559290949 0.0068399040172769203 0 -0.35921937695766798 0.02154566698535133 0 -0.36959522965105113 0.0065841086164104036 0 -0.36759221201957082 -0.0067866350721588206 0 -0.38211321526304293 0.00143773175499627 0 -0.36959522965105113 0.0065841086164104036 0 -0.36759221201957082 -0.0067866350721588206 0 -0.35457892559290949 0.0068399040172769203 0 -0.36959522965105113 0.0065841086164104036 0 -0.3400598663221745 0.034911764541476452 0 -0.35497677924223492 0.059210456870933008 0 -0.36024713005417069 0.041282499276896277 0 -0.3400598663221745 0.034911764541476452 0 -0.35921937695766798 0.02154566698535133 0 -0.36024713005417069 0.041282499276896277 0 -0.35921937695766798 0.02154566698535133 0 -0.37455541329823672 0.036289503171576858 0 -0.36024713005417069 0.041282499276896277 0 -0.37455541329823672 0.036289503171576858 0 -0.36024713005417069 0.041282499276896277 0 -0.37242421445053941 0.054455104815143769 0 -0.35497677924223492 0.059210456870933008 0 -0.37242421445053941 0.054455104815143769 0 -0.36721495268790022 0.0728579419499161 0 -0.35497677924223492 0.059210456870933008 0 -0.36024713005417069 0.041282499276896277 0 -0.37242421445053941 0.054455104815143769 0 -0.38519609633294633 0.066962249473076621 0 -0.37242421445053941 0.054455104815143769 0 -0.36721495268790022 0.0728579419499161 0 -0.35497677924223492 0.059210456870933008 0 -0.36721495268790022 0.0728579419499161 0 -0.34177517384681533 0.079588302745984676 0 -0.36721495268790022 0.0728579419499161 0 -0.36183493464870942 0.090264115561185604 0 -0.34177517384681533 0.079588302745984676 0 -0.36183493464870942 0.090264115561185604 0 -0.3476711177197464 0.097847325253313577 0 -0.34177517384681533 0.079588302745984676 0 -0.37781192793851243 0.084198958559004139 0 -0.36721495268790022 0.0728579419499161 0 -0.36183493464870942 0.090264115561185604 0 -0.37781192793851243 0.084198958559004139 0 -0.36183493464870942 0.090264115561185604 0 -0.36972159611154309 0.104261234914918 0 -0.36183493464870942 0.090264115561185604 0 -0.36972159611154309 0.104261234914918 0 -0.3476711177197464 0.097847325253313577 0 -0.38115682876955581 0.1103283330357792 0 -0.37346066779922188 0.12894551372293181 0 -0.3695516488243149 0.11591750321558621 0 -0.37346066779922188 0.12894551372293181 0 -0.3695516488243149 0.11591750321558621 0 -0.35059020248319739 0.11681131748120981 0 -0.36972159611154309 0.104261234914918 0 -0.3695516488243149 0.11591750321558621 0 -0.35059020248319739 0.11681131748120981 0 -0.36972159611154309 0.104261234914918 0 -0.35059020248319739 0.11681131748120981 0 -0.37346066779922188 0.12894551372293181 0 -0.35059020248319739 0.11681131748120981 0 -0.38115682876955581 0.1103283330357792 0 -0.36972159611154309 0.104261234914918 0 -0.3695516488243149 0.11591750321558621 0 -0.36972159611154309 0.104261234914918 0 -0.35059020248319739 0.11681131748120981 0 -0.3476711177197464 0.097847325253313577 0 -0.3476711177197464 0.097847325253313577 0 -0.33033160353359542 0.1060628778740539 0 -0.32890709671405999 0.088463721964780639 0 -0.35059020248319739 0.11681131748120981 0 -0.3476711177197464 0.097847325253313577 0 -0.33033160353359542 0.1060628778740539 0 -0.35059020248319739 0.11681131748120981 0 -0.33033160353359542 0.1060628778740539 0 -0.32968962463050999 0.13052197457342829 0 -0.35059020248319739 0.11681131748120981 0 -0.33033160353359542 0.1060628778740539 0 -0.32968962463050999 0.13052197457342829 0 -0.35059020248319739 0.11681131748120981 0 -0.32968962463050999 0.13052197457342829 0 -0.33033160353359542 0.1060628778740539 0 -0.32215142291172999 0.1180788232970241 0 -0.32968962463050999 0.13052197457342829 0 -0.32215142291172999 0.1180788232970241 0 -0.31729764035802871 0.1240912291001199 0 -0.33033160353359542 0.1060628778740539 0 -0.32215142291172999 0.1180788232970241 0 -0.31985266445150562 0.1082801931930573 0 -0.31207506069544078 0.10944554993262311 0 -0.31435831217211402 0.11649321308770121 0 -0.31985266445150562 0.1082801931930573 0 -0.32215142291172999 0.1180788232970241 0 -0.31435831217211402 0.11649321308770121 0 -0.31985266445150562 0.1082801931930573 0 -0.30725896698654148 0.1232954686651863 0 -0.31435831217211402 0.11649321308770121 0 -0.31729764035802871 0.1240912291001199 0 -0.32215142291172999 0.1180788232970241 0 -0.31435831217211402 0.11649321308770121 0 -0.31729764035802871 0.1240912291001199 0 -0.31007300458399312 0.09531443826689856 0 -0.33033160353359542 0.1060628778740539 0 -0.31240468530311122 0.097563497925107143 0 -0.33033160353359542 0.1060628778740539 0 -0.31985266445150562 0.1082801931930573 0 -0.33033160353359542 0.1060628778740539 0 -0.31764455679521719 0.089579620434036555 0 -0.32890709671405999 0.088463721964780639 0 -0.31007300458399312 0.09531443826689856 0 -0.33033160353359542 0.1060628778740539 0 -0.31764455679521719 0.089579620434036555 0 -0.31240468530311122 0.097563497925107143 0 -0.31007300458399312 0.09531443826689856 0 -0.33033160353359542 0.1060628778740539 0 -0.31240468530311122 0.097563497925107143 0 -0.31985266445150562 0.1082801931930573 0 -0.31274638677652061 0.10468279721592989 0 -0.31207506069544078 0.10944554993262311 0 -0.31985266445150562 0.1082801931930573 0 -0.31274638677652061 0.10468279721592989 0 -0.31764455679521719 0.089579620434036555 0 -0.31404789863104221 0.072167618733781108 0 -0.32890709671405999 0.088463721964780639 0 -0.31012963701859891 0.084471807298615045 0 -0.31764455679521719 0.089579620434036555 0 -0.31404789863104221 0.072167618733781108 0 -0.31007300458399312 0.09531443826689856 0 -0.31118068304190011 0.089549997660141767 0 -0.31764455679521719 0.089579620434036555 0 -0.31012963701859891 0.084471807298615045 0 -0.31118068304190011 0.089549997660141767 0 -0.31764455679521719 0.089579620434036555 0 -0.31404789863104221 0.072167618733781108 0 -0.34177517384681533 0.079588302745984676 0 -0.30418396801763509 0.059575555554716997 0 -0.32958037362993498 0.059393006212825013 0 -0.31404789863104221 0.072167618733781108 0 -0.32958037362993498 0.059393006212825013 0 -0.35497677924223492 0.059210456870933008 0 -0.34177517384681533 0.079588302745984676 0 -0.32958037362993498 0.059393006212825013 0 -0.31404789863104221 0.072167618733781108 0 -0.34177517384681533 0.079588302745984676 0 -0.31404789863104221 0.072167618733781108 0 -0.34177517384681533 0.079588302745984676 0 -0.32890709671405999 0.088463721964780639 0 -0.3476711177197464 0.097847325253313577 0 -0.34177517384681533 0.079588302745984676 0 -0.32890709671405999 0.088463721964780639 0 -0.39284139016937619 0.47082915363794092 0 -0.40308539967746859 0.4787755965049113 0 -0.38623642577164419 0.48454933959493568 0 -0.39284139016937619 0.47082915363794092 0 -0.40308539967746859 0.4787755965049113 0 -0.39284139016937619 0.47082915363794092 0 -0.40308539967746859 0.4787755965049113 0 -0.40646000972852991 0.46934635128500107 0 -0.40308539967746859 0.4787755965049113 0 -0.40646000972852991 0.46934635128500107 0 -0.39284139016937619 0.47082915363794092 0 -0.40646000972852991 0.46934635128500107 0 -0.40308539967746859 0.4787755965049113 0 -0.39548944860271518 0.50000000000000022 0 -0.38623642577164419 0.48454933959493568 0 -0.40308539967746859 0.4787755965049113 0 -0.39548944860271518 0.50000000000000022 0 -0.41296794729032699 0.5 0 -0.40308539967746859 0.4787755965049113 0 -0.39548944860271518 0.50000000000000022 0 -0.38623642577164419 0.48454933959493568 0 -0.3715998105464085 0.47314194783182512 0 -0.36816607986225208 0.5 0 -0.39548944860271518 0.50000000000000022 0 -0.38623642577164419 0.48454933959493568 0 -0.36816607986225208 0.5 0 -0.39284139016937619 0.47082915363794092 0 -0.38623642577164419 0.48454933959493568 0 -0.3715998105464085 0.47314194783182512 0 -0.39284139016937619 0.47082915363794092 0 -0.3715998105464085 0.47314194783182512 0 -0.39284139016937619 0.47082915363794092 0 -0.36942939009758391 0.45266808879071202 0 -0.39284139016937619 0.47082915363794092 0 -0.39605436480582751 0.45449187940403663 0 -0.36942939009758391 0.45266808879071202 0 -0.39284139016937619 0.47082915363794092 0 -0.36942939009758391 0.45266808879071202 0 -0.3715998105464085 0.47314194783182512 0 -0.39107046522021371 0.4363011119444557 0 -0.36978705525946731 0.42981480527022592 0 -0.36942939009758391 0.45266808879071202 0 -0.39605436480582751 0.45449187940403663 0 -0.39107046522021371 0.4363011119444557 0 -0.36942939009758391 0.45266808879071202 0 -0.39107046522021371 0.4363011119444557 0 -0.36942939009758391 0.45266808879071202 0 -0.39605436480582751 0.45449187940403663 0 -0.40647912429713579 0.44122150219818712 0 -0.39107046522021371 0.4363011119444557 0 -0.39605436480582751 0.45449187940403663 0 -0.41126857661181149 0.45591038220627628 0 -0.40647912429713579 0.44122150219818712 0 -0.39284139016937619 0.47082915363794092 0 -0.39605436480582751 0.45449187940403663 0 -0.40646000972852991 0.46934635128500107 0 -0.39605436480582751 0.45449187940403663 0 -0.41126857661181149 0.45591038220627628 0 -0.40646000972852991 0.46934635128500107 0 -0.41126857661181149 0.45591038220627628 0 -0.43222323725675837 0.46654123772468259 0 -0.40646000972852991 0.46934635128500107 0 -0.41126857661181149 0.45591038220627628 0 -0.40646000972852991 0.46934635128500107 0 -0.43222323725675837 0.46654123772468259 0 -0.40646000972852991 0.46934635128500107 0 -0.41126857661181149 0.45591038220627628 0 -0.42129067450498298 0.43947000233796779 0 -0.42625008501682871 0.45234754771831598 0 -0.41126857661181149 0.45591038220627628 0 -0.42129067450498298 0.43947000233796779 0 -0.40647912429713579 0.44122150219818712 0 -0.42129067450498298 0.43947000233796779 0 -0.42625008501682871 0.45234754771831598 0 -0.44060141549797083 0.44476161038579409 0 -0.42625008501682871 0.45234754771831598 0 -0.43641844711097078 0.45706648504765579 0 -0.44060141549797083 0.44476161038579409 0 -0.41126857661181149 0.45591038220627628 0 -0.42625008501682871 0.45234754771831598 0 -0.43222323725675837 0.46654123772468259 0 -0.42625008501682871 0.45234754771831598 0 -0.43641844711097078 0.45706648504765579 0 -0.43222323725675837 0.46654123772468259 0 -0.43222323725675837 0.46654123772468259 0 -0.42917294985463039 0.48206769235235691 0 -0.4463479123463242 0.478857169013508 0 -0.42917294985463039 0.48206769235235691 0 -0.42008123086442861 0.47555225677113278 0 -0.41676592282770292 0.48938779825245771 0 -0.43222323725675837 0.46654123772468259 0 -0.42917294985463039 0.48206769235235691 0 -0.42008123086442861 0.47555225677113278 0 -0.43222323725675837 0.46654123772468259 0 -0.42008123086442861 0.47555225677113278 0 -0.40646000972852991 0.46934635128500107 0 -0.42008123086442861 0.47555225677113278 0 -0.41150516186690073 0.47647043690962831 0 -0.41676592282770292 0.48938779825245771 0 -0.40308539967746859 0.4787755965049113 0 -0.41676592282770292 0.48938779825245771 0 -0.40308539967746859 0.4787755965049113 0 -0.41150516186690073 0.47647043690962831 0 -0.41676592282770292 0.48938779825245771 0 -0.42008123086442861 0.47555225677113278 0 -0.40646000972852991 0.46934635128500107 0 -0.41150516186690073 0.47647043690962831 0 -0.40308539967746859 0.4787755965049113 0 -0.40646000972852991 0.46934635128500107 0 -0.41150516186690073 0.47647043690962831 0 -0.40308539967746859 0.4787755965049113 0 -0.41296794729032699 0.5 0 -0.41676592282770292 0.48938779825245771 0 -0.41296794729032699 0.5 0 -0.41676592282770292 0.48938779825245771 0 -0.43044644597793891 0.500000000000002 0 -0.42917294985463039 0.48206769235235691 0 -0.43044644597793891 0.500000000000002 0 -0.4463479123463242 0.478857169013508 0 -0.41676592282770292 0.48938779825245771 0 -0.43044644597793891 0.500000000000002 0 -0.42917294985463039 0.48206769235235691 0 -0.41676592282770292 0.48938779825245771 0 -0.43044644597793891 0.500000000000002 0 -0.43044644597793891 0.500000000000002 0 -0.46716528128511242 0.48099286084522708 0 -0.5 0.5 0 -0.43044644597793891 0.500000000000002 0 -0.4463479123463242 0.478857169013508 0 -0.46716528128511242 0.48099286084522708 0 -0.43222323725675837 0.46654123772468259 0 -0.4463479123463242 0.478857169013508 0 -0.44663783656114792 0.46497176868471068 0 -0.4463479123463242 0.478857169013508 0 -0.45798646478498689 0.46373612416436383 0 -0.44663783656114792 0.46497176868471068 0 -0.4463479123463242 0.478857169013508 0 -0.46716528128511242 0.48099286084522708 0 -0.45798646478498689 0.46373612416436383 0 -0.46716528128511242 0.48099286084522708 0 -0.5 0.5 0 -0.47961700361415338 0.45804014273439131 0 -0.5 0.5 0 -0.5 0.4386041921201862 0 -0.47961700361415338 0.45804014273439131 0 -0.5 0.4386041921201862 0 -0.47961700361415338 0.45804014273439131 0 -0.47358919271050909 0.43676791533515519 0 -0.47961700361415338 0.45804014273439131 0 -0.45893070564041261 0.4459889668339781 0 -0.47358919271050909 0.43676791533515519 0 -0.46716528128511242 0.48099286084522708 0 -0.47961700361415338 0.45804014273439131 0 -0.45798646478498689 0.46373612416436383 0 -0.47961700361415338 0.45804014273439131 0 -0.45893070564041261 0.4459889668339781 0 -0.45798646478498689 0.46373612416436383 0 -0.45893070564041261 0.4459889668339781 0 -0.45798646478498689 0.46373612416436383 0 -0.45153801836064361 0.45440288413589758 0 -0.44663783656114792 0.46497176868471068 0 -0.44060141549797083 0.44476161038579409 0 -0.43641844711097078 0.45706648504765579 0 -0.44663783656114792 0.46497176868471068 0 -0.44060141549797083 0.44476161038579409 0 -0.44663783656114792 0.46497176868471068 0 -0.45153801836064361 0.45440288413589758 0 -0.44060141549797083 0.44476161038579409 0 -0.45798646478498689 0.46373612416436383 0 -0.44663783656114792 0.46497176868471068 0 -0.45798646478498689 0.46373612416436383 0 -0.44663783656114792 0.46497176868471068 0 -0.45153801836064361 0.45440288413589758 0 -0.43222323725675837 0.46654123772468259 0 -0.44663783656114792 0.46497176868471068 0 -0.43641844711097078 0.45706648504765579 0 -0.43222323725675837 0.46654123772468259 0 -0.44663783656114792 0.46497176868471068 0 -0.45893070564041261 0.4459889668339781 0 -0.45153801836064361 0.45440288413589758 0 -0.44060141549797083 0.44476161038579409 0 -0.45893070564041261 0.4459889668339781 0 -0.44060141549797083 0.44476161038579409 0 -0.45186203388810581 0.42882845551430149 0 -0.44060141549797083 0.44476161038579409 0 -0.43460378032361813 0.42490767640975752 0 -0.44060141549797083 0.44476161038579409 0 -0.45186203388810581 0.42882845551430149 0 -0.43460378032361813 0.42490767640975752 0 -0.45186203388810581 0.42882845551430149 0 -0.43460378032361813 0.42490767640975752 0 -0.45186203388810581 0.42882845551430149 0 -0.44941235090745602 0.40797307753090389 0 -0.43460378032361813 0.42490767640975752 0 -0.45186203388810581 0.42882845551430149 0 -0.44941235090745602 0.40797307753090389 0 -0.47753622040987398 0.41237781947291868 0 -0.45893070564041261 0.4459889668339781 0 -0.45186203388810581 0.42882845551430149 0 -0.47358919271050909 0.43676791533515519 0 -0.45186203388810581 0.42882845551430149 0 -0.47358919271050909 0.43676791533515519 0 -0.47753622040987398 0.41237781947291868 0 -0.5 0.4386041921201862 0 -0.47753622040987398 0.41237781947291868 0 -0.5 0.39175826840489519 0 -0.5 0.4386041921201862 0 -0.47358919271050909 0.43676791533515519 0 -0.47753622040987398 0.41237781947291868 0 -0.47753622040987398 0.41237781947291868 0 -0.5 0.39175826840489519 0 -0.46143402358129232 0.38835001724299112 0 -0.5 0.39175826840489519 0 -0.46143402358129232 0.38835001724299112 0 -0.4690065281940603 0.35994965287548752 0 -0.44941235090745602 0.40797307753090389 0 -0.47753622040987398 0.41237781947291868 0 -0.46143402358129232 0.38835001724299112 0 -0.44941235090745602 0.40797307753090389 0 -0.46143402358129232 0.38835001724299112 0 -0.43988578882814472 0.3900417531778283 0 -0.44941235090745602 0.40797307753090389 0 -0.43988578882814472 0.3900417531778283 0 -0.4281714747564454 0.40361485576765332 0 -0.46143402358129232 0.38835001724299112 0 -0.43988578882814472 0.3900417531778283 0 -0.4382538412731698 0.36726161534269169 0 -0.43988578882814472 0.3900417531778283 0 -0.42173916918927429 0.38232203512554858 0 -0.4382538412731698 0.36726161534269169 0 -0.42173916918927429 0.38232203512554858 0 -0.41077338444770661 0.40261547890829252 0 -0.39361468573569952 0.37751213045027082 0 -0.42173916918927429 0.38232203512554858 0 -0.41077338444770661 0.40261547890829252 0 -0.4281714747564454 0.40361485576765332 0 -0.41077338444770661 0.40261547890829252 0 -0.4281714747564454 0.40361485576765332 0 -0.42690997012446508 0.40919597305346811 0 -0.43988578882814472 0.3900417531778283 0 -0.42173916918927429 0.38232203512554858 0 -0.4281714747564454 0.40361485576765332 0 -0.42173916918927429 0.38232203512554858 0 -0.4281714747564454 0.40361485576765332 0 -0.4281714747564454 0.40361485576765332 0 -0.42690997012446508 0.40919597305346811 0 -0.43460378032361813 0.42490767640975752 0 -0.44941235090745602 0.40797307753090389 0 -0.4281714747564454 0.40361485576765332 0 -0.43460378032361813 0.42490767640975752 0 -0.4281714747564454 0.40361485576765332 0 -0.43460378032361813 0.42490767640975752 0 -0.42690997012446508 0.40919597305346811 0 -0.43460378032361813 0.42490767640975752 0 -0.41271154034284341 0.41993413509819938 0 -0.42129067450498298 0.43947000233796779 0 -0.43460378032361813 0.42490767640975752 0 -0.41271154034284341 0.41993413509819938 0 -0.43460378032361813 0.42490767640975752 0 -0.41271154034284341 0.41993413509819938 0 -0.42129067450498298 0.43947000233796779 0 -0.44060141549797083 0.44476161038579409 0 -0.43460378032361813 0.42490767640975752 0 -0.42129067450498298 0.43947000233796779 0 -0.40647912429713579 0.44122150219818712 0 -0.41271154034284341 0.41993413509819938 0 -0.41077338444770661 0.40261547890829252 0 -0.42690997012446508 0.40919597305346811 0 -0.41271154034284341 0.41993413509819938 0 -0.42690997012446508 0.40919597305346811 0 -0.41271154034284341 0.41993413509819938 0 -0.41077338444770661 0.40261547890829252 0 -0.41271154034284341 0.41993413509819938 0 -0.38705387419963999 0.4141051535671445 0 -0.41271154034284341 0.41993413509819938 0 -0.38705387419963999 0.4141051535671445 0 -0.41271154034284341 0.41993413509819938 0 -0.39107046522021371 0.4363011119444557 0 -0.38705387419963999 0.4141051535671445 0 -0.40647912429713579 0.44122150219818712 0 -0.41271154034284341 0.41993413509819938 0 -0.39107046522021371 0.4363011119444557 0 -0.41271154034284341 0.41993413509819938 0 -0.39107046522021371 0.4363011119444557 0 -0.39107046522021371 0.4363011119444557 0 -0.38705387419963999 0.4141051535671445 0 -0.36978705525946731 0.42981480527022592 0 -0.38705387419963999 0.4141051535671445 0 -0.37765957236854669 0.39321752221096978 0 -0.36139620805643691 0.40827617203608951 0 -0.38705387419963999 0.4141051535671445 0 -0.37765957236854669 0.39321752221096978 0 -0.39227537918789818 0.39686257128416941 0 -0.37765957236854669 0.39321752221096978 0 -0.39361468573569952 0.37751213045027082 0 -0.36871972337215458 0.37030387447968149 0 -0.37765957236854669 0.39321752221096978 0 -0.39361468573569952 0.37751213045027082 0 -0.39227537918789818 0.39686257128416941 0 -0.41077338444770661 0.40261547890829252 0 -0.38705387419963999 0.4141051535671445 0 -0.39227537918789818 0.39686257128416941 0 -0.41077338444770661 0.40261547890829252 0 -0.39361468573569952 0.37751213045027082 0 -0.39227537918789818 0.39686257128416941 0 -0.38821810649663713 0.35297090796764791 0 -0.40358216277567038 0.33635210285702638 0 -0.41530686362210317 0.36102921448344388 0 -0.39361468573569952 0.37751213045027082 0 -0.38821810649663713 0.35297090796764791 0 -0.41530686362210317 0.36102921448344388 0 -0.39361468573569952 0.37751213045027082 0 -0.38821810649663713 0.35297090796764791 0 -0.36871972337215458 0.37030387447968149 0 -0.39361468573569952 0.37751213045027082 0 -0.36871972337215458 0.37030387447968149 0 -0.38821810649663713 0.35297090796764791 0 -0.38387276712932628 0.33159255028736723 0 -0.36421243634486938 0.34103557524809758 0 -0.38387276712932628 0.33159255028736723 0 -0.38851227292066581 0.31190813985358051 0 -0.36968322881985521 0.30664905673823062 0 -0.40358216277567038 0.33635210285702638 0 -0.4133625045341961 0.31781073898562912 0 -0.38851227292066581 0.31190813985358051 0 -0.40358216277567038 0.33635210285702638 0 -0.38851227292066581 0.31190813985358051 0 -0.38387276712932628 0.33159255028736723 0 -0.40358216277567038 0.33635210285702638 0 -0.38851227292066581 0.31190813985358051 0 -0.38821810649663713 0.35297090796764791 0 -0.38387276712932628 0.33159255028736723 0 -0.40358216277567038 0.33635210285702638 0 -0.40358216277567038 0.33635210285702638 0 -0.4133625045341961 0.31781073898562912 0 -0.42299094565753181 0.34225441643417109 0 -0.4133625045341961 0.31781073898562912 0 -0.42299094565753181 0.34225441643417109 0 -0.43756810879883751 0.31929419325264358 0 -0.42299094565753181 0.34225441643417109 0 -0.44290086953993402 0.34614454361912561 0 -0.43756810879883751 0.31929419325264358 0 -0.42299094565753181 0.34225441643417109 0 -0.4382538412731698 0.36726161534269169 0 -0.44290086953993402 0.34614454361912561 0 -0.42299094565753181 0.34225441643417109 0 -0.41530686362210317 0.36102921448344388 0 -0.4382538412731698 0.36726161534269169 0 -0.40358216277567038 0.33635210285702638 0 -0.42299094565753181 0.34225441643417109 0 -0.41530686362210317 0.36102921448344388 0 -0.42173916918927429 0.38232203512554858 0 -0.41530686362210317 0.36102921448344388 0 -0.42173916918927429 0.38232203512554858 0 -0.39361468573569952 0.37751213045027082 0 -0.41530686362210317 0.36102921448344388 0 -0.42173916918927429 0.38232203512554858 0 -0.41530686362210317 0.36102921448344388 0 -0.4382538412731698 0.36726161534269169 0 -0.5 0.39175826840489519 0 -0.4690065281940603 0.35994965287548752 0 -0.49999999999999828 0.32874080055577282 0 -0.4382538412731698 0.36726161534269169 0 -0.44290086953993402 0.34614454361912561 0 -0.4690065281940603 0.35994965287548752 0 -0.44290086953993402 0.34614454361912561 0 -0.4690065281940603 0.35994965287548752 0 -0.47145043476996612 0.33744267208744888 0 -0.46143402358129232 0.38835001724299112 0 -0.4382538412731698 0.36726161534269169 0 -0.4690065281940603 0.35994965287548752 0 -0.49999999999999828 0.32874080055577282 0 -0.47469837659054859 0.31437244098749573 0 -0.5 0.30573657178756219 0 -0.49999999999999828 0.32874080055577282 0 -0.47145043476996612 0.33744267208744888 0 -0.4690065281940603 0.35994965287548752 0 -0.49999999999999828 0.32874080055577282 0 -0.47145043476996612 0.33744267208744888 0 -0.49999999999999828 0.32874080055577282 0 -0.47145043476996612 0.33744267208744888 0 -0.47469837659054859 0.31437244098749573 0 -0.47145043476996612 0.33744267208744888 0 -0.47469837659054859 0.31437244098749573 0 -0.45532000146739199 0.32718435863176698 0 -0.47469837659054859 0.31437244098749573 0 -0.45532000146739199 0.32718435863176698 0 -0.45359264279536121 0.3118249488675422 0 -0.44290086953993402 0.34614454361912561 0 -0.47145043476996612 0.33744267208744888 0 -0.44290086953993402 0.34614454361912561 0 -0.47145043476996612 0.33744267208744888 0 -0.45532000146739199 0.32718435863176698 0 -0.44290086953993402 0.34614454361912561 0 -0.45532000146739199 0.32718435863176698 0 -0.43756810879883751 0.31929419325264358 0 -0.45532000146739199 0.32718435863176698 0 -0.43756810879883751 0.31929419325264358 0 -0.45359264279536121 0.3118249488675422 0 -0.43756810879883751 0.31929419325264358 0 -0.44178964533204218 0.29829405510373269 0 -0.45359264279536121 0.3118249488675422 0 -0.44178964533204218 0.29829405510373269 0 -0.46039229436682899 0.29655819918978299 0 -0.45359264279536121 0.3118249488675422 0 -0.44178964533204218 0.29829405510373269 0 -0.45154501757830029 0.28583332336253853 0 -0.46039229436682899 0.29655819918978299 0 -0.44178964533204218 0.29829405510373269 0 -0.45154501757830029 0.28583332336253853 0 -0.43913816018328899 0.27834049072822348 0 -0.45154501757830029 0.28583332336253853 0 -0.46039229436682899 0.29655819918978299 0 -0.46675114417597169 0.28138504135675457 0 -0.47469837659054859 0.31437244098749573 0 -0.46039229436682899 0.29655819918978299 0 -0.45359264279536121 0.3118249488675422 0 -0.47469837659054859 0.31437244098749573 0 -0.46039229436682899 0.29655819918978299 0 -0.48128565209390478 0.28953565754880928 0 -0.46039229436682899 0.29655819918978299 0 -0.46675114417597169 0.28138504135675457 0 -0.48128565209390478 0.28953565754880928 0 -0.48128565209390478 0.28953565754880928 0 -0.50000000000000067 0.28273234301935157 0 -0.48868852328947288 0.27334378999659131 0 -0.48128565209390478 0.28953565754880928 0 -0.50000000000000067 0.28273234301935157 0 -0.5 0.30573657178756219 0 -0.47469837659054859 0.31437244098749573 0 -0.48128565209390478 0.28953565754880928 0 -0.5 0.30573657178756219 0 -0.49064567966318401 0.23744519811699161 0 -0.5 0.25865732180859752 0 -0.4953228398315927 0.26008877056817148 0 -0.48498496292404369 0.26191749084893268 0 -0.4953228398315927 0.26008877056817148 0 -0.48868852328947288 0.27334378999659131 0 -0.48498496292404369 0.26191749084893268 0 -0.48768505413975599 0.25571928380812958 0 -0.4953228398315927 0.26008877056817148 0 -0.48498496292404369 0.26191749084893268 0 -0.48768505413975599 0.25571928380812958 0 -0.48224381441187142 0.25207038703368251 0 -0.48781849227701962 0.2496540844433055 0 -0.48768505413975599 0.25571928380812958 0 -0.4953228398315927 0.26008877056817148 0 -0.48781849227701962 0.2496540844433055 0 -0.48768505413975599 0.25571928380812958 0 -0.48224381441187142 0.25207038703368251 0 -0.50000000000000067 0.28273234301935157 0 -0.4953228398315927 0.26008877056817148 0 -0.48868852328947288 0.27334378999659131 0 -0.50000000000000067 0.28273234301935157 0 -0.4953228398315927 0.26008877056817148 0 -0.50000000000000067 0.28273234301935157 0 -0.5 0.25865732180859752 0 -0.4953228398315927 0.26008877056817148 0 -0.48128565209390478 0.28953565754880928 0 -0.48868852328947288 0.27334378999659131 0 -0.47745964357631793 0.27245671310868769 0 -0.48498496292404369 0.26191749084893268 0 -0.48868852328947288 0.27334378999659131 0 -0.47745964357631793 0.27245671310868769 0 -0.46675114417597169 0.28138504135675457 0 -0.48128565209390478 0.28953565754880928 0 -0.47745964357631793 0.27245671310868769 0 -0.46675114417597169 0.28138504135675457 0 -0.47745964357631793 0.27245671310868769 0 -0.46672442453073798 0.26694750458140432 0 -0.47745964357631793 0.27245671310868769 0 -0.47499511642455688 0.25915997001863278 0 -0.46672442453073798 0.26694750458140432 0 -0.47499511642455688 0.25915997001863278 0 -0.46618942398389313 0.25430161183222733 0 -0.46672442453073798 0.26694750458140432 0 -0.48498496292404369 0.26191749084893268 0 -0.47745964357631793 0.27245671310868769 0 -0.47499511642455688 0.25915997001863278 0 -0.48498496292404369 0.26191749084893268 0 -0.47499511642455688 0.25915997001863278 0 -0.48224381441187142 0.25207038703368251 0 -0.47297208541441232 0.2472873218371015 0 -0.47499511642455688 0.25915997001863278 0 -0.48224381441187142 0.25207038703368251 0 -0.47297208541441232 0.2472873218371015 0 -0.47499511642455688 0.25915997001863278 0 -0.46618942398389313 0.25430161183222733 0 -0.46618942398389313 0.25430161183222733 0 -0.45785467858289752 0.26091056066429402 0 -0.46672442453073798 0.26694750458140432 0 -0.45785467858289752 0.26091056066429402 0 -0.45792817544542508 0.25041690797386462 0 -0.4499815207792619 0.2552919627222493 0 -0.46618942398389313 0.25430161183222733 0 -0.45785467858289752 0.26091056066429402 0 -0.45792817544542508 0.25041690797386462 0 -0.46675114417597169 0.28138504135675457 0 -0.46672442453073798 0.26694750458140432 0 -0.45501841015481648 0.2736369123558306 0 -0.45785467858289752 0.26091056066429402 0 -0.45501841015481648 0.2736369123558306 0 -0.44745178400260088 0.26582207700183652 0 -0.45785467858289752 0.26091056066429402 0 -0.46672442453073798 0.26694750458140432 0 -0.45501841015481648 0.2736369123558306 0 -0.45154501757830029 0.28583332336253853 0 -0.46675114417597169 0.28138504135675457 0 -0.45501841015481648 0.2736369123558306 0 -0.45154501757830029 0.28583332336253853 0 -0.45501841015481648 0.2736369123558306 0 -0.43913816018328899 0.27834049072822348 0 -0.45501841015481648 0.2736369123558306 0 -0.43913816018328899 0.27834049072822348 0 -0.44745178400260088 0.26582207700183652 0 -0.43913816018328899 0.27834049072822348 0 -0.44745178400260088 0.26582207700183652 0 -0.43710083400550709 0.26031002745195381 0 -0.45785467858289752 0.26091056066429402 0 -0.44745178400260088 0.26582207700183652 0 -0.4499815207792619 0.2552919627222493 0 -0.44745178400260088 0.26582207700183652 0 -0.4499815207792619 0.2552919627222493 0 -0.43710083400550709 0.26031002745195381 0 -0.43750700376733198 0.2477906828514517 0 -0.4499815207792619 0.2552919627222493 0 -0.43710083400550709 0.26031002745195381 0 -0.43750700376733198 0.2477906828514517 0 -0.43710083400550709 0.26031002745195381 0 -0.42462146603435202 0.2560588456591526 0 -0.43710083400550709 0.26031002745195381 0 -0.42462146603435202 0.2560588456591526 0 -0.42351001403411281 0.27171014422599132 0 -0.41159418707825368 0.24887521922966349 0 -0.42462146603435202 0.2560588456591526 0 -0.40817712551745189 0.26364394526533669 0 -0.42462146603435202 0.2560588456591526 0 -0.40817712551745189 0.26364394526533669 0 -0.42351001403411281 0.27171014422599132 0 -0.40817712551745189 0.26364394526533669 0 -0.41119428260536972 0.27849821600876451 0 -0.42351001403411281 0.27171014422599132 0 -0.43913816018328899 0.27834049072822348 0 -0.43710083400550709 0.26031002745195381 0 -0.42351001403411281 0.27171014422599132 0 -0.44178964533204218 0.29829405510373269 0 -0.43913816018328899 0.27834049072822348 0 -0.42167034288852062 0.29392919470886908 0 -0.43913816018328899 0.27834049072822348 0 -0.42351001403411281 0.27171014422599132 0 -0.42167034288852062 0.29392919470886908 0 -0.43756810879883751 0.31929419325264358 0 -0.44178964533204218 0.29829405510373269 0 -0.42167034288852062 0.29392919470886908 0 -0.4133625045341961 0.31781073898562912 0 -0.43756810879883751 0.31929419325264358 0 -0.42167034288852062 0.29392919470886908 0 -0.4133625045341961 0.31781073898562912 0 -0.42167034288852062 0.29392919470886908 0 -0.40337577422743809 0.30145091685745562 0 -0.41119428260536972 0.27849821600876451 0 -0.42167034288852062 0.29392919470886908 0 -0.39836980761591517 0.28657815644524592 0 -0.41119428260536972 0.27849821600876451 0 -0.42351001403411281 0.27171014422599132 0 -0.42167034288852062 0.29392919470886908 0 -0.42167034288852062 0.29392919470886908 0 -0.39836980761591517 0.28657815644524592 0 -0.40337577422743809 0.30145091685745562 0 -0.39836980761591517 0.28657815644524592 0 -0.40337577422743809 0.30145091685745562 0 -0.39001310330486738 0.293677414393897 0 -0.39836980761591517 0.28657815644524592 0 -0.39001310330486738 0.293677414393897 0 -0.38388985875814408 0.27931021201304029 0 -0.40337577422743809 0.30145091685745562 0 -0.38851227292066581 0.31190813985358051 0 -0.39001310330486738 0.293677414393897 0 -0.4133625045341961 0.31781073898562912 0 -0.40337577422743809 0.30145091685745562 0 -0.38851227292066581 0.31190813985358051 0 -0.38851227292066581 0.31190813985358051 0 -0.39001310330486738 0.293677414393897 0 -0.37344238306566141 0.28746417685013459 0 -0.38851227292066581 0.31190813985358051 0 -0.37344238306566141 0.28746417685013459 0 -0.38851227292066581 0.31190813985358051 0 -0.37344238306566141 0.28746417685013459 0 -0.36968322881985521 0.30664905673823062 0 -0.39001310330486738 0.293677414393897 0 -0.38388985875814408 0.27931021201304029 0 -0.37344238306566141 0.28746417685013459 0 -0.38388985875814408 0.27931021201304029 0 -0.3728383803679029 0.27146146369931551 0 -0.37344238306566141 0.28746417685013459 0 -0.38388985875814408 0.27931021201304029 0 -0.37915875405956317 0.26601671550714229 0 -0.39453780611038192 0.26840251928491621 0 -0.38388985875814408 0.27931021201304029 0 -0.37915875405956317 0.26601671550714229 0 -0.3728383803679029 0.27146146369931551 0 -0.37213913804182203 0.24790348090003481 0 -0.37915875405956317 0.26601671550714229 0 -0.39367234695481013 0.25091502910722768 0 -0.37213913804182203 0.24790348090003481 0 -0.37915875405956317 0.26601671550714229 0 -0.37915875405956317 0.26601671550714229 0 -0.39367234695481013 0.25091502910722768 0 -0.39453780611038192 0.26840251928491621 0 -0.41159418707825368 0.24887521922966349 0 -0.40817712551745189 0.26364394526533669 0 -0.39367234695481013 0.25091502910722768 0 -0.40817712551745189 0.26364394526533669 0 -0.39367234695481013 0.25091502910722768 0 -0.39453780611038192 0.26840251928491621 0 -0.39836980761591517 0.28657815644524592 0 -0.38388985875814408 0.27931021201304029 0 -0.39453780611038192 0.26840251928491621 0 -0.40817712551745189 0.26364394526533669 0 -0.41119428260536972 0.27849821600876451 0 -0.39453780611038192 0.26840251928491621 0 -0.41119428260536972 0.27849821600876451 0 -0.39836980761591517 0.28657815644524592 0 -0.39453780611038192 0.26840251928491621 0 -0.35219076508144281 0.27470877485129902 0 -0.35088738673810899 0.26010904882770558 0 -0.36636752573368853 0.27950174884165901 0 -0.35088738673810899 0.26010904882770558 0 -0.35837249321065678 0.26302021384668878 0 -0.36636752573368853 0.27950174884165901 0 -0.35088738673810899 0.26010904882770558 0 -0.36636752573368853 0.27950174884165901 0 -0.35219076508144281 0.27470877485129902 0 -0.36636752573368853 0.27950174884165901 0 -0.35228452932221732 0.28593346973832823 0 -0.35219076508144281 0.27470877485129902 0 -0.34390337250904002 0.27869335072264911 0 -0.35228452932221732 0.28593346973832823 0 -0.35219076508144281 0.27470877485129902 0 -0.34390337250904002 0.27869335072264911 0 -0.3465764627406312 0.26929427020502172 0 -0.35219076508144281 0.27470877485129902 0 -0.3465764627406312 0.26929427020502172 0 -0.35088738673810899 0.26010904882770558 0 -0.35088738673810899 0.26010904882770558 0 -0.33980078237431011 0.25723974026877772 0 -0.34373104478342958 0.26350081896851257 0 -0.3354072477425295 0.2407163488137522 0 -0.35088738673810899 0.26010904882770558 0 -0.35430692067581587 0.25488155111654259 0 -0.3465764627406312 0.26929427020502172 0 -0.35088738673810899 0.26010904882770558 0 -0.34373104478342958 0.26350081896851257 0 -0.35430692067581587 0.25488155111654259 0 -0.35837249321065678 0.26302021384668878 0 -0.36457159873950451 0.25483873847143151 0 -0.35088738673810899 0.26010904882770558 0 -0.35430692067581587 0.25488155111654259 0 -0.35837249321065678 0.26302021384668878 0 -0.37213913804182203 0.24790348090003481 0 -0.37915875405956317 0.26601671550714229 0 -0.36932841274548878 0.26149600027957137 0 -0.35837249321065678 0.26302021384668878 0 -0.36457159873950451 0.25483873847143151 0 -0.36932841274548878 0.26149600027957137 0 -0.35837249321065678 0.26302021384668878 0 -0.36932841274548878 0.26149600027957137 0 -0.3728383803679029 0.27146146369931551 0 -0.37213913804182203 0.24790348090003481 0 -0.36457159873950451 0.25483873847143151 0 -0.36932841274548878 0.26149600027957137 0 -0.35837249321065678 0.26302021384668878 0 -0.36636752573368853 0.27950174884165901 0 -0.37344238306566141 0.28746417685013459 0 -0.37915875405956317 0.26601671550714229 0 -0.36932841274548878 0.26149600027957137 0 -0.3728383803679029 0.27146146369931551 0 -0.35837249321065678 0.26302021384668878 0 -0.3728383803679029 0.27146146369931551 0 -0.37344238306566141 0.28746417685013459 0 -0.35837249321065678 0.26302021384668878 0 -0.37344238306566141 0.28746417685013459 0 -0.37344238306566141 0.28746417685013459 0 -0.36102375166657208 0.29137417921936198 0 -0.36968322881985521 0.30664905673823062 0 -0.36636752573368853 0.27950174884165901 0 -0.36102375166657208 0.29137417921936198 0 -0.35228452932221732 0.28593346973832823 0 -0.36636752573368853 0.27950174884165901 0 -0.37344238306566141 0.28746417685013459 0 -0.36102375166657208 0.29137417921936198 0 -0.36102375166657208 0.29137417921936198 0 -0.36968322881985521 0.30664905673823062 0 -0.3512910322658086 0.30002199382305222 0 -0.36968322881985521 0.30664905673823062 0 -0.3512910322658086 0.30002199382305222 0 -0.35016823756724919 0.32131270829737058 0 -0.3512910322658086 0.30002199382305222 0 -0.33420572938644649 0.30859579094745138 0 -0.35016823756724919 0.32131270829737058 0 -0.36102375166657208 0.29137417921936198 0 -0.3512910322658086 0.30002199382305222 0 -0.35228452932221732 0.28593346973832823 0 -0.3512910322658086 0.30002199382305222 0 -0.35228452932221732 0.28593346973832823 0 -0.33893072867675172 0.29130077097194818 0 -0.34390337250904002 0.27869335072264911 0 -0.35228452932221732 0.28593346973832823 0 -0.33893072867675172 0.29130077097194818 0 -0.34390337250904002 0.27869335072264911 0 -0.33893072867675172 0.29130077097194818 0 -0.32988367395703522 0.27990082809349992 0 -0.33893072867675172 0.29130077097194818 0 -0.32196984644915477 0.29495310908095101 0 -0.32988367395703522 0.27990082809349992 0 -0.3512910322658086 0.30002199382305222 0 -0.33893072867675172 0.29130077097194818 0 -0.33420572938644649 0.30859579094745138 0 -0.33893072867675172 0.29130077097194818 0 -0.33420572938644649 0.30859579094745138 0 -0.32196984644915477 0.29495310908095101 0 -0.33420572938644649 0.30859579094745138 0 -0.32196984644915477 0.29495310908095101 0 -0.30955235401544928 0.31698040313342019 0 -0.32196984644915477 0.29495310908095101 0 -0.32988367395703522 0.27990082809349992 0 -0.31211434157586893 0.27750019346685612 0 -0.32258403341278219 0.26682725128772888 0 -0.30434827851869611 0.25883753389028341 0 -0.31211434157586893 0.27750019346685612 0 -0.32258403341278219 0.26682725128772888 0 -0.32988367395703522 0.27990082809349992 0 -0.31211434157586893 0.27750019346685612 0 -0.32258403341278219 0.26682725128772888 0 -0.32988367395703522 0.27990082809349992 0 -0.33765954728066822 0.26736021657254561 0 -0.3465764627406312 0.26929427020502172 0 -0.33765954728066822 0.26736021657254561 0 -0.34373104478342958 0.26350081896851257 0 -0.34390337250904002 0.27869335072264911 0 -0.3465764627406312 0.26929427020502172 0 -0.33765954728066822 0.26736021657254561 0 -0.34390337250904002 0.27869335072264911 0 -0.32988367395703522 0.27990082809349992 0 -0.33765954728066822 0.26736021657254561 0 -0.3354072477425295 0.2407163488137522 0 -0.33980078237431011 0.25723974026877772 0 -0.33056550512559818 0.25454276955617988 0 -0.3354072477425295 0.2407163488137522 0 -0.35088738673810899 0.26010904882770558 0 -0.33980078237431011 0.25723974026877772 0 -0.3354072477425295 0.2407163488137522 0 -0.35088738673810899 0.26010904882770558 0 -0.33765954728066822 0.26736021657254561 0 -0.33980078237431011 0.25723974026877772 0 -0.34373104478342958 0.26350081896851257 0 -0.33765954728066822 0.26736021657254561 0 -0.33980078237431011 0.25723974026877772 0 -0.33056550512559818 0.25454276955617988 0 -0.32258403341278219 0.26682725128772888 0 -0.33765954728066822 0.26736021657254561 0 -0.33056550512559818 0.25454276955617988 0 -0.3180615108422542 0.2457437345502152 0 -0.32258403341278219 0.26682725128772888 0 -0.30434827851869611 0.25883753389028341 0 -0.3180615108422542 0.2457437345502152 0 -0.32258403341278219 0.26682725128772888 0 -0.33056550512559818 0.25454276955617988 0 -0.30434827851869611 0.25883753389028341 0 -0.31211434157586893 0.27750019346685612 0 -0.29291897890558583 0.27225553150310527 0 -0.31211434157586893 0.27750019346685612 0 -0.29291897890558583 0.27225553150310527 0 -0.3009812382119596 0.29222690694556852 0 -0.29291897890558583 0.27225553150310527 0 -0.2866366381640022 0.2533162449494728 0 -0.27080099253458539 0.26328734760854428 0 -0.30434827851869611 0.25883753389028341 0 -0.29291897890558583 0.27225553150310527 0 -0.2866366381640022 0.2533162449494728 0 -0.27114667426697842 0.2431060611073062 0 -0.2866366381640022 0.2533162449494728 0 -0.27080099253458539 0.26328734760854428 0 -0.29291897890558583 0.27225553150310527 0 -0.27080099253458539 0.26328734760854428 0 -0.27844678055604632 0.28570658538194732 0 -0.27080099253458539 0.26328734760854428 0 -0.26051764848012587 0.28065561337582162 0 -0.27844678055604632 0.28570658538194732 0 -0.27080099253458539 0.26328734760854428 0 -0.26051764848012587 0.28065561337582162 0 -0.24675645702699089 0.25399726726106192 0 -0.27114667426697842 0.2431060611073062 0 -0.27080099253458539 0.26328734760854428 0 -0.24675645702699089 0.25399726726106192 0 -0.26228836572271041 0.29827593132655161 0 -0.2477162741177234 0.29019062217052921 0 -0.2445794746346113 0.30704768496809209 0 -0.26228836572271041 0.29827593132655161 0 -0.25975706287266881 0.31971275894724738 0 -0.2445794746346113 0.30704768496809209 0 -0.26051764848012587 0.28065561337582162 0 -0.26228836572271041 0.29827593132655161 0 -0.2477162741177234 0.29019062217052921 0 -0.26228836572271041 0.29827593132655161 0 -0.27844678055604632 0.28570658538194732 0 -0.2839191473635615 0.30507747635947241 0 -0.26051764848012587 0.28065561337582162 0 -0.26228836572271041 0.29827593132655161 0 -0.27844678055604632 0.28570658538194732 0 -0.26228836572271041 0.29827593132655161 0 -0.2839191473635615 0.30507747635947241 0 -0.25975706287266881 0.31971275894724738 0 -0.27844678055604632 0.28570658538194732 0 -0.2839191473635615 0.30507747635947241 0 -0.3009812382119596 0.29222690694556852 0 -0.29291897890558583 0.27225553150310527 0 -0.27844678055604632 0.28570658538194732 0 -0.3009812382119596 0.29222690694556852 0 -0.32196984644915477 0.29495310908095101 0 -0.31211434157586893 0.27750019346685612 0 -0.3009812382119596 0.29222690694556852 0 -0.2839191473635615 0.30507747635947241 0 -0.3009812382119596 0.29222690694556852 0 -0.30955235401544928 0.31698040313342019 0 -0.32196984644915477 0.29495310908095101 0 -0.3009812382119596 0.29222690694556852 0 -0.30955235401544928 0.31698040313342019 0 -0.30955235401544928 0.31698040313342019 0 -0.30023855524999771 0.34056647868814388 0 -0.27736322482060038 0.33062025720564348 0 -0.2839191473635615 0.30507747635947241 0 -0.30955235401544928 0.31698040313342019 0 -0.27736322482060038 0.33062025720564348 0 -0.30955235401544928 0.31698040313342019 0 -0.30023855524999771 0.34056647868814388 0 -0.31894526862198019 0.3377286533888787 0 -0.30023855524999771 0.34056647868814388 0 -0.27736322482060038 0.33062025720564348 0 -0.27080730227763922 0.35616303805181471 0 -0.2839191473635615 0.30507747635947241 0 -0.27736322482060038 0.33062025720564348 0 -0.25975706287266881 0.31971275894724738 0 -0.2839191473635615 0.30507747635947241 0 -0.27736322482060038 0.33062025720564348 0 -0.27736322482060038 0.33062025720564348 0 -0.27080730227763922 0.35616303805181471 0 -0.27736322482060038 0.33062025720564348 0 -0.254160802377282 0.34215876838866938 0 -0.27080730227763922 0.35616303805181471 0 -0.254160802377282 0.34215876838866938 0 -0.25975706287266881 0.31971275894724738 0 -0.23936612092844831 0.32726572918536528 0 -0.27736322482060038 0.33062025720564348 0 -0.254160802377282 0.34215876838866938 0 -0.25975706287266881 0.31971275894724738 0 -0.26425137973467799 0.38170581889798599 0 -0.24723993072052761 0.37923758382298239 0 -0.24964382358157641 0.36369708243052662 0 -0.27080730227763922 0.35616303805181471 0 -0.26425137973467799 0.38170581889798599 0 -0.24964382358157641 0.36369708243052662 0 -0.254160802377282 0.34215876838866938 0 -0.27080730227763922 0.35616303805181471 0 -0.24964382358157641 0.36369708243052662 0 -0.27080730227763922 0.35616303805181471 0 -0.28073311880113072 0.3838649651881742 0 -0.26425137973467799 0.38170581889798599 0 -0.27080730227763922 0.35616303805181471 0 -0.26425137973467799 0.38170581889798599 0 -0.27080730227763922 0.35616303805181471 0 -0.29490940171082758 0.36315628016831902 0 -0.28073311880113072 0.3838649651881742 0 -0.30023855524999771 0.34056647868814388 0 -0.27080730227763922 0.35616303805181471 0 -0.29490940171082758 0.36315628016831902 0 -0.30023855524999771 0.34056647868814388 0 -0.29490940171082758 0.36315628016831902 0 -0.31892979864506482 0.35588736253850273 0 -0.29490940171082758 0.36315628016831902 0 -0.31892979864506482 0.35588736253850273 0 -0.31422131357715832 0.37744703915971878 0 -0.29490940171082758 0.36315628016831902 0 -0.31422131357715832 0.37744703915971878 0 -0.29819275517859017 0.38138350765125523 0 -0.31892979864506482 0.35588736253850273 0 -0.3438247610086097 0.36309561850909211 0 -0.31422131357715832 0.37744703915971878 0 -0.31892979864506482 0.35588736253850273 0 -0.3438247610086097 0.36309561850909211 0 -0.31892979864506482 0.35588736253850273 0 -0.34033901616101381 0.34166004810218459 0 -0.3438247610086097 0.36309561850909211 0 -0.30023855524999771 0.34056647868814388 0 -0.31892979864506482 0.35588736253850273 0 -0.31894526862198019 0.3377286533888787 0 -0.31892979864506482 0.35588736253850273 0 -0.31894526862198019 0.3377286533888787 0 -0.34033901616101381 0.34166004810218459 0 -0.33420572938644649 0.30859579094745138 0 -0.30955235401544928 0.31698040313342019 0 -0.33369232742456573 0.32713321975103821 0 -0.30955235401544928 0.31698040313342019 0 -0.31894526862198019 0.3377286533888787 0 -0.33369232742456573 0.32713321975103821 0 -0.33420572938644649 0.30859579094745138 0 -0.33369232742456573 0.32713321975103821 0 -0.35016823756724919 0.32131270829737058 0 -0.33369232742456573 0.32713321975103821 0 -0.34033901616101381 0.34166004810218459 0 -0.35016823756724919 0.32131270829737058 0 -0.31894526862198019 0.3377286533888787 0 -0.33369232742456573 0.32713321975103821 0 -0.34033901616101381 0.34166004810218459 0 -0.38387276712932628 0.33159255028736723 0 -0.36968322881985521 0.30664905673823062 0 -0.36421243634486938 0.34103557524809758 0 -0.34033901616101381 0.34166004810218459 0 -0.35016823756724919 0.32131270829737058 0 -0.36421243634486938 0.34103557524809758 0 -0.36968322881985521 0.30664905673823062 0 -0.35016823756724919 0.32131270829737058 0 -0.36421243634486938 0.34103557524809758 0 -0.38821810649663713 0.35297090796764791 0 -0.36421243634486938 0.34103557524809758 0 -0.36871972337215458 0.37030387447968149 0 -0.36871972337215458 0.37030387447968149 0 -0.3438247610086097 0.36309561850909211 0 -0.36871972337215458 0.37030387447968149 0 -0.3438247610086097 0.36309561850909211 0 -0.35764617057406412 0.38722644530147288 0 -0.36421243634486938 0.34103557524809758 0 -0.36871972337215458 0.37030387447968149 0 -0.3438247610086097 0.36309561850909211 0 -0.34033901616101381 0.34166004810218459 0 -0.36421243634486938 0.34103557524809758 0 -0.3438247610086097 0.36309561850909211 0 -0.35764617057406412 0.38722644530147288 0 -0.36139620805643691 0.40827617203608951 0 -0.3360758441262941 0.3921226934373358 0 -0.3438247610086097 0.36309561850909211 0 -0.35764617057406412 0.38722644530147288 0 -0.3360758441262941 0.3921226934373358 0 -0.37765957236854669 0.39321752221096978 0 -0.36871972337215458 0.37030387447968149 0 -0.35764617057406412 0.38722644530147288 0 -0.37765957236854669 0.39321752221096978 0 -0.35764617057406412 0.38722644530147288 0 -0.36139620805643691 0.40827617203608951 0 -0.38705387419963999 0.4141051535671445 0 -0.36139620805643691 0.40827617203608951 0 -0.36978705525946731 0.42981480527022592 0 -0.36139620805643691 0.40827617203608951 0 -0.34725532227347072 0.43546730789007748 0 -0.32508125444935743 0.41826652698944311 0 -0.38705387419963999 0.4141051535671445 0 -0.36139620805643691 0.40827617203608951 0 -0.36139620805643691 0.40827617203608951 0 -0.36978705525946731 0.42981480527022592 0 -0.34725532227347072 0.43546730789007748 0 -0.34725532227347072 0.43546730789007748 0 -0.32837367701549758 0.43737551415588838 0 -0.32508125444935743 0.41826652698944311 0 -0.34725532227347072 0.43546730789007748 0 -0.32508125444935743 0.41826652698944311 0 -0.32837367701549758 0.43737551415588838 0 -0.32508125444935743 0.41826652698944311 0 -0.31134194363909901 0.43914232379668938 0 -0.32508125444935743 0.41826652698944311 0 -0.30290718662524402 0.40106574608880857 0 -0.32508125444935743 0.41826652698944311 0 -0.3360758441262941 0.3921226934373358 0 -0.30290718662524402 0.40106574608880857 0 -0.3360758441262941 0.3921226934373358 0 -0.31422131357715832 0.37744703915971878 0 -0.30290718662524402 0.40106574608880857 0 -0.36139620805643691 0.40827617203608951 0 -0.32508125444935743 0.41826652698944311 0 -0.3360758441262941 0.3921226934373358 0 -0.3438247610086097 0.36309561850909211 0 -0.3360758441262941 0.3921226934373358 0 -0.31422131357715832 0.37744703915971878 0 -0.31422131357715832 0.37744703915971878 0 -0.29819275517859017 0.38138350765125523 0 -0.30290718662524402 0.40106574608880857 0 -0.30290718662524402 0.40106574608880857 0 -0.28073311880113072 0.3838649651881742 0 -0.30290718662524402 0.40106574608880857 0 -0.28449330431623587 0.40130247418846909 0 -0.28073311880113072 0.3838649651881742 0 -0.29490940171082758 0.36315628016831902 0 -0.29819275517859017 0.38138350765125523 0 -0.28073311880113072 0.3838649651881742 0 -0.29819275517859017 0.38138350765125523 0 -0.30290718662524402 0.40106574608880857 0 -0.28073311880113072 0.3838649651881742 0 -0.28073311880113072 0.3838649651881742 0 -0.27058871930873962 0.39340647946060081 0 -0.26425137973467799 0.38170581889798599 0 -0.28449330431623587 0.40130247418846909 0 -0.28073311880113072 0.3838649651881742 0 -0.27058871930873962 0.39340647946060081 0 -0.28449330431623587 0.40130247418846909 0 -0.27058871930873962 0.39340647946060081 0 -0.26913356579963432 0.40842374030248302 0 -0.27058871930873962 0.39340647946060081 0 -0.25684630946146941 0.39336840056664357 0 -0.26913356579963432 0.40842374030248302 0 -0.25139787839112049 0.40581230727647122 0 -0.25684630946146941 0.39336840056664357 0 -0.26913356579963432 0.40842374030248302 0 -0.25684630946146941 0.39336840056664357 0 -0.26425137973467799 0.38170581889798599 0 -0.24723993072052761 0.37923758382298239 0 -0.27058871930873962 0.39340647946060081 0 -0.25684630946146941 0.39336840056664357 0 -0.26425137973467799 0.38170581889798599 0 -0.25608689703553589 0.43270202213946329 0 -0.25805567994719669 0.41985888566155111 0 -0.26969864206494631 0.43069342882903439 0 -0.25608689703553589 0.43270202213946329 0 -0.25805567994719669 0.41985888566155111 0 -0.24588171876621451 0.42246064432310598 0 -0.25139787839112049 0.40581230727647122 0 -0.25805567994719669 0.41985888566155111 0 -0.24588171876621451 0.42246064432310598 0 -0.25139787839112049 0.40581230727647122 0 -0.25805567994719669 0.41985888566155111 0 -0.26913356579963432 0.40842374030248302 0 -0.25805567994719669 0.41985888566155111 0 -0.26913356579963432 0.40842374030248302 0 -0.26969864206494631 0.43069342882903439 0 -0.26913356579963432 0.40842374030248302 0 -0.26969864206494631 0.43069342882903439 0 -0.29251354648580441 0.42155788345429368 0 -0.26969864206494631 0.43069342882903439 0 -0.29251354648580441 0.42155788345429368 0 -0.28726531660813909 0.45240538759483112 0 -0.32508125444935743 0.41826652698944311 0 -0.30290718662524402 0.40106574608880857 0 -0.29251354648580441 0.42155788345429368 0 -0.32508125444935743 0.41826652698944311 0 -0.29251354648580441 0.42155788345429368 0 -0.31134194363909901 0.43914232379668938 0 -0.30290718662524402 0.40106574608880857 0 -0.28449330431623587 0.40130247418846909 0 -0.29251354648580441 0.42155788345429368 0 -0.28449330431623587 0.40130247418846909 0 -0.26913356579963432 0.40842374030248302 0 -0.29251354648580441 0.42155788345429368 0 -0.29251354648580441 0.42155788345429368 0 -0.31134194363909901 0.43914232379668938 0 -0.28726531660813909 0.45240538759483112 0 -0.31134194363909901 0.43914232379668938 0 -0.31103577315152908 0.46381953991503821 0 -0.28726531660813909 0.45240538759483112 0 -0.31103577315152908 0.46381953991503821 0 -0.29440780247139348 0.46873287091925792 0 -0.28726531660813909 0.45240538759483112 0 -0.29440780247139348 0.46873287091925792 0 -0.28726531660813909 0.45240538759483112 0 -0.27781578218747782 0.47495923506345178 0 -0.28726531660813909 0.45240538759483112 0 -0.26374512166014202 0.45273476175974381 0 -0.26969864206494631 0.43069342882903439 0 -0.28726531660813909 0.45240538759483112 0 -0.26374512166014202 0.45273476175974381 0 -0.28726531660813909 0.45240538759483112 0 -0.26374512166014202 0.45273476175974381 0 -0.27781578218747782 0.47495923506345178 0 -0.26374512166014202 0.45273476175974381 0 -0.25530910337924101 0.47145804014203629 0 -0.24022492671214499 0.45306413592465677 0 -0.26374512166014202 0.45273476175974381 0 -0.25530910337924101 0.47145804014203629 0 -0.27781578218747782 0.47495923506345178 0 -0.25608689703553589 0.43270202213946329 0 -0.26374512166014202 0.45273476175974381 0 -0.2430533227391804 0.43776239012388152 0 -0.26374512166014202 0.45273476175974381 0 -0.24022492671214499 0.45306413592465677 0 -0.25608689703553589 0.43270202213946329 0 -0.26969864206494631 0.43069342882903439 0 -0.26374512166014202 0.45273476175974381 0 -0.25887260490039887 0.5 0 -0.25530910337924101 0.47145804014203629 0 -0.23588708143604101 0.47653206796232878 0 -0.25887260490039887 0.5 0 -0.25530910337924101 0.47145804014203629 0 -0.27781578218747782 0.47495923506345178 0 -0.25887260490039887 0.5 0 -0.27781578218747782 0.47495923506345178 0 -0.28619597364086208 0.5 0 -0.27781578218747782 0.47495923506345178 0 -0.28619597364086208 0.5 0 -0.30151433793842802 0.48374732110371049 0 -0.29440780247139348 0.46873287091925792 0 -0.27781578218747782 0.47495923506345178 0 -0.30151433793842802 0.48374732110371049 0 -0.31103577315152908 0.46381953991503821 0 -0.29440780247139348 0.46873287091925792 0 -0.30151433793842802 0.48374732110371049 0 -0.31103577315152908 0.46381953991503821 0 -0.30151433793842802 0.48374732110371049 0 -0.32069732282489771 0.47562849304836968 0 -0.28619597364086208 0.5 0 -0.30151433793842802 0.48374732110371049 0 -0.31351934238132551 0.5 0 -0.30151433793842802 0.48374732110371049 0 -0.3190938058173543 0.49073649980028472 0 -0.31351934238132551 0.5 0 -0.3190938058173543 0.49073649980028472 0 -0.31351934238132551 0.5 0 -0.33190548947626047 0.4906565402118605 0 -0.3190938058173543 0.49073649980028472 0 -0.33587233391076421 0.47804702946376049 0 -0.34084271112178888 0.5 0 -0.33190548947626047 0.4906565402118605 0 -0.35019925415006969 0.48449917179525731 0 -0.3190938058173543 0.49073649980028472 0 -0.33190548947626047 0.4906565402118605 0 -0.33587233391076421 0.47804702946376049 0 -0.31351934238132551 0.5 0 -0.34084271112178888 0.5 0 -0.33190548947626047 0.4906565402118605 0 -0.33190548947626047 0.4906565402118605 0 -0.33587233391076421 0.47804702946376049 0 -0.35019925415006969 0.48449917179525731 0 -0.33587233391076421 0.47804702946376049 0 -0.32069732282489771 0.47562849304836968 0 -0.3298161877000636 0.4566258979473436 0 -0.30151433793842802 0.48374732110371049 0 -0.3190938058173543 0.49073649980028472 0 -0.32069732282489771 0.47562849304836968 0 -0.3190938058173543 0.49073649980028472 0 -0.33587233391076421 0.47804702946376049 0 -0.32069732282489771 0.47562849304836968 0 -0.31103577315152908 0.46381953991503821 0 -0.32069732282489771 0.47562849304836968 0 -0.3298161877000636 0.4566258979473436 0 -0.31134194363909901 0.43914232379668938 0 -0.31103577315152908 0.46381953991503821 0 -0.3298161877000636 0.4566258979473436 0 -0.32837367701549758 0.43737551415588838 0 -0.31134194363909901 0.43914232379668938 0 -0.3298161877000636 0.4566258979473436 0 -0.34725532227347072 0.43546730789007748 0 -0.3298161877000636 0.4566258979473436 0 -0.35265086200417411 0.4653575591272362 0 -0.34725532227347072 0.43546730789007748 0 -0.32837367701549758 0.43737551415588838 0 -0.3298161877000636 0.4566258979473436 0 -0.33587233391076421 0.47804702946376049 0 -0.3298161877000636 0.4566258979473436 0 -0.35265086200417411 0.4653575591272362 0 -0.34725532227347072 0.43546730789007748 0 -0.35265086200417411 0.4653575591272362 0 -0.36942939009758391 0.45266808879071202 0 -0.34725532227347072 0.43546730789007748 0 -0.36942939009758391 0.45266808879071202 0 -0.36978705525946731 0.42981480527022592 0 -0.34725532227347072 0.43546730789007748 0 -0.36942939009758391 0.45266808879071202 0 -0.35265086200417411 0.4653575591272362 0 -0.36942939009758391 0.45266808879071202 0 -0.3715998105464085 0.47314194783182512 0 -0.35265086200417411 0.4653575591272362 0 -0.36942939009758391 0.45266808879071202 0 -0.3715998105464085 0.47314194783182512 0 -0.36816607986225208 0.5 0 -0.35019925415006969 0.48449917179525731 0 -0.34084271112178888 0.5 0 -0.36816607986225208 0.5 0 -0.35019925415006969 0.48449917179525731 0 -0.33587233391076421 0.47804702946376049 0 -0.35265086200417411 0.4653575591272362 0 -0.35019925415006969 0.48449917179525731 0 -0.35265086200417411 0.4653575591272362 0 -0.3715998105464085 0.47314194783182512 0 -0.35019925415006969 0.48449917179525731 0 -0.33587233391076421 0.47804702946376049 0 -0.35265086200417411 0.4653575591272362 0 -0.14011966297290629 0.48189830295034791 0 -0.14702279387818901 0.46271035788660708 0 -0.16268633020717729 0.47461488095149201 0 -0.1544318354273094 0.50000000000000111 0 -0.14011966297290629 0.48189830295034791 0 -0.1544318354273094 0.50000000000000111 0 -0.14011966297290629 0.48189830295034791 0 -0.16268633020717729 0.47461488095149201 0 -0.1544318354273094 0.50000000000000111 0 -0.12514381641122821 0.5 0 -0.14011966297290629 0.48189830295034791 0 -0.12514381641122821 0.5 0 -0.14011966297290629 0.48189830295034791 0 -0.1207927886149308 0.48000606699545462 0 -0.14011966297290629 0.48189830295034791 0 -0.12580749051850371 0.46379660590069421 0 -0.1207927886149308 0.48000606699545462 0 -0.14011966297290629 0.48189830295034791 0 -0.12580749051850371 0.46379660590069421 0 -0.14011966297290629 0.48189830295034791 0 -0.12580749051850371 0.46379660590069421 0 -0.14702279387818901 0.46271035788660708 0 -0.12580749051850371 0.46379660590069421 0 -0.12925905597114501 0.45420263336882388 0 -0.14702279387818901 0.46271035788660708 0 -0.12925905597114501 0.45420263336882388 0 -0.13639240937477909 0.44742570175619761 0 -0.14702279387818901 0.46271035788660708 0 -0.12925905597114501 0.45420263336882388 0 -0.14702279387818901 0.46271035788660708 0 -0.13639240937477909 0.44742570175619761 0 -0.1346878345707048 0.43481137722074509 0 -0.1239598626178986 0.44210118599544102 0 -0.12925905597114501 0.45420263336882388 0 -0.13639240937477909 0.44742570175619761 0 -0.1239598626178986 0.44210118599544102 0 -0.13639240937477909 0.44742570175619761 0 -0.14703249983595809 0.44330295430937078 0 -0.1346878345707048 0.43481137722074509 0 -0.13639240937477909 0.44742570175619761 0 -0.14703249983595809 0.44330295430937078 0 -0.14702279387818901 0.46271035788660708 0 -0.14703249983595809 0.44330295430937078 0 -0.15808273624026251 0.45370910848838192 0 -0.16292195534793219 0.43859611618585559 0 -0.14703249983595809 0.44330295430937078 0 -0.14702279387818901 0.46271035788660708 0 -0.15808273624026251 0.45370910848838192 0 -0.14702279387818901 0.46271035788660708 0 -0.15808273624026251 0.45370910848838192 0 -0.16268633020717729 0.47461488095149201 0 -0.15808273624026251 0.45370910848838192 0 -0.17373709220846539 0.45399522408166038 0 -0.16268633020717729 0.47461488095149201 0 -0.15808273624026251 0.45370910848838192 0 -0.16292195534793219 0.43859611618585559 0 -0.17373709220846539 0.45399522408166038 0 -0.16292195534793219 0.43859611618585559 0 -0.17373709220846539 0.45399522408166038 0 -0.1826805273478655 0.43493294666990862 0 -0.17373709220846539 0.45399522408166038 0 -0.1958997037096919 0.45368486136265912 0 -0.1826805273478655 0.43493294666990862 0 -0.17373709220846539 0.45399522408166038 0 -0.16268633020717729 0.47461488095149201 0 -0.18796932824364471 0.47561913765198199 0 -0.17373709220846539 0.45399522408166038 0 -0.18796932824364471 0.47561913765198199 0 -0.1958997037096919 0.45368486136265912 0 -0.17373709220846539 0.45399522408166038 0 -0.1958997037096919 0.45368486136265912 0 -0.16268633020717729 0.47461488095149201 0 -0.18013763567151819 0.5 0 -0.18796932824364471 0.47561913765198199 0 -0.1544318354273094 0.50000000000000111 0 -0.16268633020717729 0.47461488095149201 0 -0.18013763567151819 0.5 0 -0.18013763567151819 0.5 0 -0.18796932824364471 0.47561913765198199 0 -0.20584343591572701 0.5 0 -0.18796932824364471 0.47561913765198199 0 -0.20951177174928851 0.47141985951608112 0 -0.20584343591572701 0.5 0 -0.20951177174928851 0.47141985951608112 0 -0.20584343591572701 0.5 0 -0.2215281362277722 0.48498432462192831 0 -0.23154923615993561 0.50000000000000056 0 -0.2215281362277722 0.48498432462192831 0 -0.23588708143604101 0.47653206796232878 0 -0.23154923615993561 0.50000000000000056 0 -0.23588708143604101 0.47653206796232878 0 -0.20584343591572701 0.5 0 -0.23154923615993561 0.50000000000000056 0 -0.2215281362277722 0.48498432462192831 0 -0.20951177174928851 0.47141985951608112 0 -0.2215281362277722 0.48498432462192831 0 -0.2292830602112349 0.4631764987689167 0 -0.2215281362277722 0.48498432462192831 0 -0.23588708143604101 0.47653206796232878 0 -0.2292830602112349 0.4631764987689167 0 -0.25887260490039887 0.5 0 -0.23154923615993561 0.50000000000000056 0 -0.23588708143604101 0.47653206796232878 0 -0.26374512166014202 0.45273476175974381 0 -0.24022492671214499 0.45306413592465677 0 -0.2430533227391804 0.43776239012388152 0 -0.24022492671214499 0.45306413592465677 0 -0.2430533227391804 0.43776239012388152 0 -0.24022492671214499 0.45306413592465677 0 -0.2430533227391804 0.43776239012388152 0 -0.2322215359514391 0.44382968835415543 0 -0.25530910337924101 0.47145804014203629 0 -0.23588708143604101 0.47653206796232878 0 -0.24022492671214499 0.45306413592465677 0 -0.23588708143604101 0.47653206796232878 0 -0.24022492671214499 0.45306413592465677 0 -0.23588708143604101 0.47653206796232878 0 -0.24022492671214499 0.45306413592465677 0 -0.2292830602112349 0.4631764987689167 0 -0.24022492671214499 0.45306413592465677 0 -0.21806231521091851 0.45337449864365792 0 -0.20951177174928851 0.47141985951608112 0 -0.2292830602112349 0.4631764987689167 0 -0.21806231521091851 0.45337449864365792 0 -0.24022492671214499 0.45306413592465677 0 -0.2292830602112349 0.4631764987689167 0 -0.21806231521091851 0.45337449864365792 0 -0.24022492671214499 0.45306413592465677 0 -0.2322215359514391 0.44382968835415543 0 -0.21806231521091851 0.45337449864365792 0 -0.2430533227391804 0.43776239012388152 0 -0.2322215359514391 0.44382968835415543 0 -0.2267079223470751 0.43274952912154302 0 -0.2322215359514391 0.44382968835415543 0 -0.21806231521091851 0.45337449864365792 0 -0.2267079223470751 0.43274952912154302 0 -0.21806231521091851 0.45337449864365792 0 -0.2099135652847299 0.429547895121621 0 -0.2267079223470751 0.43274952912154302 0 -0.21806231521091851 0.45337449864365792 0 -0.1958997037096919 0.45368486136265912 0 -0.2099135652847299 0.429547895121621 0 -0.21806231521091851 0.45337449864365792 0 -0.1958997037096919 0.45368486136265912 0 -0.20951177174928851 0.47141985951608112 0 -0.21806231521091851 0.45337449864365792 0 -0.1958997037096919 0.45368486136265912 0 -0.18796932824364471 0.47561913765198199 0 -0.20951177174928851 0.47141985951608112 0 -0.1958997037096919 0.45368486136265912 0 -0.1958997037096919 0.45368486136265912 0 -0.2099135652847299 0.429547895121621 0 -0.1826805273478655 0.43493294666990862 0 -0.2099135652847299 0.429547895121621 0 -0.1851819942953731 0.41261068760707259 0 -0.1826805273478655 0.43493294666990862 0 -0.2099135652847299 0.429547895121621 0 -0.2076543524839389 0.40446792067433252 0 -0.1851819942953731 0.41261068760707259 0 -0.2099135652847299 0.429547895121621 0 -0.23132029622809211 0.41628663458295362 0 -0.2076543524839389 0.40446792067433252 0 -0.2099135652847299 0.429547895121621 0 -0.2267079223470751 0.43274952912154302 0 -0.23132029622809211 0.41628663458295362 0 -0.23132029622809211 0.41628663458295362 0 -0.2076543524839389 0.40446792067433252 0 -0.23132029622809211 0.41628663458295362 0 -0.22858721994786591 0.40142863057670841 0 -0.2076543524839389 0.40446792067433252 0 -0.23132029622809211 0.41628663458295362 0 -0.23913419678853659 0.40760586567988621 0 -0.22858721994786591 0.40142863057670841 0 -0.23132029622809211 0.41628663458295362 0 -0.23913419678853659 0.40760586567988621 0 -0.24588171876621451 0.42246064432310598 0 -0.25139787839112049 0.40581230727647122 0 -0.23913419678853659 0.40760586567988621 0 -0.24588171876621451 0.42246064432310598 0 -0.2267079223470751 0.43274952912154302 0 -0.23132029622809211 0.41628663458295362 0 -0.24588171876621451 0.42246064432310598 0 -0.2430533227391804 0.43776239012388152 0 -0.2267079223470751 0.43274952912154302 0 -0.24588171876621451 0.42246064432310598 0 -0.2430533227391804 0.43776239012388152 0 -0.24588171876621451 0.42246064432310598 0 -0.25608689703553589 0.43270202213946329 0 -0.2430533227391804 0.43776239012388152 0 -0.24588171876621451 0.42246064432310598 0 -0.24723993072052761 0.37923758382298239 0 -0.23848387060939 0.3920411116401914 0 -0.22722273681076771 0.37129509829568358 0 -0.25684630946146941 0.39336840056664357 0 -0.24723993072052761 0.37923758382298239 0 -0.23848387060939 0.3920411116401914 0 -0.25139787839112049 0.40581230727647122 0 -0.25684630946146941 0.39336840056664357 0 -0.23848387060939 0.3920411116401914 0 -0.25139787839112049 0.40581230727647122 0 -0.23913419678853659 0.40760586567988621 0 -0.23848387060939 0.3920411116401914 0 -0.23913419678853659 0.40760586567988621 0 -0.23848387060939 0.3920411116401914 0 -0.22858721994786591 0.40142863057670841 0 -0.23848387060939 0.3920411116401914 0 -0.22858721994786591 0.40142863057670841 0 -0.22106549333785361 0.38832696588067178 0 -0.22858721994786591 0.40142863057670841 0 -0.22106549333785361 0.38832696588067178 0 -0.2076543524839389 0.40446792067433252 0 -0.23848387060939 0.3920411116401914 0 -0.22106549333785361 0.38832696588067178 0 -0.22722273681076771 0.37129509829568358 0 -0.22106549333785361 0.38832696588067178 0 -0.20537579525452629 0.38128147224434689 0 -0.22722273681076771 0.37129509829568358 0 -0.22106549333785361 0.38832696588067178 0 -0.20537579525452629 0.38128147224434689 0 -0.2076543524839389 0.40446792067433252 0 -0.2076543524839389 0.40446792067433252 0 -0.18398840873978561 0.39264920676571141 0 -0.1851819942953731 0.41261068760707259 0 -0.20537579525452629 0.38128147224434689 0 -0.2076543524839389 0.40446792067433252 0 -0.18398840873978561 0.39264920676571141 0 -0.2076543524839389 0.40446792067433252 0 -0.18398840873978561 0.39264920676571141 0 -0.20537579525452629 0.38128147224434689 0 -0.18398840873978561 0.39264920676571141 0 -0.187285821967938 0.37305461882574698 0 -0.16032246499563241 0.38083049285709031 0 -0.18398840873978561 0.39264920676571141 0 -0.187285821967938 0.37305461882574698 0 -0.16032246499563241 0.38083049285709031 0 -0.18398840873978561 0.39264920676571141 0 -0.16032246499563241 0.38083049285709031 0 -0.16501088076569481 0.40324716349214429 0 -0.18398840873978561 0.39264920676571141 0 -0.16501088076569481 0.40324716349214429 0 -0.18398840873978561 0.39264920676571141 0 -0.1851819942953731 0.41261068760707259 0 -0.16501088076569481 0.40324716349214429 0 -0.1851819942953731 0.41261068760707259 0 -0.16678149227912539 0.42089254194011788 0 -0.1851819942953731 0.41261068760707259 0 -0.1826805273478655 0.43493294666990862 0 -0.16678149227912539 0.42089254194011788 0 -0.16292195534793219 0.43859611618585559 0 -0.1826805273478655 0.43493294666990862 0 -0.16678149227912539 0.42089254194011788 0 -0.16292195534793219 0.43859611618585559 0 -0.16678149227912539 0.42089254194011788 0 -0.14934072125088371 0.42862563388615921 0 -0.16501088076569481 0.40324716349214429 0 -0.16678149227912539 0.42089254194011788 0 -0.15051133399265651 0.41326997869294402 0 -0.15051133399265651 0.41326997869294402 0 -0.13410921147892499 0.42088083496792128 0 -0.14327959029159609 0.39923007308993003 0 -0.15051133399265651 0.41326997869294402 0 -0.14934072125088371 0.42862563388615921 0 -0.13410921147892499 0.42088083496792128 0 -0.16678149227912539 0.42089254194011788 0 -0.15051133399265651 0.41326997869294402 0 -0.14934072125088371 0.42862563388615921 0 -0.14703249983595809 0.44330295430937078 0 -0.16292195534793219 0.43859611618585559 0 -0.14934072125088371 0.42862563388615921 0 -0.14703249983595809 0.44330295430937078 0 -0.14934072125088371 0.42862563388615921 0 -0.1346878345707048 0.43481137722074509 0 -0.14934072125088371 0.42862563388615921 0 -0.1346878345707048 0.43481137722074509 0 -0.13410921147892499 0.42088083496792128 0 -0.1346878345707048 0.43481137722074509 0 -0.13410921147892499 0.42088083496792128 0 -0.12314295292961321 0.43102554647251667 0 -0.13410921147892499 0.42088083496792128 0 -0.1227760616318246 0.42092587739838278 0 -0.12314295292961321 0.43102554647251667 0 -0.1346878345707048 0.43481137722074509 0 -0.12314295292961321 0.43102554647251667 0 -0.1239598626178986 0.44210118599544102 0 -0.13410921147892499 0.42088083496792128 0 -0.12547175273290009 0.40496561915104512 0 -0.14327959029159609 0.39923007308993003 0 -0.13410921147892499 0.42088083496792128 0 -0.12547175273290009 0.40496561915104512 0 -0.1227760616318246 0.42092587739838278 0 -0.12547175273290009 0.40496561915104512 0 -0.13586301196382611 0.38505789579065808 0 -0.1203133209207863 0.38273139159275799 0 -0.12547175273290009 0.40496561915104512 0 -0.13586301196382611 0.38505789579065808 0 -0.14327959029159609 0.39923007308993003 0 -0.13586301196382611 0.38505789579065808 0 -0.13665652125147851 0.36901177894847043 0 -0.1203133209207863 0.38273139159275799 0 -0.13665652125147851 0.36901177894847043 0 -0.1203133209207863 0.38273139159275799 0 -0.16032246499563241 0.38083049285709031 0 -0.13586301196382611 0.38505789579065808 0 -0.14327959029159609 0.39923007308993003 0 -0.16032246499563241 0.38083049285709031 0 -0.13586301196382611 0.38505789579065808 0 -0.13665652125147851 0.36901177894847043 0 -0.16032246499563241 0.38083049285709031 0 -0.16501088076569481 0.40324716349214429 0 -0.14327959029159609 0.39923007308993003 0 -0.16501088076569481 0.40324716349214429 0 -0.15051133399265651 0.41326997869294402 0 -0.14327959029159609 0.39923007308993003 0 -0.1500312440329038 0.35778411165731278 0 -0.13753138248655469 0.33885861536397133 0 -0.16122074101263911 0.34642171738393379 0 -0.16032246499563241 0.38083049285709031 0 -0.1500312440329038 0.35778411165731278 0 -0.13665652125147851 0.36901177894847043 0 -0.16032246499563241 0.38083049285709031 0 -0.13665652125147851 0.36901177894847043 0 -0.1500312440329038 0.35778411165731278 0 -0.13665652125147851 0.36901177894847043 0 -0.1500312440329038 0.35778411165731278 0 -0.12986709723606929 0.35065719736344769 0 -0.13753138248655469 0.33885861536397133 0 -0.1500312440329038 0.35778411165731278 0 -0.13665652125147851 0.36901177894847043 0 -0.12986709723606929 0.35065719736344769 0 -0.13665652125147851 0.36901177894847043 0 -0.12986709723606929 0.35065719736344769 0 -0.11127431444893859 0.35633596750347668 0 -0.13753138248655469 0.33885861536397133 0 -0.1138420239604703 0.33129551334400881 0 -0.12986709723606929 0.35065719736344769 0 -0.13753138248655469 0.33885861536397133 0 -0.1138420239604703 0.33129551334400881 0 -0.13753138248655469 0.33885861536397133 0 -0.12816618676709249 0.31228664190726407 0 -0.1138420239604703 0.33129551334400881 0 -0.13753138248655469 0.33885861536397133 0 -0.14856727777407819 0.32653152955696141 0 -0.12816618676709249 0.31228664190726407 0 -0.14856727777407819 0.32653152955696141 0 -0.1631102295169847 0.32653587206316681 0 -0.15268759073646851 0.30997321331851768 0 -0.14856727777407819 0.32653152955696141 0 -0.15268759073646851 0.30997321331851768 0 -0.12816618676709249 0.31228664190726407 0 -0.13753138248655469 0.33885861536397133 0 -0.14856727777407819 0.32653152955696141 0 -0.16122074101263911 0.34642171738393379 0 -0.13753138248655469 0.33885861536397133 0 -0.16122074101263911 0.34642171738393379 0 -0.1631102295169847 0.32653587206316681 0 -0.17892093763024741 0.32695996898901319 0 -0.17244109928225729 0.33798732861238762 0 -0.14856727777407819 0.32653152955696141 0 -0.1631102295169847 0.32653587206316681 0 -0.16122074101263911 0.34642171738393379 0 -0.1631102295169847 0.32653587206316681 0 -0.17244109928225729 0.33798732861238762 0 -0.16122074101263911 0.34642171738393379 0 -0.1631102295169847 0.32653587206316681 0 -0.17043098222543401 0.31309519440779099 0 -0.17892093763024741 0.32695996898901319 0 -0.1631102295169847 0.32653587206316681 0 -0.17043098222543401 0.31309519440779099 0 -0.15268759073646851 0.30997321331851768 0 -0.17892093763024741 0.32695996898901319 0 -0.18478894774595311 0.31677458376338802 0 -0.1969128079039921 0.32720020873644878 0 -0.17043098222543401 0.31309519440779099 0 -0.17892093763024741 0.32695996898901319 0 -0.18478894774595311 0.31677458376338802 0 -0.17892093763024741 0.32695996898901319 0 -0.1858415591068632 0.34016662635089773 0 -0.1969128079039921 0.32720020873644878 0 -0.17244109928225729 0.33798732861238762 0 -0.1858415591068632 0.34016662635089773 0 -0.17464994542963369 0.35007071233642723 0 -0.17892093763024741 0.32695996898901319 0 -0.17244109928225729 0.33798732861238762 0 -0.1858415591068632 0.34016662635089773 0 -0.17464994542963369 0.35007071233642723 0 -0.17444396519076491 0.36384690622992838 0 -0.19260824819445571 0.35534776046191358 0 -0.1858415591068632 0.34016662635089773 0 -0.17464994542963369 0.35007071233642723 0 -0.19260824819445571 0.35534776046191358 0 -0.17244109928225729 0.33798732861238762 0 -0.17464994542963369 0.35007071233642723 0 -0.16122074101263911 0.34642171738393379 0 -0.17464994542963369 0.35007071233642723 0 -0.16334461463835501 0.35935186695821009 0 -0.16122074101263911 0.34642171738393379 0 -0.17464994542963369 0.35007071233642723 0 -0.16334461463835501 0.35935186695821009 0 -0.17444396519076491 0.36384690622992838 0 -0.1500312440329038 0.35778411165731278 0 -0.16334461463835501 0.35935186695821009 0 -0.16122074101263911 0.34642171738393379 0 -0.16032246499563241 0.38083049285709031 0 -0.1500312440329038 0.35778411165731278 0 -0.16334461463835501 0.35935186695821009 0 -0.16032246499563241 0.38083049285709031 0 -0.16334461463835501 0.35935186695821009 0 -0.17444396519076491 0.36384690622992838 0 -0.187285821967938 0.37305461882574698 0 -0.17444396519076491 0.36384690622992838 0 -0.19260824819445571 0.35534776046191358 0 -0.16032246499563241 0.38083049285709031 0 -0.187285821967938 0.37305461882574698 0 -0.17444396519076491 0.36384690622992838 0 -0.187285821967938 0.37305461882574698 0 -0.19260824819445571 0.35534776046191358 0 -0.20643767508811309 0.36517685113131571 0 -0.20537579525452629 0.38128147224434689 0 -0.187285821967938 0.37305461882574698 0 -0.20643767508811309 0.36517685113131571 0 -0.1858415591068632 0.34016662635089773 0 -0.19260824819445571 0.35534776046191358 0 -0.2017706780567709 0.34204938544480268 0 -0.19260824819445571 0.35534776046191358 0 -0.21500114893014741 0.35192470296527179 0 -0.20643767508811309 0.36517685113131571 0 -0.19260824819445571 0.35534776046191358 0 -0.21500114893014741 0.35192470296527179 0 -0.2017706780567709 0.34204938544480268 0 -0.21500114893014741 0.35192470296527179 0 -0.20643767508811309 0.36517685113131571 0 -0.22722273681076771 0.37129509829568358 0 -0.20537579525452629 0.38128147224434689 0 -0.20643767508811309 0.36517685113131571 0 -0.22722273681076771 0.37129509829568358 0 -0.21500114893014741 0.35192470296527179 0 -0.22722273681076771 0.37129509829568358 0 -0.232925889354506 0.34838268894505059 0 -0.21500114893014741 0.35192470296527179 0 -0.232925889354506 0.34838268894505059 0 -0.21762061409774719 0.33334063242940343 0 -0.254160802377282 0.34215876838866938 0 -0.232925889354506 0.34838268894505059 0 -0.24964382358157641 0.36369708243052662 0 -0.24723993072052761 0.37923758382298239 0 -0.22722273681076771 0.37129509829568358 0 -0.24964382358157641 0.36369708243052662 0 -0.22722273681076771 0.37129509829568358 0 -0.232925889354506 0.34838268894505059 0 -0.24964382358157641 0.36369708243052662 0 -0.25975706287266881 0.31971275894724738 0 -0.23936612092844831 0.32726572918536528 0 -0.2445794746346113 0.30704768496809209 0 -0.23936612092844831 0.32726572918536528 0 -0.22715288223387439 0.31295184143372928 0 -0.2445794746346113 0.30704768496809209 0 -0.254160802377282 0.34215876838866938 0 -0.232925889354506 0.34838268894505059 0 -0.23936612092844831 0.32726572918536528 0 -0.232925889354506 0.34838268894505059 0 -0.23936612092844831 0.32726572918536528 0 -0.21762061409774719 0.33334063242940343 0 -0.23936612092844831 0.32726572918536528 0 -0.22715288223387439 0.31295184143372928 0 -0.21762061409774719 0.33334063242940343 0 -0.21055832397034821 0.31733000555886759 0 -0.21762061409774719 0.33334063242940343 0 -0.1969128079039921 0.32720020873644878 0 -0.22715288223387439 0.31295184143372928 0 -0.21055832397034821 0.31733000555886759 0 -0.21762061409774719 0.33334063242940343 0 -0.21762061409774719 0.33334063242940343 0 -0.2017706780567709 0.34204938544480268 0 -0.1969128079039921 0.32720020873644878 0 -0.21500114893014741 0.35192470296527179 0 -0.21762061409774719 0.33334063242940343 0 -0.2017706780567709 0.34204938544480268 0 -0.1858415591068632 0.34016662635089773 0 -0.2017706780567709 0.34204938544480268 0 -0.1969128079039921 0.32720020873644878 0 -0.21055832397034821 0.31733000555886759 0 -0.1969128079039921 0.32720020873644878 0 -0.19756789590263349 0.31219886428648591 0 -0.18478894774595311 0.31677458376338802 0 -0.1969128079039921 0.32720020873644878 0 -0.19756789590263349 0.31219886428648591 0 -0.1938730615859765 0.29935097556050722 0 -0.19756789590263349 0.31219886428648591 0 -0.21000376160871689 0.30104949091191208 0 -0.18478894774595311 0.31677458376338802 0 -0.19756789590263349 0.31219886428648591 0 -0.18233322717592951 0.30478712158709348 0 -0.1938730615859765 0.29935097556050722 0 -0.19756789590263349 0.31219886428648591 0 -0.18233322717592951 0.30478712158709348 0 -0.1938730615859765 0.29935097556050722 0 -0.19740732707305819 0.28839729020709409 0 -0.21000376160871689 0.30104949091191208 0 -0.1938730615859765 0.29935097556050722 0 -0.19740732707305819 0.28839729020709409 0 -0.1802864396937518 0.29024479512616691 0 -0.19740732707305819 0.28839729020709409 0 -0.21274256729672911 0.28542733400371739 0 -0.19797602254701621 0.27577967956857308 0 -0.21274256729672911 0.28542733400371739 0 -0.21000376160871689 0.30104949091191208 0 -0.22991971329136771 0.28914964612573318 0 -0.19740732707305819 0.28839729020709409 0 -0.21274256729672911 0.28542733400371739 0 -0.21000376160871689 0.30104949091191208 0 -0.22715288223387439 0.31295184143372928 0 -0.21055832397034821 0.31733000555886759 0 -0.21000376160871689 0.30104949091191208 0 -0.21055832397034821 0.31733000555886759 0 -0.19756789590263349 0.31219886428648591 0 -0.21000376160871689 0.30104949091191208 0 -0.22715288223387439 0.31295184143372928 0 -0.21000376160871689 0.30104949091191208 0 -0.22991971329136771 0.28914964612573318 0 -0.22715288223387439 0.31295184143372928 0 -0.22991971329136771 0.28914964612573318 0 -0.2445794746346113 0.30704768496809209 0 -0.22991971329136771 0.28914964612573318 0 -0.2477162741177234 0.29019062217052921 0 -0.2445794746346113 0.30704768496809209 0 -0.22991971329136771 0.28914964612573318 0 -0.2477162741177234 0.29019062217052921 0 -0.2412761684598016 0.27582423505644749 0 -0.26051764848012587 0.28065561337582162 0 -0.2477162741177234 0.29019062217052921 0 -0.2412761684598016 0.27582423505644749 0 -0.24675645702699089 0.25399726726106192 0 -0.2412761684598016 0.27582423505644749 0 -0.22236623978700351 0.26488847341481753 0 -0.24675645702699089 0.25399726726106192 0 -0.22236623978700351 0.26488847341481753 0 -0.26051764848012587 0.28065561337582162 0 -0.24675645702699089 0.25399726726106192 0 -0.2412761684598016 0.27582423505644749 0 -0.22991971329136771 0.28914964612573318 0 -0.2412761684598016 0.27582423505644749 0 -0.22236623978700351 0.26488847341481753 0 -0.21274256729672911 0.28542733400371739 0 -0.22991971329136771 0.28914964612573318 0 -0.22236623978700351 0.26488847341481753 0 -0.24675645702699089 0.25399726726106192 0 -0.22236623978700351 0.26488847341481753 0 -0.22350158013644669 0.2468443572853817 0 -0.22236623978700351 0.26488847341481753 0 -0.2033178425377849 0.25722930189683968 0 -0.22350158013644669 0.2468443572853817 0 -0.22236623978700351 0.26488847341481753 0 -0.2033178425377849 0.25722930189683968 0 -0.19797602254701621 0.27577967956857308 0 -0.22236623978700351 0.26488847341481753 0 -0.19797602254701621 0.27577967956857308 0 -0.21274256729672911 0.28542733400371739 0 -0.22236623978700351 0.26488847341481753 0 -0.19797602254701621 0.27577967956857308 0 -0.2033178425377849 0.25722930189683968 0 -0.19797602254701621 0.27577967956857308 0 -0.18833092580876021 0.26397887849506602 0 -0.19797602254701621 0.27577967956857308 0 -0.18833092580876021 0.26397887849506602 0 -0.18280193788808111 0.2783727866638368 0 -0.19740732707305819 0.28839729020709409 0 -0.19797602254701621 0.27577967956857308 0 -0.18280193788808111 0.2783727866638368 0 -0.2033178425377849 0.25722930189683968 0 -0.18833092580876021 0.26397887849506602 0 -0.1866521790267919 0.24847804639547 0 -0.18833092580876021 0.26397887849506602 0 -0.1694090089919669 0.25791096269133279 0 -0.1866521790267919 0.24847804639547 0 -0.1694090089919669 0.25791096269133279 0 -0.14936242033404001 0.26152127725741792 0 -0.150550588070992 0.24700682089331061 0 -0.1694090089919669 0.25791096269133279 0 -0.15797655250181281 0.27257417196023481 0 -0.14936242033404001 0.26152127725741792 0 -0.1694090089919669 0.25791096269133279 0 -0.15797655250181281 0.27257417196023481 0 -0.18280193788808111 0.2783727866638368 0 -0.15797655250181281 0.27257417196023481 0 -0.18280193788808111 0.2783727866638368 0 -0.15797655250181281 0.27257417196023481 0 -0.18280193788808111 0.2783727866638368 0 -0.1802864396937518 0.29024479512616691 0 -0.18833092580876021 0.26397887849506602 0 -0.1694090089919669 0.25791096269133279 0 -0.18280193788808111 0.2783727866638368 0 -0.19740732707305819 0.28839729020709409 0 -0.18280193788808111 0.2783727866638368 0 -0.1802864396937518 0.29024479512616691 0 -0.17043098222543401 0.31309519440779099 0 -0.18233322717592951 0.30478712158709348 0 -0.16705203590182871 0.29705831637822222 0 -0.1938730615859765 0.29935097556050722 0 -0.1802864396937518 0.29024479512616691 0 -0.18233322717592951 0.30478712158709348 0 -0.1802864396937518 0.29024479512616691 0 -0.18233322717592951 0.30478712158709348 0 -0.16705203590182871 0.29705831637822222 0 -0.17043098222543401 0.31309519440779099 0 -0.18478894774595311 0.31677458376338802 0 -0.18233322717592951 0.30478712158709348 0 -0.17043098222543401 0.31309519440779099 0 -0.16705203590182871 0.29705831637822222 0 -0.15268759073646851 0.30997321331851768 0 -0.16705203590182871 0.29705831637822222 0 -0.15185825520926571 0.29215329751112529 0 -0.15268759073646851 0.30997321331851768 0 -0.15797655250181281 0.27257417196023481 0 -0.1802864396937518 0.29024479512616691 0 -0.16705203590182871 0.29705831637822222 0 -0.15797655250181281 0.27257417196023481 0 -0.16705203590182871 0.29705831637822222 0 -0.15185825520926571 0.29215329751112529 0 -0.15797655250181281 0.27257417196023481 0 -0.15185825520926571 0.29215329751112529 0 -0.14225061325603569 0.28078985551309921 0 -0.15185825520926571 0.29215329751112529 0 -0.1393244836501826 0.30037093038555263 0 -0.14225061325603569 0.28078985551309921 0 -0.15185825520926571 0.29215329751112529 0 -0.15268759073646851 0.30997321331851768 0 -0.1393244836501826 0.30037093038555263 0 -0.1393244836501826 0.30037093038555263 0 -0.12816618676709249 0.31228664190726407 0 -0.12857041405481021 0.28848841857632679 0 -0.15268759073646851 0.30997321331851768 0 -0.1393244836501826 0.30037093038555263 0 -0.12816618676709249 0.31228664190726407 0 -0.1393244836501826 0.30037093038555263 0 -0.12857041405481021 0.28848841857632679 0 -0.14225061325603569 0.28078985551309921 0 -0.12857041405481021 0.28848841857632679 0 -0.13112659627907119 0.27381587667203322 0 -0.12062267394272411 0.26384920168971832 0 -0.12857041405481021 0.28848841857632679 0 -0.13112659627907119 0.27381587667203322 0 -0.14225061325603569 0.28078985551309921 0 -0.13112659627907119 0.27381587667203322 0 -0.13315116711554459 0.26677555725663199 0 -0.14225061325603569 0.28078985551309921 0 -0.13315116711554459 0.26677555725663199 0 -0.13103811302624119 0.26917635032438952 0 -0.12062267394272411 0.26384920168971832 0 -0.13112659627907119 0.27381587667203322 0 -0.13103811302624119 0.26917635032438952 0 -0.12062267394272411 0.26384920168971832 0 -0.13315116711554459 0.26677555725663199 0 -0.13103811302624119 0.26917635032438952 0 -0.13112659627907119 0.27381587667203322 0 -0.13315116711554459 0.26677555725663199 0 -0.13103811302624119 0.26917635032438952 0 -0.13315116711554459 0.26677555725663199 0 -0.1317012652150161 0.25416495372779552 0 -0.150550588070992 0.24700682089331061 0 -0.13315116711554459 0.26677555725663199 0 -0.12062267394272411 0.26384920168971832 0 -0.13315116711554459 0.26677555725663199 0 -0.1317012652150161 0.25416495372779552 0 -0.12062267394272411 0.26384920168971832 0 -0.1317012652150161 0.25416495372779552 0 -0.12062267394272411 0.26384920168971832 0 -0.1232625236053408 0.24853921462601669 0 -0.13315116711554459 0.26677555725663199 0 -0.150550588070992 0.24700682089331061 0 -0.13315116711554459 0.26677555725663199 0 -0.14936242033404001 0.26152127725741792 0 -0.150550588070992 0.24700682089331061 0 -0.15797655250181281 0.27257417196023481 0 -0.13315116711554459 0.26677555725663199 0 -0.15797655250181281 0.27257417196023481 0 -0.13315116711554459 0.26677555725663199 0 -0.14225061325603569 0.28078985551309921 0 -0.15797655250181281 0.27257417196023481 0 -0.13315116711554459 0.26677555725663199 0 -0.14936242033404001 0.26152127725741792 0 -0.1022758117530701 0.26702928059824588 0 -0.1053958772638126 0.27763685006138777 0 -0.096214238593731516 0.29538084596114661 0 -0.1022758117530701 0.26702928059824588 0 -0.096214238593731516 0.29538084596114661 0 -0.1022758117530701 0.26702928059824588 0 -0.096214238593731516 0.29538084596114661 0 -0.091340482256529049 0.27659040189093481 0 -0.1022758117530701 0.26702928059824588 0 -0.1078144139254172 0.27116282578878509 0 -0.1053958772638126 0.27763685006138777 0 -0.1022758117530701 0.26702928059824588 0 -0.1053958772638126 0.27763685006138777 0 -0.1022758117530701 0.26702928059824588 0 -0.10632638343804959 0.26584436556125879 0 -0.1078144139254172 0.27116282578878509 0 -0.10632638343804959 0.26584436556125879 0 -0.1078144139254172 0.27116282578878509 0 -0.1114192942633993 0.26526645846520353 0 -0.1078144139254172 0.27116282578878509 0 -0.1053958772638126 0.27763685006138777 0 -0.1145377909099729 0.27618497242212858 0 -0.1022758117530701 0.26702928059824588 0 -0.091340482256529049 0.27659040189093481 0 -0.091164722773057899 0.26540722196433159 0 -0.1022758117530701 0.26702928059824588 0 -0.099917959589307853 0.2590130769240595 0 -0.1022758117530701 0.26702928059824588 0 -0.099917959589307853 0.2590130769240595 0 -0.091164722773057899 0.26540722196433159 0 -0.1023087813269417 0.25024049297278989 0 -0.10379601381031391 0.25991889739280022 0 -0.10762868703654201 0.24199248082872071 0 -0.10379601381031391 0.25991889739280022 0 -0.10762868703654201 0.24199248082872071 0 -0.099917959589307853 0.2590130769240595 0 -0.1023087813269417 0.25024049297278989 0 -0.099820627146597007 0.24511423703633151 0 -0.099917959589307853 0.2590130769240595 0 -0.1023087813269417 0.25024049297278989 0 -0.10379601381031391 0.25991889739280022 0 -0.1022758117530701 0.26702928059824588 0 -0.099917959589307853 0.2590130769240595 0 -0.10379601381031391 0.25991889739280022 0 -0.1022758117530701 0.26702928059824588 0 -0.10379601381031391 0.25991889739280022 0 -0.1022758117530701 0.26702928059824588 0 -0.10632638343804959 0.26584436556125879 0 -0.10379601381031391 0.25991889739280022 0 -0.099917959589307853 0.2590130769240595 0 -0.10379601381031391 0.25991889739280022 0 -0.10632638343804959 0.26584436556125879 0 -0.10379601381031391 0.25991889739280022 0 -0.1114192942633993 0.26526645846520353 0 -0.10379601381031391 0.25991889739280022 0 -0.12062267394272411 0.26384920168971832 0 -0.12062267394272411 0.26384920168971832 0 -0.1232625236053408 0.24853921462601669 0 -0.1121759039450566 0.23766291539591039 0 -0.10379601381031391 0.25991889739280022 0 -0.1114192942633993 0.26526645846520353 0 -0.12062267394272411 0.26384920168971832 0 -0.12062267394272411 0.26384920168971832 0 -0.1121759039450566 0.23766291539591039 0 -0.10379601381031391 0.25991889739280022 0 -0.12062267394272411 0.26384920168971832 0 -0.10762868703654201 0.24199248082872071 0 -0.12857041405481021 0.28848841857632679 0 -0.12062267394272411 0.26384920168971832 0 -0.1145377909099729 0.27618497242212858 0 -0.12857041405481021 0.28848841857632679 0 -0.12062267394272411 0.26384920168971832 0 -0.1078144139254172 0.27116282578878509 0 -0.1114192942633993 0.26526645846520353 0 -0.1145377909099729 0.27618497242212858 0 -0.1114192942633993 0.26526645846520353 0 -0.12062267394272411 0.26384920168971832 0 -0.1145377909099729 0.27618497242212858 0 -0.12857041405481021 0.28848841857632679 0 -0.1145377909099729 0.27618497242212858 0 -0.1134040720096741 0.29070607995135062 0 -0.1053958772638126 0.27763685006138777 0 -0.1145377909099729 0.27618497242212858 0 -0.1134040720096741 0.29070607995135062 0 -0.12816618676709249 0.31228664190726407 0 -0.1134040720096741 0.29070607995135062 0 -0.10680092680786089 0.31246804882880552 0 -0.12816618676709249 0.31228664190726407 0 -0.12857041405481021 0.28848841857632679 0 -0.1134040720096741 0.29070607995135062 0 -0.1134040720096741 0.29070607995135062 0 -0.10680092680786089 0.31246804882880552 0 -0.096214238593731516 0.29538084596114661 0 -0.10680092680786089 0.31246804882880552 0 -0.096214238593731516 0.29538084596114661 0 -0.090152665434386159 0.32373241132404579 0 -0.1053958772638126 0.27763685006138777 0 -0.1134040720096741 0.29070607995135062 0 -0.096214238593731516 0.29538084596114661 0 -0.096214238593731516 0.29538084596114661 0 -0.083280173023260434 0.28367594020806408 0 -0.073757200596307901 0.29728400097308277 0 -0.096214238593731516 0.29538084596114661 0 -0.083280173023260434 0.28367594020806408 0 -0.091340482256529049 0.27659040189093481 0 -0.096214238593731516 0.29538084596114661 0 -0.090152665434386159 0.32373241132404579 0 -0.096214238593731516 0.29538084596114661 0 -0.086767954082731455 0.30640390560309949 0 -0.073757200596307901 0.29728400097308277 0 -0.096214238593731516 0.29538084596114661 0 -0.086767954082731455 0.30640390560309949 0 -0.090152665434386159 0.32373241132404579 0 -0.086767954082731455 0.30640390560309949 0 -0.082689871867685782 0.31315414696319988 0 -0.085290643082632761 0.31723678032441738 0 -0.086767954082731455 0.30640390560309949 0 -0.077160935309693576 0.31165682939692529 0 -0.073757200596307901 0.29728400097308277 0 -0.086767954082731455 0.30640390560309949 0 -0.077160935309693576 0.31165682939692529 0 -0.082689871867685782 0.31315414696319988 0 -0.077160935309693576 0.31165682939692529 0 -0.073757200596307901 0.29728400097308277 0 -0.059818496466381967 0.31404787662703543 0 -0.083280173023260434 0.28367594020806408 0 -0.073757200596307901 0.29728400097308277 0 -0.069887166301739745 0.27840155021732449 0 -0.073757200596307901 0.29728400097308277 0 -0.069887166301739745 0.27840155021732449 0 -0.062204476650233251 0.29013391854993059 0 -0.073757200596307901 0.29728400097308277 0 -0.062204476650233251 0.29013391854993059 0 -0.053424110220143199 0.29927148285778099 0 -0.069887166301739745 0.27840155021732449 0 -0.08376746513952725 0.27145872072288518 0 -0.077087582898390183 0.2536804484105869 0 -0.069887166301739745 0.27840155021732449 0 -0.077087582898390183 0.2536804484105869 0 -0.055822820981420808 0.26736466962672217 0 -0.083280173023260434 0.28367594020806408 0 -0.069887166301739745 0.27840155021732449 0 -0.08376746513952725 0.27145872072288518 0 -0.08376746513952725 0.27145872072288518 0 -0.091340482256529049 0.27659040189093481 0 -0.091164722773057899 0.26540722196433159 0 -0.083280173023260434 0.28367594020806408 0 -0.08376746513952725 0.27145872072288518 0 -0.091340482256529049 0.27659040189093481 0 -0.099917959589307853 0.2590130769240595 0 -0.077087582898390183 0.2536804484105869 0 -0.088804565458394977 0.2498057010606696 0 -0.08376746513952725 0.27145872072288518 0 -0.091164722773057899 0.26540722196433159 0 -0.077087582898390183 0.2536804484105869 0 -0.099917959589307853 0.2590130769240595 0 -0.077087582898390183 0.2536804484105869 0 -0.099917959589307853 0.2590130769240595 0 -0.091164722773057899 0.26540722196433159 0 -0.077087582898390183 0.2536804484105869 0 -0.099917959589307853 0.2590130769240595 0 -0.091262254643508678 0.24596182570723521 0 -0.088804565458394977 0.2498057010606696 0 -0.077087582898390183 0.2536804484105869 0 -0.054257206207472278 0.2483478198971156 0 -0.055822820981420808 0.26736466962672217 0 -0.041327438586352412 0.2646012593508934 0 -0.054257206207472278 0.2483478198971156 0 -0.077087582898390183 0.2536804484105869 0 -0.055822820981420808 0.26736466962672217 0 -0.054257206207472278 0.2483478198971156 0 -0.069887166301739745 0.27840155021732449 0 -0.055822820981420808 0.26736466962672217 0 -0.050715087665535737 0.28480975338396752 0 -0.055822820981420808 0.26736466962672217 0 -0.041327438586352412 0.2646012593508934 0 -0.050715087665535737 0.28480975338396752 0 -0.041327438586352412 0.2646012593508934 0 -0.03095471913626217 0.2783432486402963 0 -0.050715087665535737 0.28480975338396752 0 -0.041327438586352412 0.2646012593508934 0 -0.025078260869106899 0.26535194616672508 0 -0.03095471913626217 0.2783432486402963 0 -0.041327438586352412 0.2646012593508934 0 -0.025078260869106899 0.26535194616672508 0 -0.03142682951655433 0.24301519138364419 0 -0.041327438586352412 0.2646012593508934 0 -0.03142682951655433 0.24301519138364419 0 -0.054257206207472278 0.2483478198971156 0 -0.017740220537913139 0.25418761259169498 0 -0.025078260869106899 0.26535194616672508 0 -0.03142682951655433 0.24301519138364419 0 -0.017740220537913139 0.25418761259169498 0 -0.025078260869106899 0.26535194616672508 0 -0.0086300906630605023 0.26100748026070952 0 -0.03095471913626217 0.2783432486402963 0 -0.01475423045529956 0.27447643002172822 0 -0.017341656448788909 0.28718125028580183 0 -0.025078260869106899 0.26535194616672508 0 -0.01475423045529956 0.27447643002172822 0 -0.0086300906630605023 0.26100748026070952 0 -0.025078260869106899 0.26535194616672508 0 -0.03095471913626217 0.2783432486402963 0 -0.01475423045529956 0.27447643002172822 0 -0.01475423045529956 0.27447643002172822 0 -0.00027938521624369179 0.26831509816348498 0 -0.0086300906630605023 0.26100748026070952 0 -0.01475423045529956 0.27447643002172822 0 -0.004391983431470339 0.28135946868773848 0 -0.017341656448788909 0.28718125028580183 0 -0.01475423045529956 0.27447643002172822 0 -0.00027938521624369179 0.26831509816348498 0 -0.004391983431470339 0.28135946868773848 0 -0.00027938521624369179 0.26831509816348498 0 -0.0086300906630605023 0.26100748026070952 0 0.0018281045754269601 0.25490610716164469 0 -0.017740220537913139 0.25418761259169498 0 -0.0086300906630605023 0.26100748026070952 0 -0.0079653198528190673 0.24492984024783371 0 -0.0086300906630605023 0.26100748026070952 0 -0.0079653198528190673 0.24492984024783371 0 0.0018281045754269601 0.25490610716164469 0 -0.019807332794174091 0.30127384931612128 0 0.0046122274078220157 0.31428178157973319 0 -0.019807332794174091 0.30127384931612128 0 0.0046122274078220157 0.31428178157973319 0 0.001119537354329916 0.29459270369888307 0 -0.019807332794174091 0.30127384931612128 0 0.001119537354329916 0.29459270369888307 0 -0.019807332794174091 0.30127384931612128 0 -0.019111497482882212 0.31031008412819261 0 0.0046122274078220157 0.31428178157973319 0 -0.004391983431470339 0.28135946868773848 0 -0.017341656448788909 0.28718125028580183 0 0.001119537354329916 0.29459270369888307 0 -0.017341656448788909 0.28718125028580183 0 -0.019807332794174091 0.30127384931612128 0 0.001119537354329916 0.29459270369888307 0 -0.017341656448788909 0.28718125028580183 0 -0.019807332794174091 0.30127384931612128 0 -0.035261210229856121 0.2930418013500467 0 -0.03095471913626217 0.2783432486402963 0 -0.017341656448788909 0.28718125028580183 0 -0.035261210229856121 0.2930418013500467 0 -0.019807332794174091 0.30127384931612128 0 -0.035261210229856121 0.2930418013500467 0 -0.019807332794174091 0.30127384931612128 0 -0.019111497482882212 0.31031008412819261 0 -0.03981291463027857 0.30766086297157669 0 -0.019807332794174091 0.30127384931612128 0 -0.03981291463027857 0.30766086297157669 0 -0.019807332794174091 0.30127384931612128 0 -0.03981291463027857 0.30766086297157669 0 -0.035261210229856121 0.2930418013500467 0 -0.03981291463027857 0.30766086297157669 0 -0.035261210229856121 0.2930418013500467 0 -0.053424110220143199 0.29927148285778099 0 -0.03095471913626217 0.2783432486402963 0 -0.035261210229856121 0.2930418013500467 0 -0.050715087665535737 0.28480975338396752 0 -0.035261210229856121 0.2930418013500467 0 -0.050715087665535737 0.28480975338396752 0 -0.053424110220143199 0.29927148285778099 0 -0.035261210229856121 0.2930418013500467 0 -0.050715087665535737 0.28480975338396752 0 -0.069887166301739745 0.27840155021732449 0 -0.050715087665535737 0.28480975338396752 0 -0.062204476650233251 0.29013391854993059 0 -0.050715087665535737 0.28480975338396752 0 -0.062204476650233251 0.29013391854993059 0 -0.053424110220143199 0.29927148285778099 0 -0.03981291463027857 0.30766086297157669 0 -0.053424110220143199 0.29927148285778099 0 -0.059818496466381967 0.31404787662703543 0 -0.073757200596307901 0.29728400097308277 0 -0.053424110220143199 0.29927148285778099 0 -0.059818496466381967 0.31404787662703543 0 -0.03981291463027857 0.30766086297157669 0 -0.059818496466381967 0.31404787662703543 0 -0.056558369902314283 0.32901095981193712 0 -0.037834933692598272 0.31966052197006478 0 -0.059818496466381967 0.31404787662703543 0 -0.056558369902314283 0.32901095981193712 0 -0.037834933692598272 0.31966052197006478 0 -0.059818496466381967 0.31404787662703543 0 -0.056558369902314283 0.32901095981193712 0 -0.069127648868883965 0.32726331787879459 0 -0.056558369902314283 0.32901095981193712 0 -0.04685890454821301 0.33792189359217972 0 -0.062813868276889145 0.34125989659728811 0 -0.056558369902314283 0.32901095981193712 0 -0.04685890454821301 0.33792189359217972 0 -0.044398926362598602 0.32987822684611079 0 -0.04685890454821301 0.33792189359217972 0 -0.044398926362598602 0.32987822684611079 0 -0.036343497307268817 0.33291953201026159 0 -0.036343497307268817 0.33291953201026159 0 -0.031709863882577509 0.34314730527848331 0 -0.026647370171105959 0.33165552277207799 0 -0.04685890454821301 0.33792189359217972 0 -0.036343497307268817 0.33291953201026159 0 -0.031709863882577509 0.34314730527848331 0 -0.019111497482882212 0.31031008412819261 0 -0.03981291463027857 0.30766086297157669 0 -0.037834933692598272 0.31966052197006478 0 -0.056558369902314283 0.32901095981193712 0 -0.044398926362598602 0.32987822684611079 0 -0.037834933692598272 0.31966052197006478 0 -0.03981291463027857 0.30766086297157669 0 -0.059818496466381967 0.31404787662703543 0 -0.037834933692598272 0.31966052197006478 0 -0.044398926362598602 0.32987822684611079 0 -0.036343497307268817 0.33291953201026159 0 -0.037834933692598272 0.31966052197006478 0 -0.036343497307268817 0.33291953201026159 0 -0.037834933692598272 0.31966052197006478 0 -0.026647370171105959 0.33165552277207799 0 -0.019111497482882212 0.31031008412819261 0 -0.037834933692598272 0.31966052197006478 0 -0.024024110057345689 0.32217923027104362 0 -0.019111497482882212 0.31031008412819261 0 -0.037834933692598272 0.31966052197006478 0 -0.019111497482882212 0.31031008412819261 0 -0.017333556697716631 0.32040504147858528 0 -0.024024110057345689 0.32217923027104362 0 -0.017455674590039719 0.3275890690690515 0 -0.024024110057345689 0.32217923027104362 0 -0.026647370171105959 0.33165552277207799 0 -0.017455674590039719 0.3275890690690515 0 -0.017333556697716631 0.32040504147858528 0 -0.024024110057345689 0.32217923027104362 0 -0.037834933692598272 0.31966052197006478 0 -0.024024110057345689 0.32217923027104362 0 -0.026647370171105959 0.33165552277207799 0 -0.031709863882577509 0.34314730527848331 0 -0.017914185801566389 0.33646699764410959 0 -0.015144653683881079 0.35121549356339388 0 -0.031709863882577509 0.34314730527848331 0 -0.026647370171105959 0.33165552277207799 0 -0.017914185801566389 0.33646699764410959 0 -0.017455674590039719 0.3275890690690515 0 -0.026647370171105959 0.33165552277207799 0 -0.017914185801566389 0.33646699764410959 0 -0.017455674590039719 0.3275890690690515 0 -0.017914185801566389 0.33646699764410959 0 -0.0099166175985360046 0.3326844456773379 0 -0.017914185801566389 0.33646699764410959 0 -0.0099166175985360046 0.3326844456773379 0 -0.0078956634268774282 0.34285030901004432 0 -0.017914185801566389 0.33646699764410959 0 -0.0078956634268774282 0.34285030901004432 0 -0.015144653683881079 0.35121549356339388 0 -0.0099166175985360046 0.3326844456773379 0 -0.0078956634268774282 0.34285030901004432 0 0.002425380486402443 0.33497407021743059 0 -0.0078956634268774282 0.34285030901004432 0 -0.00031189853150517848 0.34516114941850412 0 0.002425380486402443 0.33497407021743059 0 -0.0099166175985360046 0.3326844456773379 0 -0.008898207213967637 0.32214317657115488 0 0.002425380486402443 0.33497407021743059 0 -0.008898207213967637 0.32214317657115488 0 0.0046122274078220157 0.31428178157973319 0 0.002425380486402443 0.33497407021743059 0 -0.019111497482882212 0.31031008412819261 0 -0.008898207213967637 0.32214317657115488 0 0.0046122274078220157 0.31428178157973319 0 -0.019111497482882212 0.31031008412819261 0 -0.017333556697716631 0.32040504147858528 0 -0.008898207213967637 0.32214317657115488 0 -0.017455674590039719 0.3275890690690515 0 -0.0099166175985360046 0.3326844456773379 0 -0.008898207213967637 0.32214317657115488 0 -0.017455674590039719 0.3275890690690515 0 -0.017333556697716631 0.32040504147858528 0 -0.008898207213967637 0.32214317657115488 0 -0.0053010199548332226 0.36506803153930628 0 -0.003278416267937971 0.35498456274282031 0 -0.0078956634268774282 0.34285030901004432 0 -0.003278416267937971 0.35498456274282031 0 -0.00031189853150517848 0.34516114941850412 0 -0.0078956634268774282 0.34285030901004432 0 -0.003278416267937971 0.35498456274282031 0 -0.015144653683881079 0.35121549356339388 0 -0.0053010199548332226 0.36506803153930628 0 -0.003278416267937971 0.35498456274282031 0 -0.015144653683881079 0.35121549356339388 0 -0.0053010199548332226 0.36506803153930628 0 -0.015144653683881079 0.35121549356339388 0 -0.027852746879155201 0.35860460240269931 0 -0.031709863882577509 0.34314730527848331 0 -0.015144653683881079 0.35121549356339388 0 -0.027852746879155201 0.35860460240269931 0 -0.027852746879155201 0.35860460240269931 0 -0.039425572783983523 0.3757141182361578 0 -0.02392645402958804 0.37973471975011158 0 -0.0053010199548332226 0.36506803153930628 0 -0.027852746879155201 0.35860460240269931 0 -0.02392645402958804 0.37973471975011158 0 -0.0053010199548332226 0.36506803153930628 0 -0.027852746879155201 0.35860460240269931 0 -0.027852746879155201 0.35860460240269931 0 -0.049634483353100299 0.36643591431006428 0 -0.039425572783983523 0.3757141182361578 0 -0.027852746879155201 0.35860460240269931 0 -0.050404473803477151 0.35214117326609212 0 -0.027852746879155201 0.35860460240269931 0 -0.050404473803477151 0.35214117326609212 0 -0.049634483353100299 0.36643591431006428 0 -0.04685890454821301 0.33792189359217972 0 -0.031709863882577509 0.34314730527848331 0 -0.050404473803477151 0.35214117326609212 0 -0.031709863882577509 0.34314730527848331 0 -0.027852746879155201 0.35860460240269931 0 -0.050404473803477151 0.35214117326609212 0 -0.050404473803477151 0.35214117326609212 0 -0.072956200727799292 0.34567774412948571 0 -0.04685890454821301 0.33792189359217972 0 -0.050404473803477151 0.35214117326609212 0 -0.062813868276889145 0.34125989659728811 0 -0.050404473803477151 0.35214117326609212 0 -0.072956200727799292 0.34567774412948571 0 -0.062813868276889145 0.34125989659728811 0 -0.049634483353100299 0.36643591431006428 0 -0.064391262992429171 0.36449299117343459 0 -0.05582632525705853 0.38330823821738341 0 -0.064391262992429171 0.36449299117343459 0 -0.05582632525705853 0.38330823821738341 0 -0.050404473803477151 0.35214117326609212 0 -0.049634483353100299 0.36643591431006428 0 -0.064391262992429171 0.36449299117343459 0 -0.064391262992429171 0.36449299117343459 0 -0.068303205881157167 0.36590310436680462 0 -0.05582632525705853 0.38330823821738341 0 -0.068303205881157167 0.36590310436680462 0 -0.081004946748486378 0.36651868766308338 0 -0.07214185975149065 0.37701831867099977 0 -0.081004946748486378 0.36651868766308338 0 -0.099877806619609072 0.35791352252066022 0 -0.093752363439501551 0.38404206970099308 0 -0.081004946748486378 0.36651868766308338 0 -0.072956200727799292 0.34567774412948571 0 -0.080554800122379075 0.34349995043372289 0 -0.081004946748486378 0.36651868766308338 0 -0.085892107646398944 0.34366015605848282 0 -0.080554800122379075 0.34349995043372289 0 -0.081004946748486378 0.36651868766308338 0 -0.085892107646398944 0.34366015605848282 0 -0.099877806619609072 0.35791352252066022 0 -0.081004946748486378 0.36651868766308338 0 -0.085892107646398944 0.34366015605848282 0 -0.068303205881157167 0.36590310436680462 0 -0.072956200727799292 0.34567774412948571 0 -0.064391262992429171 0.36449299117343459 0 -0.068303205881157167 0.36590310436680462 0 -0.072956200727799292 0.34567774412948571 0 -0.064391262992429171 0.36449299117343459 0 -0.072956200727799292 0.34567774412948571 0 -0.068303205881157167 0.36590310436680462 0 -0.081004946748486378 0.36651868766308338 0 -0.072956200727799292 0.34567774412948571 0 -0.072956200727799292 0.34567774412948571 0 -0.074020239584127762 0.34334028943165551 0 -0.080554800122379075 0.34349995043372289 0 -0.050404473803477151 0.35214117326609212 0 -0.064391262992429171 0.36449299117343459 0 -0.072956200727799292 0.34567774412948571 0 -0.072956200727799292 0.34567774412948571 0 -0.080554800122379075 0.34349995043372289 0 -0.072956200727799292 0.34567774412948571 0 -0.074020239584127762 0.34334028943165551 0 -0.072956200727799292 0.34567774412948571 0 -0.062813868276889145 0.34125989659728811 0 -0.074020239584127762 0.34334028943165551 0 -0.076100563998140303 0.33877028332179632 0 -0.079824078302485363 0.32043489028249428 0 -0.056558369902314283 0.32901095981193712 0 -0.076100563998140303 0.33877028332179632 0 -0.069127648868883965 0.32726331787879459 0 -0.076100563998140303 0.33877028332179632 0 -0.069127648868883965 0.32726331787879459 0 -0.079824078302485363 0.32043489028249428 0 -0.056558369902314283 0.32901095981193712 0 -0.076100563998140303 0.33877028332179632 0 -0.078024991737684235 0.3345427472372996 0 -0.076100563998140303 0.33877028332179632 0 -0.079824078302485363 0.32043489028249428 0 -0.056558369902314283 0.32901095981193712 0 -0.062813868276889145 0.34125989659728811 0 -0.076100563998140303 0.33877028332179632 0 -0.062813868276889145 0.34125989659728811 0 -0.076100563998140303 0.33877028332179632 0 -0.074020239584127762 0.34334028943165551 0 -0.078024991737684235 0.3345427472372996 0 -0.076100563998140303 0.33877028332179632 0 -0.076100563998140303 0.33877028332179632 0 -0.074020239584127762 0.34334028943165551 0 -0.080554800122379075 0.34349995043372289 0 -0.076100563998140303 0.33877028332179632 0 -0.074020239584127762 0.34334028943165551 0 -0.059818496466381967 0.31404787662703543 0 -0.069127648868883965 0.32726331787879459 0 -0.079824078302485363 0.32043489028249428 0 -0.059818496466381967 0.31404787662703543 0 -0.079824078302485363 0.32043489028249428 0 -0.077160935309693576 0.31165682939692529 0 -0.059818496466381967 0.31404787662703543 0 -0.079824078302485363 0.32043489028249428 0 -0.086767954082731455 0.30640390560309949 0 -0.085290643082632761 0.31723678032441738 0 -0.090152665434386159 0.32373241132404579 0 -0.077160935309693576 0.31165682939692529 0 -0.082689871867685782 0.31315414696319988 0 -0.079824078302485363 0.32043489028249428 0 -0.082689871867685782 0.31315414696319988 0 -0.085290643082632761 0.31723678032441738 0 -0.079824078302485363 0.32043489028249428 0 -0.079824078302485363 0.32043489028249428 0 -0.090152665434386159 0.32373241132404579 0 -0.083473460780238443 0.33059255122558112 0 -0.079824078302485363 0.32043489028249428 0 -0.090152665434386159 0.32373241132404579 0 -0.085290643082632761 0.31723678032441738 0 -0.079824078302485363 0.32043489028249428 0 -0.090152665434386159 0.32373241132404579 0 -0.090152665434386159 0.32373241132404579 0 -0.085892107646398944 0.34366015605848282 0 -0.099256730669044793 0.33609818982806738 0 -0.090152665434386159 0.32373241132404579 0 -0.085892107646398944 0.34366015605848282 0 -0.090152665434386159 0.32373241132404579 0 -0.085892107646398944 0.34366015605848282 0 -0.083473460780238443 0.33059255122558112 0 -0.078024991737684235 0.3345427472372996 0 -0.085892107646398944 0.34366015605848282 0 -0.083473460780238443 0.33059255122558112 0 -0.078024991737684235 0.3345427472372996 0 -0.076100563998140303 0.33877028332179632 0 -0.085892107646398944 0.34366015605848282 0 -0.076100563998140303 0.33877028332179632 0 -0.085892107646398944 0.34366015605848282 0 -0.076100563998140303 0.33877028332179632 0 -0.085892107646398944 0.34366015605848282 0 -0.080554800122379075 0.34349995043372289 0 -0.078024991737684235 0.3345427472372996 0 -0.079824078302485363 0.32043489028249428 0 -0.083473460780238443 0.33059255122558112 0 -0.099256730669044793 0.33609818982806738 0 -0.1138420239604703 0.33129551334400881 0 -0.11127431444893859 0.35633596750347668 0 -0.090152665434386159 0.32373241132404579 0 -0.099256730669044793 0.33609818982806738 0 -0.1138420239604703 0.33129551334400881 0 -0.10680092680786089 0.31246804882880552 0 -0.090152665434386159 0.32373241132404579 0 -0.1138420239604703 0.33129551334400881 0 -0.090152665434386159 0.32373241132404579 0 -0.1138420239604703 0.33129551334400881 0 -0.12816618676709249 0.31228664190726407 0 -0.10680092680786089 0.31246804882880552 0 -0.1138420239604703 0.33129551334400881 0 -0.12986709723606929 0.35065719736344769 0 -0.1138420239604703 0.33129551334400881 0 -0.11127431444893859 0.35633596750347668 0 -0.13665652125147851 0.36901177894847043 0 -0.10862259559742519 0.37233707998960269 0 -0.1203133209207863 0.38273139159275799 0 -0.13665652125147851 0.36901177894847043 0 -0.11127431444893859 0.35633596750347668 0 -0.13665652125147851 0.36901177894847043 0 -0.11127431444893859 0.35633596750347668 0 -0.10862259559742519 0.37233707998960269 0 -0.099877806619609072 0.35791352252066022 0 -0.093752363439501551 0.38404206970099308 0 -0.10862259559742519 0.37233707998960269 0 -0.099877806619609072 0.35791352252066022 0 -0.093752363439501551 0.38404206970099308 0 -0.11127431444893859 0.35633596750347668 0 -0.10862259559742519 0.37233707998960269 0 -0.099877806619609072 0.35791352252066022 0 -0.085892107646398944 0.34366015605848282 0 -0.11127431444893859 0.35633596750347668 0 -0.085892107646398944 0.34366015605848282 0 -0.099256730669044793 0.33609818982806738 0 -0.11127431444893859 0.35633596750347668 0 -0.085892107646398944 0.34366015605848282 0 -0.11127431444893859 0.35633596750347668 0 -0.099877806619609072 0.35791352252066022 0 -0.10397012059009179 0.39645100423704299 0 -0.093752363439501551 0.38404206970099308 0 -0.087626920259395835 0.41017061688132628 0 -0.10397012059009179 0.39645100423704299 0 -0.1005542003311483 0.41144131773783349 0 -0.087626920259395835 0.41017061688132628 0 -0.10397012059009179 0.39645100423704299 0 -0.087626920259395835 0.41017061688132628 0 -0.10397012059009179 0.39645100423704299 0 -0.093752363439501551 0.38404206970099308 0 -0.1066646001369512 0.3838903863800992 0 -0.10862259559742519 0.37233707998960269 0 -0.093752363439501551 0.38404206970099308 0 -0.1066646001369512 0.3838903863800992 0 -0.10397012059009179 0.39645100423704299 0 -0.1066646001369512 0.3838903863800992 0 -0.1203133209207863 0.38273139159275799 0 -0.10397012059009179 0.39645100423704299 0 -0.1203133209207863 0.38273139159275799 0 -0.10862259559742519 0.37233707998960269 0 -0.1066646001369512 0.3838903863800992 0 -0.1203133209207863 0.38273139159275799 0 -0.12547175273290009 0.40496561915104512 0 -0.10397012059009179 0.39645100423704299 0 -0.1203133209207863 0.38273139159275799 0 -0.12547175273290009 0.40496561915104512 0 -0.10397012059009179 0.39645100423704299 0 -0.112327328526627 0.41692973310231812 0 -0.12547175273290009 0.40496561915104512 0 -0.1227760616318246 0.42092587739838278 0 -0.112327328526627 0.41692973310231812 0 -0.12314295292961321 0.43102554647251667 0 -0.11487597129006109 0.43693890454241202 0 -0.1239598626178986 0.44210118599544102 0 -0.1227760616318246 0.42092587739838278 0 -0.12314295292961321 0.43102554647251667 0 -0.1104357156371302 0.42795547540907058 0 -0.1227760616318246 0.42092587739838278 0 -0.112327328526627 0.41692973310231812 0 -0.1104357156371302 0.42795547540907058 0 -0.1104357156371302 0.42795547540907058 0 -0.11487597129006109 0.43693890454241202 0 -0.10534600720156249 0.43791740598399143 0 -0.12314295292961321 0.43102554647251667 0 -0.1104357156371302 0.42795547540907058 0 -0.11487597129006109 0.43693890454241202 0 -0.1104357156371302 0.42795547540907058 0 -0.1013275633390954 0.4307951071961742 0 -0.10534600720156249 0.43791740598399143 0 -0.1104357156371302 0.42795547540907058 0 -0.1013275633390954 0.4307951071961742 0 -0.1006033879821213 0.42148005334985522 0 -0.112327328526627 0.41692973310231812 0 -0.1104357156371302 0.42795547540907058 0 -0.1006033879821213 0.42148005334985522 0 -0.1013275633390954 0.4307951071961742 0 -0.1006033879821213 0.42148005334985522 0 -0.093230604789311569 0.42785946224220212 0 -0.1013275633390954 0.4307951071961742 0 -0.097022101085351239 0.43876313899575148 0 -0.10534600720156249 0.43791740598399143 0 -0.1013275633390954 0.4307951071961742 0 -0.093230604789311569 0.42785946224220212 0 -0.097022101085351239 0.43876313899575148 0 -0.10397012059009179 0.39645100423704299 0 -0.112327328526627 0.41692973310231812 0 -0.1005542003311483 0.41144131773783349 0 -0.1006033879821213 0.42148005334985522 0 -0.087626920259395835 0.41017061688132628 0 -0.093230604789311569 0.42785946224220212 0 -0.112327328526627 0.41692973310231812 0 -0.1006033879821213 0.42148005334985522 0 -0.1005542003311483 0.41144131773783349 0 -0.1006033879821213 0.42148005334985522 0 -0.1005542003311483 0.41144131773783349 0 -0.087626920259395835 0.41017061688132628 0 -0.087626920259395835 0.41017061688132628 0 -0.080137190451608331 0.41731689106388398 0 -0.082548884106599635 0.43183136914046599 0 -0.087626920259395835 0.41017061688132628 0 -0.082548884106599635 0.43183136914046599 0 -0.087626920259395835 0.41017061688132628 0 -0.080137190451608331 0.41731689106388398 0 -0.079996734314900328 0.40847922447879342 0 -0.087626920259395835 0.41017061688132628 0 -0.079996734314900328 0.40847922447879342 0 -0.080120300277086109 0.40100828296067831 0 -0.080137190451608331 0.41731689106388398 0 -0.079996734314900328 0.40847922447879342 0 -0.074710039246354581 0.41370366413443033 0 -0.087626920259395835 0.41017061688132628 0 -0.093230604789311569 0.42785946224220212 0 -0.082548884106599635 0.43183136914046599 0 -0.082548884106599635 0.43183136914046599 0 -0.097022101085351239 0.43876313899575148 0 -0.093230604789311569 0.42785946224220212 0 -0.082548884106599635 0.43183136914046599 0 -0.097022101085351239 0.43876313899575148 0 -0.080137190451608331 0.41731689106388398 0 -0.082548884106599635 0.43183136914046599 0 -0.076308276872815273 0.42197573057184667 0 -0.082548884106599635 0.43183136914046599 0 -0.079973297254581743 0.44281773218412579 0 -0.082548884106599635 0.43183136914046599 0 -0.073834638211540626 0.43558353106733078 0 -0.079973297254581743 0.44281773218412579 0 -0.082548884106599635 0.43183136914046599 0 -0.073834638211540626 0.43558353106733078 0 -0.068481531105186982 0.42509398286192529 0 -0.082548884106599635 0.43183136914046599 0 -0.068481531105186982 0.42509398286192529 0 -0.082548884106599635 0.43183136914046599 0 -0.076308276872815273 0.42197573057184667 0 -0.068481531105186982 0.42509398286192529 0 -0.068481531105186982 0.42509398286192529 0 -0.060072426859252889 0.42106654546445033 0 -0.068481531105186982 0.42509398286192529 0 -0.060072426859252889 0.42106654546445033 0 -0.062361452425771943 0.4309378635743491 0 -0.068481531105186982 0.42509398286192529 0 -0.062361452425771943 0.4309378635743491 0 -0.065336763830504213 0.43980288310870908 0 -0.073834638211540626 0.43558353106733078 0 -0.068481531105186982 0.42509398286192529 0 -0.065336763830504213 0.43980288310870908 0 -0.068481531105186982 0.42509398286192529 0 -0.065336763830504213 0.43980288310870908 0 -0.079996734314900328 0.40847922447879342 0 -0.071230624952648092 0.41223575087228193 0 -0.080120300277086109 0.40100828296067831 0 -0.079996734314900328 0.40847922447879342 0 -0.071230624952648092 0.41223575087228193 0 -0.074710039246354581 0.41370366413443033 0 -0.071230624952648092 0.41223575087228193 0 -0.074710039246354581 0.41370366413443033 0 -0.068481531105186982 0.42509398286192529 0 -0.071230624952648092 0.41223575087228193 0 -0.074710039246354581 0.41370366413443033 0 -0.076308276872815273 0.42197573057184667 0 -0.068481531105186982 0.42509398286192529 0 -0.074710039246354581 0.41370366413443033 0 -0.080137190451608331 0.41731689106388398 0 -0.076308276872815273 0.42197573057184667 0 -0.074710039246354581 0.41370366413443033 0 -0.068481531105186982 0.42509398286192529 0 -0.071230624952648092 0.41223575087228193 0 -0.068481531105186982 0.42509398286192529 0 -0.071230624952648092 0.41223575087228193 0 -0.060072426859252889 0.42106654546445033 0 -0.071230624952648092 0.41223575087228193 0 -0.063355617727439584 0.40891340217517191 0 -0.060072426859252889 0.42106654546445033 0 -0.071230624952648092 0.41223575087228193 0 -0.063355617727439584 0.40891340217517191 0 -0.071230624952648092 0.41223575087228193 0 -0.076117785850566666 0.38937721926768259 0 -0.071230624952648092 0.41223575087228193 0 -0.080120300277086109 0.40100828296067831 0 -0.076117785850566666 0.38937721926768259 0 -0.071230624952648092 0.41223575087228193 0 -0.063355617727439584 0.40891340217517191 0 -0.066680194617091598 0.39660706333034162 0 -0.063355617727439584 0.40891340217517191 0 -0.066680194617091598 0.39660706333034162 0 -0.057979795170349367 0.40664542240605289 0 -0.063355617727439584 0.40891340217517191 0 -0.066680194617091598 0.39660706333034162 0 -0.071230624952648092 0.41223575087228193 0 -0.066680194617091598 0.39660706333034162 0 -0.076117785850566666 0.38937721926768259 0 -0.066680194617091598 0.39660706333034162 0 -0.063141500525752361 0.38627426338642851 0 -0.057979795170349367 0.40664542240605289 0 -0.066680194617091598 0.39660706333034162 0 -0.076117785850566666 0.38937721926768259 0 -0.063141500525752361 0.38627426338642851 0 -0.093752363439501551 0.38404206970099308 0 -0.087626920259395835 0.41017061688132628 0 -0.080120300277086109 0.40100828296067831 0 -0.093752363439501551 0.38404206970099308 0 -0.080120300277086109 0.40100828296067831 0 -0.076117785850566666 0.38937721926768259 0 -0.093752363439501551 0.38404206970099308 0 -0.087626920259395835 0.41017061688132628 0 -0.081004946748486378 0.36651868766308338 0 -0.093752363439501551 0.38404206970099308 0 -0.076117785850566666 0.38937721926768259 0 -0.081004946748486378 0.36651868766308338 0 -0.076117785850566666 0.38937721926768259 0 -0.081004946748486378 0.36651868766308338 0 -0.07214185975149065 0.37701831867099977 0 -0.076117785850566666 0.38937721926768259 0 -0.068303205881157167 0.36590310436680462 0 -0.07214185975149065 0.37701831867099977 0 -0.063141500525752361 0.38627426338642851 0 -0.068303205881157167 0.36590310436680462 0 -0.063141500525752361 0.38627426338642851 0 -0.07214185975149065 0.37701831867099977 0 -0.076117785850566666 0.38937721926768259 0 -0.063141500525752361 0.38627426338642851 0 -0.063141500525752361 0.38627426338642851 0 -0.05582632525705853 0.38330823821738341 0 -0.047261387521687862 0.40212348526133213 0 -0.068303205881157167 0.36590310436680462 0 -0.063141500525752361 0.38627426338642851 0 -0.05582632525705853 0.38330823821738341 0 -0.049634483353100299 0.36643591431006428 0 -0.05582632525705853 0.38330823821738341 0 -0.039425572783983523 0.3757141182361578 0 -0.063141500525752361 0.38627426338642851 0 -0.057979795170349367 0.40664542240605289 0 -0.05582632525705853 0.38330823821738341 0 -0.047261387521687862 0.40212348526133213 0 -0.05582632525705853 0.38330823821738341 0 -0.047261387521687862 0.40212348526133213 0 -0.044147309759060463 0.38897219286385509 0 -0.063141500525752361 0.38627426338642851 0 -0.047261387521687862 0.40212348526133213 0 -0.057979795170349367 0.40664542240605289 0 -0.047261387521687862 0.40212348526133213 0 -0.057979795170349367 0.40664542240605289 0 -0.047261387521687862 0.40212348526133213 0 -0.054072720590305018 0.40860047976576608 0 -0.057979795170349367 0.40664542240605289 0 -0.047261387521687862 0.40212348526133213 0 -0.032884619917060029 0.39271932014989169 0 -0.031220327696736262 0.39535600014219507 0 -0.047261387521687862 0.40212348526133213 0 -0.031220327696736262 0.39535600014219507 0 -0.047261387521687862 0.40212348526133213 0 -0.031220327696736262 0.39535600014219507 0 -0.042266513298353792 0.4130961035533921 0 -0.047261387521687862 0.40212348526133213 0 -0.032884619917060029 0.39271932014989169 0 -0.044147309759060463 0.38897219286385509 0 -0.032884619917060029 0.39271932014989169 0 -0.031220327696736262 0.39535600014219507 0 -0.05582632525705853 0.38330823821738341 0 -0.039425572783983523 0.3757141182361578 0 -0.044147309759060463 0.38897219286385509 0 -0.039425572783983523 0.3757141182361578 0 -0.044147309759060463 0.38897219286385509 0 -0.035706963008466069 0.38420995023294069 0 -0.032884619917060029 0.39271932014989169 0 -0.044147309759060463 0.38897219286385509 0 -0.035706963008466069 0.38420995023294069 0 -0.039425572783983523 0.3757141182361578 0 -0.035706963008466069 0.38420995023294069 0 -0.02392645402958804 0.37973471975011158 0 -0.02392645402958804 0.37973471975011158 0 -0.031220327696736262 0.39535600014219507 0 -0.0095418385114862392 0.3862101672254491 0 -0.032884619917060029 0.39271932014989169 0 -0.02392645402958804 0.37973471975011158 0 -0.031220327696736262 0.39535600014219507 0 -0.032884619917060029 0.39271932014989169 0 -0.035706963008466069 0.38420995023294069 0 -0.02392645402958804 0.37973471975011158 0 -0.031220327696736262 0.39535600014219507 0 -0.01285177665286906 0.40271150072108453 0 -0.016161714794250871 0.41921283421672029 0 -0.031220327696736262 0.39535600014219507 0 -0.01285177665286906 0.40271150072108453 0 -0.0095418385114862392 0.3862101672254491 0 -0.031220327696736262 0.39535600014219507 0 -0.0095418385114862392 0.3862101672254491 0 -0.01285177665286906 0.40271150072108453 0 -0.0095418385114862392 0.3862101672254491 0 0.001655252874772957 0.39660590042456639 0 -0.01285177665286906 0.40271150072108453 0 0.0029271978584473981 0.41218359985444042 0 0.001655252874772957 0.39660590042456639 0 -0.01285177665286906 0.40271150072108453 0 -0.0095418385114862392 0.3862101672254491 0 -0.0095418385114862392 0.3862101672254491 0 0.002022440695535956 0.38133136942149648 0 -0.0053010199548332226 0.36506803153930628 0 -0.02392645402958804 0.37973471975011158 0 -0.0095418385114862392 0.3862101672254491 0 -0.0053010199548332226 0.36506803153930628 0 -0.0095418385114862392 0.3862101672254491 0 0.002022440695535956 0.38133136942149648 0 -0.0095418385114862392 0.3862101672254491 0 0.002022440695535956 0.38133136942149648 0 0.001655252874772957 0.39660590042456639 0 -0.0053010199548332226 0.36506803153930628 0 -0.0095418385114862392 0.3862101672254491 0 -0.010318429560930001 0.42847014677027889 0 0.001145490135509662 0.44663203404454349 0 0.0066011280012474478 0.43362514157268572 0 -0.010318429560930001 0.42847014677027889 0 -0.016161714794250871 0.41921283421672029 0 -0.01835046205204028 0.43012459355955179 0 -0.010318429560930001 0.42847014677027889 0 -0.016161714794250871 0.41921283421672029 0 -0.010318429560930001 0.42847014677027889 0 -0.01835046205204028 0.43012459355955179 0 -0.010318429560930001 0.42847014677027889 0 -0.01835046205204028 0.43012459355955179 0 -0.011789943395545271 0.44165045771712808 0 -0.01285177665286906 0.40271150072108453 0 -0.0046486024432160601 0.4178315334085928 0 0.0029271978584473981 0.41218359985444042 0 -0.01285177665286906 0.40271150072108453 0 -0.016161714794250871 0.41921283421672029 0 -0.01285177665286906 0.40271150072108453 0 -0.0046486024432160601 0.4178315334085928 0 -0.016161714794250871 0.41921283421672029 0 -0.010318429560930001 0.42847014677027889 0 -0.0046486024432160601 0.4178315334085928 0 -0.016161714794250871 0.41921283421672029 0 -0.031220327696736262 0.39535600014219507 0 -0.016161714794250871 0.41921283421672029 0 -0.031219638729153499 0.41991760041699011 0 -0.031220327696736262 0.39535600014219507 0 -0.016161714794250871 0.41921283421672029 0 -0.01835046205204028 0.43012459355955179 0 -0.036952774980091793 0.43395631821093128 0 -0.028603566432266719 0.44070785970528442 0 -0.031219638729153499 0.41991760041699011 0 -0.01835046205204028 0.43012459355955179 0 -0.036952774980091793 0.43395631821093128 0 -0.01835046205204028 0.43012459355955179 0 -0.036952774980091793 0.43395631821093128 0 -0.016161714794250871 0.41921283421672029 0 -0.031219638729153499 0.41991760041699011 0 -0.01835046205204028 0.43012459355955179 0 -0.016161714794250871 0.41921283421672029 0 -0.01835046205204028 0.43012459355955179 0 -0.036952774980091793 0.43395631821093128 0 -0.046840972465016339 0.42306321364329053 0 -0.055555087908143237 0.43778804286231149 0 -0.036952774980091793 0.43395631821093128 0 -0.055555087908143237 0.43778804286231149 0 -0.031219638729153499 0.41991760041699011 0 -0.036952774980091793 0.43395631821093128 0 -0.046840972465016339 0.42306321364329053 0 -0.031220327696736262 0.39535600014219507 0 -0.031219638729153499 0.41991760041699011 0 -0.042266513298353792 0.4130961035533921 0 -0.031219638729153499 0.41991760041699011 0 -0.046840972465016339 0.42306321364329053 0 -0.042266513298353792 0.4130961035533921 0 -0.046840972465016339 0.42306321364329053 0 -0.042266513298353792 0.4130961035533921 0 -0.048598933588742968 0.41650427442805132 0 -0.047261387521687862 0.40212348526133213 0 -0.042266513298353792 0.4130961035533921 0 -0.047261387521687862 0.40212348526133213 0 -0.042266513298353792 0.4130961035533921 0 -0.049742826782019779 0.4115590849661096 0 -0.042266513298353792 0.4130961035533921 0 -0.049742826782019779 0.4115590849661096 0 -0.048598933588742968 0.41650427442805132 0 -0.047261387521687862 0.40212348526133213 0 -0.054072720590305018 0.40860047976576608 0 -0.049742826782019779 0.4115590849661096 0 -0.049742826782019779 0.4115590849661096 0 -0.05197727917655029 0.41494113019310058 0 -0.055302478301340538 0.41341607023306259 0 -0.054072720590305018 0.40860047976576608 0 -0.049742826782019779 0.4115590849661096 0 -0.055302478301340538 0.41341607023306259 0 -0.046840972465016339 0.42306321364329053 0 -0.054264878034097887 0.41828509114517909 0 -0.060072426859252889 0.42106654546445033 0 -0.05197727917655029 0.41494113019310058 0 -0.054264878034097887 0.41828509114517909 0 -0.055302478301340538 0.41341607023306259 0 -0.05197727917655029 0.41494113019310058 0 -0.048598933588742968 0.41650427442805132 0 -0.054264878034097887 0.41828509114517909 0 -0.049742826782019779 0.4115590849661096 0 -0.05197727917655029 0.41494113019310058 0 -0.048598933588742968 0.41650427442805132 0 -0.046840972465016339 0.42306321364329053 0 -0.048598933588742968 0.41650427442805132 0 -0.054264878034097887 0.41828509114517909 0 -0.060072426859252889 0.42106654546445033 0 -0.055302478301340538 0.41341607023306259 0 -0.060062529739297557 0.41046765974430732 0 -0.063355617727439584 0.40891340217517191 0 -0.060072426859252889 0.42106654546445033 0 -0.054264878034097887 0.41828509114517909 0 -0.060072426859252889 0.42106654546445033 0 -0.054264878034097887 0.41828509114517909 0 -0.060072426859252889 0.42106654546445033 0 -0.055302478301340538 0.41341607023306259 0 -0.063355617727439584 0.40891340217517191 0 -0.060072426859252889 0.42106654546445033 0 -0.060062529739297557 0.41046765974430732 0 -0.055302478301340538 0.41341607023306259 0 -0.060062529739297557 0.41046765974430732 0 -0.056614350213753842 0.41010775514054237 0 -0.054072720590305018 0.40860047976576608 0 -0.055302478301340538 0.41341607023306259 0 -0.056614350213753842 0.41010775514054237 0 -0.063355617727439584 0.40891340217517191 0 -0.057979795170349367 0.40664542240605289 0 -0.063355617727439584 0.40891340217517191 0 -0.060062529739297557 0.41046765974430732 0 -0.057979795170349367 0.40664542240605289 0 -0.054072720590305018 0.40860047976576608 0 -0.057979795170349367 0.40664542240605289 0 -0.056614350213753842 0.41010775514054237 0 -0.060062529739297557 0.41046765974430732 0 -0.057979795170349367 0.40664542240605289 0 -0.056614350213753842 0.41010775514054237 0 -0.060072426859252889 0.42106654546445033 0 -0.055555087908143237 0.43778804286231149 0 -0.046840972465016339 0.42306321364329053 0 -0.060072426859252889 0.42106654546445033 0 -0.055555087908143237 0.43778804286231149 0 -0.060072426859252889 0.42106654546445033 0 -0.062361452425771943 0.4309378635743491 0 -0.055555087908143237 0.43778804286231149 0 -0.062361452425771943 0.4309378635743491 0 -0.055555087908143237 0.43778804286231149 0 -0.065336763830504213 0.43980288310870908 0 -0.055555087908143237 0.43778804286231149 0 -0.059485120474239303 0.44025175092094321 0 -0.047656797931769239 0.4670245550472315 0 -0.055555087908143237 0.43778804286231149 0 -0.059485120474239303 0.44025175092094321 0 -0.065336763830504213 0.43980288310870908 0 -0.059485120474239303 0.44025175092094321 0 -0.059464693315030251 0.46726809497016292 0 -0.065336763830504213 0.43980288310870908 0 -0.055555087908143237 0.43778804286231149 0 -0.047656797931769239 0.4670245550472315 0 -0.055555087908143237 0.43778804286231149 0 -0.065336763830504213 0.43980288310870908 0 -0.059485120474239303 0.44025175092094321 0 -0.059464693315030251 0.46726809497016292 0 -0.052363703214034218 0.4671216357980788 0 -0.059464693315030251 0.46726809497016292 0 -0.065336763830504213 0.43980288310870908 0 -0.059485120474239303 0.44025175092094321 0 -0.047656797931769239 0.4670245550472315 0 -0.052363703214034218 0.4671216357980788 0 -0.059485120474239303 0.44025175092094321 0 -0.052363703214034218 0.4671216357980788 0 -0.059464693315030251 0.46726809497016292 0 -0.052363703214034218 0.4671216357980788 0 -0.047656797931769239 0.4670245550472315 0 -0.052363703214034218 0.4671216357980788 0 -0.047656797931769239 0.4670245550472315 0 -0.032215282184534767 0.46670607106401552 0 -0.036823057285796303 0.4489959125356271 0 -0.047656797931769239 0.4670245550472315 0 -0.032215282184534767 0.46670607106401552 0 -0.055555087908143237 0.43778804286231149 0 -0.047656797931769239 0.4670245550472315 0 -0.036823057285796303 0.4489959125356271 0 -0.036952774980091793 0.43395631821093128 0 -0.055555087908143237 0.43778804286231149 0 -0.036823057285796303 0.4489959125356271 0 -0.036952774980091793 0.43395631821093128 0 -0.036823057285796303 0.4489959125356271 0 -0.028603566432266719 0.44070785970528442 0 -0.01835046205204028 0.43012459355955179 0 -0.022287971411138401 0.44975461451502802 0 -0.011789943395545271 0.44165045771712808 0 -0.01835046205204028 0.43012459355955179 0 -0.028603566432266719 0.44070785970528442 0 -0.022287971411138401 0.44975461451502802 0 -0.01835046205204028 0.43012459355955179 0 -0.022287971411138401 0.44975461451502802 0 -0.036823057285796303 0.4489959125356271 0 -0.028603566432266719 0.44070785970528442 0 -0.022287971411138401 0.44975461451502802 0 -0.032215282184534767 0.46670607106401552 0 -0.036823057285796303 0.4489959125356271 0 -0.022287971411138401 0.44975461451502802 0 -0.022287971411138401 0.44975461451502802 0 -0.016773766437300289 0.46638758708079903 0 -0.01071377358219913 0.45341949539383941 0 -0.032215282184534767 0.46670607106401552 0 -0.022287971411138401 0.44975461451502802 0 -0.016773766437300289 0.46638758708079903 0 -0.032215282184534767 0.46670607106401552 0 -0.016773766437300289 0.46638758708079903 0 -0.01071377358219913 0.45341949539383941 0 -0.0038626768025213178 0.46267278361169828 0 0.001145490135509662 0.44663203404454349 0 -0.016773766437300289 0.46638758708079903 0 -0.01071377358219913 0.45341949539383941 0 -0.0038626768025213178 0.46267278361169828 0 -0.010318429560930001 0.42847014677027889 0 -0.011789943395545271 0.44165045771712808 0 0.001145490135509662 0.44663203404454349 0 -0.01071377358219913 0.45341949539383941 0 -0.011789943395545271 0.44165045771712808 0 0.001145490135509662 0.44663203404454349 0 -0.010318429560930001 0.42847014677027889 0 0.001145490135509662 0.44663203404454349 0 -0.022287971411138401 0.44975461451502802 0 -0.01071377358219913 0.45341949539383941 0 -0.011789943395545271 0.44165045771712808 0 -0.0145485835097286 0.48793657762900111 0 -0.01455481575904094 0.5 0 0.0045096980925076746 0.48601796713946549 0 -0.0145485835097286 0.48793657762900111 0 -0.008679163499073753 0.47739731262234258 0 0.0045096980925076746 0.48601796713946549 0 -0.016773766437300289 0.46638758708079903 0 -0.0038626768025213178 0.46267278361169828 0 -0.008679163499073753 0.47739731262234258 0 -0.016773766437300289 0.46638758708079903 0 -0.008679163499073753 0.47739731262234258 0 -0.026509374347255619 0.47835047358806998 0 -0.008679163499073753 0.47739731262234258 0 -0.026509374347255619 0.47835047358806998 0 -0.008679163499073753 0.47739731262234258 0 -0.026509374347255619 0.47835047358806998 0 -0.026611759824825248 0.48801387790679868 0 -0.008679163499073753 0.47739731262234258 0 -0.026611759824825248 0.48801387790679868 0 -0.032215282184534767 0.46670607106401552 0 -0.016773766437300289 0.46638758708079903 0 -0.026509374347255619 0.47835047358806998 0 -0.026509374347255619 0.47835047358806998 0 -0.026611759824825248 0.48801387790679868 0 -0.034724049577519983 0.48564988535326298 0 -0.01455481575904094 0.5 0 -0.026611759824825248 0.48801387790679868 0 -0.032620080977421251 0.49249162143675412 0 -0.0145485835097286 0.48793657762900111 0 -0.008679163499073753 0.47739731262234258 0 -0.026611759824825248 0.48801387790679868 0 -0.01455481575904094 0.5 0 -0.032620080977421251 0.49249162143675412 0 -0.043649838179426387 0.499999999999998 0 -0.0145485835097286 0.48793657762900111 0 -0.01455481575904094 0.5 0 -0.026611759824825248 0.48801387790679868 0 -0.040563776032849691 0.49328026632093069 0 -0.043649838179426387 0.499999999999998 0 -0.049068073022132237 0.47955640834664159 0 -0.032620080977421251 0.49249162143675412 0 -0.040563776032849691 0.49328026632093069 0 -0.043649838179426387 0.499999999999998 0 -0.043649838179426387 0.499999999999998 0 -0.049068073022132237 0.47955640834664159 0 -0.026611759824825248 0.48801387790679868 0 -0.032620080977421251 0.49249162143675412 0 -0.034724049577519983 0.48564988535326298 0 -0.032620080977421251 0.49249162143675412 0 -0.034724049577519983 0.48564988535326298 0 -0.040563776032849691 0.49328026632093069 0 -0.040563776032849691 0.49328026632093069 0 -0.044339585195437611 0.47930363455379621 0 -0.034724049577519983 0.48564988535326298 0 -0.040563776032849691 0.49328026632093069 0 -0.044339585195437611 0.47930363455379621 0 -0.026509374347255619 0.47835047358806998 0 -0.034724049577519983 0.48564988535326298 0 -0.044339585195437611 0.47930363455379621 0 -0.026509374347255619 0.47835047358806998 0 -0.044339585195437611 0.47930363455379621 0 -0.032215282184534767 0.46670607106401552 0 -0.026509374347255619 0.47835047358806998 0 -0.044339585195437611 0.47930363455379621 0 -0.040563776032849691 0.49328026632093069 0 -0.044339585195437611 0.47930363455379621 0 -0.049068073022132237 0.47955640834664159 0 -0.044339585195437611 0.47930363455379621 0 -0.049068073022132237 0.47955640834664159 0 -0.047656797931769239 0.4670245550472315 0 -0.032215282184534767 0.46670607106401552 0 -0.044339585195437611 0.47930363455379621 0 -0.047656797931769239 0.4670245550472315 0 -0.044339585195437611 0.47930363455379621 0 -0.047656797931769239 0.4670245550472315 0 -0.052363703214034218 0.4671216357980788 0 -0.049068073022132237 0.47955640834664159 0 -0.047656797931769239 0.4670245550472315 0 -0.044339585195437611 0.47930363455379621 0 -0.049068073022132237 0.47955640834664159 0 -0.052363703214034218 0.4671216357980788 0 -0.049068073022132237 0.47955640834664159 0 -0.052363703214034218 0.4671216357980788 0 -0.049068073022132237 0.47955640834664159 0 -0.056749653464394811 0.47996704749695779 0 -0.049068073022132237 0.47955640834664159 0 -0.056749653464394811 0.47996704749695779 0 -0.053930338768398138 0.49315372078802439 0 -0.049068073022132237 0.47955640834664159 0 -0.056749653464394811 0.47996704749695779 0 -0.056749653464394811 0.47996704749695779 0 -0.063881331569209693 0.48125914966096339 0 -0.0660691630015975 0.47476617453202319 0 -0.056749653464394811 0.47996704749695779 0 -0.061523103382468497 0.48647414005087919 0 -0.063881331569209693 0.48125914966096339 0 -0.059464693315030251 0.46726809497016292 0 -0.056749653464394811 0.47996704749695779 0 -0.0660691630015975 0.47476617453202319 0 -0.059464693315030251 0.46726809497016292 0 -0.052363703214034218 0.4671216357980788 0 -0.056749653464394811 0.47996704749695779 0 -0.059464693315030251 0.46726809497016292 0 -0.056749653464394811 0.47996704749695779 0 -0.043649838179426387 0.499999999999998 0 -0.049068073022132237 0.47955640834664159 0 -0.053930338768398138 0.49315372078802439 0 -0.043649838179426387 0.499999999999998 0 -0.053930338768398138 0.49315372078802439 0 -0.066567778379066037 0.49999999999999378 0 -0.056749653464394811 0.47996704749695779 0 -0.053930338768398138 0.49315372078802439 0 -0.056749653464394811 0.47996704749695779 0 -0.053930338768398138 0.49315372078802439 0 -0.061523103382468497 0.48647414005087919 0 -0.053930338768398138 0.49315372078802439 0 -0.061523103382468497 0.48647414005087919 0 -0.066567778379066037 0.49999999999999378 0 -0.061523103382468497 0.48647414005087919 0 -0.066567778379066037 0.49999999999999378 0 -0.070368976297708982 0.48378569905249258 0 -0.066567778379066037 0.49999999999999378 0 -0.070368976297708982 0.48378569905249258 0 -0.095855797395147158 0.5 0 -0.066567778379066037 0.49999999999999378 0 -0.070368976297708982 0.48378569905249258 0 -0.087128723742605704 0.48038284288908661 0 -0.070368976297708982 0.48378569905249258 0 -0.095855797395147158 0.5 0 -0.087128723742605704 0.48038284288908661 0 -0.074170174216352941 0.46757139810499149 0 -0.091957731529769812 0.46793826960890178 0 -0.087128723742605704 0.48038284288908661 0 -0.070368976297708982 0.48378569905249258 0 -0.074170174216352941 0.46757139810499149 0 -0.070368976297708982 0.48378569905249258 0 -0.074170174216352941 0.46757139810499149 0 -0.070368976297708982 0.48378569905249258 0 -0.0660691630015975 0.47476617453202319 0 -0.074170174216352941 0.46757139810499149 0 -0.061523103382468497 0.48647414005087919 0 -0.070368976297708982 0.48378569905249258 0 -0.063881331569209693 0.48125914966096339 0 -0.070368976297708982 0.48378569905249258 0 -0.063881331569209693 0.48125914966096339 0 -0.0660691630015975 0.47476617453202319 0 -0.059464693315030251 0.46726809497016292 0 -0.0660691630015975 0.47476617453202319 0 -0.074170174216352941 0.46757139810499149 0 -0.069736232154117214 0.45436502709199728 0 -0.074170174216352941 0.46757139810499149 0 -0.079973297254581743 0.44281773218412579 0 -0.059464693315030251 0.46726809497016292 0 -0.069736232154117214 0.45436502709199728 0 -0.065336763830504213 0.43980288310870908 0 -0.074170174216352941 0.46757139810499149 0 -0.079973297254581743 0.44281773218412579 0 -0.059464693315030251 0.46726809497016292 0 -0.069736232154117214 0.45436502709199728 0 -0.074170174216352941 0.46757139810499149 0 -0.059464693315030251 0.46726809497016292 0 -0.074170174216352941 0.46757139810499149 0 -0.069736232154117214 0.45436502709199728 0 -0.065336763830504213 0.43980288310870908 0 -0.079973297254581743 0.44281773218412579 0 -0.073834638211540626 0.43558353106733078 0 -0.065336763830504213 0.43980288310870908 0 -0.079973297254581743 0.44281773218412579 0 -0.065336763830504213 0.43980288310870908 0 -0.079973297254581743 0.44281773218412579 0 -0.082548884106599635 0.43183136914046599 0 -0.079973297254581743 0.44281773218412579 0 -0.089950348208613251 0.44487281599206602 0 -0.079973297254581743 0.44281773218412579 0 -0.089950348208613251 0.44487281599206602 0 -0.079973297254581743 0.44281773218412579 0 -0.089950348208613251 0.44487281599206602 0 -0.087065495030234447 0.45572901473055488 0 -0.089950348208613251 0.44487281599206602 0 -0.087065495030234447 0.45572901473055488 0 -0.099275923941854111 0.45544485776268928 0 -0.082548884106599635 0.43183136914046599 0 -0.089950348208613251 0.44487281599206602 0 -0.097022101085351239 0.43876313899575148 0 -0.074170174216352941 0.46757139810499149 0 -0.091957731529769812 0.46793826960890178 0 -0.074170174216352941 0.46757139810499149 0 -0.079973297254581743 0.44281773218412579 0 -0.087065495030234447 0.45572901473055488 0 -0.074170174216352941 0.46757139810499149 0 -0.087065495030234447 0.45572901473055488 0 -0.091957731529769812 0.46793826960890178 0 -0.087065495030234447 0.45572901473055488 0 -0.091957731529769812 0.46793826960890178 0 -0.099275923941854111 0.45544485776268928 0 -0.091957731529769812 0.46793826960890178 0 -0.099275923941854111 0.45544485776268928 0 -0.1097452888431866 0.46830514111281379 0 -0.091957731529769812 0.46793826960890178 0 -0.1097452888431866 0.46830514111281379 0 -0.099275923941854111 0.45544485776268928 0 -0.111495318064101 0.44569490885104063 0 -0.1097452888431866 0.46830514111281379 0 -0.089950348208613251 0.44487281599206602 0 -0.097022101085351239 0.43876313899575148 0 -0.098196957262657064 0.44727049764293397 0 -0.089950348208613251 0.44487281599206602 0 -0.099275923941854111 0.45544485776268928 0 -0.098196957262657064 0.44727049764293397 0 -0.099275923941854111 0.45544485776268928 0 -0.098196957262657064 0.44727049764293397 0 -0.111495318064101 0.44569490885104063 0 -0.097022101085351239 0.43876313899575148 0 -0.111495318064101 0.44569490885104063 0 -0.097022101085351239 0.43876313899575148 0 -0.10534600720156249 0.43791740598399143 0 -0.111495318064101 0.44569490885104063 0 -0.097022101085351239 0.43876313899575148 0 -0.098196957262657064 0.44727049764293397 0 -0.111495318064101 0.44569490885104063 0 -0.10534600720156249 0.43791740598399143 0 -0.111495318064101 0.44569490885104063 0 -0.12925905597114501 0.45420263336882388 0 -0.111495318064101 0.44569490885104063 0 -0.1239598626178986 0.44210118599544102 0 -0.12925905597114501 0.45420263336882388 0 -0.111495318064101 0.44569490885104063 0 -0.11487597129006109 0.43693890454241202 0 -0.10534600720156249 0.43791740598399143 0 -0.111495318064101 0.44569490885104063 0 -0.11487597129006109 0.43693890454241202 0 -0.111495318064101 0.44569490885104063 0 -0.1239598626178986 0.44210118599544102 0 -0.12580749051850371 0.46379660590069421 0 -0.111495318064101 0.44569490885104063 0 -0.12580749051850371 0.46379660590069421 0 -0.12925905597114501 0.45420263336882388 0 -0.111495318064101 0.44569490885104063 0 -0.12580749051850371 0.46379660590069421 0 -0.111495318064101 0.44569490885104063 0 -0.1097452888431866 0.46830514111281379 0 -0.1097452888431866 0.46830514111281379 0 -0.1207927886149308 0.48000606699545462 0 -0.1032909392740492 0.48261884767904628 0 -0.12580749051850371 0.46379660590069421 0 -0.1097452888431866 0.46830514111281379 0 -0.1207927886149308 0.48000606699545462 0 -0.12514381641122821 0.5 0 -0.1207927886149308 0.48000606699545462 0 -0.1032909392740492 0.48261884767904628 0 -0.087128723742605704 0.48038284288908661 0 -0.095855797395147158 0.5 0 -0.1032909392740492 0.48261884767904628 0 -0.12514381641122821 0.5 0 -0.095855797395147158 0.5 0 -0.1032909392740492 0.48261884767904628 0 -0.087128723742605704 0.48038284288908661 0 -0.091957731529769812 0.46793826960890178 0 -0.1032909392740492 0.48261884767904628 0 -0.091957731529769812 0.46793826960890178 0 -0.1097452888431866 0.46830514111281379 0 -0.1032909392740492 0.48261884767904628 0 -0.16833722378548099 0.092888878982448672 0 -0.15806162561604331 0.066633494353703804 0 -0.1454275028130366 0.084305844967606444 0 -0.16833722378548099 0.092888878982448672 0 -0.15806162561604331 0.066633494353703804 0 -0.1790837405327235 0.06720929702311379 0 -0.16833722378548099 0.092888878982448672 0 -0.19211854671811929 0.079919558434131566 0 -0.16833722378548099 0.092888878982448672 0 -0.1790837405327235 0.06720929702311379 0 -0.19211854671811929 0.079919558434131566 0 -0.16833722378548099 0.092888878982448672 0 -0.18189793601092541 0.1037985472459218 0 -0.19211854671811929 0.079919558434131566 0 -0.18189793601092541 0.1037985472459218 0 -0.17397134148963431 0.12462975779582269 0 -0.16184020103169011 0.1131890330379727 0 -0.18189793601092541 0.1037985472459218 0 -0.17397134148963431 0.12462975779582269 0 -0.19179774646144979 0.1235944218577702 0 -0.17397134148963431 0.12462975779582269 0 -0.16184020103169011 0.1131890330379727 0 -0.15735697872618509 0.13062382892801719 0 -0.16833722378548099 0.092888878982448672 0 -0.18189793601092541 0.1037985472459218 0 -0.16184020103169011 0.1131890330379727 0 -0.16833722378548099 0.092888878982448672 0 -0.14455590085284289 0.1058581995307657 0 -0.16833722378548099 0.092888878982448672 0 -0.16184020103169011 0.1131890330379727 0 -0.14455590085284289 0.1058581995307657 0 -0.16833722378548099 0.092888878982448672 0 -0.14455590085284289 0.1058581995307657 0 -0.1454275028130366 0.084305844967606444 0 -0.16184020103169011 0.1131890330379727 0 -0.14455590085284289 0.1058581995307657 0 -0.14633277342444531 0.1221952958090278 0 -0.16184020103169011 0.1131890330379727 0 -0.14633277342444531 0.1221952958090278 0 -0.15735697872618509 0.13062382892801719 0 -0.14455590085284289 0.1058581995307657 0 -0.13009606967495049 0.1238355021899642 0 -0.12121623443297019 0.1104001341018238 0 -0.14455590085284289 0.1058581995307657 0 -0.14633277342444531 0.1221952958090278 0 -0.13009606967495049 0.1238355021899642 0 -0.14455590085284289 0.1058581995307657 0 -0.12317557040708429 0.086200059003478074 0 -0.12121623443297019 0.1104001341018238 0 -0.14455590085284289 0.1058581995307657 0 -0.1454275028130366 0.084305844967606444 0 -0.12317557040708429 0.086200059003478074 0 -0.15806162561604331 0.066633494353703804 0 -0.1454275028130366 0.084305844967606444 0 -0.13657007131334781 0.062247846336676148 0 -0.13657007131334781 0.062247846336676148 0 -0.1182120847518373 0.0675422528120833 0 -0.12317557040708429 0.086200059003478074 0 -0.1454275028130366 0.084305844967606444 0 -0.13657007131334781 0.062247846336676148 0 -0.12317557040708429 0.086200059003478074 0 -0.13657007131334781 0.062247846336676148 0 -0.1345904339888884 0.044537014723396003 0 -0.150474838628539 0.046933047149889717 0 -0.13657007131334781 0.062247846336676148 0 -0.1345904339888884 0.044537014723396003 0 -0.1200144304230453 0.048874893276275727 0 -0.1345904339888884 0.044537014723396003 0 -0.14200852139575521 0.030694643386798001 0 -0.1238843081837547 0.033934643467340382 0 -0.1345904339888884 0.044537014723396003 0 -0.1238843081837547 0.033934643467340382 0 -0.1200144304230453 0.048874893276275727 0 -0.150474838628539 0.046933047149889717 0 -0.14200852139575521 0.030694643386798001 0 -0.1620221591992109 0.030123192174855849 0 -0.1345904339888884 0.044537014723396003 0 -0.150474838628539 0.046933047149889717 0 -0.14200852139575521 0.030694643386798001 0 -0.15806162561604331 0.066633494353703804 0 -0.13657007131334781 0.062247846336676148 0 -0.150474838628539 0.046933047149889717 0 -0.13951035854237309 -0.003771269238144566 0 -0.1402558631669788 0.0082592403339803357 0 -0.12333940972355011 0.0061911796357587787 0 -0.1402558631669788 0.0082592403339803357 0 -0.1319577913346088 0.020334412385176061 0 -0.12333940972355011 0.0061911796357587787 0 -0.1319577913346088 0.020334412385176061 0 -0.14200852139575521 0.030694643386798001 0 -0.1238843081837547 0.033934643467340382 0 -0.14200852139575521 0.030694643386798001 0 -0.15057597882329909 0.019345105564419689 0 -0.1620221591992109 0.030123192174855849 0 -0.1319577913346088 0.020334412385176061 0 -0.14200852139575521 0.030694643386798001 0 -0.15057597882329909 0.019345105564419689 0 -0.1402558631669788 0.0082592403339803357 0 -0.1319577913346088 0.020334412385176061 0 -0.15057597882329909 0.019345105564419689 0 -0.15057597882329909 0.019345105564419689 0 -0.15418827881318489 0.0031911046980804551 0 -0.16195993077259879 0.011532199453340801 0 -0.1402558631669788 0.0082592403339803357 0 -0.15057597882329909 0.019345105564419689 0 -0.15418827881318489 0.0031911046980804551 0 -0.13951035854237309 -0.003771269238144566 0 -0.1402558631669788 0.0082592403339803357 0 -0.15418827881318489 0.0031911046980804551 0 -0.16583183213526409 0.0037077952859764771 0 -0.17105743663621001 0.01229504295255004 0 -0.17482021610973039 0.0033197909087750088 0 -0.1697852684253211 -0.0020214300530346659 0 -0.16583183213526409 0.0037077952859764771 0 -0.17482021610973039 0.0033197909087750088 0 -0.15418827881318489 0.0031911046980804551 0 -0.16583183213526409 0.0037077952859764771 0 -0.16195993077259879 0.011532199453340801 0 -0.16306537930264739 -0.004956473469638574 0 -0.15418827881318489 0.0031911046980804551 0 -0.16583183213526409 0.0037077952859764771 0 -0.16583183213526409 0.0037077952859764771 0 -0.16195993077259879 0.011532199453340801 0 -0.17105743663621001 0.01229504295255004 0 -0.16195993077259879 0.011532199453340801 0 -0.17105743663621001 0.01229504295255004 0 -0.16616607774326519 0.0201033061505431 0 -0.17105743663621001 0.01229504295255004 0 -0.16616607774326519 0.0201033061505431 0 -0.17569059110944871 0.022375666343487931 0 -0.15057597882329909 0.019345105564419689 0 -0.16195993077259879 0.011532199453340801 0 -0.16616607774326519 0.0201033061505431 0 -0.15057597882329909 0.019345105564419689 0 -0.16616607774326519 0.0201033061505431 0 -0.1620221591992109 0.030123192174855849 0 -0.16616607774326519 0.0201033061505431 0 -0.1620221591992109 0.030123192174855849 0 -0.17569059110944871 0.022375666343487931 0 -0.1620221591992109 0.030123192174855849 0 -0.17569059110944871 0.022375666343487931 0 -0.18331110284860891 0.036266794894876872 0 -0.18586606776469219 0.02250722236846802 0 -0.17569059110944871 0.022375666343487931 0 -0.18331110284860891 0.036266794894876872 0 -0.18586606776469219 0.02250722236846802 0 -0.17569059110944871 0.022375666343487931 0 -0.18055623439091539 0.012422454493281479 0 -0.17105743663621001 0.01229504295255004 0 -0.17569059110944871 0.022375666343487931 0 -0.18055623439091539 0.012422454493281479 0 -0.17105743663621001 0.01229504295255004 0 -0.18055623439091539 0.012422454493281479 0 -0.17482021610973039 0.0033197909087750088 0 -0.18586606776469219 0.02250722236846802 0 -0.18055623439091539 0.012422454493281479 0 -0.18912868214037901 0.0086848974135023127 0 -0.18055623439091539 0.012422454493281479 0 -0.18276157163681811 0.0037831987323030261 0 -0.18912868214037901 0.0086848974135023127 0 -0.17905463857798479 -0.00034341548230351751 0 -0.18276157163681811 0.0037831987323030261 0 -0.17482021610973039 0.0033197909087750088 0 -0.18055623439091539 0.012422454493281479 0 -0.18276157163681811 0.0037831987323030261 0 -0.17482021610973039 0.0033197909087750088 0 -0.15806162561604331 0.066633494353703804 0 -0.1790837405327235 0.06720929702311379 0 -0.17007331319068361 0.048776664201557518 0 -0.15806162561604331 0.066633494353703804 0 -0.150474838628539 0.046933047149889717 0 -0.17007331319068361 0.048776664201557518 0 -0.1620221591992109 0.030123192174855849 0 -0.17007331319068361 0.048776664201557518 0 -0.18331110284860891 0.036266794894876872 0 -0.150474838628539 0.046933047149889717 0 -0.1620221591992109 0.030123192174855849 0 -0.17007331319068361 0.048776664201557518 0 -0.17007331319068361 0.048776664201557518 0 -0.18331110284860891 0.036266794894876872 0 -0.18887419577186509 0.050889058110426877 0 -0.1790837405327235 0.06720929702311379 0 -0.17007331319068361 0.048776664201557518 0 -0.18887419577186509 0.050889058110426877 0 -0.1790837405327235 0.06720929702311379 0 -0.18887419577186509 0.050889058110426877 0 -0.19860153016038859 0.064183046579942754 0 -0.20006955719855041 0.051186525842110447 0 -0.18887419577186509 0.050889058110426877 0 -0.19860153016038859 0.064183046579942754 0 -0.18331110284860891 0.036266794894876872 0 -0.18887419577186509 0.050889058110426877 0 -0.20064372833410901 0.032786298697191511 0 -0.20006955719855041 0.051186525842110447 0 -0.18887419577186509 0.050889058110426877 0 -0.20064372833410901 0.032786298697191511 0 -0.20064372833410901 0.032786298697191511 0 -0.21215877452783899 0.056887699980880689 0 -0.20064372833410901 0.032786298697191511 0 -0.21491444062925699 0.044949459569424532 0 -0.21215877452783899 0.056887699980880689 0 -0.20064372833410901 0.032786298697191511 0 -0.2133719223876788 0.036687226855805742 0 -0.21491444062925699 0.044949459569424532 0 -0.2133719223876788 0.036687226855805742 0 -0.21491444062925699 0.044949459569424532 0 -0.22412122982074709 0.043792236667366917 0 -0.20006955719855041 0.051186525842110447 0 -0.20064372833410901 0.032786298697191511 0 -0.21215877452783899 0.056887699980880689 0 -0.21491444062925699 0.044949459569424532 0 -0.21215877452783899 0.056887699980880689 0 -0.22427654807591119 0.054593835645877838 0 -0.20006955719855041 0.051186525842110447 0 -0.21215877452783899 0.056887699980880689 0 -0.19860153016038859 0.064183046579942754 0 -0.2054589689683386 -0.0010856236147789901 0 -0.1932573724190047 0.0001096042275012081 0 -0.20832682294702351 0.015694622933038069 0 -0.1932573724190047 0.0001096042275012081 0 -0.18912868214037901 0.0086848974135023127 0 -0.20832682294702351 0.015694622933038069 0 -0.18276157163681811 0.0037831987323030261 0 -0.1932573724190047 0.0001096042275012081 0 -0.18912868214037901 0.0086848974135023127 0 -0.1932573724190047 0.0001096042275012081 0 -0.20832682294702351 0.015694622933038069 0 -0.18586606776469219 0.02250722236846802 0 -0.20064372833410901 0.032786298697191511 0 -0.18912868214037901 0.0086848974135023127 0 -0.18586606776469219 0.02250722236846802 0 -0.18331110284860891 0.036266794894876872 0 -0.20064372833410901 0.032786298697191511 0 -0.20064372833410901 0.032786298697191511 0 -0.18912868214037901 0.0086848974135023127 0 -0.20832682294702351 0.015694622933038069 0 -0.20064372833410901 0.032786298697191511 0 -0.18912868214037901 0.0086848974135023127 0 -0.20064372833410901 0.032786298697191511 0 -0.2133719223876788 0.036687226855805742 0 -0.20832682294702351 0.015694622933038069 0 -0.2133719223876788 0.036687226855805742 0 -0.20832682294702351 0.015694622933038069 0 -0.22339627347504221 0.03127964163857494 0 -0.20832682294702351 0.015694622933038069 0 -0.22339627347504221 0.03127964163857494 0 -0.20832682294702351 0.015694622933038069 0 -0.21730051697206129 0.00049915192769001766 0 -0.22461163901228881 0.015026503335880671 0 -0.2054589689683386 -0.0010856236147789901 0 -0.20832682294702351 0.015694622933038069 0 -0.21730051697206129 0.00049915192769001766 0 -0.23117628256096459 -0.0062870967849217281 0 -0.22461163901228881 0.015026503335880671 0 -0.24067752610772239 0.012282621065736609 0 -0.23117628256096459 -0.0062870967849217281 0 -0.21730051697206129 0.00049915192769001766 0 -0.22461163901228881 0.015026503335880671 0 -0.22461163901228881 0.015026503335880671 0 -0.23439657015295831 0.024249945241895211 0 -0.24067752610772239 0.012282621065736609 0 -0.20832682294702351 0.015694622933038069 0 -0.22461163901228881 0.015026503335880671 0 -0.22339627347504221 0.03127964163857494 0 -0.22461163901228881 0.015026503335880671 0 -0.23439657015295831 0.024249945241895211 0 -0.22339627347504221 0.03127964163857494 0 -0.23439657015295831 0.024249945241895211 0 -0.22339627347504221 0.03127964163857494 0 -0.23603562999824959 0.037540912451105947 0 -0.23439657015295831 0.024249945241895211 0 -0.24726178217148859 0.025120047718177881 0 -0.23603562999824959 0.037540912451105947 0 -0.23439657015295831 0.024249945241895211 0 -0.24726178217148859 0.025120047718177881 0 -0.24067752610772239 0.012282621065736609 0 -0.23117628256096459 -0.0062870967849217281 0 -0.25297652059449782 0.001886630878395203 0 -0.24067752610772239 0.012282621065736609 0 -0.23303350133552089 0.049554321451720729 0 -0.22427654807591119 0.054593835645877838 0 -0.22412122982074709 0.043792236667366917 0 -0.22427654807591119 0.054593835645877838 0 -0.23506205368334659 0.060746587594189397 0 -0.22609098978405839 0.065289235048526129 0 -0.23303350133552089 0.049554321451720729 0 -0.22427654807591119 0.054593835645877838 0 -0.23506205368334659 0.060746587594189397 0 -0.21215877452783899 0.056887699980880689 0 -0.22427654807591119 0.054593835645877838 0 -0.22609098978405839 0.065289235048526129 0 -0.21491444062925699 0.044949459569424532 0 -0.22427654807591119 0.054593835645877838 0 -0.22412122982074709 0.043792236667366917 0 -0.2133719223876788 0.036687226855805742 0 -0.22412122982074709 0.043792236667366917 0 -0.22339627347504221 0.03127964163857494 0 -0.22412122982074709 0.043792236667366917 0 -0.22339627347504221 0.03127964163857494 0 -0.23603562999824959 0.037540912451105947 0 -0.23303350133552089 0.049554321451720729 0 -0.22412122982074709 0.043792236667366917 0 -0.23603562999824959 0.037540912451105947 0 -0.26204168907923098 0.03688362547369857 0 -0.23603562999824959 0.037540912451105947 0 -0.24567204509934989 0.051098034900063517 0 -0.26204168907923098 0.03688362547369857 0 -0.24726178217148859 0.025120047718177881 0 -0.23603562999824959 0.037540912451105947 0 -0.23303350133552089 0.049554321451720729 0 -0.23603562999824959 0.037540912451105947 0 -0.24567204509934989 0.051098034900063517 0 -0.26204168907923098 0.03688362547369857 0 -0.23603562999824959 0.037540912451105947 0 -0.24567204509934989 0.051098034900063517 0 -0.23506205368334659 0.060746587594189397 0 -0.2483265292011142 0.069348084463038528 0 -0.23303350133552089 0.049554321451720729 0 -0.24567204509934989 0.051098034900063517 0 -0.23506205368334659 0.060746587594189397 0 -0.2483265292011142 0.069348084463038528 0 -0.23528375191162609 0.073228950757112804 0 -0.24414326440030479 0.085422081616233159 0 -0.23506205368334659 0.060746587594189397 0 -0.2483265292011142 0.069348084463038528 0 -0.23528375191162609 0.073228950757112804 0 -0.23528375191162609 0.073228950757112804 0 -0.24414326440030479 0.085422081616233159 0 -0.22367382072156899 0.080989101264569846 0 -0.24414326440030479 0.085422081616233159 0 -0.22367382072156899 0.080989101264569846 0 -0.23518886691529819 0.1050905025482594 0 -0.22367382072156899 0.080989101264569846 0 -0.23518886691529819 0.1050905025482594 0 -0.21215877452783899 0.056887699980880689 0 -0.22367382072156899 0.080989101264569846 0 -0.22609098978405839 0.065289235048526129 0 -0.23528375191162609 0.073228950757112804 0 -0.22367382072156899 0.080989101264569846 0 -0.22609098978405839 0.065289235048526129 0 -0.23506205368334659 0.060746587594189397 0 -0.23528375191162609 0.073228950757112804 0 -0.22609098978405839 0.065289235048526129 0 -0.2158998696507575 0.066950237885814473 0 -0.19211854671811929 0.079919558434131566 0 -0.21215877452783899 0.056887699980880689 0 -0.2158998696507575 0.066950237885814473 0 -0.19860153016038859 0.064183046579942754 0 -0.2158998696507575 0.066950237885814473 0 -0.21059088666033091 0.079899203955122761 0 -0.19211854671811929 0.079919558434131566 0 -0.21215877452783899 0.056887699980880689 0 -0.22367382072156899 0.080989101264569846 0 -0.2158998696507575 0.066950237885814473 0 -0.21215877452783899 0.056887699980880689 0 -0.22367382072156899 0.080989101264569846 0 -0.22367382072156899 0.080989101264569846 0 -0.2158998696507575 0.066950237885814473 0 -0.21059088666033091 0.079899203955122761 0 -0.21067130955087801 0.091737918235975158 0 -0.21059088666033091 0.079899203955122761 0 -0.19211854671811929 0.079919558434131566 0 -0.22367382072156899 0.080989101264569846 0 -0.21067130955087801 0.091737918235975158 0 -0.21059088666033091 0.079899203955122761 0 -0.22367382072156899 0.080989101264569846 0 -0.21067130955087801 0.091737918235975158 0 -0.22083691496059621 0.095645793125416156 0 -0.21067130955087801 0.091737918235975158 0 -0.19211854671811929 0.079919558434131566 0 -0.1986107319479925 0.1086561422935047 0 -0.1790837405327235 0.06720929702311379 0 -0.19211854671811929 0.079919558434131566 0 -0.19860153016038859 0.064183046579942754 0 -0.2158998696507575 0.066950237885814473 0 -0.19211854671811929 0.079919558434131566 0 -0.19860153016038859 0.064183046579942754 0 -0.19179774646144979 0.1235944218577702 0 -0.1986107319479925 0.1086561422935047 0 -0.21188025659843479 0.1237177290901891 0 -0.18189793601092541 0.1037985472459218 0 -0.19179774646144979 0.1235944218577702 0 -0.1986107319479925 0.1086561422935047 0 -0.18189793601092541 0.1037985472459218 0 -0.19211854671811929 0.079919558434131566 0 -0.1986107319479925 0.1086561422935047 0 -0.21067130955087801 0.091737918235975158 0 -0.1986107319479925 0.1086561422935047 0 -0.21689979943164539 0.1068733224208822 0 -0.1986107319479925 0.1086561422935047 0 -0.21689979943164539 0.1068733224208822 0 -0.21067130955087801 0.091737918235975158 0 -0.21689979943164539 0.1068733224208822 0 -0.22083691496059621 0.095645793125416156 0 -0.1986107319479925 0.1086561422935047 0 -0.21689979943164539 0.1068733224208822 0 -0.21188025659843479 0.1237177290901891 0 -0.21689979943164539 0.1068733224208822 0 -0.21188025659843479 0.1237177290901891 0 -0.22654685533529051 0.1111370388496436 0 -0.21188025659843479 0.1237177290901891 0 -0.22654685533529051 0.1111370388496436 0 -0.22807018764138101 0.12899240292168371 0 -0.22654685533529051 0.1111370388496436 0 -0.2347032506538729 0.1203819860432802 0 -0.22807018764138101 0.12899240292168371 0 -0.22654685533529051 0.1111370388496436 0 -0.23668069175363729 0.1082129450004088 0 -0.2347032506538729 0.1203819860432802 0 -0.21689979943164539 0.1068733224208822 0 -0.22654685533529051 0.1111370388496436 0 -0.23518886691529819 0.1050905025482594 0 -0.21689979943164539 0.1068733224208822 0 -0.22083691496059621 0.095645793125416156 0 -0.23518886691529819 0.1050905025482594 0 -0.22367382072156899 0.080989101264569846 0 -0.22083691496059621 0.095645793125416156 0 -0.23518886691529819 0.1050905025482594 0 -0.21689979943164539 0.1068733224208822 0 -0.23518886691529819 0.1050905025482594 0 -0.22654685533529051 0.1111370388496436 0 -0.23518886691529819 0.1050905025482594 0 -0.23668069175363729 0.1082129450004088 0 -0.26092747304456931 0.10258150100720879 0 -0.23518886691529819 0.1050905025482594 0 -0.26092747304456931 0.10258150100720879 0 -0.24414326440030479 0.085422081616233159 0 -0.23518886691529819 0.1050905025482594 0 -0.26092747304456931 0.10258150100720879 0 -0.23518886691529819 0.1050905025482594 0 -0.2488539522290748 0.11341160200186361 0 -0.23518886691529819 0.1050905025482594 0 -0.23668069175363729 0.1082129450004088 0 -0.2488539522290748 0.11341160200186361 0 -0.23518886691529819 0.1050905025482594 0 -0.23668069175363729 0.1082129450004088 0 -0.2347032506538729 0.1203819860432802 0 -0.24185876991200311 0.1168899105497314 0 -0.24697456125405631 0.12806150044621009 0 -0.23668069175363729 0.1082129450004088 0 -0.2347032506538729 0.1203819860432802 0 -0.24185876991200311 0.1168899105497314 0 -0.23668069175363729 0.1082129450004088 0 -0.24185876991200311 0.1168899105497314 0 -0.2488539522290748 0.11341160200186361 0 -0.24185876991200311 0.1168899105497314 0 -0.2488539522290748 0.11341160200186361 0 -0.24697456125405631 0.12806150044621009 0 -0.25302039422752087 0.14412828722383661 0 -0.24697456125405631 0.12806150044621009 0 -0.23754769284823429 0.14816313907670831 0 -0.2347032506538729 0.1203819860432802 0 -0.24697456125405631 0.12806150044621009 0 -0.22807018764138101 0.12899240292168371 0 -0.24697456125405631 0.12806150044621009 0 -0.22807018764138101 0.12899240292168371 0 -0.23754769284823429 0.14816313907670831 0 -0.21188025659843479 0.1237177290901891 0 -0.22807018764138101 0.12899240292168371 0 -0.21805586281382061 0.14497242229466839 0 -0.23754769284823429 0.14816313907670831 0 -0.2201482718927858 0.16793187544002869 0 -0.21805586281382061 0.14497242229466839 0 -0.22807018764138101 0.12899240292168371 0 -0.23754769284823429 0.14816313907670831 0 -0.21805586281382061 0.14497242229466839 0 -0.25224409863768998 0.1571230749140525 0 -0.25302039422752087 0.14412828722383661 0 -0.23754769284823429 0.14816313907670831 0 -0.25224409863768998 0.1571230749140525 0 -0.23754769284823429 0.14816313907670831 0 -0.23958460938146309 0.168642985202096 0 -0.2530633310010415 0.1686288015332143 0 -0.23958460938146309 0.168642985202096 0 -0.24605353430501209 0.17667288236936979 0 -0.2530633310010415 0.1686288015332143 0 -0.25224409863768998 0.1571230749140525 0 -0.23958460938146309 0.168642985202096 0 -0.25627498971749429 0.1786815466167071 0 -0.23871208971413871 0.19208913494675101 0 -0.25627498971749429 0.1786815466167071 0 -0.24323520842606891 0.18723556704161359 0 -0.23871208971413871 0.19208913494675101 0 -0.25627498971749429 0.1786815466167071 0 -0.24323520842606891 0.18723556704161359 0 -0.24605353430501209 0.17667288236936979 0 -0.24323520842606891 0.18723556704161359 0 -0.24605353430501209 0.17667288236936979 0 -0.23858858822400261 0.1803420260753579 0 -0.25627498971749429 0.1786815466167071 0 -0.24323520842606891 0.18723556704161359 0 -0.23958460938146309 0.168642985202096 0 -0.23858858822400261 0.1803420260753579 0 -0.22954683425771821 0.18098846993816159 0 -0.23958460938146309 0.168642985202096 0 -0.24605353430501209 0.17667288236936979 0 -0.23858858822400261 0.1803420260753579 0 -0.23858858822400261 0.1803420260753579 0 -0.2353915145106083 0.1860889126304133 0 -0.22954683425771821 0.18098846993816159 0 -0.24323520842606891 0.18723556704161359 0 -0.23858858822400261 0.1803420260753579 0 -0.2353915145106083 0.1860889126304133 0 -0.23958460938146309 0.168642985202096 0 -0.22954683425771821 0.18098846993816159 0 -0.2201482718927858 0.16793187544002869 0 -0.22954683425771821 0.18098846993816159 0 -0.2201482718927858 0.16793187544002869 0 -0.21823651757488549 0.190213760930315 0 -0.23754769284823429 0.14816313907670831 0 -0.2201482718927858 0.16793187544002869 0 -0.23754769284823429 0.14816313907670831 0 -0.23958460938146309 0.168642985202096 0 -0.2201482718927858 0.16793187544002869 0 -0.2201482718927858 0.16793187544002869 0 -0.20316840500442249 0.16274295726425611 0 -0.21805586281382061 0.14497242229466839 0 -0.2201482718927858 0.16793187544002869 0 -0.20274885093733741 0.18770061180334921 0 -0.2201482718927858 0.16793187544002869 0 -0.21823651757488549 0.190213760930315 0 -0.20274885093733741 0.18770061180334921 0 -0.2201482718927858 0.16793187544002869 0 -0.20316840500442249 0.16274295726425611 0 -0.20274885093733741 0.18770061180334921 0 -0.1886841114381213 0.17572465594980349 0 -0.20274885093733741 0.18770061180334921 0 -0.17531934345178271 0.19141107458879861 0 -0.20316840500442249 0.16274295726425611 0 -0.1886841114381213 0.17572465594980349 0 -0.20274885093733741 0.18770061180334921 0 -0.20316840500442249 0.16274295726425611 0 -0.1886841114381213 0.17572465594980349 0 -0.18614854293598981 0.15843503903172321 0 -0.20316840500442249 0.16274295726425611 0 -0.20178908381656219 0.14105194916427011 0 -0.18614854293598981 0.15843503903172321 0 -0.20178908381656219 0.14105194916427011 0 -0.18465887640477879 0.13870465279391259 0 -0.18614854293598981 0.15843503903172321 0 -0.19179774646144979 0.1235944218577702 0 -0.21188025659843479 0.1237177290901891 0 -0.20178908381656219 0.14105194916427011 0 -0.19179774646144979 0.1235944218577702 0 -0.20178908381656219 0.14105194916427011 0 -0.18465887640477879 0.13870465279391259 0 -0.21188025659843479 0.1237177290901891 0 -0.20178908381656219 0.14105194916427011 0 -0.21805586281382061 0.14497242229466839 0 -0.20316840500442249 0.16274295726425611 0 -0.20178908381656219 0.14105194916427011 0 -0.21805586281382061 0.14497242229466839 0 -0.22350158013644669 0.2468443572853817 0 -0.2390614624478315 0.23807488942336399 0 -0.22424244897544399 0.23065146470288569 0 -0.25372148055682298 0.2363534567957731 0 -0.24675645702699089 0.25399726726106192 0 -0.2390614624478315 0.23807488942336399 0 -0.24675645702699089 0.25399726726106192 0 -0.22350158013644669 0.2468443572853817 0 -0.2390614624478315 0.23807488942336399 0 -0.2390614624478315 0.23807488942336399 0 -0.24447038810111171 0.22277122801583349 0 -0.22424244897544399 0.23065146470288569 0 -0.25372148055682298 0.2363534567957731 0 -0.2390614624478315 0.23807488942336399 0 -0.24447038810111171 0.22277122801583349 0 -0.24447038810111171 0.22277122801583349 0 -0.22424244897544399 0.23065146470288569 0 -0.22642220449334649 0.21748361554608539 0 -0.22642220449334649 0.21748361554608539 0 -0.22114918971078301 0.20549672327679491 0 -0.23866270597196659 0.20959435012807401 0 -0.22114918971078301 0.20549672327679491 0 -0.23866270597196659 0.20959435012807401 0 -0.23632007149332471 0.2020163466802305 0 -0.24447038810111171 0.22277122801583349 0 -0.22642220449334649 0.21748361554608539 0 -0.23866270597196659 0.20959435012807401 0 -0.25375785058870259 0.21094513634754961 0 -0.24447038810111171 0.22277122801583349 0 -0.23866270597196659 0.20959435012807401 0 -0.25375785058870259 0.21094513634754961 0 -0.23866270597196659 0.20959435012807401 0 -0.2467563005764106 0.20088517836930231 0 -0.23866270597196659 0.20959435012807401 0 -0.23632007149332471 0.2020163466802305 0 -0.2467563005764106 0.20088517836930231 0 -0.23632007149332471 0.2020163466802305 0 -0.2467563005764106 0.20088517836930231 0 -0.23871208971413871 0.19208913494675101 0 -0.25234029760969873 0.19220263911668689 0 -0.25627498971749429 0.1786815466167071 0 -0.23871208971413871 0.19208913494675101 0 -0.25234029760969873 0.19220263911668689 0 -0.2467563005764106 0.20088517836930231 0 -0.23871208971413871 0.19208913494675101 0 -0.24323520842606891 0.18723556704161359 0 -0.23019542713464339 0.19578958746652031 0 -0.24323520842606891 0.18723556704161359 0 -0.2353915145106083 0.1860889126304133 0 -0.23019542713464339 0.19578958746652031 0 -0.24323520842606891 0.18723556704161359 0 -0.23871208971413871 0.19208913494675101 0 -0.23019542713464339 0.19578958746652031 0 -0.2353915145106083 0.1860889126304133 0 -0.22954683425771821 0.18098846993816159 0 -0.23019542713464339 0.19578958746652031 0 -0.22114918971078301 0.20549672327679491 0 -0.23632007149332471 0.2020163466802305 0 -0.23871208971413871 0.19208913494675101 0 -0.22114918971078301 0.20549672327679491 0 -0.23871208971413871 0.19208913494675101 0 -0.22114918971078301 0.20549672327679491 0 -0.23871208971413871 0.19208913494675101 0 -0.23019542713464339 0.19578958746652031 0 -0.22114918971078301 0.20549672327679491 0 -0.23019542713464339 0.19578958746652031 0 -0.21823651757488549 0.190213760930315 0 -0.22954683425771821 0.18098846993816159 0 -0.23019542713464339 0.19578958746652031 0 -0.21823651757488549 0.190213760930315 0 -0.21823651757488549 0.190213760930315 0 -0.20274885093733741 0.18770061180334921 0 -0.20563053151604521 0.2033752976570356 0 -0.22114918971078301 0.20549672327679491 0 -0.21823651757488549 0.190213760930315 0 -0.20563053151604521 0.2033752976570356 0 -0.20274885093733741 0.18770061180334921 0 -0.20563053151604521 0.2033752976570356 0 -0.18534942998188891 0.20746934816666959 0 -0.20274885093733741 0.18770061180334921 0 -0.18534942998188891 0.20746934816666959 0 -0.17531934345178271 0.19141107458879861 0 -0.20274885093733741 0.18770061180334921 0 -0.18534942998188891 0.20746934816666959 0 -0.20358628970742729 0.21890431160683879 0 -0.18983556073553759 0.22844172246145811 0 -0.18534942998188891 0.20746934816666959 0 -0.20563053151604521 0.2033752976570356 0 -0.20358628970742729 0.21890431160683879 0 -0.18534942998188891 0.20746934816666959 0 -0.22114918971078301 0.20549672327679491 0 -0.20358628970742729 0.21890431160683879 0 -0.22642220449334649 0.21748361554608539 0 -0.22114918971078301 0.20549672327679491 0 -0.20358628970742729 0.21890431160683879 0 -0.22114918971078301 0.20549672327679491 0 -0.20563053151604521 0.2033752976570356 0 -0.20358628970742729 0.21890431160683879 0 -0.22424244897544399 0.23065146470288569 0 -0.20358628970742729 0.21890431160683879 0 -0.2056398959351394 0.24011882160832229 0 -0.22424244897544399 0.23065146470288569 0 -0.22642220449334649 0.21748361554608539 0 -0.20358628970742729 0.21890431160683879 0 -0.20358628970742729 0.21890431160683879 0 -0.18983556073553759 0.22844172246145811 0 -0.2056398959351394 0.24011882160832229 0 -0.18983556073553759 0.22844172246145811 0 -0.2056398959351394 0.24011882160832229 0 -0.1866521790267919 0.24847804639547 0 -0.2033178425377849 0.25722930189683968 0 -0.2056398959351394 0.24011882160832229 0 -0.1866521790267919 0.24847804639547 0 -0.22350158013644669 0.2468443572853817 0 -0.22424244897544399 0.23065146470288569 0 -0.2056398959351394 0.24011882160832229 0 -0.2033178425377849 0.25722930189683968 0 -0.22350158013644669 0.2468443572853817 0 -0.2056398959351394 0.24011882160832229 0 -0.1679500090264405 0.22723808452999009 0 -0.150550588070992 0.24700682089331061 0 -0.1694090089919669 0.25791096269133279 0 -0.1679500090264405 0.22723808452999009 0 -0.150550588070992 0.24700682089331061 0 -0.18983556073553759 0.22844172246145811 0 -0.1866521790267919 0.24847804639547 0 -0.1679500090264405 0.22723808452999009 0 -0.1694090089919669 0.25791096269133279 0 -0.1866521790267919 0.24847804639547 0 -0.1679500090264405 0.22723808452999009 0 -0.18983556073553759 0.22844172246145811 0 -0.1679500090264405 0.22723808452999009 0 -0.18534942998188891 0.20746934816666959 0 -0.1679500090264405 0.22723808452999009 0 -0.15811193024032191 0.20354831187904979 0 -0.1499434360741897 0.21656986061272629 0 -0.1679500090264405 0.22723808452999009 0 -0.15811193024032191 0.20354831187904979 0 -0.18534942998188891 0.20746934816666959 0 -0.1679500090264405 0.22723808452999009 0 -0.18534942998188891 0.20746934816666959 0 -0.15811193024032191 0.20354831187904979 0 -0.18534942998188891 0.20746934816666959 0 -0.17531934345178271 0.19141107458879861 0 -0.15811193024032191 0.20354831187904979 0 -0.17531934345178271 0.19141107458879861 0 -0.15667033084477691 0.17731134481991709 0 -0.15811193024032191 0.20354831187904979 0 -0.1370896723961435 0.201290623009825 0 -0.14272268597897761 0.1859582315676728 0 -0.15811193024032191 0.20354831187904979 0 -0.15667033084477691 0.17731134481991709 0 -0.14272268597897761 0.1859582315676728 0 -0.1370896723961435 0.201290623009825 0 -0.1219882075283235 0.21065264548679299 0 -0.12123895511621639 0.19585144336652541 0 -0.1370896723961435 0.201290623009825 0 -0.12790697029812451 0.18436541220659369 0 -0.12123895511621639 0.19585144336652541 0 -0.1370896723961435 0.201290623009825 0 -0.14272268597897761 0.1859582315676728 0 -0.12790697029812451 0.18436541220659369 0 -0.13576000625219539 0.21620026175383061 0 -0.12752593174441171 0.22791220003387899 0 -0.1219882075283235 0.21065264548679299 0 -0.1370896723961435 0.201290623009825 0 -0.13576000625219539 0.21620026175383061 0 -0.1219882075283235 0.21065264548679299 0 -0.1370896723961435 0.201290623009825 0 -0.13576000625219539 0.21620026175383061 0 -0.1499434360741897 0.21656986061272629 0 -0.15811193024032191 0.20354831187904979 0 -0.1370896723961435 0.201290623009825 0 -0.1499434360741897 0.21656986061272629 0 -0.1679500090264405 0.22723808452999009 0 -0.1499434360741897 0.21656986061272629 0 -0.1452295141509122 0.23028152551706199 0 -0.13576000625219539 0.21620026175383061 0 -0.1499434360741897 0.21656986061272629 0 -0.1452295141509122 0.23028152551706199 0 -0.1452295141509122 0.23028152551706199 0 -0.12752593174441171 0.22791220003387899 0 -0.13272396150337701 0.2427364171614633 0 -0.13576000625219539 0.21620026175383061 0 -0.1452295141509122 0.23028152551706199 0 -0.12752593174441171 0.22791220003387899 0 -0.1317012652150161 0.25416495372779552 0 -0.13272396150337701 0.2427364171614633 0 -0.150550588070992 0.24700682089331061 0 -0.12752593174441171 0.22791220003387899 0 -0.13272396150337701 0.2427364171614633 0 -0.1226979897463257 0.24044747113152229 0 -0.1317012652150161 0.25416495372779552 0 -0.13272396150337701 0.2427364171614633 0 -0.1232625236053408 0.24853921462601669 0 -0.13272396150337701 0.2427364171614633 0 -0.1232625236053408 0.24853921462601669 0 -0.1226979897463257 0.24044747113152229 0 -0.1452295141509122 0.23028152551706199 0 -0.13272396150337701 0.2427364171614633 0 -0.150550588070992 0.24700682089331061 0 -0.1679500090264405 0.22723808452999009 0 -0.1452295141509122 0.23028152551706199 0 -0.150550588070992 0.24700682089331061 0 -0.16958766732025801 0.1458120961199767 0 -0.16454117559069251 0.16171667010012189 0 -0.15457942862987939 0.1457954792142554 0 -0.16958766732025801 0.1458120961199767 0 -0.15735697872618509 0.13062382892801719 0 -0.15457942862987939 0.1457954792142554 0 -0.17397134148963431 0.12462975779582269 0 -0.16958766732025801 0.1458120961199767 0 -0.15735697872618509 0.13062382892801719 0 -0.17397134148963431 0.12462975779582269 0 -0.16958766732025801 0.1458120961199767 0 -0.18465887640477879 0.13870465279391259 0 -0.17397134148963431 0.12462975779582269 0 -0.19179774646144979 0.1235944218577702 0 -0.18465887640477879 0.13870465279391259 0 -0.16958766732025801 0.1458120961199767 0 -0.18614854293598981 0.15843503903172321 0 -0.16454117559069251 0.16171667010012189 0 -0.16958766732025801 0.1458120961199767 0 -0.18465887640477879 0.13870465279391259 0 -0.18614854293598981 0.15843503903172321 0 -0.1886841114381213 0.17572465594980349 0 -0.18614854293598981 0.15843503903172321 0 -0.17316400247723851 0.17705121725750331 0 -0.18614854293598981 0.15843503903172321 0 -0.17316400247723851 0.17705121725750331 0 -0.16454117559069251 0.16171667010012189 0 -0.1886841114381213 0.17572465594980349 0 -0.17531934345178271 0.19141107458879861 0 -0.17316400247723851 0.17705121725750331 0 -0.17531934345178271 0.19141107458879861 0 -0.17316400247723851 0.17705121725750331 0 -0.15667033084477691 0.17731134481991709 0 -0.17316400247723851 0.17705121725750331 0 -0.15667033084477691 0.17731134481991709 0 -0.16454117559069251 0.16171667010012189 0 -0.15667033084477691 0.17731134481991709 0 -0.14647597416735919 0.1587528438891565 0 -0.13395707283631431 0.17181797860576931 0 -0.15667033084477691 0.17731134481991709 0 -0.16454117559069251 0.16171667010012189 0 -0.14647597416735919 0.1587528438891565 0 -0.15667033084477691 0.17731134481991709 0 -0.14272268597897761 0.1859582315676728 0 -0.13395707283631431 0.17181797860576931 0 -0.14272268597897761 0.1859582315676728 0 -0.12790697029812451 0.18436541220659369 0 -0.13395707283631431 0.17181797860576931 0 -0.12790697029812451 0.18436541220659369 0 -0.13395707283631431 0.17181797860576931 0 -0.1187576986531408 0.17386147679856651 0 -0.13395707283631431 0.17181797860576931 0 -0.12644198353160879 0.1559786754937352 0 -0.1187576986531408 0.17386147679856651 0 -0.14647597416735919 0.1587528438891565 0 -0.13395707283631431 0.17181797860576931 0 -0.12644198353160879 0.1559786754937352 0 -0.14647597416735919 0.1587528438891565 0 -0.12644198353160879 0.1559786754937352 0 -0.140636613035305 0.13919053548675461 0 -0.12644198353160879 0.1559786754937352 0 -0.140636613035305 0.13919053548675461 0 -0.1229704561755873 0.13827883963994619 0 -0.14647597416735919 0.1587528438891565 0 -0.15457942862987939 0.1457954792142554 0 -0.140636613035305 0.13919053548675461 0 -0.16454117559069251 0.16171667010012189 0 -0.14647597416735919 0.1587528438891565 0 -0.15457942862987939 0.1457954792142554 0 -0.14633277342444531 0.1221952958090278 0 -0.15735697872618509 0.13062382892801719 0 -0.140636613035305 0.13919053548675461 0 -0.15735697872618509 0.13062382892801719 0 -0.15457942862987939 0.1457954792142554 0 -0.140636613035305 0.13919053548675461 0 -0.14633277342444531 0.1221952958090278 0 -0.13009606967495049 0.1238355021899642 0 -0.140636613035305 0.13919053548675461 0 -0.13009606967495049 0.1238355021899642 0 -0.140636613035305 0.13919053548675461 0 -0.1229704561755873 0.13827883963994619 0 -0.13009606967495049 0.1238355021899642 0 -0.1229704561755873 0.13827883963994619 0 -0.1090673858280324 0.1288198840973056 0 -0.1229704561755873 0.13827883963994619 0 -0.1090673858280324 0.1288198840973056 0 -0.1115389595311375 0.14876964300359621 0 -0.1090673858280324 0.1288198840973056 0 -0.097402311338091338 0.13757522288067081 0 -0.1115389595311375 0.14876964300359621 0 -0.1090673858280324 0.1288198840973056 0 -0.097402311338091338 0.13757522288067081 0 -0.096307739561562244 0.120888893289076 0 -0.097402311338091338 0.13757522288067081 0 -0.100430617281294 0.1545506404482801 0 -0.1115389595311375 0.14876964300359621 0 -0.097402311338091338 0.13757522288067081 0 -0.100430617281294 0.1545506404482801 0 -0.088455632617627455 0.14803730396418871 0 -0.097402311338091338 0.13757522288067081 0 -0.1115389595311375 0.14876964300359621 0 -0.100430617281294 0.1545506404482801 0 -0.1115389595311375 0.14876964300359621 0 -0.11123539150748089 0.16170411178787919 0 -0.12644198353160879 0.1559786754937352 0 -0.1115389595311375 0.14876964300359621 0 -0.11123539150748089 0.16170411178787919 0 -0.12644198353160879 0.1559786754937352 0 -0.1229704561755873 0.13827883963994619 0 -0.1115389595311375 0.14876964300359621 0 -0.11123539150748089 0.16170411178787919 0 -0.1187576986531408 0.17386147679856651 0 -0.099971170065981121 0.17114698343187301 0 -0.12644198353160879 0.1559786754937352 0 -0.11123539150748089 0.16170411178787919 0 -0.1187576986531408 0.17386147679856651 0 -0.1187576986531408 0.17386147679856651 0 -0.11027142009948949 0.18367710173052701 0 -0.099971170065981121 0.17114698343187301 0 -0.12790697029812451 0.18436541220659369 0 -0.1187576986531408 0.17386147679856651 0 -0.11027142009948949 0.18367710173052701 0 -0.11027142009948949 0.18367710173052701 0 -0.095282363949720103 0.18529034280829479 0 -0.099971170065981121 0.17114698343187301 0 -0.095282363949720103 0.18529034280829479 0 -0.099971170065981121 0.17114698343187301 0 -0.08701456204554478 0.18024241301958549 0 -0.100430617281294 0.1545506404482801 0 -0.11123539150748089 0.16170411178787919 0 -0.099971170065981121 0.17114698343187301 0 -0.100430617281294 0.1545506404482801 0 -0.099971170065981121 0.17114698343187301 0 -0.090533694940517134 0.16021221234059799 0 -0.099971170065981121 0.17114698343187301 0 -0.090533694940517134 0.16021221234059799 0 -0.087490352360133153 0.16970532152846021 0 -0.090533694940517134 0.16021221234059799 0 -0.087490352360133153 0.16970532152846021 0 -0.082042968152113219 0.163430415223797 0 -0.087490352360133153 0.16970532152846021 0 -0.082042968152113219 0.163430415223797 0 -0.079482543311538076 0.1744457790622215 0 -0.082042968152113219 0.163430415223797 0 -0.079482543311538076 0.1744457790622215 0 -0.076650723091055348 0.16282406744195241 0 -0.082042968152113219 0.163430415223797 0 -0.077174596296806314 0.15762790334186941 0 -0.076650723091055348 0.16282406744195241 0 -0.090533694940517134 0.16021221234059799 0 -0.082042968152113219 0.163430415223797 0 -0.083122022833042805 0.15595099275768301 0 -0.082042968152113219 0.163430415223797 0 -0.077174596296806314 0.15762790334186941 0 -0.083122022833042805 0.15595099275768301 0 -0.095282363949720103 0.18529034280829479 0 -0.08701456204554478 0.18024241301958549 0 -0.085764209787612511 0.18748814020945581 0 -0.099971170065981121 0.17114698343187301 0 -0.087490352360133153 0.16970532152846021 0 -0.08701456204554478 0.18024241301958549 0 -0.087490352360133153 0.16970532152846021 0 -0.08701456204554478 0.18024241301958549 0 -0.079482543311538076 0.1744457790622215 0 -0.08701456204554478 0.18024241301958549 0 -0.079482543311538076 0.1744457790622215 0 -0.081741604726149858 0.18082546056719259 0 -0.079482543311538076 0.1744457790622215 0 -0.081741604726149858 0.18082546056719259 0 -0.077989346159935663 0.18446038263562781 0 -0.08701456204554478 0.18024241301958549 0 -0.081741604726149858 0.18082546056719259 0 -0.082598569288508616 0.18419125853865931 0 -0.081741604726149858 0.18082546056719259 0 -0.082598569288508616 0.18419125853865931 0 -0.077989346159935663 0.18446038263562781 0 -0.082220344453638988 0.1871164776574876 0 -0.082598569288508616 0.18419125853865931 0 -0.077989346159935663 0.18446038263562781 0 -0.08701456204554478 0.18024241301958549 0 -0.082598569288508616 0.18419125853865931 0 -0.085764209787612511 0.18748814020945581 0 -0.082220344453638988 0.1871164776574876 0 -0.082598569288508616 0.18419125853865931 0 -0.085764209787612511 0.18748814020945581 0 -0.079482543311538076 0.1744457790622215 0 -0.077989346159935663 0.18446038263562781 0 -0.070679808350145756 0.15960948453948359 0 -0.076433748964694348 0.18649262423694801 0 -0.068516011144150235 0.1612092377800883 0 -0.077989346159935663 0.18446038263562781 0 -0.076433748964694348 0.18649262423694801 0 -0.068516011144150235 0.1612092377800883 0 -0.076433748964694348 0.18649262423694801 0 -0.067725562218602819 0.17387934409604139 0 -0.068516011144150235 0.1612092377800883 0 -0.077989346159935663 0.18446038263562781 0 -0.070679808350145756 0.15960948453948359 0 -0.076433748964694348 0.18649262423694801 0 -0.067725562218602819 0.17387934409604139 0 -0.069903065650060339 0.18133598050219971 0 -0.076433748964694348 0.18649262423694801 0 -0.069903065650060339 0.18133598050219971 0 -0.069980173451050287 0.18726236636549309 0 -0.067725562218602819 0.17387934409604139 0 -0.063602744440867998 0.17923032727614191 0 -0.062050729728128952 0.16886502709224649 0 -0.067725562218602819 0.17387934409604139 0 -0.063602744440867998 0.17923032727614191 0 -0.069903065650060339 0.18133598050219971 0 -0.063602744440867998 0.17923032727614191 0 -0.069980173451050287 0.18726236636549309 0 -0.064003588936050931 0.18968846756894359 0 -0.063602744440867998 0.17923032727614191 0 -0.069903065650060339 0.18133598050219971 0 -0.069980173451050287 0.18726236636549309 0 -0.077989346159935663 0.18446038263562781 0 -0.070679808350145756 0.15960948453948359 0 -0.068516011144150235 0.1612092377800883 0 -0.073990476433159175 0.15865196403268689 0 -0.070679808350145756 0.15960948453948359 0 -0.076650723091055348 0.16282406744195241 0 -0.073990476433159175 0.15865196403268689 0 -0.070679808350145756 0.15960948453948359 0 -0.072271414963906558 0.15207137872375201 0 -0.073990476433159175 0.15865196403268689 0 -0.077174596296806314 0.15762790334186941 0 -0.076650723091055348 0.16282406744195241 0 -0.079482543311538076 0.1744457790622215 0 -0.070679808350145756 0.15960948453948359 0 -0.076650723091055348 0.16282406744195241 0 -0.067725562218602819 0.17387934409604139 0 -0.065847073383715177 0.16614286768862399 0 -0.068516011144150235 0.1612092377800883 0 -0.067725562218602819 0.17387934409604139 0 -0.065847073383715177 0.16614286768862399 0 -0.062050729728128952 0.16886502709224649 0 -0.065847073383715177 0.16614286768862399 0 -0.063225956918952789 0.16213860175194569 0 -0.062050729728128952 0.16886502709224649 0 -0.065847073383715177 0.16614286768862399 0 -0.063225956918952789 0.16213860175194569 0 -0.068516011144150235 0.1612092377800883 0 -0.063225956918952789 0.16213860175194569 0 -0.068516011144150235 0.1612092377800883 0 -0.062400429241329179 0.15458841062965159 0 -0.070679808350145756 0.15960948453948359 0 -0.063370270540356072 0.13475858644333941 0 -0.070679808350145756 0.15960948453948359 0 -0.063370270540356072 0.13475858644333941 0 -0.060598273323606032 0.13592585132322871 0 -0.076258700287550663 0.14935416425167591 0 -0.063370270540356072 0.13475858644333941 0 -0.079664487657199426 0.14175658111867981 0 -0.068516011144150235 0.1612092377800883 0 -0.060598273323606032 0.13592585132322871 0 -0.062400429241329179 0.15458841062965159 0 -0.070679808350145756 0.15960948453948359 0 -0.068516011144150235 0.1612092377800883 0 -0.060598273323606032 0.13592585132322871 0 -0.068516011144150235 0.1612092377800883 0 -0.060598273323606032 0.13592585132322871 0 -0.072271414963906558 0.15207137872375201 0 -0.076258700287550663 0.14935416425167591 0 -0.063370270540356072 0.13475858644333941 0 -0.070679808350145756 0.15960948453948359 0 -0.072271414963906558 0.15207137872375201 0 -0.063370270540356072 0.13475858644333941 0 -0.077174596296806314 0.15762790334186941 0 -0.072271414963906558 0.15207137872375201 0 -0.076258700287550663 0.14935416425167591 0 -0.073990476433159175 0.15865196403268689 0 -0.077174596296806314 0.15762790334186941 0 -0.072271414963906558 0.15207137872375201 0 -0.063370270540356072 0.13475858644333941 0 -0.083265663145045174 0.12638080275774549 0 -0.063370270540356072 0.13475858644333941 0 -0.083265663145045174 0.12638080275774549 0 -0.079664487657199426 0.14175658111867981 0 -0.063370270540356072 0.13475858644333941 0 -0.058743516360118493 0.1190285909715338 0 -0.067850631176239545 0.1244120478166655 0 -0.063370270540356072 0.13475858644333941 0 -0.083265663145045174 0.12638080275774549 0 -0.067850631176239545 0.1244120478166655 0 -0.097402311338091338 0.13757522288067081 0 -0.083265663145045174 0.12638080275774549 0 -0.096307739561562244 0.120888893289076 0 -0.083265663145045174 0.12638080275774549 0 -0.086745781547844111 0.1364932930926929 0 -0.079664487657199426 0.14175658111867981 0 -0.097402311338091338 0.13757522288067081 0 -0.083265663145045174 0.12638080275774549 0 -0.097402311338091338 0.13757522288067081 0 -0.083265663145045174 0.12638080275774549 0 -0.086745781547844111 0.1364932930926929 0 -0.097402311338091338 0.13757522288067081 0 -0.086745781547844111 0.1364932930926929 0 -0.088455632617627455 0.14803730396418871 0 -0.100430617281294 0.1545506404482801 0 -0.090533694940517134 0.16021221234059799 0 -0.088455632617627455 0.14803730396418871 0 -0.090533694940517134 0.16021221234059799 0 -0.088455632617627455 0.14803730396418871 0 -0.083122022833042805 0.15595099275768301 0 -0.088455632617627455 0.14803730396418871 0 -0.083122022833042805 0.15595099275768301 0 -0.081875210848855087 0.1487747605230568 0 -0.077174596296806314 0.15762790334186941 0 -0.076258700287550663 0.14935416425167591 0 -0.083122022833042805 0.15595099275768301 0 -0.076258700287550663 0.14935416425167591 0 -0.083122022833042805 0.15595099275768301 0 -0.081875210848855087 0.1487747605230568 0 -0.088455632617627455 0.14803730396418871 0 -0.081875210848855087 0.1487747605230568 0 -0.079664487657199426 0.14175658111867981 0 -0.076258700287550663 0.14935416425167591 0 -0.081875210848855087 0.1487747605230568 0 -0.079664487657199426 0.14175658111867981 0 -0.086745781547844111 0.1364932930926929 0 -0.088455632617627455 0.14803730396418871 0 -0.079664487657199426 0.14175658111867981 0 -0.099917959589307853 0.2590130769240595 0 -0.099820627146597007 0.24511423703633151 0 -0.092608421779515449 0.23416217882791601 0 -0.099917959589307853 0.2590130769240595 0 -0.092269224605782685 0.23705939715066751 0 -0.091262254643508678 0.24596182570723521 0 -0.099917959589307853 0.2590130769240595 0 -0.092608421779515449 0.23416217882791601 0 -0.099917959589307853 0.2590130769240595 0 -0.092608421779515449 0.23416217882791601 0 -0.092269224605782685 0.23705939715066751 0 -0.099820627146597007 0.24511423703633151 0 -0.099277065161340938 0.2390478847817574 0 -0.092608421779515449 0.23416217882791601 0 -0.098835954203145976 0.2349369908700292 0 -0.099277065161340938 0.2390478847817574 0 -0.092608421779515449 0.23416217882791601 0 -0.098835954203145976 0.2349369908700292 0 -0.099277065161340938 0.2390478847817574 0 -0.1039329361980763 0.2380307957403304 0 -0.099820627146597007 0.24511423703633151 0 -0.099277065161340938 0.2390478847817574 0 -0.1024229510946538 0.2421276923294082 0 -0.099277065161340938 0.2390478847817574 0 -0.1024229510946538 0.2421276923294082 0 -0.1039329361980763 0.2380307957403304 0 -0.1039329361980763 0.2380307957403304 0 -0.1121759039450566 0.23766291539591039 0 -0.10266685170466699 0.23195085257225559 0 -0.1039329361980763 0.2380307957403304 0 -0.10762868703654201 0.24199248082872071 0 -0.1121759039450566 0.23766291539591039 0 -0.1024229510946538 0.2421276923294082 0 -0.1039329361980763 0.2380307957403304 0 -0.10762868703654201 0.24199248082872071 0 -0.098835954203145976 0.2349369908700292 0 -0.1039329361980763 0.2380307957403304 0 -0.10266685170466699 0.23195085257225559 0 -0.1023087813269417 0.25024049297278989 0 -0.10762868703654201 0.24199248082872071 0 -0.10304526165118361 0.2448687257918126 0 -0.1024229510946538 0.2421276923294082 0 -0.10762868703654201 0.24199248082872071 0 -0.10304526165118361 0.2448687257918126 0 -0.099820627146597007 0.24511423703633151 0 -0.1024229510946538 0.2421276923294082 0 -0.10304526165118361 0.2448687257918126 0 -0.1023087813269417 0.25024049297278989 0 -0.099820627146597007 0.24511423703633151 0 -0.10304526165118361 0.2448687257918126 0 -0.12062267394272411 0.26384920168971832 0 -0.10762868703654201 0.24199248082872071 0 -0.1121759039450566 0.23766291539591039 0 -0.1232625236053408 0.24853921462601669 0 -0.1226979897463257 0.24044747113152229 0 -0.1121759039450566 0.23766291539591039 0 -0.1226979897463257 0.24044747113152229 0 -0.1121759039450566 0.23766291539591039 0 -0.1198509984949772 0.23252423672551939 0 -0.12752593174441171 0.22791220003387899 0 -0.1170041685441149 0.22407436034076569 0 -0.1219882075283235 0.21065264548679299 0 -0.1121759039450566 0.23766291539591039 0 -0.1198509984949772 0.23252423672551939 0 -0.1170041685441149 0.22407436034076569 0 -0.1121759039450566 0.23766291539591039 0 -0.1170041685441149 0.22407436034076569 0 -0.1037291339473884 0.2114766291021026 0 -0.12752593174441171 0.22791220003387899 0 -0.1226979897463257 0.24044747113152229 0 -0.1198509984949772 0.23252423672551939 0 -0.12752593174441171 0.22791220003387899 0 -0.1198509984949772 0.23252423672551939 0 -0.1170041685441149 0.22407436034076569 0 -0.1121759039450566 0.23766291539591039 0 -0.1037291339473884 0.2114766291021026 0 -0.10266685170466699 0.23195085257225559 0 -0.096901031826882436 0.2275130239179835 0 -0.1037291339473884 0.2114766291021026 0 -0.096901031826882436 0.2275130239179835 0 -0.095297531566791147 0.21991621012303519 0 -0.1037291339473884 0.2114766291021026 0 -0.1121759039450566 0.23766291539591039 0 -0.10266685170466699 0.23195085257225559 0 -0.1037291339473884 0.2114766291021026 0 -0.096901031826882436 0.2275130239179835 0 -0.095297531566791147 0.21991621012303519 0 -0.092608421779515449 0.23416217882791601 0 -0.098835954203145976 0.2349369908700292 0 -0.10266685170466699 0.23195085257225559 0 -0.097195479810041535 0.23196151422852659 0 -0.10266685170466699 0.23195085257225559 0 -0.097195479810041535 0.23196151422852659 0 -0.096901031826882436 0.2275130239179835 0 -0.097195479810041535 0.23196151422852659 0 -0.096901031826882436 0.2275130239179835 0 -0.092608421779515449 0.23416217882791601 0 -0.098835954203145976 0.2349369908700292 0 -0.097195479810041535 0.23196151422852659 0 -0.092608421779515449 0.23416217882791601 0 -0.095297531566791147 0.21991621012303519 0 -0.1037291339473884 0.2114766291021026 0 -0.093667705408799429 0.21112875717997129 0 -0.1037291339473884 0.2114766291021026 0 -0.091742726417518614 0.20240417783965839 0 -0.093667705408799429 0.21112875717997129 0 -0.1170041685441149 0.22407436034076569 0 -0.1037291339473884 0.2114766291021026 0 -0.1219882075283235 0.21065264548679299 0 -0.1037291339473884 0.2114766291021026 0 -0.1219882075283235 0.21065264548679299 0 -0.1103610872811534 0.19731168695473639 0 -0.12790697029812451 0.18436541220659369 0 -0.11027142009948949 0.18367710173052701 0 -0.12123895511621639 0.19585144336652541 0 -0.1219882075283235 0.21065264548679299 0 -0.1103610872811534 0.19731168695473639 0 -0.12123895511621639 0.19585144336652541 0 -0.11027142009948949 0.18367710173052701 0 -0.1103610872811534 0.19731168695473639 0 -0.12123895511621639 0.19585144336652541 0 -0.095282363949720103 0.18529034280829479 0 -0.1037291339473884 0.2114766291021026 0 -0.095282363949720103 0.18529034280829479 0 -0.1037291339473884 0.2114766291021026 0 -0.091742726417518614 0.20240417783965839 0 -0.095282363949720103 0.18529034280829479 0 -0.1037291339473884 0.2114766291021026 0 -0.1103610872811534 0.19731168695473639 0 -0.11027142009948949 0.18367710173052701 0 -0.095282363949720103 0.18529034280829479 0 -0.1103610872811534 0.19731168695473639 0 -0.076433748964694348 0.18649262423694801 0 -0.084351486785238516 0.21177601069380769 0 -0.085298883969725556 0.20931128073177191 0 -0.087336342568247488 0.2014498460030775 0 -0.083572644349409642 0.1935987618975567 0 -0.085298883969725556 0.20931128073177191 0 -0.077989346159935663 0.18446038263562781 0 -0.083572644349409642 0.1935987618975567 0 -0.085298883969725556 0.20931128073177191 0 -0.077989346159935663 0.18446038263562781 0 -0.076433748964694348 0.18649262423694801 0 -0.085298883969725556 0.20931128073177191 0 -0.077989346159935663 0.18446038263562781 0 -0.085298883969725556 0.20931128073177191 0 -0.076433748964694348 0.18649262423694801 0 -0.084351486785238516 0.21177601069380769 0 -0.095282363949720103 0.18529034280829479 0 -0.086795989041029808 0.19497679236987689 0 -0.091742726417518614 0.20240417783965839 0 -0.095282363949720103 0.18529034280829479 0 -0.085764209787612511 0.18748814020945581 0 -0.086795989041029808 0.19497679236987689 0 -0.086795989041029808 0.19497679236987689 0 -0.091742726417518614 0.20240417783965839 0 -0.087336342568247488 0.2014498460030775 0 -0.086795989041029808 0.19497679236987689 0 -0.087336342568247488 0.2014498460030775 0 -0.083572644349409642 0.1935987618975567 0 -0.082220344453638988 0.1871164776574876 0 -0.077989346159935663 0.18446038263562781 0 -0.083572644349409642 0.1935987618975567 0 -0.085764209787612511 0.18748814020945581 0 -0.086795989041029808 0.19497679236987689 0 -0.083572644349409642 0.1935987618975567 0 -0.082220344453638988 0.1871164776574876 0 -0.085764209787612511 0.18748814020945581 0 -0.083572644349409642 0.1935987618975567 0 -0.076433748964694348 0.18649262423694801 0 -0.072325889333298657 0.19687812829208051 0 -0.084351486785238516 0.21177601069380769 0 -0.076433748964694348 0.18649262423694801 0 -0.069980173451050287 0.18726236636549309 0 -0.072325889333298657 0.19687812829208051 0 -0.064003588936050931 0.18968846756894359 0 -0.063875240502870884 0.19912035825257551 0 -0.072325889333298657 0.19687812829208051 0 -0.069980173451050287 0.18726236636549309 0 -0.064003588936050931 0.18968846756894359 0 -0.072325889333298657 0.19687812829208051 0 -0.063875240502870884 0.19912035825257551 0 -0.070469961516000393 0.20282712852645851 0 -0.072325889333298657 0.19687812829208051 0 -0.070469961516000393 0.20282712852645851 0 -0.072325889333298657 0.19687812829208051 0 -0.076027648815642446 0.2077483582164025 0 -0.076027648815642446 0.2077483582164025 0 -0.068171644274729853 0.2086981166711192 0 -0.075082495859128351 0.21288894809171391 0 -0.070469961516000393 0.20282712852645851 0 -0.076027648815642446 0.2077483582164025 0 -0.068171644274729853 0.2086981166711192 0 -0.072325889333298657 0.19687812829208051 0 -0.076027648815642446 0.2077483582164025 0 -0.084351486785238516 0.21177601069380769 0 -0.063875240502870884 0.19912035825257551 0 -0.068171644274729853 0.2086981166711192 0 -0.056588709159352477 0.20658874247430539 0 -0.063875240502870884 0.19912035825257551 0 -0.070469961516000393 0.20282712852645851 0 -0.068171644274729853 0.2086981166711192 0 -0.070790439047921039 0.21622914574555729 0 -0.064463590078112712 0.2230147750540461 0 -0.062233323222130751 0.21444783579387841 0 -0.068171644274729853 0.2086981166711192 0 -0.070790439047921039 0.21622914574555729 0 -0.062233323222130751 0.21444783579387841 0 -0.068171644274729853 0.2086981166711192 0 -0.070790439047921039 0.21622914574555729 0 -0.075082495859128351 0.21288894809171391 0 -0.076027648815642446 0.2077483582164025 0 -0.075082495859128351 0.21288894809171391 0 -0.078937225567243696 0.21290549375182319 0 -0.075082495859128351 0.21288894809171391 0 -0.077604124446332995 0.21639676558722401 0 -0.078937225567243696 0.21290549375182319 0 -0.070790439047921039 0.21622914574555729 0 -0.075082495859128351 0.21288894809171391 0 -0.077604124446332995 0.21639676558722401 0 -0.070790439047921039 0.21622914574555729 0 -0.077604124446332995 0.21639676558722401 0 -0.074332580727591357 0.2223927287795095 0 -0.083682299983073291 0.21858286286678619 0 -0.084351486785238516 0.21177601069380769 0 -0.086663807495995004 0.2243671814662386 0 -0.084351486785238516 0.21177601069380769 0 -0.085298883969725556 0.20931128073177191 0 -0.092608421779515449 0.23416217882791601 0 -0.081347188009284144 0.21554376141726209 0 -0.083682299983073291 0.21858286286678619 0 -0.079988678981813457 0.21995124358411719 0 -0.077604124446332995 0.21639676558722401 0 -0.081347188009284144 0.21554376141726209 0 -0.079988678981813457 0.21995124358411719 0 -0.077604124446332995 0.21639676558722401 0 -0.081347188009284144 0.21554376141726209 0 -0.078937225567243696 0.21290549375182319 0 -0.081347188009284144 0.21554376141726209 0 -0.083682299983073291 0.21858286286678619 0 -0.084351486785238516 0.21177601069380769 0 -0.081347188009284144 0.21554376141726209 0 -0.084351486785238516 0.21177601069380769 0 -0.078937225567243696 0.21290549375182319 0 -0.076027648815642446 0.2077483582164025 0 -0.084351486785238516 0.21177601069380769 0 -0.078937225567243696 0.21290549375182319 0 -0.087336342568247488 0.2014498460030775 0 -0.085298883969725556 0.20931128073177191 0 -0.089271469063553752 0.2069582171765233 0 -0.085298883969725556 0.20931128073177191 0 -0.089776796587024657 0.21065305398685599 0 -0.089271469063553752 0.2069582171765233 0 -0.091742726417518614 0.20240417783965839 0 -0.089271469063553752 0.2069582171765233 0 -0.093667705408799429 0.21112875717997129 0 -0.091742726417518614 0.20240417783965839 0 -0.087336342568247488 0.2014498460030775 0 -0.089271469063553752 0.2069582171765233 0 -0.089776796587024657 0.21065305398685599 0 -0.089271469063553752 0.2069582171765233 0 -0.093667705408799429 0.21112875717997129 0 -0.095297531566791147 0.21991621012303519 0 -0.093667705408799429 0.21112875717997129 0 -0.091329867862371239 0.2170342961699101 0 -0.089776796587024657 0.21065305398685599 0 -0.093667705408799429 0.21112875717997129 0 -0.091329867862371239 0.2170342961699101 0 -0.085298883969725556 0.20931128073177191 0 -0.089776796587024657 0.21065305398685599 0 -0.091329867862371239 0.2170342961699101 0 -0.084351486785238516 0.21177601069380769 0 -0.092608421779515449 0.23416217882791601 0 -0.092269224605782685 0.23705939715066751 0 -0.084351486785238516 0.21177601069380769 0 -0.092269224605782685 0.23705939715066751 0 -0.085298883969725556 0.20931128073177191 0 -0.091329867862371239 0.2170342961699101 0 -0.092608421779515449 0.23416217882791601 0 -0.084351486785238516 0.21177601069380769 0 -0.086663807495995004 0.2243671814662386 0 -0.092269224605782685 0.23705939715066751 0 -0.085298883969725556 0.20931128073177191 0 -0.092608421779515449 0.23416217882791601 0 -0.095297531566791147 0.21991621012303519 0 -0.091329867862371239 0.2170342961699101 0 -0.092608421779515449 0.23416217882791601 0 -0.086663807495995004 0.2243671814662386 0 -0.087714924347925508 0.232428855288208 0 -0.092269224605782685 0.23705939715066751 0 -0.086663807495995004 0.2243671814662386 0 -0.087714924347925508 0.232428855288208 0 -0.08524191592239215 0.231569317462339 0 -0.087714924347925508 0.232428855288208 0 -0.08524191592239215 0.231569317462339 0 -0.086684749367532177 0.23671952507358701 0 -0.086663807495995004 0.2243671814662386 0 -0.082141502988561918 0.22803480990062289 0 -0.08524191592239215 0.231569317462339 0 -0.082141502988561918 0.22803480990062289 0 -0.077126657981185676 0.22904156529204969 0 -0.080191077515862796 0.2361213099144284 0 -0.082141502988561918 0.22803480990062289 0 -0.08524191592239215 0.231569317462339 0 -0.080191077515862796 0.2361213099144284 0 -0.082141502988561918 0.22803480990062289 0 -0.079929312216639126 0.2241401133356242 0 -0.077126657981185676 0.22904156529204969 0 -0.082141502988561918 0.22803480990062289 0 -0.079929312216639126 0.2241401133356242 0 -0.083036568507959874 0.22265122951829769 0 -0.086663807495995004 0.2243671814662386 0 -0.082141502988561918 0.22803480990062289 0 -0.083036568507959874 0.22265122951829769 0 -0.083682299983073291 0.21858286286678619 0 -0.086663807495995004 0.2243671814662386 0 -0.083036568507959874 0.22265122951829769 0 -0.083682299983073291 0.21858286286678619 0 -0.083036568507959874 0.22265122951829769 0 -0.079988678981813457 0.21995124358411719 0 -0.079929312216639126 0.2241401133356242 0 -0.083036568507959874 0.22265122951829769 0 -0.079988678981813457 0.21995124358411719 0 -0.077604124446332995 0.21639676558722401 0 -0.079988678981813457 0.21995124358411719 0 -0.074332580727591357 0.2223927287795095 0 -0.079929312216639126 0.2241401133356242 0 -0.079988678981813457 0.21995124358411719 0 -0.074332580727591357 0.2223927287795095 0 -0.079929312216639126 0.2241401133356242 0 -0.074332580727591357 0.2223927287795095 0 -0.077126657981185676 0.22904156529204969 0 -0.074332580727591357 0.2223927287795095 0 -0.064463590078112712 0.2230147750540461 0 -0.069575203511157743 0.23028479863586751 0 -0.070790439047921039 0.21622914574555729 0 -0.074332580727591357 0.2223927287795095 0 -0.064463590078112712 0.2230147750540461 0 -0.064463590078112712 0.2230147750540461 0 -0.069575203511157743 0.23028479863586751 0 -0.057256562358135067 0.23536478918372769 0 -0.074332580727591357 0.2223927287795095 0 -0.069575203511157743 0.23028479863586751 0 -0.077126657981185676 0.22904156529204969 0 -0.069575203511157743 0.23028479863586751 0 -0.077126657981185676 0.22904156529204969 0 -0.080191077515862796 0.2361213099144284 0 -0.077087582898390183 0.2536804484105869 0 -0.054257206207472278 0.2483478198971156 0 -0.057256562358135067 0.23536478918372769 0 -0.077087582898390183 0.2536804484105869 0 -0.069575203511157743 0.23028479863586751 0 -0.057256562358135067 0.23536478918372769 0 -0.077087582898390183 0.2536804484105869 0 -0.069575203511157743 0.23028479863586751 0 -0.080191077515862796 0.2361213099144284 0 -0.077087582898390183 0.2536804484105869 0 -0.085729170571126445 0.24339645883411451 0 -0.080191077515862796 0.2361213099144284 0 -0.077087582898390183 0.2536804484105869 0 -0.085729170571126445 0.24339645883411451 0 -0.088804565458394977 0.2498057010606696 0 -0.08524191592239215 0.231569317462339 0 -0.080191077515862796 0.2361213099144284 0 -0.086684749367532177 0.23671952507358701 0 -0.085729170571126445 0.24339645883411451 0 -0.080191077515862796 0.2361213099144284 0 -0.086684749367532177 0.23671952507358701 0 -0.085729170571126445 0.24339645883411451 0 -0.088986349796987496 0.240784301691401 0 -0.086684749367532177 0.23671952507358701 0 -0.088986349796987496 0.240784301691401 0 -0.092269224605782685 0.23705939715066751 0 -0.091262254643508678 0.24596182570723521 0 -0.088986349796987496 0.240784301691401 0 -0.086684749367532177 0.23671952507358701 0 -0.092269224605782685 0.23705939715066751 0 -0.087714924347925508 0.232428855288208 0 -0.086684749367532177 0.23671952507358701 0 -0.092269224605782685 0.23705939715066751 0 -0.085729170571126445 0.24339645883411451 0 -0.091262254643508678 0.24596182570723521 0 -0.088804565458394977 0.2498057010606696 0 -0.085729170571126445 0.24339645883411451 0 -0.088986349796987496 0.240784301691401 0 -0.091262254643508678 0.24596182570723521 0 -0.03142682951655433 0.24301519138364419 0 -0.054257206207472278 0.2483478198971156 0 -0.03142682951655433 0.24301519138364419 0 -0.054257206207472278 0.2483478198971156 0 -0.042070591095913309 0.23170249512959559 0 -0.054257206207472278 0.2483478198971156 0 -0.057256562358135067 0.23536478918372769 0 -0.042070591095913309 0.23170249512959559 0 -0.057256562358135067 0.23536478918372769 0 -0.05297269424679367 0.21980644512293959 0 -0.042070591095913309 0.23170249512959559 0 -0.064463590078112712 0.2230147750540461 0 -0.057256562358135067 0.23536478918372769 0 -0.05297269424679367 0.21980644512293959 0 -0.064463590078112712 0.2230147750540461 0 -0.05297269424679367 0.21980644512293959 0 -0.062233323222130751 0.21444783579387841 0 -0.05297269424679367 0.21980644512293959 0 -0.042070591095913309 0.23170249512959559 0 -0.03547382731472639 0.21784197426989599 0 -0.042070591095913309 0.23170249512959559 0 -0.03547382731472639 0.21784197426989599 0 -0.020127925936323079 0.22812278723232579 0 -0.05297269424679367 0.21980644512293959 0 -0.03547382731472639 0.21784197426989599 0 -0.042313897026131947 0.20484762668916179 0 -0.03547382731472639 0.21784197426989599 0 -0.042313897026131947 0.20484762668916179 0 -0.02202165645228224 0.20335067651058999 0 -0.05297269424679367 0.21980644512293959 0 -0.062233323222130751 0.21444783579387841 0 -0.056588709159352477 0.20658874247430539 0 -0.068171644274729853 0.2086981166711192 0 -0.062233323222130751 0.21444783579387841 0 -0.056588709159352477 0.20658874247430539 0 -0.05297269424679367 0.21980644512293959 0 -0.042313897026131947 0.20484762668916179 0 -0.056588709159352477 0.20658874247430539 0 -0.063875240502870884 0.19912035825257551 0 -0.056588709159352477 0.20658874247430539 0 -0.051691649797793109 0.19004156598254621 0 -0.042313897026131947 0.20484762668916179 0 -0.056588709159352477 0.20658874247430539 0 -0.051691649797793109 0.19004156598254621 0 -0.064003588936050931 0.18968846756894359 0 -0.063875240502870884 0.19912035825257551 0 -0.051691649797793109 0.19004156598254621 0 -0.042313897026131947 0.20484762668916179 0 -0.051691649797793109 0.19004156598254621 0 -0.035134845185843817 0.19145635577469389 0 -0.042313897026131947 0.20484762668916179 0 -0.035134845185843817 0.19145635577469389 0 -0.02202165645228224 0.20335067651058999 0 -0.02336354141422781 0.1894004922013805 0 -0.02202165645228224 0.20335067651058999 0 -0.0092191882990629876 0.18725681594906529 0 -0.035134845185843817 0.19145635577469389 0 -0.02336354141422781 0.1894004922013805 0 -0.02202165645228224 0.20335067651058999 0 -0.0055367573408996677 0.2098065796865918 0 -0.0092191882990629876 0.18725681594906529 0 -0.0055367573408996677 0.2098065796865918 0 -0.02202165645228224 0.20335067651058999 0 -0.0092191882990629876 0.18725681594906529 0 -0.0055367573408996677 0.2098065796865918 0 -0.0092191882990629876 0.18725681594906529 0 0.0058029913319277626 0.1988164579655215 0 -0.0055367573408996677 0.2098065796865918 0 -0.02202165645228224 0.20335067651058999 0 -0.020127925936323079 0.22812278723232579 0 -0.03547382731472639 0.21784197426989599 0 -0.02202165645228224 0.20335067651058999 0 -0.020127925936323079 0.22812278723232579 0 -0.03142682951655433 0.24301519138364419 0 -0.042070591095913309 0.23170249512959559 0 -0.020127925936323079 0.22812278723232579 0 -0.0055367573408996677 0.2098065796865918 0 -0.001854326382736354 0.23235634342411829 0 -0.0055367573408996677 0.2098065796865918 0 -0.020127925936323079 0.22812278723232579 0 -0.001854326382736354 0.23235634342411829 0 -0.001854326382736354 0.23235634342411829 0 0.0018281045754269601 0.25490610716164469 0 -0.001854326382736354 0.23235634342411829 0 -0.0079653198528190673 0.24492984024783371 0 0.0018281045754269601 0.25490610716164469 0 -0.020127925936323079 0.22812278723232579 0 -0.001854326382736354 0.23235634342411829 0 -0.0079653198528190673 0.24492984024783371 0 -0.03142682951655433 0.24301519138364419 0 -0.020127925936323079 0.22812278723232579 0 -0.0079653198528190673 0.24492984024783371 0 -0.017740220537913139 0.25418761259169498 0 -0.03142682951655433 0.24301519138364419 0 -0.0079653198528190673 0.24492984024783371 0 -0.042071091177668503 0.14372749301014351 0 -0.02354390903173299 0.15152913469706281 0 -0.042071091177668503 0.14372749301014351 0 -0.02354390903173299 0.15152913469706281 0 -0.03071475300926833 0.1396040899521965 0 -0.042071091177668503 0.14372749301014351 0 -0.048719360208215982 0.15704782070630879 0 -0.035585837219323881 0.15985628071468699 0 -0.042071091177668503 0.14372749301014351 0 -0.035585837219323881 0.15985628071468699 0 -0.02354390903173299 0.15152913469706281 0 -0.042071091177668503 0.14372749301014351 0 -0.040427669804441582 0.12704689705102681 0 -0.03071475300926833 0.1396040899521965 0 -0.042071091177668503 0.14372749301014351 0 -0.040427669804441582 0.12704689705102681 0 -0.049492636739366172 0.13108636249085701 0 -0.040427669804441582 0.12704689705102681 0 -0.02618904015517149 0.1314415034470432 0 -0.03071475300926833 0.1396040899521965 0 -0.040427669804441582 0.12704689705102681 0 -0.02618904015517149 0.1314415034470432 0 -0.032311104775258767 0.1195115440610717 0 -0.049492636739366172 0.13108636249085701 0 -0.060598273323606032 0.13592585132322871 0 -0.054873512651748529 0.1176452085790289 0 -0.063370270540356072 0.13475858644333941 0 -0.058743516360118493 0.1190285909715338 0 -0.042071091177668503 0.14372749301014351 0 -0.049492636739366172 0.13108636249085701 0 -0.060598273323606032 0.13592585132322871 0 -0.063370270540356072 0.13475858644333941 0 -0.060598273323606032 0.13592585132322871 0 -0.058743516360118493 0.1190285909715338 0 -0.042071091177668503 0.14372749301014351 0 -0.060598273323606032 0.13592585132322871 0 -0.060598273323606032 0.13592585132322871 0 -0.054873512651748529 0.1176452085790289 0 -0.040427669804441582 0.12704689705102681 0 -0.049492636739366172 0.13108636249085701 0 -0.054873512651748529 0.1176452085790289 0 -0.063370270540356072 0.13475858644333941 0 -0.060598273323606032 0.13592585132322871 0 -0.060598273323606032 0.13592585132322871 0 -0.053525393596674388 0.1443258439500103 0 -0.05905032272554317 0.14846971323299629 0 -0.060598273323606032 0.13592585132322871 0 -0.05905032272554317 0.14846971323299629 0 -0.062400429241329179 0.15458841062965159 0 -0.042071091177668503 0.14372749301014351 0 -0.060598273323606032 0.13592585132322871 0 -0.053525393596674388 0.1443258439500103 0 -0.053525393596674388 0.1443258439500103 0 -0.052381887159879792 0.14918031823367289 0 -0.05905032272554317 0.14846971323299629 0 -0.042071091177668503 0.14372749301014351 0 -0.053525393596674388 0.1443258439500103 0 -0.052381887159879792 0.14918031823367289 0 -0.042071091177668503 0.14372749301014351 0 -0.052381887159879792 0.14918031823367289 0 -0.048719360208215982 0.15704782070630879 0 -0.052381887159879792 0.14918031823367289 0 -0.056020817624504303 0.15398676355990329 0 -0.048719360208215982 0.15704782070630879 0 -0.052381887159879792 0.14918031823367289 0 -0.056020817624504303 0.15398676355990329 0 -0.05905032272554317 0.14846971323299629 0 -0.056020817624504303 0.15398676355990329 0 -0.05905032272554317 0.14846971323299629 0 -0.062400429241329179 0.15458841062965159 0 -0.063225956918952789 0.16213860175194569 0 -0.057552088787553343 0.16064755499688679 0 -0.062050729728128952 0.16886502709224649 0 -0.056020817624504303 0.15398676355990329 0 -0.062400429241329179 0.15458841062965159 0 -0.057552088787553343 0.16064755499688679 0 -0.063225956918952789 0.16213860175194569 0 -0.062400429241329179 0.15458841062965159 0 -0.057552088787553343 0.16064755499688679 0 -0.057552088787553343 0.16064755499688679 0 -0.062050729728128952 0.16886502709224649 0 -0.0495942908300952 0.16954330399541551 0 -0.056020817624504303 0.15398676355990329 0 -0.057552088787553343 0.16064755499688679 0 -0.048719360208215982 0.15704782070630879 0 -0.057552088787553343 0.16064755499688679 0 -0.0495942908300952 0.16954330399541551 0 -0.048719360208215982 0.15704782070630879 0 -0.063602744440867998 0.17923032727614191 0 -0.051691649797793109 0.19004156598254621 0 -0.0495942908300952 0.16954330399541551 0 -0.051691649797793109 0.19004156598254621 0 -0.0495942908300952 0.16954330399541551 0 -0.039964202196533363 0.17865460574597081 0 -0.063602744440867998 0.17923032727614191 0 -0.064003588936050931 0.18968846756894359 0 -0.051691649797793109 0.19004156598254621 0 -0.063602744440867998 0.17923032727614191 0 -0.062050729728128952 0.16886502709224649 0 -0.0495942908300952 0.16954330399541551 0 -0.063602744440867998 0.17923032727614191 0 -0.0495942908300952 0.16954330399541551 0 -0.051691649797793109 0.19004156598254621 0 -0.035134845185843817 0.19145635577469389 0 -0.039964202196533363 0.17865460574597081 0 -0.035134845185843817 0.19145635577469389 0 -0.039964202196533363 0.17865460574597081 0 -0.02707847571972221 0.17553812057117271 0 -0.039964202196533363 0.17865460574597081 0 -0.035585837219323881 0.15985628071468699 0 -0.02707847571972221 0.17553812057117271 0 -0.0495942908300952 0.16954330399541551 0 -0.039964202196533363 0.17865460574597081 0 -0.035585837219323881 0.15985628071468699 0 -0.0495942908300952 0.16954330399541551 0 -0.048719360208215982 0.15704782070630879 0 -0.035585837219323881 0.15985628071468699 0 -0.048719360208215982 0.15704782070630879 0 -0.035585837219323881 0.15985628071468699 0 -0.0495942908300952 0.16954330399541551 0 -0.035585837219323881 0.15985628071468699 0 -0.035585837219323881 0.15985628071468699 0 -0.02707847571972221 0.17553812057117271 0 -0.012901619257225719 0.16470705221153861 0 -0.035585837219323881 0.15985628071468699 0 -0.012901619257225719 0.16470705221153861 0 -0.035585837219323881 0.15985628071468699 0 -0.012901619257225719 0.16470705221153861 0 -0.02354390903173299 0.15152913469706281 0 -0.012901619257225719 0.16470705221153861 0 -0.01442665445223877 0.1553683344651246 0 -0.02354390903173299 0.15152913469706281 0 -0.02707847571972221 0.17553812057117271 0 -0.0092191882990629876 0.18725681594906529 0 -0.012901619257225719 0.16470705221153861 0 -0.02336354141422781 0.1894004922013805 0 -0.02707847571972221 0.17553812057117271 0 -0.0092191882990629876 0.18725681594906529 0 -0.035134845185843817 0.19145635577469389 0 -0.02336354141422781 0.1894004922013805 0 -0.02707847571972221 0.17553812057117271 0 -0.0092191882990629876 0.18725681594906529 0 -0.012901619257225719 0.16470705221153861 0 -0.0092191882990629876 0.18725681594906529 0 -0.012901619257225719 0.16470705221153861 0 0.0058446175130525899 0.16871572957262029 0 -0.012901619257225719 0.16470705221153861 0 0.0058446175130525899 0.16871572957262029 0 -0.012901619257225719 0.16470705221153861 0 -0.0073640530285416922 0.15834233694705441 0 0.0058446175130525899 0.16871572957262029 0 -0.012901619257225719 0.16470705221153861 0 -0.0073640530285416922 0.15834233694705441 0 -0.01442665445223877 0.1553683344651246 0 -0.012901619257225719 0.16470705221153861 0 -0.01442665445223877 0.1553683344651246 0 -0.0073640530285416922 0.15834233694705441 0 -0.01442665445223877 0.1553683344651246 0 -0.0073640530285416922 0.15834233694705441 0 -0.0071078639344780122 0.15078395587279911 0 0.0045628408116959712 0.15534051611101829 0 -0.0071078639344780122 0.15078395587279911 0 -0.01591509425507805 0.14625371255561351 0 0.00037710987242178221 0.14379787181340531 0 -0.0071078639344780122 0.15078395587279911 0 0.00037710987242178221 0.14379787181340531 0 0.0045628408116959712 0.15534051611101829 0 -0.01442665445223877 0.1553683344651246 0 -0.01591509425507805 0.14625371255561351 0 -0.0071078639344780122 0.15078395587279911 0 -0.01442665445223877 0.1553683344651246 0 -0.01591509425507805 0.14625371255561351 0 -0.0073640530285416922 0.15834233694705441 0 -0.0071078639344780122 0.15078395587279911 0 -0.01442665445223877 0.1553683344651246 0 -0.01442665445223877 0.1553683344651246 0 -0.02354390903173299 0.15152913469706281 0 -0.01442665445223877 0.1553683344651246 0 -0.01591509425507805 0.14625371255561351 0 -0.02354390903173299 0.15152913469706281 0 -0.01591509425507805 0.14625371255561351 0 -0.02354390903173299 0.15152913469706281 0 -0.022770259003670659 0.14273188784669349 0 -0.01591509425507805 0.14625371255561351 0 -0.02354390903173299 0.15152913469706281 0 -0.01591509425507805 0.14625371255561351 0 -0.017242361453699211 0.13812604849740631 0 -0.022770259003670659 0.14273188784669349 0 -0.01591509425507805 0.14625371255561351 0 -0.017242361453699211 0.13812604849740631 0 -0.022770259003670659 0.14273188784669349 0 -0.02354390903173299 0.15152913469706281 0 -0.03071475300926833 0.1396040899521965 0 -0.035585837219323881 0.15985628071468699 0 -0.02354390903173299 0.15152913469706281 0 -0.022770259003670659 0.14273188784669349 0 -0.02618904015517149 0.1314415034470432 0 -0.03071475300926833 0.1396040899521965 0 -0.022770259003670659 0.14273188784669349 0 -0.02618904015517149 0.1314415034470432 0 -0.017242361453699211 0.13812604849740631 0 -0.02618904015517149 0.1314415034470432 0 -0.017809693682652089 0.12713373365172589 0 -0.022726174281317311 0.1228805100753719 0 -0.02618904015517149 0.1314415034470432 0 -0.017242361453699211 0.13812604849740631 0 -0.017809693682652089 0.12713373365172589 0 -0.017242361453699211 0.13812604849740631 0 -0.0075212537067652716 0.1245936463522974 0 0.0084260956552675292 0.12942147111814331 0 -0.01591509425507805 0.14625371255561351 0 -0.017242361453699211 0.13812604849740631 0 0.0084260956552675292 0.12942147111814331 0 -0.017242361453699211 0.13812604849740631 0 -0.017809693682652089 0.12713373365172589 0 -0.0075212537067652716 0.1245936463522974 0 -0.01591509425507805 0.14625371255561351 0 0.0084260956552675292 0.12942147111814331 0 -0.01591509425507805 0.14625371255561351 0 0.0084260956552675292 0.12942147111814331 0 0.00037710987242178221 0.14379787181340531 0 -0.0075212537067652716 0.1245936463522974 0 -0.00399601599690547 0.110215021062589 0 0.0084260956552675292 0.12942147111814331 0 -0.017809693682652089 0.12713373365172589 0 -0.0075212537067652716 0.1245936463522974 0 -0.015547537156082831 0.1181082873465219 0 -0.0075212537067652716 0.1245936463522974 0 -0.015547537156082831 0.1181082873465219 0 -0.00399601599690547 0.110215021062589 0 -0.015547537156082831 0.1181082873465219 0 -0.00399601599690547 0.110215021062589 0 -0.016952511954943121 0.1083408275134029 0 -0.00399601599690547 0.110215021062589 0 -0.010923817202994471 0.095335180931296198 0 0.001225275056731851 0.094430134795203124 0 -0.00399601599690547 0.110215021062589 0 -0.010923817202994471 0.095335180931296198 0 -0.016952511954943121 0.1083408275134029 0 -0.016952511954943121 0.1083408275134029 0 -0.020183883667608659 0.099109297720341605 0 -0.026534605286511491 0.1050648787212323 0 -0.016952511954943121 0.1083408275134029 0 -0.026534605286511491 0.1050648787212323 0 -0.0247065293293754 0.1142411713277708 0 -0.020183883667608659 0.099109297720341605 0 -0.02787760879990742 0.095217022668876578 0 -0.020508858223558721 0.086937718574794959 0 -0.010923817202994471 0.095335180931296198 0 -0.020183883667608659 0.099109297720341605 0 -0.020508858223558721 0.086937718574794959 0 -0.010923817202994471 0.095335180931296198 0 -0.016952511954943121 0.1083408275134029 0 -0.020183883667608659 0.099109297720341605 0 -0.02787760879990742 0.095217022668876578 0 -0.026534605286511491 0.1050648787212323 0 -0.035729042099656577 0.1012877053100365 0 -0.020183883667608659 0.099109297720341605 0 -0.02787760879990742 0.095217022668876578 0 -0.026534605286511491 0.1050648787212323 0 -0.026534605286511491 0.1050648787212323 0 -0.0247065293293754 0.1142411713277708 0 -0.033286840118838527 0.11002561541918859 0 -0.0247065293293754 0.1142411713277708 0 -0.032311104775258767 0.1195115440610717 0 -0.033286840118838527 0.11002561541918859 0 -0.02618904015517149 0.1314415034470432 0 -0.022726174281317311 0.1228805100753719 0 -0.032311104775258767 0.1195115440610717 0 -0.0247065293293754 0.1142411713277708 0 -0.022726174281317311 0.1228805100753719 0 -0.032311104775258767 0.1195115440610717 0 -0.017809693682652089 0.12713373365172589 0 -0.015547537156082831 0.1181082873465219 0 -0.022726174281317311 0.1228805100753719 0 -0.015547537156082831 0.1181082873465219 0 -0.0247065293293754 0.1142411713277708 0 -0.022726174281317311 0.1228805100753719 0 -0.015547537156082831 0.1181082873465219 0 -0.016952511954943121 0.1083408275134029 0 -0.0247065293293754 0.1142411713277708 0 -0.0054951699267350466 0.079332608214356518 0 -0.016941186319407098 0.0626601264946616 0 -0.0024581838586089869 0.058409737991047053 0 -0.0054951699267350466 0.079332608214356518 0 -0.020091873175359841 0.07507082336054316 0 -0.016941186319407098 0.0626601264946616 0 -0.010923817202994471 0.095335180931296198 0 -0.0054951699267350466 0.079332608214356518 0 0.001225275056731851 0.094430134795203124 0 -0.010923817202994471 0.095335180931296198 0 -0.0054951699267350466 0.079332608214356518 0 -0.020508858223558721 0.086937718574794959 0 -0.0054951699267350466 0.079332608214356518 0 -0.020508858223558721 0.086937718574794959 0 -0.020091873175359841 0.07507082336054316 0 -0.02787760879990742 0.095217022668876578 0 -0.020508858223558721 0.086937718574794959 0 -0.033878252452631992 0.085304096449956748 0 -0.020508858223558721 0.086937718574794959 0 -0.028369078548013339 0.077876479784235828 0 -0.033878252452631992 0.085304096449956748 0 -0.020508858223558721 0.086937718574794959 0 -0.020091873175359841 0.07507082336054316 0 -0.028369078548013339 0.077876479784235828 0 -0.029145072859084971 0.068547183734666853 0 -0.016941186319407098 0.0626601264946616 0 -0.035968401152623453 0.057276293760685992 0 -0.020091873175359841 0.07507082336054316 0 -0.028369078548013339 0.077876479784235828 0 -0.029145072859084971 0.068547183734666853 0 -0.020091873175359841 0.07507082336054316 0 -0.029145072859084971 0.068547183734666853 0 -0.016941186319407098 0.0626601264946616 0 -0.041044358421522792 0.073485139289151347 0 -0.035968401152623453 0.057276293760685992 0 -0.041044358421522792 0.073485139289151347 0 -0.047269656428343923 0.064195275553875566 0 -0.035968401152623453 0.057276293760685992 0 -0.029145072859084971 0.068547183734666853 0 -0.041044358421522792 0.073485139289151347 0 -0.035968401152623453 0.057276293760685992 0 -0.028369078548013339 0.077876479784235828 0 -0.029145072859084971 0.068547183734666853 0 -0.041044358421522792 0.073485139289151347 0 -0.041044358421522792 0.073485139289151347 0 -0.048518443569721278 0.084265484390500786 0 -0.050466173559898013 0.074264292192695272 0 -0.041044358421522792 0.073485139289151347 0 -0.050466173559898013 0.074264292192695272 0 -0.047269656428343923 0.064195275553875566 0 -0.041044358421522792 0.073485139289151347 0 -0.046120315690422617 0.089693984817616604 0 -0.041044358421522792 0.073485139289151347 0 -0.041334203758645972 0.086719089671986063 0 -0.046120315690422617 0.089693984817616604 0 -0.041044358421522792 0.073485139289151347 0 -0.046120315690422617 0.089693984817616604 0 -0.048518443569721278 0.084265484390500786 0 -0.041044358421522792 0.073485139289151347 0 -0.033878252452631992 0.085304096449956748 0 -0.041334203758645972 0.086719089671986063 0 -0.028369078548013339 0.077876479784235828 0 -0.041044358421522792 0.073485139289151347 0 -0.033878252452631992 0.085304096449956748 0 -0.033878252452631992 0.085304096449956748 0 -0.039998408751724973 0.091484338852944366 0 -0.041334203758645972 0.086719089671986063 0 -0.02787760879990742 0.095217022668876578 0 -0.033878252452631992 0.085304096449956748 0 -0.03522033686964058 0.092773515779038737 0 -0.03522033686964058 0.092773515779038737 0 -0.039998408751724973 0.091484338852944366 0 -0.03955938786289926 0.096295183784994715 0 -0.033878252452631992 0.085304096449956748 0 -0.03522033686964058 0.092773515779038737 0 -0.039998408751724973 0.091484338852944366 0 -0.039998408751724973 0.091484338852944366 0 -0.041334203758645972 0.086719089671986063 0 -0.046120315690422617 0.089693984817616604 0 -0.041334203758645972 0.086719089671986063 0 -0.046120315690422617 0.089693984817616604 0 -0.039998408751724973 0.091484338852944366 0 -0.046120315690422617 0.089693984817616604 0 -0.043549856500130768 0.094930955592224031 0 -0.051008921140075249 0.092732586678243994 0 -0.057856474132785343 0.080586951480467156 0 -0.069862796643015188 0.085563184105727691 0 -0.046120315690422617 0.089693984817616604 0 -0.051008921140075249 0.092732586678243994 0 -0.048518443569721278 0.084265484390500786 0 -0.051008921140075249 0.092732586678243994 0 -0.048518443569721278 0.084265484390500786 0 -0.046120315690422617 0.089693984817616604 0 -0.051008921140075249 0.092732586678243994 0 -0.057856474132785343 0.080586951480467156 0 -0.048518443569721278 0.084265484390500786 0 -0.050466173559898013 0.074264292192695272 0 -0.051008921140075249 0.092732586678243994 0 -0.057856474132785343 0.080586951480467156 0 -0.048518443569721278 0.084265484390500786 0 -0.057856474132785343 0.080586951480467156 0 -0.057641935247116707 0.068788610249481491 0 -0.067934556193076923 0.073903896847853506 0 -0.057856474132785343 0.080586951480467156 0 -0.050466173559898013 0.074264292192695272 0 -0.057641935247116707 0.068788610249481491 0 -0.057641935247116707 0.068788610249481491 0 -0.068727372691989627 0.062273409977463709 0 -0.057886079082702817 0.057579827143865718 0 -0.057641935247116707 0.068788610249481491 0 -0.047269656428343923 0.064195275553875566 0 -0.057886079082702817 0.057579827143865718 0 -0.050466173559898013 0.074264292192695272 0 -0.057641935247116707 0.068788610249481491 0 -0.047269656428343923 0.064195275553875566 0 -0.040427669804441582 0.12704689705102681 0 -0.032311104775258767 0.1195115440610717 0 -0.043990453179025793 0.10904150555039641 0 -0.040427669804441582 0.12704689705102681 0 -0.043990453179025793 0.10904150555039641 0 -0.054873512651748529 0.1176452085790289 0 -0.032311104775258767 0.1195115440610717 0 -0.033286840118838527 0.11002561541918859 0 -0.043990453179025793 0.10904150555039641 0 -0.033286840118838527 0.11002561541918859 0 -0.035729042099656577 0.1012877053100365 0 -0.043990453179025793 0.10904150555039641 0 -0.026534605286511491 0.1050648787212323 0 -0.033286840118838527 0.11002561541918859 0 -0.035729042099656577 0.1012877053100365 0 -0.03522033686964058 0.092773515779038737 0 -0.035729042099656577 0.1012877053100365 0 -0.03955938786289926 0.096295183784994715 0 -0.02787760879990742 0.095217022668876578 0 -0.03522033686964058 0.092773515779038737 0 -0.035729042099656577 0.1012877053100365 0 -0.046120315690422617 0.089693984817616604 0 -0.043549856500130768 0.094930955592224031 0 -0.049148751979891263 0.099364565834829055 0 -0.039998408751724973 0.091484338852944366 0 -0.03955938786289926 0.096295183784994715 0 -0.043549856500130768 0.094930955592224031 0 -0.03955938786289926 0.096295183784994715 0 -0.042653725972612903 0.1004169604077058 0 -0.043549856500130768 0.094930955592224031 0 -0.035729042099656577 0.1012877053100365 0 -0.03955938786289926 0.096295183784994715 0 -0.042653725972612903 0.1004169604077058 0 -0.042653725972612903 0.1004169604077058 0 -0.043549856500130768 0.094930955592224031 0 -0.049148751979891263 0.099364565834829055 0 -0.043549856500130768 0.094930955592224031 0 -0.049148751979891263 0.099364565834829055 0 -0.035729042099656577 0.1012877053100365 0 -0.042653725972612903 0.1004169604077058 0 -0.043990453179025793 0.10904150555039641 0 -0.042653725972612903 0.1004169604077058 0 -0.043990453179025793 0.10904150555039641 0 -0.049148751979891263 0.099364565834829055 0 -0.043990453179025793 0.10904150555039641 0 -0.049148751979891263 0.099364565834829055 0 -0.054873512651748529 0.1176452085790289 0 -0.05411676217988208 0.103298595499728 0 -0.049148751979891263 0.099364565834829055 0 -0.054873512651748529 0.1176452085790289 0 -0.051008921140075249 0.092732586678243994 0 -0.073658330350818618 0.1068107399836601 0 -0.049148751979891263 0.099364565834829055 0 -0.054873512651748529 0.1176452085790289 0 -0.051008921140075249 0.092732586678243994 0 -0.05411676217988208 0.103298595499728 0 -0.073658330350818618 0.1068107399836601 0 -0.046120315690422617 0.089693984817616604 0 -0.051008921140075249 0.092732586678243994 0 -0.049148751979891263 0.099364565834829055 0 -0.051008921140075249 0.092732586678243994 0 -0.05411676217988208 0.103298595499728 0 -0.049148751979891263 0.099364565834829055 0 -0.046120315690422617 0.089693984817616604 0 -0.049148751979891263 0.099364565834829055 0 -0.051008921140075249 0.092732586678243994 0 -0.05411676217988208 0.103298595499728 0 -0.05411676217988208 0.103298595499728 0 -0.049148751979891263 0.099364565834829055 0 -0.05411676217988208 0.103298595499728 0 -0.068691212662463891 0.1148396991287364 0 -0.060598273323606032 0.13592585132322871 0 -0.054873512651748529 0.1176452085790289 0 -0.058743516360118493 0.1190285909715338 0 -0.05411676217988208 0.103298595499728 0 -0.058743516360118493 0.1190285909715338 0 -0.05411676217988208 0.103298595499728 0 -0.058743516360118493 0.1190285909715338 0 -0.068691212662463891 0.1148396991287364 0 -0.05411676217988208 0.103298595499728 0 -0.054873512651748529 0.1176452085790289 0 -0.058743516360118493 0.1190285909715338 0 -0.058743516360118493 0.1190285909715338 0 -0.067850631176239545 0.1244120478166655 0 -0.068691212662463891 0.1148396991287364 0 -0.073658330350818618 0.1068107399836601 0 -0.096307739561562244 0.120888893289076 0 -0.1051028044759913 0.10695476046176911 0 -0.073658330350818618 0.1068107399836601 0 -0.098708030512351469 0.091768579557670718 0 -0.1051028044759913 0.10695476046176911 0 -0.083265663145045174 0.12638080275774549 0 -0.068691212662463891 0.1148396991287364 0 -0.073658330350818618 0.1068107399836601 0 -0.083265663145045174 0.12638080275774549 0 -0.067850631176239545 0.1244120478166655 0 -0.068691212662463891 0.1148396991287364 0 -0.083265663145045174 0.12638080275774549 0 -0.068691212662463891 0.1148396991287364 0 -0.083265663145045174 0.12638080275774549 0 -0.073658330350818618 0.1068107399836601 0 -0.096307739561562244 0.120888893289076 0 -0.073658330350818618 0.1068107399836601 0 -0.096307739561562244 0.120888893289076 0 -0.083265663145045174 0.12638080275774549 0 -0.096307739561562244 0.120888893289076 0 -0.073658330350818618 0.1068107399836601 0 -0.081953339939165759 0.089112458018296495 0 -0.098708030512351469 0.091768579557670718 0 -0.05411676217988208 0.103298595499728 0 -0.068691212662463891 0.1148396991287364 0 -0.073658330350818618 0.1068107399836601 0 -0.073658330350818618 0.1068107399836601 0 -0.069862796643015188 0.085563184105727691 0 -0.081953339939165759 0.089112458018296495 0 -0.051008921140075249 0.092732586678243994 0 -0.073658330350818618 0.1068107399836601 0 -0.069862796643015188 0.085563184105727691 0 -0.057856474132785343 0.080586951480467156 0 -0.069862796643015188 0.085563184105727691 0 -0.067934556193076923 0.073903896847853506 0 -0.069862796643015188 0.085563184105727691 0 -0.067934556193076923 0.073903896847853506 0 -0.085584202250477748 0.072307328426127485 0 -0.067934556193076923 0.073903896847853506 0 -0.085584202250477748 0.072307328426127485 0 -0.068727372691989627 0.062273409977463709 0 -0.057641935247116707 0.068788610249481491 0 -0.067934556193076923 0.073903896847853506 0 -0.068727372691989627 0.062273409977463709 0 -0.085584202250477748 0.072307328426127485 0 -0.10290036752593 0.062059838421800483 0 -0.08319221273587811 0.057149267064154317 0 -0.085584202250477748 0.072307328426127485 0 -0.08319221273587811 0.057149267064154317 0 -0.068727372691989627 0.062273409977463709 0 -0.085584202250477748 0.072307328426127485 0 -0.081953339939165759 0.089112458018296495 0 -0.098708030512351469 0.091768579557670718 0 -0.069862796643015188 0.085563184105727691 0 -0.085584202250477748 0.072307328426127485 0 -0.081953339939165759 0.089112458018296495 0 -0.085584202250477748 0.072307328426127485 0 -0.098708030512351469 0.091768579557670718 0 -0.1064828890896057 0.076647901752218875 0 -0.085584202250477748 0.072307328426127485 0 -0.1064828890896057 0.076647901752218875 0 -0.10290036752593 0.062059838421800483 0 -0.1064828890896057 0.076647901752218875 0 -0.1182120847518373 0.0675422528120833 0 -0.10290036752593 0.062059838421800483 0 -0.1064828890896057 0.076647901752218875 0 -0.1182120847518373 0.0675422528120833 0 -0.12317557040708429 0.086200059003478074 0 -0.098708030512351469 0.091768579557670718 0 -0.1064828890896057 0.076647901752218875 0 -0.12317557040708429 0.086200059003478074 0 -0.12317557040708429 0.086200059003478074 0 -0.12121623443297019 0.1104001341018238 0 -0.1051028044759913 0.10695476046176911 0 -0.13009606967495049 0.1238355021899642 0 -0.1090673858280324 0.1288198840973056 0 -0.12121623443297019 0.1104001341018238 0 -0.1090673858280324 0.1288198840973056 0 -0.12121623443297019 0.1104001341018238 0 -0.096307739561562244 0.120888893289076 0 -0.12121623443297019 0.1104001341018238 0 -0.096307739561562244 0.120888893289076 0 -0.1051028044759913 0.10695476046176911 0 -0.12121623443297019 0.1104001341018238 0 -0.096307739561562244 0.120888893289076 0 -0.1090673858280324 0.1288198840973056 0 -0.096307739561562244 0.120888893289076 0 -0.098708030512351469 0.091768579557670718 0 -0.12317557040708429 0.086200059003478074 0 -0.1051028044759913 0.10695476046176911 0 -0.11168266671431509 0.02358166192275922 0 -0.1033124629631073 0.041446186964433251 0 -0.092630384162582222 0.022728816213432989 0 -0.10619734285133681 0.01043139143914054 0 -0.11168266671431509 0.02358166192275922 0 -0.092630384162582222 0.022728816213432989 0 -0.1108998672526338 -0.0026279391134738411 0 -0.10619734285133681 0.01043139143914054 0 -0.092434386403602548 0.002283238537225573 0 -0.10619734285133681 0.01043139143914054 0 -0.092630384162582222 0.022728816213432989 0 -0.092434386403602548 0.002283238537225573 0 -0.10619734285133681 0.01043139143914054 0 -0.12333940972355011 0.0061911796357587787 0 -0.11168266671431509 0.02358166192275922 0 -0.1108998672526338 -0.0026279391134738411 0 -0.10619734285133681 0.01043139143914054 0 -0.12333940972355011 0.0061911796357587787 0 -0.1319577913346088 0.020334412385176061 0 -0.12333940972355011 0.0061911796357587787 0 -0.11168266671431509 0.02358166192275922 0 -0.1319577913346088 0.020334412385176061 0 -0.11168266671431509 0.02358166192275922 0 -0.1238843081837547 0.033934643467340382 0 -0.11168266671431509 0.02358166192275922 0 -0.1238843081837547 0.033934643467340382 0 -0.1033124629631073 0.041446186964433251 0 -0.1238843081837547 0.033934643467340382 0 -0.1200144304230453 0.048874893276275727 0 -0.1033124629631073 0.041446186964433251 0 -0.13657007131334781 0.062247846336676148 0 -0.1182120847518373 0.0675422528120833 0 -0.1200144304230453 0.048874893276275727 0 -0.1182120847518373 0.0675422528120833 0 -0.1200144304230453 0.048874893276275727 0 -0.10290036752593 0.062059838421800483 0 -0.1200144304230453 0.048874893276275727 0 -0.10290036752593 0.062059838421800483 0 -0.1033124629631073 0.041446186964433251 0 -0.10290036752593 0.062059838421800483 0 -0.1033124629631073 0.041446186964433251 0 -0.08319221273587811 0.057149267064154317 0 -0.1033124629631073 0.041446186964433251 0 -0.084619988817659697 0.040269599121387147 0 -0.08319221273587811 0.057149267064154317 0 -0.1033124629631073 0.041446186964433251 0 -0.084619988817659697 0.040269599121387147 0 -0.092630384162582222 0.022728816213432989 0 -0.084619988817659697 0.040269599121387147 0 -0.08319221273587811 0.057149267064154317 0 -0.068559984521055273 0.04655238617605665 0 -0.08319221273587811 0.057149267064154317 0 -0.068727372691989627 0.062273409977463709 0 -0.068559984521055273 0.04655238617605665 0 -0.068727372691989627 0.062273409977463709 0 -0.068559984521055273 0.04655238617605665 0 -0.057886079082702817 0.057579827143865718 0 -0.068559984521055273 0.04655238617605665 0 -0.075174593555013852 0.029466117674409618 0 -0.060853077712191173 0.033462862745095023 0 -0.084619988817659697 0.040269599121387147 0 -0.068559984521055273 0.04655238617605665 0 -0.075174593555013852 0.029466117674409618 0 -0.075174593555013852 0.029466117674409618 0 -0.073067613952820673 0.01094176253235888 0 -0.05370084150203866 0.019600286527491791 0 -0.075174593555013852 0.029466117674409618 0 -0.05370084150203866 0.019600286527491791 0 -0.060853077712191173 0.033462862745095023 0 -0.075174593555013852 0.029466117674409618 0 -0.092630384162582222 0.022728816213432989 0 -0.073067613952820673 0.01094176253235888 0 -0.084619988817659697 0.040269599121387147 0 -0.075174593555013852 0.029466117674409618 0 -0.092630384162582222 0.022728816213432989 0 -0.092434386403602548 0.002283238537225573 0 -0.073067613952820673 0.01094176253235888 0 -0.092630384162582222 0.022728816213432989 0 -0.092434386403602548 0.002283238537225573 0 -0.073067613952820673 0.01094176253235888 0 -0.071844526775559886 -0.0035400727110954898 0 -0.092434386403602548 0.002283238537225573 0 -0.073067613952820673 0.01094176253235888 0 -0.073067613952820673 0.01094176253235888 0 -0.05370084150203866 0.019600286527491791 0 -0.071844526775559886 -0.0035400727110954898 0 -0.073067613952820673 0.01094176253235888 0 -0.059254541600900663 0.0061397564835512178 0 -0.05370084150203866 0.019600286527491791 0 -0.045570980439012948 0.0038428625116655318 0 -0.073067613952820673 0.01094176253235888 0 -0.059254541600900663 0.0061397564835512178 0 -0.05370084150203866 0.019600286527491791 0 -0.059254541600900663 0.0061397564835512178 0 -0.05370084150203866 0.019600286527491791 0 -0.045570980439012948 0.0038428625116655318 0 -0.057000060913748749 -0.0056521365782699132 0 -0.059254541600900663 0.0061397564835512178 0 -0.045570980439012948 0.0038428625116655318 0 -0.05370084150203866 0.019600286527491791 0 -0.060853077712191173 0.033462862745095023 0 -0.05370084150203866 0.019600286527491791 0 -0.060853077712191173 0.033462862745095023 0 -0.045269644612672202 0.033007293416025048 0 -0.05370084150203866 0.019600286527491791 0 -0.031771010105986083 0.02940470653782017 0 -0.045269644612672202 0.033007293416025048 0 -0.05370084150203866 0.019600286527491791 0 -0.031771010105986083 0.02940470653782017 0 -0.05370084150203866 0.019600286527491791 0 -0.031771010105986083 0.02940470653782017 0 -0.036206164465115681 0.01464540448451512 0 -0.031771010105986083 0.02940470653782017 0 -0.034871885485530822 0.032932528611624337 0 -0.05370084150203866 0.019600286527491791 0 -0.036206164465115681 0.01464540448451512 0 -0.045570980439012948 0.0038428625116655318 0 -0.036206164465115681 0.01464540448451512 0 -0.032608598788502759 0.0038132000627956659 0 -0.045570980439012948 0.0038428625116655318 0 -0.047269656428343923 0.064195275553875566 0 -0.057886079082702817 0.057579827143865718 0 -0.048433365647711363 0.045475527496200568 0 -0.068559984521055273 0.04655238617605665 0 -0.057886079082702817 0.057579827143865718 0 -0.048433365647711363 0.045475527496200568 0 -0.068559984521055273 0.04655238617605665 0 -0.048433365647711363 0.045475527496200568 0 -0.060853077712191173 0.033462862745095023 0 -0.048433365647711363 0.045475527496200568 0 -0.060853077712191173 0.033462862745095023 0 -0.045269644612672202 0.033007293416025048 0 -0.045269644612672202 0.033007293416025048 0 -0.041616408728101018 0.038694669878528397 0 -0.034871885485530822 0.032932528611624337 0 -0.048433365647711363 0.045475527496200568 0 -0.045269644612672202 0.033007293416025048 0 -0.041616408728101018 0.038694669878528397 0 -0.031771010105986083 0.02940470653782017 0 -0.045269644612672202 0.033007293416025048 0 -0.034871885485530822 0.032932528611624337 0 -0.031771010105986083 0.02940470653782017 0 -0.034871885485530822 0.032932528611624337 0 -0.02819235632400828 0.043964451504888619 0 -0.041616408728101018 0.038694669878528397 0 -0.034871885485530822 0.032932528611624337 0 -0.037890739166489752 0.043363329990263648 0 -0.034871885485530822 0.032932528611624337 0 -0.037890739166489752 0.043363329990263648 0 -0.02819235632400828 0.043964451504888619 0 -0.048433365647711363 0.045475527496200568 0 -0.041616408728101018 0.038694669878528397 0 -0.037890739166489752 0.043363329990263648 0 -0.047269656428343923 0.064195275553875566 0 -0.048433365647711363 0.045475527496200568 0 -0.035968401152623453 0.057276293760685992 0 -0.048433365647711363 0.045475527496200568 0 -0.037890739166489752 0.043363329990263648 0 -0.035968401152623453 0.057276293760685992 0 -0.037890739166489752 0.043363329990263648 0 -0.035968401152623453 0.057276293760685992 0 -0.02819235632400828 0.043964451504888619 0 -0.016941186319407098 0.0626601264946616 0 -0.035968401152623453 0.057276293760685992 0 -0.02819235632400828 0.043964451504888619 0 -0.016941186319407098 0.0626601264946616 0 -0.02819235632400828 0.043964451504888619 0 -0.012797527778032711 0.037887397829069643 0 -0.031771010105986083 0.02940470653782017 0 -0.012797527778032711 0.037887397829069643 0 -0.031771010105986083 0.02940470653782017 0 -0.02819235632400828 0.043964451504888619 0 -0.012797527778032711 0.037887397829069643 0 -0.012797527778032711 0.037887397829069643 0 0.0061759545499213489 0.046370089120317579 0 -0.012797527778032711 0.037887397829069643 0 -0.0018342849056555541 0.023312500480728349 0 0.0061759545499213489 0.046370089120317579 0 -0.016941186319407098 0.0626601264946616 0 -0.012797527778032711 0.037887397829069643 0 -0.0024581838586089869 0.058409737991047053 0 -0.012797527778032711 0.037887397829069643 0 -0.0024581838586089869 0.058409737991047053 0 0.0061759545499213489 0.046370089120317579 0 -0.02332989214869927 -0.0040836695995159593 0 -0.032608598788502759 0.0038132000627956659 0 -0.02049483751369921 0.016575964421474139 0 -0.036206164465115681 0.01464540448451512 0 -0.032608598788502759 0.0038132000627956659 0 -0.02049483751369921 0.016575964421474139 0 -0.02332989214869927 -0.0040836695995159593 0 -0.02049483751369921 0.016575964421474139 0 -0.0092186649214118371 0.0037472223051285558 0 -0.031771010105986083 0.02940470653782017 0 -0.02049483751369921 0.016575964421474139 0 -0.031771010105986083 0.02940470653782017 0 -0.036206164465115681 0.01464540448451512 0 -0.02049483751369921 0.016575964421474139 0 -0.031771010105986083 0.02940470653782017 0 -0.012797527778032711 0.037887397829069643 0 -0.02049483751369921 0.016575964421474139 0 -0.012797527778032711 0.037887397829069643 0 -0.02049483751369921 0.016575964421474139 0 -0.0018342849056555541 0.023312500480728349 0 -0.02049483751369921 0.016575964421474139 0 -0.0018342849056555541 0.023312500480728349 0 -0.0092186649214118371 0.0037472223051285558 0 -0.02049483751369921 0.016575964421474139 0 -0.0092186649214118371 0.0037472223051285558 0 -0.0018342849056555541 0.023312500480728349 0 -0.0092186649214118371 0.0037472223051285558 0 0.013658959813791531 0.016442943481665709 0 -0.0092186649214118371 0.0037472223051285558 0 0.0095598824793792538 0.001077391472713885 0 0.013658959813791531 0.016442943481665709 0 -0.0092186649214118371 0.0037472223051285558 0 0.013658959813791531 0.016442943481665709 0 0.0095598824793792538 0.001077391472713885 0 0.013658959813791531 0.016442943481665709 0 0.023006483428125189 0.0039475711701640473 0 -0.0018342849056555541 0.023312500480728349 0 0.013658959813791531 0.016442943481665709 0 0.015933751839784231 0.033762786130867299 0 0.013658959813791531 0.016442943481665709 0 0.023006483428125189 0.0039475711701640473 0 0.036536584548994978 0.029138664658202869 0 0.013658959813791531 0.016442943481665709 0 0.015933751839784231 0.033762786130867299 0 0.036536584548994978 0.029138664658202869 0 0.013658959813791531 0.016442943481665709 0 0.036536584548994978 0.029138664658202869 0 -0.0024581838586089869 0.058409737991047053 0 0.0061759545499213489 0.046370089120317579 0 0.0097702275479361507 0.06677439252428348 0 0.0061759545499213489 0.046370089120317579 0 0.025131545191868838 0.053549732913421938 0 0.0097702275479361507 0.06677439252428348 0 -0.0018342849056555541 0.023312500480728349 0 0.0061759545499213489 0.046370089120317579 0 0.015933751839784231 0.033762786130867299 0 0.015933751839784231 0.033762786130867299 0 0.025131545191868838 0.053549732913421938 0 0.036536584548994978 0.029138664658202869 0 0.0061759545499213489 0.046370089120317579 0 0.015933751839784231 0.033762786130867299 0 0.025131545191868838 0.053549732913421938 0 0.025131545191868838 0.053549732913421938 0 0.046860514661533632 0.053486889921397662 0 0.030623702489080709 0.07078855058867406 0 0.025131545191868838 0.053549732913421938 0 0.046860514661533632 0.053486889921397662 0 0.036536584548994978 0.029138664658202869 0 0.046860514661533632 0.053486889921397662 0 0.036536584548994978 0.029138664658202869 0 0.065069198144709794 0.031221906922412689 0 0.046860514661533632 0.053486889921397662 0 0.065069198144709794 0.031221906922412689 0 0.073259431765512889 0.055073326864074457 0 0.046860514661533632 0.053486889921397662 0 0.073259431765512889 0.055073326864074457 0 0.054911727314568962 0.074059824345592315 0 0.037372557332244337 0.002124070880223634 0 0.036536584548994978 0.029138664658202869 0 0.056878964523906728 0.0073704869807510124 0 0.037372557332244337 0.002124070880223634 0 0.056878964523906728 0.0073704869807510124 0 0.043696595010690051 -0.0059221524669507992 0 0.023006483428125189 0.0039475711701640473 0 0.037372557332244337 0.002124070880223634 0 0.036536584548994978 0.029138664658202869 0 0.056878964523906728 0.0073704869807510124 0 0.065069198144709794 0.031221906922412689 0 0.036536584548994978 0.029138664658202869 0 0.056878964523906728 0.0073704869807510124 0 0.065069198144709794 0.031221906922412689 0 0.056878964523906728 0.0073704869807510124 0 0.084362058361547171 0.00084332919282728948 0 0.06663683758607758 -0.0079161396528262123 0 0.056878964523906728 0.0073704869807510124 0 0.084362058361547171 0.00084332919282728948 0 0.082719567215754852 0.02027515069038022 0 0.084362058361547171 0.00084332919282728948 0 0.082719567215754852 0.02027515069038022 0 0.1053149651915657 0.016160785774849439 0 0.082719567215754852 0.02027515069038022 0 0.065069198144709794 0.031221906922412689 0 0.09052922310746217 0.03645123865704343 0 0.082719567215754852 0.02027515069038022 0 0.09052922310746217 0.03645123865704343 0 0.1053149651915657 0.016160785774849439 0 0.056878964523906728 0.0073704869807510124 0 0.082719567215754852 0.02027515069038022 0 0.065069198144709794 0.031221906922412689 0 0.065069198144709794 0.031221906922412689 0 0.073259431765512889 0.055073326864074457 0 0.065069198144709794 0.031221906922412689 0 0.073259431765512889 0.055073326864074457 0 0.09052922310746217 0.03645123865704343 0 0.073259431765512889 0.055073326864074457 0 0.09052922310746217 0.03645123865704343 0 0.10326490027315979 0.063839235292821941 0 0.09052922310746217 0.03645123865704343 0 0.110514884653526 0.037752742984197819 0 0.10326490027315979 0.063839235292821941 0 0.10326490027315979 0.063839235292821941 0 0.12508013516001221 0.048753723779906673 0 0.110514884653526 0.037752742984197819 0 0.10326490027315979 0.063839235292821941 0 0.12508013516001221 0.048753723779906673 0 0.110514884653526 0.037752742984197819 0 0.12838519953543009 0.02355873141636762 0 0.12508013516001221 0.048753723779906673 0 0.110514884653526 0.037752742984197819 0 0.1053149651915657 0.016160785774849439 0 0.12838519953543009 0.02355873141636762 0 0.12387230286588991 0.0034426358120093889 0 0.1053149651915657 0.016160785774849439 0 0.1051253797107045 -0.0040246487482388394 0 0.12387230286588991 0.0034426358120093889 0 0.1053149651915657 0.016160785774849439 0 0.12838519953543009 0.02355873141636762 0 0.084362058361547171 0.00084332919282728948 0 0.1053149651915657 0.016160785774849439 0 0.1051253797107045 -0.0040246487482388394 0 0.09052922310746217 0.03645123865704343 0 0.110514884653526 0.037752742984197819 0 0.1053149651915657 0.016160785774849439 0 0.1026954138372069 0.097583001537117589 0 0.10536857633333099 0.1123543073842353 0 0.090950437480094015 0.10659268834077899 0 0.10536857633333099 0.1123543073842353 0 0.090950437480094015 0.10659268834077899 0 0.091699416642060647 0.12652549286736289 0 0.10536857633333099 0.1123543073842353 0 0.091699416642060647 0.12652549286736289 0 0.106310778933303 0.12740706605373039 0 0.10536857633333099 0.1123543073842353 0 0.12325502479506641 0.1273969758757173 0 0.12823231554973519 0.10145675065841379 0 0.10536857633333099 0.1123543073842353 0 0.106310778933303 0.12740706605373039 0 0.12325502479506641 0.1273969758757173 0 0.1026954138372069 0.097583001537117589 0 0.10536857633333099 0.1123543073842353 0 0.12823231554973519 0.10145675065841379 0 0.10536857633333099 0.1123543073842353 0 0.12823231554973519 0.10145675065841379 0 0.1026954138372069 0.097583001537117589 0 0.10893025986617751 0.083868223427881777 0 0.12823231554973519 0.10145675065841379 0 0.10893025986617751 0.083868223427881777 0 0.12740642943971031 0.076840517029470937 0 0.12823231554973519 0.10145675065841379 0 0.10326490027315979 0.063839235292821941 0 0.12508013516001221 0.048753723779906673 0 0.12740642943971031 0.076840517029470937 0 0.10326490027315979 0.063839235292821941 0 0.10893025986617751 0.083868223427881777 0 0.12740642943971031 0.076840517029470937 0 0.10326490027315979 0.063839235292821941 0 0.10893025986617751 0.083868223427881777 0 0.081449665386308601 0.078924746805738882 0 0.1026954138372069 0.097583001537117589 0 0.10893025986617751 0.083868223427881777 0 0.081449665386308601 0.078924746805738882 0 0.081449665386308601 0.078924746805738882 0 0.090950437480094015 0.10659268834077899 0 0.10326490027315979 0.063839235292821941 0 0.081449665386308601 0.078924746805738882 0 0.073259431765512889 0.055073326864074457 0 0.10326490027315979 0.063839235292821941 0 0.081449665386308601 0.078924746805738882 0 0.073259431765512889 0.055073326864074457 0 0.081449665386308601 0.078924746805738882 0 0.054911727314568962 0.074059824345592315 0 0.073259431765512889 0.055073326864074457 0 0.081449665386308601 0.078924746805738882 0 0.081449665386308601 0.078924746805738882 0 0.072835533546707382 0.1049036877538415 0 0.057108475475960679 0.095756988243205943 0 0.081449665386308601 0.078924746805738882 0 0.057108475475960679 0.095756988243205943 0 0.054911727314568962 0.074059824345592315 0 0.081449665386308601 0.078924746805738882 0 0.057108475475960679 0.095756988243205943 0 0.072835533546707382 0.1049036877538415 0 0.067287691523265525 0.1222306585329891 0 0.057108475475960679 0.095756988243205943 0 0.1026954138372069 0.097583001537117589 0 0.081449665386308601 0.078924746805738882 0 0.090950437480094015 0.10659268834077899 0 0.081449665386308601 0.078924746805738882 0 0.072835533546707382 0.1049036877538415 0 0.090950437480094015 0.10659268834077899 0 0.072835533546707382 0.1049036877538415 0 0.090950437480094015 0.10659268834077899 0 0.080673283538479787 0.11722804570552341 0 0.090950437480094015 0.10659268834077899 0 0.080673283538479787 0.11722804570552341 0 0.091699416642060647 0.12652549286736289 0 0.072835533546707382 0.1049036877538415 0 0.080673283538479787 0.11722804570552341 0 0.067287691523265525 0.1222306585329891 0 0.080673283538479787 0.11722804570552341 0 0.067287691523265525 0.1222306585329891 0 0.077895302288648605 0.13206756621416421 0 0.067287691523265525 0.1222306585329891 0 0.057108475475960679 0.095756988243205943 0 0.047979107497460302 0.12548132341442891 0 0.057108475475960679 0.095756988243205943 0 0.032767285565614111 0.1125892296806746 0 0.032757248185135063 0.090919569877719916 0 0.057108475475960679 0.095756988243205943 0 0.032767285565614111 0.1125892296806746 0 0.057108475475960679 0.095756988243205943 0 0.032767285565614111 0.1125892296806746 0 0.047979107497460302 0.12548132341442891 0 0.032767285565614111 0.1125892296806746 0 0.029642596672360091 0.13291097781391481 0 0.047979107497460302 0.12548132341442891 0 0.057108475475960679 0.095756988243205943 0 0.054911727314568962 0.074059824345592315 0 0.032757248185135063 0.090919569877719916 0 0.054911727314568962 0.074059824345592315 0 0.032757248185135063 0.090919569877719916 0 0.030623702489080709 0.07078855058867406 0 0.046860514661533632 0.053486889921397662 0 0.054911727314568962 0.074059824345592315 0 0.030623702489080709 0.07078855058867406 0 0.030623702489080709 0.07078855058867406 0 0.013078749363886919 0.084405828663627808 0 0.0097702275479361507 0.06677439252428348 0 0.025131545191868838 0.053549732913421938 0 0.030623702489080709 0.07078855058867406 0 0.0097702275479361507 0.06677439252428348 0 0.032757248185135063 0.090919569877719916 0 0.030623702489080709 0.07078855058867406 0 0.013078749363886919 0.084405828663627808 0 0.032757248185135063 0.090919569877719916 0 0.013078749363886919 0.084405828663627808 0 0.013462629046407319 0.1028620351041461 0 -0.0054951699267350466 0.079332608214356518 0 0.013078749363886919 0.084405828663627808 0 0.001225275056731851 0.094430134795203124 0 -0.0054951699267350466 0.079332608214356518 0 -0.0024581838586089869 0.058409737991047053 0 0.0097702275479361507 0.06677439252428348 0 -0.0054951699267350466 0.079332608214356518 0 0.013078749363886919 0.084405828663627808 0 0.0097702275479361507 0.06677439252428348 0 0.032767285565614111 0.1125892296806746 0 0.0084260956552675292 0.12942147111814331 0 0.029642596672360091 0.13291097781391481 0 0.032767285565614111 0.1125892296806746 0 0.013462629046407319 0.1028620351041461 0 0.0084260956552675292 0.12942147111814331 0 0.032767285565614111 0.1125892296806746 0 0.0084260956552675292 0.12942147111814331 0 0.032767285565614111 0.1125892296806746 0 0.032757248185135063 0.090919569877719916 0 0.013462629046407319 0.1028620351041461 0 -0.00399601599690547 0.110215021062589 0 0.001225275056731851 0.094430134795203124 0 0.013462629046407319 0.1028620351041461 0 0.013078749363886919 0.084405828663627808 0 0.001225275056731851 0.094430134795203124 0 0.013462629046407319 0.1028620351041461 0 -0.00399601599690547 0.110215021062589 0 0.013462629046407319 0.1028620351041461 0 0.0084260956552675292 0.12942147111814331 0 0.0084260956552675292 0.12942147111814331 0 0.029642596672360091 0.13291097781391481 0 0.01900452960036151 0.14876975900042549 0 0.01900452960036151 0.14876975900042549 0 0.028095728376625741 0.15986240311589589 0 0.040226953067611378 0.14834659376782411 0 0.029642596672360091 0.13291097781391481 0 0.01900452960036151 0.14876975900042549 0 0.040226953067611378 0.14834659376782411 0 0.0084260956552675292 0.12942147111814331 0 0.01900452960036151 0.14876975900042549 0 0.00037710987242178221 0.14379787181340531 0 0.01900452960036151 0.14876975900042549 0 0.00037710987242178221 0.14379787181340531 0 0.0045628408116959712 0.15534051611101829 0 0.01900452960036151 0.14876975900042549 0 0.0045628408116959712 0.15534051611101829 0 0.01662270484735965 0.16163344345980499 0 -0.0073640530285416922 0.15834233694705441 0 0.0045628408116959712 0.15534051611101829 0 0.0058446175130525899 0.16871572957262029 0 0.0058446175130525899 0.16871572957262029 0 0.02457490306341386 0.1727990014491505 0 0.0045628408116959712 0.15534051611101829 0 0.0058446175130525899 0.16871572957262029 0 0.01662270484735965 0.16163344345980499 0 0.0058446175130525899 0.16871572957262029 0 0.01043883237633478 0.18532992050986971 0 0.02457490306341386 0.1727990014491505 0 -0.0092191882990629876 0.18725681594906529 0 0.0058446175130525899 0.16871572957262029 0 0.01043883237633478 0.18532992050986971 0 0.030604924409864551 0.17535197903395841 0 0.02457490306341386 0.1727990014491505 0 0.031587613660483647 0.1909887965649969 0 0.01043883237633478 0.18532992050986971 0 0.02457490306341386 0.1727990014491505 0 0.021067739340381392 0.20000795358340759 0 0.02457490306341386 0.1727990014491505 0 0.021067739340381392 0.20000795358340759 0 0.0058446175130525899 0.16871572957262029 0 0.02457490306341386 0.1727990014491505 0 0.01662270484735965 0.16163344345980499 0 0.01900452960036151 0.14876975900042549 0 0.01662270484735965 0.16163344345980499 0 0.028095728376625741 0.15986240311589589 0 0.02457490306341386 0.1727990014491505 0 0.01662270484735965 0.16163344345980499 0 0.028095728376625741 0.15986240311589589 0 0.02457490306341386 0.1727990014491505 0 0.028095728376625741 0.15986240311589589 0 0.039531521488972272 0.16326024355044191 0 0.039531521488972272 0.16326024355044191 0 0.055382861848749382 0.1632532919617978 0 0.040226953067611378 0.14834659376782411 0 0.028095728376625741 0.15986240311589589 0 0.039531521488972272 0.16326024355044191 0 0.040226953067611378 0.14834659376782411 0 0.02457490306341386 0.1727990014491505 0 0.039531521488972272 0.16326024355044191 0 0.049369729110986783 0.17802309785348491 0 0.02457490306341386 0.1727990014491505 0 0.049369729110986783 0.17802309785348491 0 0.030604924409864551 0.17535197903395841 0 0.046157649632274207 0.19784338476967869 0 0.030604924409864551 0.17535197903395841 0 0.02457490306341386 0.1727990014491505 0 0.049369729110986783 0.17802309785348491 0 0.030604924409864551 0.17535197903395841 0 0.049369729110986783 0.17802309785348491 0 0.046157649632274207 0.19784338476967869 0 0.049369729110986783 0.17802309785348491 0 0.074148603938642949 0.18332178877326619 0 0.049369729110986783 0.17802309785348491 0 0.055382861848749382 0.1632532919617978 0 0.074148603938642949 0.18332178877326619 0 0.049369729110986783 0.17802309785348491 0 0.059700079829083673 0.19031544371717141 0 0.074148603938642949 0.18332178877326619 0 0.039531521488972272 0.16326024355044191 0 0.049369729110986783 0.17802309785348491 0 0.055382861848749382 0.1632532919617978 0 0.055382861848749382 0.1632532919617978 0 0.040226953067611378 0.14834659376782411 0 0.064097912102710417 0.1419654399510831 0 0.047979107497460302 0.12548132341442891 0 0.040226953067611378 0.14834659376782411 0 0.064097912102710417 0.1419654399510831 0 0.067287691523265525 0.1222306585329891 0 0.047979107497460302 0.12548132341442891 0 0.064097912102710417 0.1419654399510831 0 0.029642596672360091 0.13291097781391481 0 0.047979107497460302 0.12548132341442891 0 0.040226953067611378 0.14834659376782411 0 0.02746268471958329 0.2456751054812463 0 0.01756057561734892 0.2272169057176647 0 0.038012993788099261 0.23303791348066369 0 0.02746268471958329 0.2456751054812463 0 0.01756057561734892 0.2272169057176647 0 0.014053411894316451 0.25442585785192179 0 0.01756057561734892 0.2272169057176647 0 0.014053411894316451 0.25442585785192179 0 0.0074593414502525431 0.24241095575029509 0 0.01756057561734892 0.2272169057176647 0 0.014053411894316451 0.25442585785192179 0 -0.001854326382736354 0.23235634342411829 0 0.0074593414502525431 0.24241095575029509 0 0.0018281045754269601 0.25490610716164469 0 -0.001854326382736354 0.23235634342411829 0 0.01756057561734892 0.2272169057176647 0 0.0084217862111890286 0.2132630944205364 0 -0.001854326382736354 0.23235634342411829 0 0.0074593414502525431 0.24241095575029509 0 0.01756057561734892 0.2272169057176647 0 0.01756057561734892 0.2272169057176647 0 0.035532851856484193 0.2089416639887893 0 0.038012993788099261 0.23303791348066369 0 0.01756057561734892 0.2272169057176647 0 0.0084217862111890286 0.2132630944205364 0 0.021067739340381392 0.20000795358340759 0 0.01756057561734892 0.2272169057176647 0 0.021067739340381392 0.20000795358340759 0 0.01756057561734892 0.2272169057176647 0 0.021067739340381392 0.20000795358340759 0 0.035532851856484193 0.2089416639887893 0 -0.0055367573408996677 0.2098065796865918 0 -0.001854326382736354 0.23235634342411829 0 0.0084217862111890286 0.2132630944205364 0 -0.0055367573408996677 0.2098065796865918 0 0.0084217862111890286 0.2132630944205364 0 0.0058029913319277626 0.1988164579655215 0 0.0084217862111890286 0.2132630944205364 0 0.0058029913319277626 0.1988164579655215 0 0.021067739340381392 0.20000795358340759 0 -0.0092191882990629876 0.18725681594906529 0 0.01043883237633478 0.18532992050986971 0 0.0058029913319277626 0.1988164579655215 0 0.01043883237633478 0.18532992050986971 0 0.0058029913319277626 0.1988164579655215 0 0.021067739340381392 0.20000795358340759 0 0.021067739340381392 0.20000795358340759 0 0.031587613660483647 0.1909887965649969 0 0.035532851856484193 0.2089416639887893 0 0.02457490306341386 0.1727990014491505 0 0.021067739340381392 0.20000795358340759 0 0.031587613660483647 0.1909887965649969 0 0.046157649632274207 0.19784338476967869 0 0.031587613660483647 0.1909887965649969 0 0.035532851856484193 0.2089416639887893 0 0.030604924409864551 0.17535197903395841 0 0.046157649632274207 0.19784338476967869 0 0.031587613660483647 0.1909887965649969 0 0.049369729110986783 0.17802309785348491 0 0.046157649632274207 0.19784338476967869 0 0.059700079829083673 0.19031544371717141 0 0.046157649632274207 0.19784338476967869 0 0.059700079829083673 0.19031544371717141 0 0.069124336634430725 0.20207350347225569 0 0.046157649632274207 0.19784338476967869 0 0.061710374854683857 0.220334790505399 0 0.046157649632274207 0.19784338476967869 0 0.046283279716640063 0.220010921258846 0 0.061710374854683857 0.220334790505399 0 0.046157649632274207 0.19784338476967869 0 0.061710374854683857 0.220334790505399 0 0.069124336634430725 0.20207350347225569 0 0.046157649632274207 0.19784338476967869 0 0.035532851856484193 0.2089416639887893 0 0.046283279716640063 0.220010921258846 0 0.035532851856484193 0.2089416639887893 0 0.046283279716640063 0.220010921258846 0 0.038012993788099261 0.23303791348066369 0 0.035532851856484193 0.2089416639887893 0 0.038012993788099261 0.23303791348066369 0 0.046283279716640063 0.220010921258846 0 0.038012993788099261 0.23303791348066369 0 0.057083032817213712 0.24015761000205171 0 0.046283279716640063 0.220010921258846 0 0.061710374854683857 0.220334790505399 0 0.057083032817213712 0.24015761000205171 0 0.057083032817213712 0.24015761000205171 0 0.067370036557761914 0.24990284466022961 0 0.059880671092151699 0.25788357071810009 0 0.038012993788099261 0.23303791348066369 0 0.040493135719714322 0.25713416297253822 0 0.038012993788099261 0.23303791348066369 0 0.057083032817213712 0.24015761000205171 0 0.040493135719714322 0.25713416297253822 0 0.02746268471958329 0.2456751054812463 0 0.038012993788099261 0.23303791348066369 0 0.040493135719714322 0.25713416297253822 0 0.091865700672220982 0.24201831340068489 0 0.077263100077093541 0.24282619624111931 0 0.080495018653325867 0.2220459084364704 0 0.061710374854683857 0.220334790505399 0 0.057083032817213712 0.24015761000205171 0 0.077263100077093541 0.24282619624111931 0 0.057083032817213712 0.24015761000205171 0 0.077263100077093541 0.24282619624111931 0 0.067370036557761914 0.24990284466022961 0 0.061710374854683857 0.220334790505399 0 0.077263100077093541 0.24282619624111931 0 0.061710374854683857 0.220334790505399 0 0.077263100077093541 0.24282619624111931 0 0.080495018653325867 0.2220459084364704 0 0.091865700672220982 0.24201831340068489 0 0.080495018653325867 0.2220459084364704 0 0.091865700672220982 0.24201831340068489 0 0.080495018653325867 0.2220459084364704 0 0.09948530935937841 0.22386949458785399 0 0.080495018653325867 0.2220459084364704 0 0.08814335775654808 0.20446858024994799 0 0.09948530935937841 0.22386949458785399 0 0.080495018653325867 0.2220459084364704 0 0.08814335775654808 0.20446858024994799 0 0.069124336634430725 0.20207350347225569 0 0.080495018653325867 0.2220459084364704 0 0.069124336634430725 0.20207350347225569 0 0.061710374854683857 0.220334790505399 0 0.080495018653325867 0.2220459084364704 0 0.069124336634430725 0.20207350347225569 0 0.08814335775654808 0.20446858024994799 0 0.069124336634430725 0.20207350347225569 0 0.074148603938642949 0.18332178877326619 0 0.059700079829083673 0.19031544371717141 0 0.069124336634430725 0.20207350347225569 0 0.074148603938642949 0.18332178877326619 0 0.08814335775654808 0.20446858024994799 0 0.098927478766299162 0.18862047969304749 0 0.074148603938642949 0.18332178877326619 0 0.08814335775654808 0.20446858024994799 0 0.098927478766299162 0.18862047969304749 0 0.1084689649065697 0.20695209829303629 0 0.098927478766299162 0.18862047969304749 0 0.1237063535939554 0.19391917061282879 0 0.1084689649065697 0.20695209829303629 0 0.098927478766299162 0.18862047969304749 0 0.1237063535939554 0.19391917061282879 0 0.1084689649065697 0.20695209829303629 0 0.11788533550294419 0.22465427846158401 0 0.12944960099952879 0.21040989965961121 0 0.1237063535939554 0.19391917061282879 0 0.1084689649065697 0.20695209829303629 0 0.12944960099952879 0.21040989965961121 0 0.1084689649065697 0.20695209829303629 0 0.09948530935937841 0.22386949458785399 0 0.11788533550294419 0.22465427846158401 0 0.08814335775654808 0.20446858024994799 0 0.1084689649065697 0.20695209829303629 0 0.09948530935937841 0.22386949458785399 0 0.09948530935937841 0.22386949458785399 0 0.11788533550294419 0.22465427846158401 0 0.1109841398508972 0.24113711121371811 0 0.11788533550294419 0.22465427846158401 0 0.1109841398508972 0.24113711121371811 0 0.13139102681811221 0.23830641424607599 0 0.1109841398508972 0.24113711121371811 0 0.13139102681811221 0.23830641424607599 0 0.1242540576614666 0.25528058225681932 0 0.091865700672220982 0.24201831340068489 0 0.1109841398508972 0.24113711121371811 0 0.1032363826911159 0.26199071836489968 0 0.091865700672220982 0.24201831340068489 0 0.09948530935937841 0.22386949458785399 0 0.1109841398508972 0.24113711121371811 0 0.083830870357949949 0.1455333070656144 0 0.087503630664034576 0.16650882617547169 0 0.096475596054779261 0.15565686176649371 0 0.083830870357949949 0.1455333070656144 0 0.091699416642060647 0.12652549286736289 0 0.077895302288648605 0.13206756621416421 0 0.083830870357949949 0.1455333070656144 0 0.091699416642060647 0.12652549286736289 0 0.1045882588906125 0.14311555329537229 0 0.080673283538479787 0.11722804570552341 0 0.091699416642060647 0.12652549286736289 0 0.077895302288648605 0.13206756621416421 0 0.067287691523265525 0.1222306585329891 0 0.077895302288648605 0.13206756621416421 0 0.064097912102710417 0.1419654399510831 0 0.083830870357949949 0.1455333070656144 0 0.077895302288648605 0.13206756621416421 0 0.064097912102710417 0.1419654399510831 0 0.083830870357949949 0.1455333070656144 0 0.064097912102710417 0.1419654399510831 0 0.070586625279683027 0.16049114363447681 0 0.055382861848749382 0.1632532919617978 0 0.064097912102710417 0.1419654399510831 0 0.070586625279683027 0.16049114363447681 0 0.055382861848749382 0.1632532919617978 0 0.070586625279683027 0.16049114363447681 0 0.074148603938642949 0.18332178877326619 0 0.070586625279683027 0.16049114363447681 0 0.074148603938642949 0.18332178877326619 0 0.087503630664034576 0.16650882617547169 0 0.098927478766299162 0.18862047969304749 0 0.074148603938642949 0.18332178877326619 0 0.098927478766299162 0.18862047969304749 0 0.074148603938642949 0.18332178877326619 0 0.087503630664034576 0.16650882617547169 0 0.083830870357949949 0.1455333070656144 0 0.070586625279683027 0.16049114363447681 0 0.087503630664034576 0.16650882617547169 0 0.087503630664034576 0.16650882617547169 0 0.10997962430652 0.16746976052951609 0 0.096475596054779261 0.15565686176649371 0 0.098927478766299162 0.18862047969304749 0 0.087503630664034576 0.16650882617547169 0 0.10997962430652 0.16746976052951609 0 0.098927478766299162 0.18862047969304749 0 0.1237063535939554 0.19391917061282879 0 0.10997962430652 0.16746976052951609 0 0.1237063535939554 0.19391917061282879 0 0.10997962430652 0.16746976052951609 0 0.13676932262555791 0.1739083444539597 0 0.10997962430652 0.16746976052951609 0 0.1229137830663949 0.15175737692973179 0 0.13676932262555791 0.1739083444539597 0 0.1229137830663949 0.15175737692973179 0 0.1045882588906125 0.14311555329537229 0 0.12325502479506641 0.1273969758757173 0 0.10997962430652 0.16746976052951609 0 0.1229137830663949 0.15175737692973179 0 0.1045882588906125 0.14311555329537229 0 0.083830870357949949 0.1455333070656144 0 0.1045882588906125 0.14311555329537229 0 0.096475596054779261 0.15565686176649371 0 0.10997962430652 0.16746976052951609 0 0.1045882588906125 0.14311555329537229 0 0.096475596054779261 0.15565686176649371 0 0.091699416642060647 0.12652549286736289 0 0.1045882588906125 0.14311555329537229 0 0.106310778933303 0.12740706605373039 0 0.1045882588906125 0.14311555329537229 0 0.106310778933303 0.12740706605373039 0 0.12325502479506641 0.1273969758757173 0 0.1229137830663949 0.15175737692973179 0 0.12325502479506641 0.1273969758757173 0 0.14788735518525209 0.14032950868366931 0 0.12325502479506641 0.1273969758757173 0 0.14788735518525209 0.14032950868366931 0 0.14795371911082991 0.1144771203224408 0 0.14788735518525209 0.14032950868366931 0 0.14795371911082991 0.1144771203224408 0 0.1675806128408095 0.123930682902576 0 0.14788735518525209 0.14032950868366931 0 0.15584650191307639 0.16318615543614559 0 0.1408542406975703 0.15729534637587661 0 0.1229137830663949 0.15175737692973179 0 0.14788735518525209 0.14032950868366931 0 0.1408542406975703 0.15729534637587661 0 0.13676932262555791 0.1739083444539597 0 0.15584650191307639 0.16318615543614559 0 0.1506248621847209 0.19605931197818749 0 0.1229137830663949 0.15175737692973179 0 0.13676932262555791 0.1739083444539597 0 0.1408542406975703 0.15729534637587661 0 0.1229137830663949 0.15175737692973179 0 0.13676932262555791 0.1739083444539597 0 0.13676932262555791 0.1739083444539597 0 0.1506248621847209 0.19605931197818749 0 0.13676932262555791 0.1739083444539597 0 0.15584650191307639 0.16318615543614559 0 0.1408542406975703 0.15729534637587661 0 0.15584650191307639 0.16318615543614559 0 0.1717261794935061 0.17902678635630029 0 0.1751737008626113 0.15734358877489199 0 0.15584650191307639 0.16318615543614559 0 0.1717261794935061 0.17902678635630029 0 0.1506248621847209 0.19605931197818749 0 0.1717261794935061 0.17902678635630029 0 0.1869453225734681 0.16753691158517089 0 0.1903294842428867 0.1820079375441005 0 0.1751737008626113 0.15734358877489199 0 0.1869453225734681 0.16753691158517089 0 0.19738073109362991 0.15207423064254719 0 0.1717261794935061 0.17902678635630029 0 0.1751737008626113 0.15734358877489199 0 0.1869453225734681 0.16753691158517089 0 0.1751737008626113 0.15734358877489199 0 0.1843217718390511 0.1333378643927664 0 0.16750464822525449 0.14174201221953989 0 0.1751737008626113 0.15734358877489199 0 0.1843217718390511 0.1333378643927664 0 0.19738073109362991 0.15207423064254719 0 0.1843217718390511 0.1333378643927664 0 0.16750464822525449 0.14174201221953989 0 0.1675806128408095 0.123930682902576 0 0.14788735518525209 0.14032950868366931 0 0.16750464822525449 0.14174201221953989 0 0.1675806128408095 0.123930682902576 0 0.14788735518525209 0.14032950868366931 0 0.15584650191307639 0.16318615543614559 0 0.16750464822525449 0.14174201221953989 0 0.15584650191307639 0.16318615543614559 0 0.1751737008626113 0.15734358877489199 0 0.16750464822525449 0.14174201221953989 0 0.14527173263181689 0.24857044614873761 0 0.16628940760216721 0.24186031004065581 0 0.14527173263181689 0.24857044614873761 0 0.15264919119091319 0.23540718591837689 0 0.13139102681811221 0.23830641424607599 0 0.14527173263181689 0.24857044614873761 0 0.15264919119091319 0.23540718591837689 0 0.16628940760216721 0.24186031004065581 0 0.14527173263181689 0.24857044614873761 0 0.13139102681811221 0.23830641424607599 0 0.1242540576614666 0.25528058225681932 0 0.11788533550294419 0.22465427846158401 0 0.14168217952405149 0.22504268063436569 0 0.12944960099952879 0.21040989965961121 0 0.11788533550294419 0.22465427846158401 0 0.13139102681811221 0.23830641424607599 0 0.14168217952405149 0.22504268063436569 0 0.15264919119091319 0.23540718591837689 0 0.14168217952405149 0.22504268063436569 0 0.16448040174388379 0.2182102795024152 0 0.15264919119091319 0.23540718591837689 0 0.13139102681811221 0.23830641424607599 0 0.14168217952405149 0.22504268063436569 0 0.14168217952405149 0.22504268063436569 0 0.1506248621847209 0.19605931197818749 0 0.16448040174388379 0.2182102795024152 0 0.14168217952405149 0.22504268063436569 0 0.12944960099952879 0.21040989965961121 0 0.1506248621847209 0.19605931197818749 0 0.1237063535939554 0.19391917061282879 0 0.13676932262555791 0.1739083444539597 0 0.1506248621847209 0.19605931197818749 0 0.1237063535939554 0.19391917061282879 0 0.12944960099952879 0.21040989965961121 0 0.1506248621847209 0.19605931197818749 0 0.1717261794935061 0.17902678635630029 0 0.1506248621847209 0.19605931197818749 0 0.18159938945639409 0.20321079644501761 0 0.1717261794935061 0.17902678635630029 0 0.18159938945639409 0.20321079644501761 0 0.1903294842428867 0.1820079375441005 0 0.18159938945639409 0.20321079644501761 0 0.16448040174388379 0.2182102795024152 0 0.1824950839082761 0.22424623995324069 0 0.18159938945639409 0.20321079644501761 0 0.1824950839082761 0.22424623995324069 0 0.19578586472090559 0.2210029428573769 0 0.1506248621847209 0.19605931197818749 0 0.18159938945639409 0.20321079644501761 0 0.16448040174388379 0.2182102795024152 0 0.1506248621847209 0.19605931197818749 0 0.16448040174388379 0.2182102795024152 0 0.16448040174388379 0.2182102795024152 0 0.17833594130304681 0.24036124702664291 0 0.16448040174388379 0.2182102795024152 0 0.17833594130304681 0.24036124702664291 0 0.16628940760216721 0.24186031004065581 0 0.15264919119091319 0.23540718591837689 0 0.16448040174388379 0.2182102795024152 0 0.16628940760216721 0.24186031004065581 0 0.1824950839082761 0.22424623995324069 0 0.17833594130304681 0.24036124702664291 0 0.18739871420508999 0.23779636770300611 0 0.16448040174388379 0.2182102795024152 0 0.1824950839082761 0.22424623995324069 0 0.17833594130304681 0.24036124702664291 0 0.17833594130304681 0.24036124702664291 0 0.18739871420508999 0.23779636770300611 0 0.1897668527688976 0.24649595439529251 0 0.17833594130304681 0.24036124702664291 0 0.1897668527688976 0.24649595439529251 0 0.17807733320552099 0.25045012699835051 0 0.17833594130304681 0.24036124702664291 0 0.16628940760216721 0.24186031004065581 0 0.17807733320552099 0.25045012699835051 0 0.14527173263181689 0.24857044614873761 0 0.16628940760216721 0.24186031004065581 0 0.15796379009229131 0.25377141809728448 0 0.2119892892693469 0.2391139126272728 0 0.21569748504132349 0.25570309176112233 0 0.21153344158500181 0.24941587977091709 0 0.2119892892693469 0.2391139126272728 0 0.21569748504132349 0.25570309176112233 0 0.2119892892693469 0.2391139126272728 0 0.2047650383016105 0.2323132146249898 0 0.21336478564253891 0.2319785300492859 0 0.2119892892693469 0.2391139126272728 0 0.20616692951239091 0.24028324000039089 0 0.2047650383016105 0.2323132146249898 0 0.20616692951239091 0.24028324000039089 0 0.20091446391324691 0.23956172130539841 0 0.2047650383016105 0.2323132146249898 0 0.2119892892693469 0.2391139126272728 0 0.20616692951239091 0.24028324000039089 0 0.20875591252469941 0.24503038252337239 0 0.20616692951239091 0.24028324000039089 0 0.20440994355305059 0.24539696892092119 0 0.20091446391324691 0.23956172130539841 0 0.20616692951239091 0.24028324000039089 0 0.20440994355305059 0.24539696892092119 0 0.20875591252469941 0.24503038252337239 0 0.21153344158500181 0.24941587977091709 0 0.2119892892693469 0.2391139126272728 0 0.20875591252469941 0.24503038252337239 0 0.21153344158500181 0.24941587977091709 0 0.20875591252469941 0.24503038252337239 0 0.20724033172106701 0.24957003866010871 0 0.20440994355305059 0.24539696892092119 0 0.20875591252469941 0.24503038252337239 0 0.20724033172106701 0.24957003866010871 0 0.20440994355305059 0.24539696892092119 0 0.20724033172106701 0.24957003866010871 0 0.2026128338552913 0.25131534802752492 0 0.20440994355305059 0.24539696892092119 0 0.19807763240106999 0.2458668753515971 0 0.2026128338552913 0.25131534802752492 0 0.20440994355305059 0.24539696892092119 0 0.19807763240106999 0.2458668753515971 0 0.20091446391324691 0.23956172130539841 0 0.19807763240106999 0.2458668753515971 0 0.2026128338552913 0.25131534802752492 0 0.19555475708264991 0.25172547770770559 0 0.19807763240106999 0.2458668753515971 0 0.1897668527688976 0.24649595439529251 0 0.19407735677255469 0.2404642137001213 0 0.19807763240106999 0.2458668753515971 0 0.1897668527688976 0.24649595439529251 0 0.19555475708264991 0.25172547770770559 0 0.18739871420508999 0.23779636770300611 0 0.1897668527688976 0.24649595439529251 0 0.19407735677255469 0.2404642137001213 0 0.18739871420508999 0.23779636770300611 0 0.19407735677255469 0.2404642137001213 0 0.19422912057446909 0.23260014974531229 0 0.20091446391324691 0.23956172130539841 0 0.19422912057446909 0.23260014974531229 0 0.2047650383016105 0.2323132146249898 0 0.19407735677255469 0.2404642137001213 0 0.20091446391324691 0.23956172130539841 0 0.19422912057446909 0.23260014974531229 0 0.19807763240106999 0.2458668753515971 0 0.19407735677255469 0.2404642137001213 0 0.20091446391324691 0.23956172130539841 0 0.19422912057446909 0.23260014974531229 0 0.19578586472090559 0.2210029428573769 0 0.2047650383016105 0.2323132146249898 0 0.1824950839082761 0.22424623995324069 0 0.18739871420508999 0.23779636770300611 0 0.19422912057446909 0.23260014974531229 0 0.1824950839082761 0.22424623995324069 0 0.19422912057446909 0.23260014974531229 0 0.19578586472090559 0.2210029428573769 0 0.2090045084167112 0.21884949600086989 0 0.21336478564253891 0.2319785300492859 0 0.22610474170671599 0.21232658861969189 0 0.2119892892693469 0.2391139126272728 0 0.21336478564253891 0.2319785300492859 0 0.23019294522225001 0.22979255870747181 0 0.19578586472090559 0.2210029428573769 0 0.2090045084167112 0.21884949600086989 0 0.2047650383016105 0.2323132146249898 0 0.2090045084167112 0.21884949600086989 0 0.2047650383016105 0.2323132146249898 0 0.21336478564253891 0.2319785300492859 0 0.2090045084167112 0.21884949600086989 0 0.21270135903222029 0.20365439378577099 0 0.22610474170671599 0.21232658861969189 0 0.2090045084167112 0.21884949600086989 0 0.21270135903222029 0.20365439378577099 0 0.20001081521665601 0.20828456131794401 0 0.19578586472090559 0.2210029428573769 0 0.2090045084167112 0.21884949600086989 0 0.20001081521665601 0.20828456131794401 0 0.18159938945639409 0.20321079644501761 0 0.19578586472090559 0.2210029428573769 0 0.20001081521665601 0.20828456131794401 0 0.18159938945639409 0.20321079644501761 0 0.20001081521665601 0.20828456131794401 0 0.20103239955785321 0.19459816858232659 0 0.18159938945639409 0.20321079644501761 0 0.20103239955785321 0.19459816858232659 0 0.1903294842428867 0.1820079375441005 0 0.20103239955785321 0.19459816858232659 0 0.2151937476607719 0.1905842980412589 0 0.20635960173819001 0.1798470243598678 0 0.21270135903222029 0.20365439378577099 0 0.20103239955785321 0.19459816858232659 0 0.2151937476607719 0.1905842980412589 0 0.21270135903222029 0.20365439378577099 0 0.20001081521665601 0.20828456131794401 0 0.20103239955785321 0.19459816858232659 0 0.21270135903222029 0.20365439378577099 0 0.2151937476607719 0.1905842980412589 0 0.22404724040347271 0.1971576419427126 0 0.23884469777089321 0.19267464719009789 0 0.22610474170671599 0.21232658861969189 0 0.22404724040347271 0.1971576419427126 0 0.23884469777089321 0.19267464719009789 0 0.22610474170671599 0.21232658861969189 0 0.2151937476607719 0.1905842980412589 0 0.22404724040347271 0.1971576419427126 0 0.22739165584676199 0.18654828207674329 0 0.22404724040347271 0.1971576419427126 0 0.23884469777089321 0.19267464719009789 0 0.22739165584676199 0.18654828207674329 0 0.23884469777089321 0.19267464719009789 0 0.24468840540317599 0.20388202565382091 0 0.2485754056483104 0.1868877178011481 0 0.23884469777089321 0.19267464719009789 0 0.24468840540317599 0.20388202565382091 0 0.22610474170671599 0.21232658861969189 0 0.24468840540317599 0.20388202565382091 0 0.23019294522225001 0.22979255870747181 0 0.24468840540317599 0.20388202565382091 0 0.22610474170671599 0.21232658861969189 0 0.23019294522225001 0.22979255870747181 0 0.21270135903222029 0.20365439378577099 0 0.22404724040347271 0.1971576419427126 0 0.22610474170671599 0.21232658861969189 0 0.21336478564253891 0.2319785300492859 0 0.22610474170671599 0.21232658861969189 0 0.23019294522225001 0.22979255870747181 0 0.21336478564253891 0.2319785300492859 0 0.22610474170671599 0.21232658861969189 0 0.23019294522225001 0.22979255870747181 0 0.24316293902537719 0.2413439192186545 0 0.25199020560742091 0.22434980850916861 0 0.24468840540317599 0.20388202565382091 0 0.23019294522225001 0.22979255870747181 0 0.25199020560742091 0.22434980850916861 0 0.23019294522225001 0.22979255870747181 0 0.24316293902537719 0.2413439192186545 0 0.2332221273836326 0.2484260950697077 0 0.24316293902537719 0.2413439192186545 0 0.24073748530606759 0.26238945068988739 0 0.25967193160751512 0.2417616831170373 0 0.23019294522225001 0.22979255870747181 0 0.21569748504132349 0.25570309176112233 0 0.22580675107780779 0.25061744993436252 0 0.2119892892693469 0.2391139126272728 0 0.23019294522225001 0.22979255870747181 0 0.21569748504132349 0.25570309176112233 0 0.23019294522225001 0.22979255870747181 0 0.21569748504132349 0.25570309176112233 0 0.23019294522225001 0.22979255870747181 0 0.2332221273836326 0.2484260950697077 0 0.22580675107780779 0.25061744993436252 0 0.21419737824559901 0.14520090614121201 0 0.20628983711823001 0.12939589722436079 0 0.19738073109362991 0.15207423064254719 0 0.21419737824559901 0.14520090614121201 0 0.2135754577941093 0.1617620592712484 0 0.227710499243792 0.1491085302322904 0 0.21419737824559901 0.14520090614121201 0 0.19738073109362991 0.15207423064254719 0 0.2135754577941093 0.1617620592712484 0 0.21419737824559901 0.14520090614121201 0 0.20628983711823001 0.12939589722436079 0 0.22656624777381609 0.13320641469870931 0 0.20628983711823001 0.12939589722436079 0 0.22656624777381609 0.13320641469870931 0 0.21650241136721221 0.11502336576065179 0 0.1843217718390511 0.1333378643927664 0 0.20628983711823001 0.12939589722436079 0 0.19738073109362991 0.15207423064254719 0 0.1843217718390511 0.1333378643927664 0 0.20628983711823001 0.12939589722436079 0 0.19356545779161399 0.11883267954763919 0 0.1869453225734681 0.16753691158517089 0 0.19738073109362991 0.15207423064254719 0 0.2001165171747066 0.16723201460801421 0 0.20103239955785321 0.19459816858232659 0 0.1903294842428867 0.1820079375441005 0 0.20635960173819001 0.1798470243598678 0 0.2001165171747066 0.16723201460801421 0 0.1903294842428867 0.1820079375441005 0 0.20635960173819001 0.1798470243598678 0 0.1869453225734681 0.16753691158517089 0 0.2001165171747066 0.16723201460801421 0 0.1903294842428867 0.1820079375441005 0 0.20635960173819001 0.1798470243598678 0 0.2135754577941093 0.1617620592712484 0 0.22071842779561721 0.1761152514260399 0 0.2151937476607719 0.1905842980412589 0 0.20635960173819001 0.1798470243598678 0 0.22071842779561721 0.1761152514260399 0 0.2001165171747066 0.16723201460801421 0 0.20635960173819001 0.1798470243598678 0 0.2135754577941093 0.1617620592712484 0 0.19738073109362991 0.15207423064254719 0 0.2001165171747066 0.16723201460801421 0 0.2135754577941093 0.1617620592712484 0 0.2135754577941093 0.1617620592712484 0 0.2292217568332697 0.16322531667253451 0 0.227710499243792 0.1491085302322904 0 0.2135754577941093 0.1617620592712484 0 0.2292217568332697 0.16322531667253451 0 0.22071842779561721 0.1761152514260399 0 0.2292217568332697 0.16322531667253451 0 0.23256834690060041 0.17472452813458661 0 0.24132945869022021 0.16611250533986449 0 0.2292217568332697 0.16322531667253451 0 0.22071842779561721 0.1761152514260399 0 0.23256834690060041 0.17472452813458661 0 0.2151937476607719 0.1905842980412589 0 0.22071842779561721 0.1761152514260399 0 0.22739165584676199 0.18654828207674329 0 0.22071842779561721 0.1761152514260399 0 0.23256834690060041 0.17472452813458661 0 0.22739165584676199 0.18654828207674329 0 0.23884469777089321 0.19267464719009789 0 0.22739165584676199 0.18654828207674329 0 0.23506584957602081 0.18263751393743841 0 0.23256834690060041 0.17472452813458661 0 0.22739165584676199 0.18654828207674329 0 0.23506584957602081 0.18263751393743841 0 0.23884469777089321 0.19267464719009789 0 0.23506584957602081 0.18263751393743841 0 0.24145869778582771 0.17660259834832609 0 0.23884469777089321 0.19267464719009789 0 0.2485754056483104 0.1868877178011481 0 0.25158465383507039 0.1730227057605038 0 0.23884469777089321 0.19267464719009789 0 0.25158465383507039 0.1730227057605038 0 0.23884469777089321 0.19267464719009789 0 0.24145869778582771 0.17660259834832609 0 0.25158465383507039 0.1730227057605038 0 0.23256834690060041 0.17472452813458661 0 0.24145869778582771 0.17660259834832609 0 0.24132945869022021 0.16611250533986449 0 0.23256834690060041 0.17472452813458661 0 0.23506584957602081 0.18263751393743841 0 0.24145869778582771 0.17660259834832609 0 0.24145869778582771 0.17660259834832609 0 0.24132945869022021 0.16611250533986449 0 0.25158465383507039 0.1730227057605038 0 0.2292217568332697 0.16322531667253451 0 0.24132945869022021 0.16611250533986449 0 0.24090505727514139 0.15333646753499561 0 0.24132945869022021 0.16611250533986449 0 0.25038525607998219 0.15849700061999919 0 0.25158465383507039 0.1730227057605038 0 0.24132945869022021 0.16611250533986449 0 0.24090505727514139 0.15333646753499561 0 0.25038525607998219 0.15849700061999919 0 0.24090505727514139 0.15333646753499561 0 0.25193193932597752 0.14713931079427281 0 0.25038525607998219 0.15849700061999919 0 0.24090505727514139 0.15333646753499561 0 0.2417970975408163 0.13792001707504239 0 0.25193193932597752 0.14713931079427281 0 0.24090505727514139 0.15333646753499561 0 0.227710499243792 0.1491085302322904 0 0.2417970975408163 0.13792001707504239 0 0.21419737824559901 0.14520090614121201 0 0.227710499243792 0.1491085302322904 0 0.22656624777381609 0.13320641469870931 0 0.2292217568332697 0.16322531667253451 0 0.24090505727514139 0.15333646753499561 0 0.227710499243792 0.1491085302322904 0 0.227710499243792 0.1491085302322904 0 0.22656624777381609 0.13320641469870931 0 0.2417970975408163 0.13792001707504239 0 0.2417970975408163 0.13792001707504239 0 0.2423697656658077 0.117787542713469 0 0.25802454571541811 0.1349242511299939 0 0.22656624777381609 0.13320641469870931 0 0.2417970975408163 0.13792001707504239 0 0.2423697656658077 0.117787542713469 0 0.2423697656658077 0.117787542713469 0 0.22671498561619691 0.10065083429694451 0 0.2423697656658077 0.117787542713469 0 0.241847935798329 0.099012182987027658 0 0.25526680542063002 0.099934576439572501 0 0.2423697656658077 0.117787542713469 0 0.241847935798329 0.099012182987027658 0 0.22671498561619691 0.10065083429694451 0 0.22671498561619691 0.10065083429694451 0 0.21650241136721221 0.11502336576065179 0 0.2423697656658077 0.117787542713469 0 0.22671498561619691 0.10065083429694451 0 0.21650241136721221 0.11502336576065179 0 0.22656624777381609 0.13320641469870931 0 0.2423697656658077 0.117787542713469 0 0.21650241136721221 0.11502336576065179 0 0.20628983711823001 0.12939589722436079 0 0.20366009605398949 0.1106372888234641 0 0.21650241136721221 0.11502336576065179 0 0.20628983711823001 0.12939589722436079 0 0.21650241136721221 0.11502336576065179 0 0.20366009605398949 0.1106372888234641 0 0.21650241136721221 0.11502336576065179 0 0.20746658267987089 0.097984857479406912 0 0.22671498561619691 0.10065083429694451 0 0.21650241136721221 0.11502336576065179 0 0.20746658267987089 0.097984857479406912 0 0.20746658267987089 0.097984857479406912 0 0.1915393394278902 0.1024196895302901 0 0.19074425691516159 0.085052220965083317 0 0.20366009605398949 0.1106372888234641 0 0.20746658267987089 0.097984857479406912 0 0.1915393394278902 0.1024196895302901 0 0.20366009605398949 0.1106372888234641 0 0.1915393394278902 0.1024196895302901 0 0.19356545779161399 0.11883267954763919 0 0.1915393394278902 0.1024196895302901 0 0.19356545779161399 0.11883267954763919 0 0.18155384107177319 0.11576428076740899 0 0.20628983711823001 0.12939589722436079 0 0.20366009605398949 0.1106372888234641 0 0.19356545779161399 0.11883267954763919 0 0.19723898921224389 0.068384551790237266 0 0.20711290041507641 0.079193157000746722 0 0.2015909964975737 0.060836350598934608 0 0.19723898921224389 0.068384551790237266 0 0.19074425691516159 0.085052220965083317 0 0.20711290041507641 0.079193157000746722 0 0.19723898921224389 0.068384551790237266 0 0.20711290041507641 0.079193157000746722 0 0.19723898921224389 0.068384551790237266 0 0.18751081521395549 0.057735479704549453 0 0.20746658267987089 0.097984857479406912 0 0.19074425691516159 0.085052220965083317 0 0.20711290041507641 0.079193157000746722 0 0.22671498561619691 0.10065083429694451 0 0.20746658267987089 0.097984857479406912 0 0.20711290041507641 0.079193157000746722 0 0.22671498561619691 0.10065083429694451 0 0.20711290041507641 0.079193157000746722 0 0.20711290041507641 0.079193157000746722 0 0.21156698486089021 0.066365640788462216 0 0.22472894330653989 0.070204266862927009 0 0.20711290041507641 0.079193157000746722 0 0.21156698486089021 0.066365640788462216 0 0.2015909964975737 0.060836350598934608 0 0.21156698486089021 0.066365640788462216 0 0.22472894330653989 0.070204266862927009 0 0.21283509922437099 0.055228788691240573 0 0.22472894330653989 0.070204266862927009 0 0.24304018649068179 0.077675778498124626 0 0.23264761733954159 0.054269409195625951 0 0.22671498561619691 0.10065083429694451 0 0.20711290041507641 0.079193157000746722 0 0.22472894330653989 0.070204266862927009 0 0.22671498561619691 0.10065083429694451 0 0.22472894330653989 0.070204266862927009 0 0.24304018649068179 0.077675778498124626 0 0.22671498561619691 0.10065083429694451 0 0.24304018649068179 0.077675778498124626 0 0.241847935798329 0.099012182987027658 0 0.24304018649068179 0.077675778498124626 0 0.25526680542063002 0.099934576439572501 0 0.241847935798329 0.099012182987027658 0 0.22671498561619691 0.10065083429694451 0 0.24304018649068179 0.077675778498124626 0 0.2417058165822987 0.033817259932701002 0 0.23264761733954159 0.054269409195625951 0 0.25936538736516912 0.054700722699306467 0 0.24304018649068179 0.077675778498124626 0 0.23264761733954159 0.054269409195625951 0 0.25936538736516912 0.054700722699306467 0 0.2417058165822987 0.033817259932701002 0 0.23264761733954159 0.054269409195625951 0 0.21421027106818941 0.033989638489455999 0 0.23264761733954159 0.054269409195625951 0 0.21283509922437099 0.055228788691240573 0 0.21421027106818941 0.033989638489455999 0 0.22472894330653989 0.070204266862927009 0 0.23264761733954159 0.054269409195625951 0 0.21283509922437099 0.055228788691240573 0 0.23958574122992191 0.0096517243096459655 0 0.25452241286566479 -0.0019804021957848931 0 0.23889339056157119 -0.0071219943706285751 0 0.2417058165822987 0.033817259932701002 0 0.23958574122992191 0.0096517243096459655 0 0.2251508872313587 0.0187170018075709 0 0.2417058165822987 0.033817259932701002 0 0.23958574122992191 0.0096517243096459655 0 0.25679813396748657 0.015336681868612 0 0.2417058165822987 0.033817259932701002 0 0.2251508872313587 0.0187170018075709 0 0.21421027106818941 0.033989638489455999 0 0.23958574122992191 0.0096517243096459655 0 0.223056485775536 0.00037021497681655121 0 0.23889339056157119 -0.0071219943706285751 0 0.23958574122992191 0.0096517243096459655 0 0.2251508872313587 0.0187170018075709 0 0.223056485775536 0.00037021497681655121 0 0.2251508872313587 0.0187170018075709 0 0.223056485775536 0.00037021497681655121 0 0.21006384256963601 0.01340950356727294 0 0.223056485775536 0.00037021497681655121 0 0.20838758240138319 0.001843435483734093 0 0.21006384256963601 0.01340950356727294 0 0.21006384256963601 0.01340950356727294 0 0.19692965949927091 0.022023372873666559 0 0.21421027106818941 0.033989638489455999 0 0.19692965949927091 0.022023372873666559 0 0.21421027106818941 0.033989638489455999 0 0.20040327382976361 0.035053083414584428 0 0.2251508872313587 0.0187170018075709 0 0.21006384256963601 0.01340950356727294 0 0.21421027106818941 0.033989638489455999 0 0.18829492303440001 0.029480065694153419 0 0.19692965949927091 0.022023372873666559 0 0.17921728491670111 0.019887495824756761 0 0.18829492303440001 0.029480065694153419 0 0.19692965949927091 0.022023372873666559 0 0.20040327382976361 0.035053083414584428 0 0.20838758240138319 0.001843435483734093 0 0.21006384256963601 0.01340950356727294 0 0.19052583982056931 0.003497189241160663 0 0.21006384256963601 0.01340950356727294 0 0.19692965949927091 0.022023372873666559 0 0.19052583982056931 0.003497189241160663 0 0.19692965949927091 0.022023372873666559 0 0.19052583982056931 0.003497189241160663 0 0.17921728491670111 0.019887495824756761 0 0.21283509922437099 0.055228788691240573 0 0.20022026667791859 0.046909617829482622 0 0.2015909964975737 0.060836350598934608 0 0.21156698486089021 0.066365640788462216 0 0.21283509922437099 0.055228788691240573 0 0.2015909964975737 0.060836350598934608 0 0.21283509922437099 0.055228788691240573 0 0.21421027106818941 0.033989638489455999 0 0.20022026667791859 0.046909617829482622 0 0.21421027106818941 0.033989638489455999 0 0.20040327382976361 0.035053083414584428 0 0.20022026667791859 0.046909617829482622 0 0.20040327382976361 0.035053083414584428 0 0.20022026667791859 0.046909617829482622 0 0.1866499954807091 0.039103082890303779 0 0.18829492303440001 0.029480065694153419 0 0.20040327382976361 0.035053083414584428 0 0.1866499954807091 0.039103082890303779 0 0.20022026667791859 0.046909617829482622 0 0.18751081521395549 0.057735479704549453 0 0.1866499954807091 0.039103082890303779 0 0.19723898921224389 0.068384551790237266 0 0.2015909964975737 0.060836350598934608 0 0.18751081521395549 0.057735479704549453 0 0.20022026667791859 0.046909617829482622 0 0.2015909964975737 0.060836350598934608 0 0.18751081521395549 0.057735479704549453 0 0.18751081521395549 0.057735479704549453 0 0.17130180688062319 0.052860466171153683 0 0.17336193684492521 0.06479003720551943 0 0.18751081521395549 0.057735479704549453 0 0.16790873001283341 0.03627780240835321 0 0.18751081521395549 0.057735479704549453 0 0.16790873001283341 0.03627780240835321 0 0.17130180688062319 0.052860466171153683 0 0.18751081521395549 0.057735479704549453 0 0.1866499954807091 0.039103082890303779 0 0.16790873001283341 0.03627780240835321 0 0.1866499954807091 0.039103082890303779 0 0.17827440144555551 0.031333293467455552 0 0.16790873001283341 0.03627780240835321 0 0.18829492303440001 0.029480065694153419 0 0.1866499954807091 0.039103082890303779 0 0.17827440144555551 0.031333293467455552 0 0.16790873001283341 0.03627780240835321 0 0.15459463366014961 0.05557488527695037 0 0.1468953700468647 0.03366821226699139 0 0.16790873001283341 0.03627780240835321 0 0.16226561131947681 0.030100489197853141 0 0.1468953700468647 0.03366821226699139 0 0.16790873001283341 0.03627780240835321 0 0.15459463366014961 0.05557488527695037 0 0.16790873001283341 0.03627780240835321 0 0.16226561131947681 0.030100489197853141 0 0.17130180688062319 0.052860466171153683 0 0.15459463366014961 0.05557488527695037 0 0.17336193684492521 0.06479003720551943 0 0.16790873001283341 0.03627780240835321 0 0.17130180688062319 0.052860466171153683 0 0.15459463366014961 0.05557488527695037 0 0.19052583982056931 0.003497189241160663 0 0.17921728491670111 0.019887495824756761 0 0.16871060493371709 0.018582700754076129 0 0.19052583982056931 0.003497189241160663 0 0.1735793250003613 0.0025068229842663439 0 0.16871060493371709 0.018582700754076129 0 0.19052583982056931 0.003497189241160663 0 0.17921728491670111 0.019887495824756761 0 0.19052583982056931 0.003497189241160663 0 0.16871060493371709 0.018582700754076129 0 0.16790873001283341 0.03627780240835321 0 0.17921728491670111 0.019887495824756761 0 0.16790873001283341 0.03627780240835321 0 0.17921728491670111 0.019887495824756761 0 0.16871060493371709 0.018582700754076129 0 0.17827440144555551 0.031333293467455552 0 0.16790873001283341 0.03627780240835321 0 0.17921728491670111 0.019887495824756761 0 0.18829492303440001 0.029480065694153419 0 0.17827440144555551 0.031333293467455552 0 0.17921728491670111 0.019887495824756761 0 0.16871060493371709 0.018582700754076129 0 0.16226561131947681 0.030100489197853141 0 0.1468953700468647 0.03366821226699139 0 0.16790873001283341 0.03627780240835321 0 0.16871060493371709 0.018582700754076129 0 0.16226561131947681 0.030100489197853141 0 0.16871060493371709 0.018582700754076129 0 0.1468953700468647 0.03366821226699139 0 0.1735793250003613 0.0025068229842663439 0 0.16871060493371709 0.018582700754076129 0 0.16138598618449879 0.0082399643337824294 0 0.16871060493371709 0.018582700754076129 0 0.16138598618449879 0.0082399643337824294 0 0.15114780378083209 0.016501361516293639 0 0.16138598618449879 0.0082399643337824294 0 0.15171756862039351 0.0054834398268476872 0 0.16264587623393531 -0.0023496944628062428 0 0.1735793250003613 0.0025068229842663439 0 0.16138598618449879 0.0082399643337824294 0 0.16264587623393531 -0.0023496944628062428 0 0.1410445007129334 0.0059461212386388452 0 0.15171756862039351 0.0054834398268476872 0 0.14996095566938741 -0.0050642194497159546 0 0.16138598618449879 0.0082399643337824294 0 0.15171756862039351 0.0054834398268476872 0 0.15114780378083209 0.016501361516293639 0 0.1410445007129334 0.0059461212386388452 0 0.1416624909426368 0.021530113478599729 0 0.15114780378083209 0.016501361516293639 0 0.1410445007129334 0.0059461212386388452 0 0.15171756862039351 0.0054834398268476872 0 0.15114780378083209 0.016501361516293639 0 0.1416624909426368 0.021530113478599729 0 0.15114780378083209 0.016501361516293639 0 0.1468953700468647 0.03366821226699139 0 0.16871060493371709 0.018582700754076129 0 0.15114780378083209 0.016501361516293639 0 0.1468953700468647 0.03366821226699139 0 0.1416624909426368 0.021530113478599729 0 0.12838519953543009 0.02355873141636762 0 0.1468953700468647 0.03366821226699139 0 0.1410445007129334 0.0059461212386388452 0 0.1416624909426368 0.021530113478599729 0 0.12838519953543009 0.02355873141636762 0 0.12387230286588991 0.0034426358120093889 0 0.1410445007129334 0.0059461212386388452 0 0.12838519953543009 0.02355873141636762 0 0.12387230286588991 0.0034426358120093889 0 0.1410445007129334 0.0059461212386388452 0 0.13680472132810731 -0.0093418545195570919 0 0.15459463366014961 0.05557488527695037 0 0.12508013516001221 0.048753723779906673 0 0.14913128976071849 0.071466582405107323 0 0.15459463366014961 0.05557488527695037 0 0.1468953700468647 0.03366821226699139 0 0.12508013516001221 0.048753723779906673 0 0.1468953700468647 0.03366821226699139 0 0.12508013516001221 0.048753723779906673 0 0.12838519953543009 0.02355873141636762 0 0.1468953700468647 0.03366821226699139 0 0.12508013516001221 0.048753723779906673 0 0.12508013516001221 0.048753723779906673 0 0.12740642943971031 0.076840517029470937 0 0.14913128976071849 0.071466582405107323 0 0.12740642943971031 0.076840517029470937 0 0.14913128976071849 0.071466582405107323 0 0.15109605476613941 0.090559193932592333 0 0.12740642943971031 0.076840517029470937 0 0.15109605476613941 0.090559193932592333 0 0.12823231554973519 0.10145675065841379 0 0.15109605476613941 0.090559193932592333 0 0.12823231554973519 0.10145675065841379 0 0.12325502479506641 0.1273969758757173 0 0.12823231554973519 0.10145675065841379 0 0.14795371911082991 0.1144771203224408 0 0.15109605476613941 0.090559193932592333 0 0.12823231554973519 0.10145675065841379 0 0.14795371911082991 0.1144771203224408 0 0.15109605476613941 0.090559193932592333 0 0.14795371911082991 0.1144771203224408 0 0.17076202345950101 0.10030048746377319 0 0.14795371911082991 0.1144771203224408 0 0.17076202345950101 0.10030048746377319 0 0.1675806128408095 0.123930682902576 0 0.17076202345950101 0.10030048746377319 0 0.1675806128408095 0.123930682902576 0 0.18155384107177319 0.11576428076740899 0 0.1843217718390511 0.1333378643927664 0 0.19356545779161399 0.11883267954763919 0 0.18155384107177319 0.11576428076740899 0 0.1843217718390511 0.1333378643927664 0 0.1675806128408095 0.123930682902576 0 0.18155384107177319 0.11576428076740899 0 0.1915393394278902 0.1024196895302901 0 0.19074425691516159 0.085052220965083317 0 0.17076202345950101 0.10030048746377319 0 0.1915393394278902 0.1024196895302901 0 0.17076202345950101 0.10030048746377319 0 0.18155384107177319 0.11576428076740899 0 0.19074425691516159 0.085052220965083317 0 0.17076202345950101 0.10030048746377319 0 0.17395979398254369 0.079661637206770775 0 0.19723898921224389 0.068384551790237266 0 0.17395979398254369 0.079661637206770775 0 0.19723898921224389 0.068384551790237266 0 0.17395979398254369 0.079661637206770775 0 0.17336193684492521 0.06479003720551943 0 0.19723898921224389 0.068384551790237266 0 0.18751081521395549 0.057735479704549453 0 0.17336193684492521 0.06479003720551943 0 0.19723898921224389 0.068384551790237266 0 0.19074425691516159 0.085052220965083317 0 0.17395979398254369 0.079661637206770775 0 0.14913128976071849 0.071466582405107323 0 0.17395979398254369 0.079661637206770775 0 0.17336193684492521 0.06479003720551943 0 0.15459463366014961 0.05557488527695037 0 0.14913128976071849 0.071466582405107323 0 0.17336193684492521 0.06479003720551943 0 0.15109605476613941 0.090559193932592333 0 0.17076202345950101 0.10030048746377319 0 0.17395979398254369 0.079661637206770775 0 0.14913128976071849 0.071466582405107323 0 0.15109605476613941 0.090559193932592333 0 0.17395979398254369 0.079661637206770775 0 0.15109605476613941 0.090559193932592333 0 0.17395979398254369 0.079661637206770775 0 0.1032912765919021 0.47386759245212973 0 0.1018252739225005 0.5 0 0.087526600121443449 0.48246720515549441 0 0.1018252739225005 0.5 0 0.124214434134695 0.47796919487293971 0 0.13092029634288579 0.5 0 0.1032912765919021 0.47386759245212973 0 0.1018252739225005 0.5 0 0.124214434134695 0.47796919487293971 0 0.1032912765919021 0.47386759245212973 0 0.124214434134695 0.47796919487293971 0 0.1180122412272115 0.45982915841389149 0 0.1180122412272115 0.45982915841389149 0 0.1136077965692619 0.44486543641965198 0 0.10225676988660699 0.45570400596641841 0 0.1136077965692619 0.44486543641965198 0 0.1215793969357247 0.43610496829251089 0 0.12516483524233629 0.44745909625052999 0 0.1180122412272115 0.45982915841389149 0 0.1136077965692619 0.44486543641965198 0 0.12516483524233629 0.44745909625052999 0 0.1136077965692619 0.44486543641965198 0 0.1080256518720485 0.43441881616290701 0 0.1146187762947584 0.43485718172808652 0 0.1136077965692619 0.44486543641965198 0 0.1146187762947584 0.43485718172808652 0 0.1215793969357247 0.43610496829251089 0 0.1136077965692619 0.44486543641965198 0 0.10171996579643899 0.44380116484842019 0 0.1080256518720485 0.43441881616290701 0 0.1136077965692619 0.44486543641965198 0 0.10171996579643899 0.44380116484842019 0 0.10225676988660699 0.45570400596641841 0 0.10171996579643899 0.44380116484842019 0 0.10225676988660699 0.45570400596641841 0 0.088073580677256569 0.44675966516308002 0 0.10171996579643899 0.44380116484842019 0 0.094033166142507868 0.43443147427150791 0 0.1080256518720485 0.43441881616290701 0 0.10171996579643899 0.44380116484842019 0 0.088073580677256569 0.44675966516308002 0 0.094033166142507868 0.43443147427150791 0 0.1032912765919021 0.47386759245212973 0 0.1180122412272115 0.45982915841389149 0 0.10225676988660699 0.45570400596641841 0 0.1032912765919021 0.47386759245212973 0 0.10225676988660699 0.45570400596641841 0 0.087369807955079093 0.46434206066982547 0 0.087369807955079093 0.46434206066982547 0 0.088073580677256569 0.44675966516308002 0 0.071023203820255204 0.45502199429799978 0 0.10225676988660699 0.45570400596641841 0 0.087369807955079093 0.46434206066982547 0 0.088073580677256569 0.44675966516308002 0 0.071023203820255204 0.45502199429799978 0 0.051573719166708797 0.44172603274863959 0 0.071055873834088776 0.43019208846355528 0 0.088073580677256569 0.44675966516308002 0 0.071023203820255204 0.45502199429799978 0 0.071055873834088776 0.43019208846355528 0 0.087369807955079093 0.46434206066982547 0 0.071023203820255204 0.45502199429799978 0 0.074161785046130191 0.47472425021739062 0 0.071023203820255204 0.45502199429799978 0 0.074161785046130191 0.47472425021739062 0 0.05564985065277761 0.47298574608738181 0 0.074161785046130191 0.47472425021739062 0 0.072730251502115095 0.5 0 0.05564985065277761 0.47298574608738181 0 0.087369807955079093 0.46434206066982547 0 0.074161785046130191 0.47472425021739062 0 0.087526600121443449 0.48246720515549441 0 0.1032912765919021 0.47386759245212973 0 0.087369807955079093 0.46434206066982547 0 0.087526600121443449 0.48246720515549441 0 0.074161785046130191 0.47472425021739062 0 0.087526600121443449 0.48246720515549441 0 0.072730251502115095 0.5 0 0.1018252739225005 0.5 0 0.087526600121443449 0.48246720515549441 0 0.072730251502115095 0.5 0 0.072730251502115095 0.5 0 0.05564985065277761 0.47298574608738181 0 0.043635229081729732 0.5 0 0.05564985065277761 0.47298574608738181 0 0.038838431339735788 0.47868239179838529 0 0.043635229081729732 0.5 0 0.05564985065277761 0.47298574608738181 0 0.038838431339735788 0.47868239179838529 0 0.040731688771951338 0.46398578534317592 0 0.038838431339735788 0.47868239179838529 0 0.02645595235227494 0.46467276529242518 0 0.040731688771951338 0.46398578534317592 0 0.038838431339735788 0.47868239179838529 0 0.043635229081729732 0.5 0 0.01454020666134442 0.5 0 0.038838431339735788 0.47868239179838529 0 0.020357492747106489 0.47584508154976951 0 0.01454020666134442 0.5 0 0.038838431339735788 0.47868239179838529 0 0.020357492747106489 0.47584508154976951 0 0.02645595235227494 0.46467276529242518 0 0.020357492747106489 0.47584508154976951 0 0.013918186734279671 0.46686737081920898 0 0.02645595235227494 0.46467276529242518 0 -0.008679163499073753 0.47739731262234258 0 0.020357492747106489 0.47584508154976951 0 -0.008679163499073753 0.47739731262234258 0 0.012609409831949071 0.46479392131880831 0 0.013918186734279671 0.46686737081920898 0 -0.008679163499073753 0.47739731262234258 0 0.020357492747106489 0.47584508154976951 0 0.013918186734279671 0.46686737081920898 0 -0.008679163499073753 0.47739731262234258 0 0.012609409831949071 0.46479392131880831 0 -0.008679163499073753 0.47739731262234258 0 0.020357492747106489 0.47584508154976951 0 0.0045096980925076746 0.48601796713946549 0 -0.01455481575904094 0.5 0 0.0045096980925076746 0.48601796713946549 0 0.01454020666134442 0.5 0 0.020357492747106489 0.47584508154976951 0 0.0045096980925076746 0.48601796713946549 0 0.01454020666134442 0.5 0 0.001145490135509662 0.44663203404454349 0 0.018253188032113388 0.44975450525771771 0 0.018248572603409691 0.43662306136044132 0 0.001145490135509662 0.44663203404454349 0 0.018248572603409691 0.43662306136044132 0 0.0066011280012474478 0.43362514157268572 0 0.001145490135509662 0.44663203404454349 0 0.012609409831949071 0.46479392131880831 0 -0.0038626768025213178 0.46267278361169828 0 -0.008679163499073753 0.47739731262234258 0 0.012609409831949071 0.46479392131880831 0 0.001145490135509662 0.44663203404454349 0 0.012609409831949071 0.46479392131880831 0 0.018253188032113388 0.44975450525771771 0 -0.0038626768025213178 0.46267278361169828 0 0.001145490135509662 0.44663203404454349 0 0.012609409831949071 0.46479392131880831 0 0.012609409831949071 0.46479392131880831 0 0.013918186734279671 0.46686737081920898 0 0.012609409831949071 0.46479392131880831 0 0.02645595235227494 0.46467276529242518 0 0.032091564499328887 0.453259977033724 0 0.012609409831949071 0.46479392131880831 0 0.018253188032113388 0.44975450525771771 0 0.032091564499328887 0.453259977033724 0 0.012609409831949071 0.46479392131880831 0 0.032091564499328887 0.453259977033724 0 0.012609409831949071 0.46479392131880831 0 0.013918186734279671 0.46686737081920898 0 0.02645595235227494 0.46467276529242518 0 0.018253188032113388 0.44975450525771771 0 0.028602760029812439 0.44144664224598662 0 0.032091564499328887 0.453259977033724 0 0.018253188032113388 0.44975450525771771 0 0.028602760029812439 0.44144664224598662 0 0.018248572603409691 0.43662306136044132 0 0.071023203820255204 0.45502199429799978 0 0.05564985065277761 0.47298574608738181 0 0.051573719166708797 0.44172603274863959 0 0.037136189284474708 0.44560380802046418 0 0.051573719166708797 0.44172603274863959 0 0.051695328475227093 0.42728392593929387 0 0.05564985065277761 0.47298574608738181 0 0.040731688771951338 0.46398578534317592 0 0.051573719166708797 0.44172603274863959 0 0.032091564499328887 0.453259977033724 0 0.040731688771951338 0.46398578534317592 0 0.051573719166708797 0.44172603274863959 0 0.037136189284474708 0.44560380802046418 0 0.032091564499328887 0.453259977033724 0 0.051573719166708797 0.44172603274863959 0 0.032091564499328887 0.453259977033724 0 0.051573719166708797 0.44172603274863959 0 0.028602760029812439 0.44144664224598662 0 0.037136189284474708 0.44560380802046418 0 0.032091564499328887 0.453259977033724 0 0.02645595235227494 0.46467276529242518 0 0.032091564499328887 0.453259977033724 0 0.040731688771951338 0.46398578534317592 0 0.051573719166708797 0.44172603274863959 0 0.051695328475227093 0.42728392593929387 0 0.071055873834088776 0.43019208846355528 0 0.051695328475227093 0.42728392593929387 0 0.053943705476117793 0.40900418401590621 0 0.071055873834088776 0.43019208846355528 0 0.051573719166708797 0.44172603274863959 0 0.071055873834088776 0.43019208846355528 0 0.051695328475227093 0.42728392593929387 0 0.053943705476117793 0.40900418401590621 0 0.038000214199456928 0.4189834144150435 0 0.053943705476117793 0.40900418401590621 0 0.038000214199456928 0.4189834144150435 0 0.040292734348021178 0.39606467317863259 0 0.037136189284474708 0.44560380802046418 0 0.038000214199456928 0.4189834144150435 0 0.037136189284474708 0.44560380802046418 0 0.051695328475227093 0.42728392593929387 0 0.038000214199456928 0.4189834144150435 0 0.028602760029812439 0.44144664224598662 0 0.037136189284474708 0.44560380802046418 0 0.038000214199456928 0.4189834144150435 0 0.038000214199456928 0.4189834144150435 0 0.018248572603409691 0.43662306136044132 0 0.01732887882700274 0.4227753241154778 0 0.028602760029812439 0.44144664224598662 0 0.038000214199456928 0.4189834144150435 0 0.018248572603409691 0.43662306136044132 0 0.038000214199456928 0.4189834144150435 0 0.018635195613259239 0.41029423400164672 0 0.028567088059711841 0.4032379800228052 0 0.038000214199456928 0.4189834144150435 0 0.01732887882700274 0.4227753241154778 0 0.018635195613259239 0.41029423400164672 0 0.018635195613259239 0.41029423400164672 0 0.0029271978584473981 0.41218359985444042 0 0.0094308551574617816 0.40484666272141501 0 -0.0046486024432160601 0.4178315334085928 0 0.01732887882700274 0.4227753241154778 0 0.0029271978584473981 0.41218359985444042 0 0.01732887882700274 0.4227753241154778 0 0.018635195613259239 0.41029423400164672 0 0.0029271978584473981 0.41218359985444042 0 -0.010318429560930001 0.42847014677027889 0 0.01732887882700274 0.4227753241154778 0 -0.010318429560930001 0.42847014677027889 0 -0.0046486024432160601 0.4178315334085928 0 0.01732887882700274 0.4227753241154778 0 -0.010318429560930001 0.42847014677027889 0 0.01732887882700274 0.4227753241154778 0 0.0066011280012474478 0.43362514157268572 0 0.018248572603409691 0.43662306136044132 0 0.01732887882700274 0.4227753241154778 0 0.0066011280012474478 0.43362514157268572 0 0.012362724337220739 0.38796482087120632 0 0.002022440695535956 0.38133136942149648 0 0.016186243779436931 0.37122638060730012 0 0.012362724337220739 0.38796482087120632 0 0.002022440695535956 0.38133136942149648 0 0.001655252874772957 0.39660590042456639 0 0.001655252874772957 0.39660590042456639 0 0.0094308551574617816 0.40484666272141501 0 0.017308881734320072 0.39879760000685083 0 0.012362724337220739 0.38796482087120632 0 0.001655252874772957 0.39660590042456639 0 0.017308881734320072 0.39879760000685083 0 0.0029271978584473981 0.41218359985444042 0 0.001655252874772957 0.39660590042456639 0 0.0094308551574617816 0.40484666272141501 0 0.018635195613259239 0.41029423400164672 0 0.0094308551574617816 0.40484666272141501 0 0.017308881734320072 0.39879760000685083 0 0.012362724337220739 0.38796482087120632 0 0.017308881734320072 0.39879760000685083 0 0.02439164662481948 0.38535695897836592 0 0.017308881734320072 0.39879760000685083 0 0.028390217382158921 0.3941226676098607 0 0.02439164662481948 0.38535695897836592 0 0.018635195613259239 0.41029423400164672 0 0.017308881734320072 0.39879760000685083 0 0.028567088059711841 0.4032379800228052 0 0.017308881734320072 0.39879760000685083 0 0.028567088059711841 0.4032379800228052 0 0.028390217382158921 0.3941226676098607 0 0.012362724337220739 0.38796482087120632 0 0.02439164662481948 0.38535695897836592 0 0.016186243779436931 0.37122638060730012 0 0.02439164662481948 0.38535695897836592 0 0.032673287435412757 0.3811432134352859 0 0.031995447265822173 0.38877671535199437 0 0.028390217382158921 0.3941226676098607 0 0.02439164662481948 0.38535695897836592 0 0.031995447265822173 0.38877671535199437 0 0.02439164662481948 0.38535695897836592 0 0.027861840356658799 0.37317270231864841 0 0.016186243779436931 0.37122638060730012 0 0.02439164662481948 0.38535695897836592 0 0.032673287435412757 0.3811432134352859 0 0.027861840356658799 0.37317270231864841 0 0.032673287435412757 0.3811432134352859 0 0.038864239114439147 0.39236302080962288 0 0.039728264029421367 0.3657426272042022 0 0.04388034508763082 0.38611486969144171 0 0.045796288160892713 0.3783347749831521 0 0.039728264029421367 0.3657426272042022 0 0.04388034508763082 0.38611486969144171 0 0.038864239114439147 0.39236302080962288 0 0.039728264029421367 0.3657426272042022 0 0.038864239114439147 0.39236302080962288 0 0.039728264029421367 0.3657426272042022 0 0.032673287435412757 0.3811432134352859 0 0.031995447265822173 0.38877671535199437 0 0.038864239114439147 0.39236302080962288 0 0.04388034508763082 0.38611486969144171 0 0.040292734348021178 0.39606467317863259 0 0.051420076662879753 0.38340319874843692 0 0.040292734348021178 0.39606467317863259 0 0.051420076662879753 0.38340319874843692 0 0.038000214199456928 0.4189834144150435 0 0.038864239114439147 0.39236302080962288 0 0.040292734348021178 0.39606467317863259 0 0.038000214199456928 0.4189834144150435 0 0.028567088059711841 0.4032379800228052 0 0.038864239114439147 0.39236302080962288 0 0.038000214199456928 0.4189834144150435 0 0.038864239114439147 0.39236302080962288 0 0.028390217382158921 0.3941226676098607 0 0.031995447265822173 0.38877671535199437 0 0.038864239114439147 0.39236302080962288 0 0.028567088059711841 0.4032379800228052 0 0.028390217382158921 0.3941226676098607 0 0.038864239114439147 0.39236302080962288 0 0.04388034508763082 0.38611486969144171 0 0.038864239114439147 0.39236302080962288 0 0.040292734348021178 0.39606467317863259 0 0.053943705476117793 0.40900418401590621 0 0.054158892267298767 0.39737568185160688 0 0.070979052582176433 0.40103067146345228 0 0.054158892267298767 0.39737568185160688 0 0.051420076662879753 0.38340319874843692 0 0.070979052582176433 0.40103067146345228 0 0.051420076662879753 0.38340319874843692 0 0.070979052582176433 0.40103067146345228 0 0.053943705476117793 0.40900418401590621 0 0.040292734348021178 0.39606467317863259 0 0.054158892267298767 0.39737568185160688 0 0.040292734348021178 0.39606467317863259 0 0.054158892267298767 0.39737568185160688 0 0.051420076662879753 0.38340319874843692 0 0.045796288160892713 0.3783347749831521 0 0.051420076662879753 0.38340319874843692 0 0.051747940163970593 0.36760313462155653 0 0.051420076662879753 0.38340319874843692 0 0.067758881070185517 0.38358623157782118 0 0.064645492338348237 0.36835438855949781 0 0.045796288160892713 0.3783347749831521 0 0.051420076662879753 0.38340319874843692 0 0.04388034508763082 0.38611486969144171 0 0.045796288160892713 0.3783347749831521 0 0.051420076662879753 0.38340319874843692 0 0.051420076662879753 0.38340319874843692 0 0.064645492338348237 0.36835438855949781 0 0.067758881070185517 0.38358623157782118 0 0.083990902697337708 0.38155666753989798 0 0.064645492338348237 0.36835438855949781 0 0.051420076662879753 0.38340319874843692 0 0.067758881070185517 0.38358623157782118 0 0.070979052582176433 0.40103067146345228 0 0.067758881070185517 0.38358623157782118 0 0.083990902697337708 0.38155666753989798 0 0.070979052582176433 0.40103067146345228 0 0.083990902697337708 0.38155666753989798 0 0.092073855028372176 0.39890007368477798 0 0.1037510987809519 0.38601178871908332 0 0.092073855028372176 0.39890007368477798 0 0.070979052582176433 0.40103067146345228 0 0.090538028501469331 0.41865814417847191 0 0.083990902697337708 0.38155666753989798 0 0.092073855028372176 0.39890007368477798 0 0.070979052582176433 0.40103067146345228 0 0.053943705476117793 0.40900418401590621 0 0.070979052582176433 0.40103067146345228 0 0.071055873834088776 0.43019208846355528 0 0.070979052582176433 0.40103067146345228 0 0.071055873834088776 0.43019208846355528 0 0.090538028501469331 0.41865814417847191 0 0.071055873834088776 0.43019208846355528 0 0.090538028501469331 0.41865814417847191 0 0.094033166142507868 0.43443147427150791 0 0.088073580677256569 0.44675966516308002 0 0.071055873834088776 0.43019208846355528 0 0.094033166142507868 0.43443147427150791 0 0.071055873834088776 0.43019208846355528 0 0.090538028501469331 0.41865814417847191 0 0.070979052582176433 0.40103067146345228 0 0.090538028501469331 0.41865814417847191 0 0.090538028501469331 0.41865814417847191 0 0.11341375109083709 0.40511511907003178 0 0.090538028501469331 0.41865814417847191 0 0.1131778232262825 0.42766783911592449 0 0.11341375109083709 0.40511511907003178 0 0.092073855028372176 0.39890007368477798 0 0.090538028501469331 0.41865814417847191 0 0.11341375109083709 0.40511511907003178 0 0.090538028501469331 0.41865814417847191 0 0.1080256518720485 0.43441881616290701 0 0.090538028501469331 0.41865814417847191 0 0.1080256518720485 0.43441881616290701 0 0.1131778232262825 0.42766783911592449 0 0.090538028501469331 0.41865814417847191 0 0.094033166142507868 0.43443147427150791 0 0.1080256518720485 0.43441881616290701 0 0.1131778232262825 0.42766783911592449 0 0.1216744333753977 0.42473792471790989 0 0.1315705716655578 0.42962823940706668 0 0.1131778232262825 0.42766783911592449 0 0.1215793969357247 0.43610496829251089 0 0.1315705716655578 0.42962823940706668 0 0.1131778232262825 0.42766783911592449 0 0.1315705716655578 0.42962823940706668 0 0.1146187762947584 0.43485718172808652 0 0.1131778232262825 0.42766783911592449 0 0.1215793969357247 0.43610496829251089 0 0.1080256518720485 0.43441881616290701 0 0.1146187762947584 0.43485718172808652 0 0.1131778232262825 0.42766783911592449 0 0.1131778232262825 0.42766783911592449 0 0.1216744333753977 0.42473792471790989 0 0.12088671281092191 0.41701787470520829 0 0.1131778232262825 0.42766783911592449 0 0.12088671281092191 0.41701787470520829 0 0.11341375109083709 0.40511511907003178 0 0.12088671281092191 0.41701787470520829 0 0.11341375109083709 0.40511511907003178 0 0.12998388838022379 0.4116901729372392 0 0.1216744333753977 0.42473792471790989 0 0.12088671281092191 0.41701787470520829 0 0.1258212466174069 0.42232164347985018 0 0.11341375109083709 0.40511511907003178 0 0.13628947368020611 0.39157209396159381 0 0.11341375109083709 0.40511511907003178 0 0.1247541262307869 0.3782795632343926 0 0.13628947368020611 0.39157209396159381 0 0.11341375109083709 0.40511511907003178 0 0.1247541262307869 0.3782795632343926 0 0.1037510987809519 0.38601178871908332 0 0.1247541262307869 0.3782795632343926 0 0.1037510987809519 0.38601178871908332 0 0.10131251712230251 0.36579257080247363 0 0.083990902697337708 0.38155666753989798 0 0.1037510987809519 0.38601178871908332 0 0.10131251712230251 0.36579257080247363 0 0.092073855028372176 0.39890007368477798 0 0.11341375109083709 0.40511511907003178 0 0.1037510987809519 0.38601178871908332 0 0.10765496735846231 0.35857568385700161 0 0.090555808486137937 0.33887180447961041 0 0.10765496735846231 0.35857568385700161 0 0.109063530855164 0.34008200084349982 0 0.090555808486137937 0.33887180447961041 0 0.10765496735846231 0.35857568385700161 0 0.094229312279676597 0.3536106687924791 0 0.090555808486137937 0.33887180447961041 0 0.10765496735846231 0.35857568385700161 0 0.094229312279676597 0.3536106687924791 0 0.10131251712230251 0.36579257080247363 0 0.1247541262307869 0.3782795632343926 0 0.10765496735846231 0.35857568385700161 0 0.12608849482844001 0.35985026705264428 0 0.1247541262307869 0.3782795632343926 0 0.10765496735846231 0.35857568385700161 0 0.1247541262307869 0.3782795632343926 0 0.10765496735846231 0.35857568385700161 0 0.10131251712230251 0.36579257080247363 0 0.1247541262307869 0.3782795632343926 0 0.10131251712230251 0.36579257080247363 0 0.109063530855164 0.34008200084349982 0 0.1265777835538395 0.33784853812482812 0 0.12608849482844001 0.35985026705264428 0 0.10765496735846231 0.35857568385700161 0 0.109063530855164 0.34008200084349982 0 0.12608849482844001 0.35985026705264428 0 0.1054861331483382 0.32188302866990381 0 0.109063530855164 0.34008200084349982 0 0.1265777835538395 0.33784853812482812 0 0.1054861331483382 0.32188302866990381 0 0.13310075722078149 0.31949571370022029 0 0.1265777835538395 0.33784853812482812 0 0.1054861331483382 0.32188302866990381 0 0.1204164578105395 0.30489425286019811 0 0.13310075722078149 0.31949571370022029 0 0.1054861331483382 0.32188302866990381 0 0.1204164578105395 0.30489425286019811 0 0.1054861331483382 0.32188302866990381 0 0.088982641393824793 0.31792854040476048 0 0.097669069050966409 0.30453368417372001 0 0.1054861331483382 0.32188302866990381 0 0.090555808486137937 0.33887180447961041 0 0.1054861331483382 0.32188302866990381 0 0.109063530855164 0.34008200084349982 0 0.090555808486137937 0.33887180447961041 0 0.1054861331483382 0.32188302866990381 0 0.090555808486137937 0.33887180447961041 0 0.084130759411826253 0.33146802556280253 0 0.090555808486137937 0.33887180447961041 0 0.084130759411826253 0.33146802556280253 0 0.090555808486137937 0.33887180447961041 0 0.084130759411826253 0.33146802556280253 0 0.079291258738195342 0.34130705324204957 0 0.1054861331483382 0.32188302866990381 0 0.084130759411826253 0.33146802556280253 0 0.088982641393824793 0.31792854040476048 0 0.084130759411826253 0.33146802556280253 0 0.088982641393824793 0.31792854040476048 0 0.075376784313065298 0.32152710548317642 0 0.088982641393824793 0.31792854040476048 0 0.075376784313065298 0.32152710548317642 0 0.082250461044927795 0.31023085813419982 0 0.075376784313065298 0.32152710548317642 0 0.070756081940502827 0.30859245323516288 0 0.082250461044927795 0.31023085813419982 0 0.075376784313065298 0.32152710548317642 0 0.062082345150859412 0.32766158488761621 0 0.061246511173122631 0.31518628084751388 0 0.075376784313065298 0.32152710548317642 0 0.061246511173122631 0.31518628084751388 0 0.070756081940502827 0.30859245323516288 0 0.068852704111624807 0.33609704674567481 0 0.077870908013816131 0.35330557837055832 0 0.053451347811819122 0.3402976461069479 0 0.079291258738195342 0.34130705324204957 0 0.068852704111624807 0.33609704674567481 0 0.077870908013816131 0.35330557837055832 0 0.084130759411826253 0.33146802556280253 0 0.079291258738195342 0.34130705324204957 0 0.068852704111624807 0.33609704674567481 0 0.084130759411826253 0.33146802556280253 0 0.075376784313065298 0.32152710548317642 0 0.068852704111624807 0.33609704674567481 0 0.075376784313065298 0.32152710548317642 0 0.068852704111624807 0.33609704674567481 0 0.062082345150859412 0.32766158488761621 0 0.077870908013816131 0.35330557837055832 0 0.059500437706424027 0.35654372974136539 0 0.053451347811819122 0.3402976461069479 0 0.077870908013816131 0.35330557837055832 0 0.053451347811819122 0.3402976461069479 0 0.090555808486137937 0.33887180447961041 0 0.077870908013816131 0.35330557837055832 0 0.094229312279676597 0.3536106687924791 0 0.090555808486137937 0.33887180447961041 0 0.077870908013816131 0.35330557837055832 0 0.090555808486137937 0.33887180447961041 0 0.079291258738195342 0.34130705324204957 0 0.077870908013816131 0.35330557837055832 0 0.094229312279676597 0.3536106687924791 0 0.10131251712230251 0.36579257080247363 0 0.077870908013816131 0.35330557837055832 0 0.10131251712230251 0.36579257080247363 0 0.077870908013816131 0.35330557837055832 0 0.083990902697337708 0.38155666753989798 0 0.10131251712230251 0.36579257080247363 0 0.077870908013816131 0.35330557837055832 0 0.077870908013816131 0.35330557837055832 0 0.064645492338348237 0.36835438855949781 0 0.059500437706424027 0.35654372974136539 0 0.083990902697337708 0.38155666753989798 0 0.077870908013816131 0.35330557837055832 0 0.064645492338348237 0.36835438855949781 0 0.077870908013816131 0.35330557837055832 0 0.064645492338348237 0.36835438855949781 0 0.051420076662879753 0.38340319874843692 0 0.064645492338348237 0.36835438855949781 0 0.051747940163970593 0.36760313462155653 0 0.064645492338348237 0.36835438855949781 0 0.051747940163970593 0.36760313462155653 0 0.059500437706424027 0.35654372974136539 0 0.051747940163970593 0.36760313462155653 0 0.04939708208585758 0.35324008849268429 0 0.039728264029421367 0.3657426272042022 0 0.059500437706424027 0.35654372974136539 0 0.04939708208585758 0.35324008849268429 0 0.053451347811819122 0.3402976461069479 0 0.051747940163970593 0.36760313462155653 0 0.059500437706424027 0.35654372974136539 0 0.04939708208585758 0.35324008849268429 0 0.04939708208585758 0.35324008849268429 0 0.040592288944403587 0.33912223359878152 0 0.053451347811819122 0.3402976461069479 0 0.039728264029421367 0.3657426272042022 0 0.030557209173647841 0.35148756891737032 0 0.040592288944403587 0.33912223359878152 0 0.04939708208585758 0.35324008849268429 0 0.039728264029421367 0.3657426272042022 0 0.040592288944403587 0.33912223359878152 0 0.039728264029421367 0.3657426272042022 0 0.040592288944403587 0.33912223359878152 0 0.030557209173647841 0.35148756891737032 0 0.027087021488033089 0.34072380471549579 0 0.040592288944403587 0.33912223359878152 0 0.039728264029421367 0.3657426272042022 0 0.023955883627118469 0.36180282228736721 0 0.030557209173647841 0.35148756891737032 0 0.045796288160892713 0.3783347749831521 0 0.051747940163970593 0.36760313462155653 0 0.039728264029421367 0.3657426272042022 0 0.032673287435412757 0.3811432134352859 0 0.039728264029421367 0.3657426272042022 0 0.027861840356658799 0.37317270231864841 0 0.039728264029421367 0.3657426272042022 0 0.027861840356658799 0.37317270231864841 0 0.023955883627118469 0.36180282228736721 0 0.027861840356658799 0.37317270231864841 0 0.016186243779436931 0.37122638060730012 0 0.023955883627118469 0.36180282228736721 0 0.016186243779436931 0.37122638060730012 0 0.023955883627118469 0.36180282228736721 0 0.0098231399301255025 0.35891063652272182 0 0.023955883627118469 0.36180282228736721 0 0.030557209173647841 0.35148756891737032 0 0.01957860449342036 0.3502770181539604 0 0.030557209173647841 0.35148756891737032 0 0.01957860449342036 0.3502770181539604 0 0.027087021488033089 0.34072380471549579 0 0.023955883627118469 0.36180282228736721 0 0.01957860449342036 0.3502770181539604 0 0.0098231399301255025 0.35891063652272182 0 0.01957860449342036 0.3502770181539604 0 0.0098231399301255025 0.35891063652272182 0 0.0075011050823922433 0.34783565570372121 0 0.01957860449342036 0.3502770181539604 0 0.0075011050823922433 0.34783565570372121 0 0.015675217218873189 0.33544248906402618 0 -0.003278416267937971 0.35498456274282031 0 -0.00031189853150517848 0.34516114941850412 0 0.0075011050823922433 0.34783565570372121 0 -0.003278416267937971 0.35498456274282031 0 0.0098231399301255025 0.35891063652272182 0 0.0075011050823922433 0.34783565570372121 0 -0.0053010199548332226 0.36506803153930628 0 -0.003278416267937971 0.35498456274282031 0 0.0098231399301255025 0.35891063652272182 0 -0.0053010199548332226 0.36506803153930628 0 0.002022440695535956 0.38133136942149648 0 0.016186243779436931 0.37122638060730012 0 -0.0053010199548332226 0.36506803153930628 0 0.016186243779436931 0.37122638060730012 0 0.0098231399301255025 0.35891063652272182 0 -0.0053010199548332226 0.36506803153930628 0 0.016186243779436931 0.37122638060730012 0 0.0046122274078220157 0.31428178157973319 0 0.002425380486402443 0.33497407021743059 0 0.015675217218873189 0.33544248906402618 0 -0.00031189853150517848 0.34516114941850412 0 0.0075011050823922433 0.34783565570372121 0 0.002425380486402443 0.33497407021743059 0 0.0075011050823922433 0.34783565570372121 0 0.002425380486402443 0.33497407021743059 0 0.015675217218873189 0.33544248906402618 0 0.01957860449342036 0.3502770181539604 0 0.015675217218873189 0.33544248906402618 0 0.027087021488033089 0.34072380471549579 0 0.015675217218873189 0.33544248906402618 0 0.027087021488033089 0.34072380471549579 0 0.0290317876098205 0.32728971384334049 0 0.0046122274078220157 0.31428178157973319 0 0.0290317876098205 0.32728971384334049 0 0.019395689723142009 0.30000209575147829 0 0.0046122274078220157 0.31428178157973319 0 0.015675217218873189 0.33544248906402618 0 0.0290317876098205 0.32728971384334049 0 0.0046122274078220157 0.31428178157973319 0 0.0290317876098205 0.32728971384334049 0 0.0290317876098205 0.32728971384334049 0 0.04407833613917847 0.31530237787594823 0 0.036031567884133607 0.30669600000425629 0 0.0290317876098205 0.32728971384334049 0 0.04407833613917847 0.31530237787594823 0 0.051484378344665203 0.32519984525476769 0 0.0290317876098205 0.32728971384334049 0 0.053451347811819122 0.3402976461069479 0 0.0290317876098205 0.32728971384334049 0 0.053451347811819122 0.3402976461069479 0 0.051484378344665203 0.32519984525476769 0 0.0290317876098205 0.32728971384334049 0 0.040592288944403587 0.33912223359878152 0 0.053451347811819122 0.3402976461069479 0 0.027087021488033089 0.34072380471549579 0 0.0290317876098205 0.32728971384334049 0 0.040592288944403587 0.33912223359878152 0 0.068852704111624807 0.33609704674567481 0 0.053451347811819122 0.3402976461069479 0 0.062082345150859412 0.32766158488761621 0 0.053451347811819122 0.3402976461069479 0 0.051484378344665203 0.32519984525476769 0 0.062082345150859412 0.32766158488761621 0 0.04407833613917847 0.31530237787594823 0 0.051484378344665203 0.32519984525476769 0 0.061246511173122631 0.31518628084751388 0 0.051484378344665203 0.32519984525476769 0 0.062082345150859412 0.32766158488761621 0 0.061246511173122631 0.31518628084751388 0 0.06096853344838507 0.30354116184259122 0 0.046666904723077683 0.29623947780990578 0 0.07393811972301334 0.29247685986833322 0 0.04407833613917847 0.31530237787594823 0 0.061246511173122631 0.31518628084751388 0 0.050949318245572701 0.3067940077943751 0 0.061246511173122631 0.31518628084751388 0 0.06096853344838507 0.30354116184259122 0 0.050949318245572701 0.3067940077943751 0 0.06096853344838507 0.30354116184259122 0 0.050949318245572701 0.3067940077943751 0 0.046666904723077683 0.29623947780990578 0 0.046666904723077683 0.29623947780990578 0 0.07393811972301334 0.29247685986833322 0 0.052527136293547397 0.28802462642605781 0 0.046666904723077683 0.29623947780990578 0 0.07393811972301334 0.29247685986833322 0 0.057521891143425381 0.28256010962495021 0 0.052527136293547397 0.28802462642605781 0 0.07393811972301334 0.29247685986833322 0 0.052527136293547397 0.28802462642605781 0 0.043435124110972889 0.28571756192011399 0 0.046666904723077683 0.29623947780990578 0 0.057521891143425381 0.28256010962495021 0 0.052527136293547397 0.28802462642605781 0 0.042973277651339598 0.28123041246441149 0 0.043435124110972889 0.28571756192011399 0 0.022046407502835069 0.28791155808164831 0 0.042973277651339598 0.28123041246441149 0 0.022046407502835069 0.28791155808164831 0 0.03073224296269186 0.27790707795307268 0 0.042973277651339598 0.28123041246441149 0 0.043435124110972889 0.28571756192011399 0 0.046666904723077683 0.29623947780990578 0 0.022046407502835069 0.28791155808164831 0 0.022046407502835069 0.28791155808164831 0 0.042973277651339598 0.28123041246441149 0 0.052527136293547397 0.28802462642605781 0 0.043435124110972889 0.28571756192011399 0 0.042973277651339598 0.28123041246441149 0 0.043435124110972889 0.28571756192011399 0 0.042973277651339598 0.28123041246441149 0 0.046666904723077683 0.29623947780990578 0 0.019395689723142009 0.30000209575147829 0 0.046666904723077683 0.29623947780990578 0 0.036031567884133607 0.30669600000425629 0 0.019395689723142009 0.30000209575147829 0 0.04407833613917847 0.31530237787594823 0 0.050949318245572701 0.3067940077943751 0 0.036031567884133607 0.30669600000425629 0 0.050949318245572701 0.3067940077943751 0 0.046666904723077683 0.29623947780990578 0 0.036031567884133607 0.30669600000425629 0 0.0290317876098205 0.32728971384334049 0 0.036031567884133607 0.30669600000425629 0 0.019395689723142009 0.30000209575147829 0 0.046666904723077683 0.29623947780990578 0 0.019395689723142009 0.30000209575147829 0 0.022046407502835069 0.28791155808164831 0 0.022046407502835069 0.28791155808164831 0 0.021872232103609768 0.27886828179147438 0 0.03073224296269186 0.27790707795307268 0 0.022046407502835069 0.28791155808164831 0 0.010546248171283971 0.28163480998617901 0 0.021872232103609768 0.27886828179147438 0 0.022046407502835069 0.28791155808164831 0 0.010546248171283971 0.28163480998617901 0 0.001119537354329916 0.29459270369888307 0 0.022046407502835069 0.28791155808164831 0 0.001119537354329916 0.29459270369888307 0 0.019395689723142009 0.30000209575147829 0 0.022046407502835069 0.28791155808164831 0 0.001119537354329916 0.29459270369888307 0 -0.004391983431470339 0.28135946868773848 0 0.010546248171283971 0.28163480998617901 0 0.001119537354329916 0.29459270369888307 0 0.0046122274078220157 0.31428178157973319 0 0.019395689723142009 0.30000209575147829 0 0.001119537354329916 0.29459270369888307 0 0.0074593414502525431 0.24241095575029509 0 0.014053411894316451 0.25442585785192179 0 0.0018281045754269601 0.25490610716164469 0 -0.00027938521624369179 0.26831509816348498 0 0.014053411894316451 0.25442585785192179 0 0.0018281045754269601 0.25490610716164469 0 0.010546248171283971 0.28163480998617901 0 0.014053411894316451 0.25442585785192179 0 -0.00027938521624369179 0.26831509816348498 0 0.010546248171283971 0.28163480998617901 0 0.014053411894316451 0.25442585785192179 0 -0.00027938521624369179 0.26831509816348498 0 -0.004391983431470339 0.28135946868773848 0 0.010546248171283971 0.28163480998617901 0 0.010546248171283971 0.28163480998617901 0 0.014053411894316451 0.25442585785192179 0 0.024164029777628181 0.26801968114499758 0 0.010546248171283971 0.28163480998617901 0 0.021872232103609768 0.27886828179147438 0 0.024164029777628181 0.26801968114499758 0 0.021872232103609768 0.27886828179147438 0 0.03073224296269186 0.27790707795307268 0 0.024164029777628181 0.26801968114499758 0 0.024164029777628181 0.26801968114499758 0 0.02654331552781055 0.25631370186267588 0 0.040493135719714322 0.25713416297253822 0 0.014053411894316451 0.25442585785192179 0 0.024164029777628181 0.26801968114499758 0 0.02654331552781055 0.25631370186267588 0 0.02746268471958329 0.2456751054812463 0 0.014053411894316451 0.25442585785192179 0 0.02654331552781055 0.25631370186267588 0 0.02746268471958329 0.2456751054812463 0 0.02654331552781055 0.25631370186267588 0 0.040493135719714322 0.25713416297253822 0 0.03073224296269186 0.27790707795307268 0 0.024164029777628181 0.26801968114499758 0 0.040493135719714322 0.25713416297253822 0 0.03073224296269186 0.27790707795307268 0 0.040493135719714322 0.25713416297253822 0 0.042973277651339598 0.28123041246441149 0 0.040493135719714322 0.25713416297253822 0 0.042973277651339598 0.28123041246441149 0 0.052810408984657622 0.26738053834391817 0 0.040493135719714322 0.25713416297253822 0 0.042973277651339598 0.28123041246441149 0 0.057521891143425381 0.28256010962495021 0 0.042973277651339598 0.28123041246441149 0 0.067894551475424836 0.27327400722062289 0 0.042973277651339598 0.28123041246441149 0 0.052810408984657622 0.26738053834391817 0 0.067894551475424836 0.27327400722062289 0 0.042973277651339598 0.28123041246441149 0 0.067894551475424836 0.27327400722062289 0 0.052810408984657622 0.26738053834391817 0 0.059880671092151699 0.25788357071810009 0 0.067894551475424836 0.27327400722062289 0 0.040493135719714322 0.25713416297253822 0 0.052810408984657622 0.26738053834391817 0 0.059880671092151699 0.25788357071810009 0 0.057083032817213712 0.24015761000205171 0 0.040493135719714322 0.25713416297253822 0 0.059880671092151699 0.25788357071810009 0 0.077263100077093541 0.24282619624111931 0 0.067370036557761914 0.24990284466022961 0 0.075253342244588739 0.25874400167964728 0 0.067370036557761914 0.24990284466022961 0 0.059880671092151699 0.25788357071810009 0 0.075253342244588739 0.25874400167964728 0 0.059880671092151699 0.25788357071810009 0 0.075253342244588739 0.25874400167964728 0 0.067894551475424836 0.27327400722062289 0 0.091865700672220982 0.24201831340068489 0 0.077263100077093541 0.24282619624111931 0 0.09281582529951013 0.26531760197683468 0 0.077263100077093541 0.24282619624111931 0 0.075253342244588739 0.25874400167964728 0 0.09281582529951013 0.26531760197683468 0 0.077263100077093541 0.24282619624111931 0 0.09281582529951013 0.26531760197683468 0 0.09281582529951013 0.26531760197683468 0 0.082275847077830144 0.27531174517471951 0 0.067894551475424836 0.27327400722062289 0 0.075253342244588739 0.25874400167964728 0 0.09281582529951013 0.26531760197683468 0 0.067894551475424836 0.27327400722062289 0 0.09281582529951013 0.26531760197683468 0 0.067894551475424836 0.27327400722062289 0 0.091396763501029696 0.27963007171563281 0 0.090029397738003059 0.27300775850869669 0 0.095347394899642571 0.26897860403343782 0 0.091396763501029696 0.27963007171563281 0 0.090029397738003059 0.27300775850869669 0 0.082275847077830144 0.27531174517471951 0 0.09281582529951013 0.26531760197683468 0 0.090029397738003059 0.27300775850869669 0 0.082275847077830144 0.27531174517471951 0 0.09281582529951013 0.26531760197683468 0 0.090029397738003059 0.27300775850869669 0 0.095347394899642571 0.26897860403343782 0 0.082275847077830144 0.27531174517471951 0 0.067894551475424836 0.27327400722062289 0 0.07393811972301334 0.29247685986833322 0 0.057521891143425381 0.28256010962495021 0 0.067894551475424836 0.27327400722062289 0 0.07393811972301334 0.29247685986833322 0 0.06096853344838507 0.30354116184259122 0 0.07393811972301334 0.29247685986833322 0 0.070756081940502827 0.30859245323516288 0 0.07393811972301334 0.29247685986833322 0 0.070756081940502827 0.30859245323516288 0 0.082250461044927795 0.31023085813419982 0 0.061246511173122631 0.31518628084751388 0 0.06096853344838507 0.30354116184259122 0 0.070756081940502827 0.30859245323516288 0 0.07393811972301334 0.29247685986833322 0 0.082250461044927795 0.31023085813419982 0 0.097669069050966409 0.30453368417372001 0 0.088982641393824793 0.31792854040476048 0 0.082250461044927795 0.31023085813419982 0 0.097669069050966409 0.30453368417372001 0 0.07393811972301334 0.29247685986833322 0 0.101209334722949 0.2887142419267606 0 0.097669069050966409 0.30453368417372001 0 0.07393811972301334 0.29247685986833322 0 0.101209334722949 0.2887142419267606 0 0.091396763501029696 0.27963007171563281 0 0.082275847077830144 0.27531174517471951 0 0.07393811972301334 0.29247685986833322 0 0.091396763501029696 0.27963007171563281 0 0.07393811972301334 0.29247685986833322 0 0.101209334722949 0.2887142419267606 0 0.101209334722949 0.2887142419267606 0 0.097669069050966409 0.30453368417372001 0 0.11348771404002859 0.29296626049357272 0 0.091396763501029696 0.27963007171563281 0 0.101209334722949 0.2887142419267606 0 0.1007973603915369 0.27561945649948472 0 0.101209334722949 0.2887142419267606 0 0.11348771404002859 0.29296626049357272 0 0.1127969261429474 0.27878364645669212 0 0.1054861331483382 0.32188302866990381 0 0.097669069050966409 0.30453368417372001 0 0.1204164578105395 0.30489425286019811 0 0.097669069050966409 0.30453368417372001 0 0.1204164578105395 0.30489425286019811 0 0.11348771404002859 0.29296626049357272 0 0.1204164578105395 0.30489425286019811 0 0.11348771404002859 0.29296626049357272 0 0.13534678247274079 0.28790547705049241 0 0.11348771404002859 0.29296626049357272 0 0.1127969261429474 0.27878364645669212 0 0.13534678247274079 0.28790547705049241 0 0.1172393669192275 0.26700807354532269 0 0.1127969261429474 0.27878364645669212 0 0.1032363826911159 0.26199071836489968 0 0.1172393669192275 0.26700807354532269 0 0.1127969261429474 0.27878364645669212 0 0.12867010118138 0.27197734710288002 0 0.1242540576614666 0.25528058225681932 0 0.1032363826911159 0.26199071836489968 0 0.1109841398508972 0.24113711121371811 0 0.1242540576614666 0.25528058225681932 0 0.1032363826911159 0.26199071836489968 0 0.1172393669192275 0.26700807354532269 0 0.1242540576614666 0.25528058225681932 0 0.12867010118138 0.27197734710288002 0 0.1172393669192275 0.26700807354532269 0 0.1242540576614666 0.25528058225681932 0 0.1032363826911159 0.26199071836489968 0 0.091865700672220982 0.24201831340068489 0 0.09281582529951013 0.26531760197683468 0 0.1032363826911159 0.26199071836489968 0 0.091865700672220982 0.24201831340068489 0 0.1032363826911159 0.26199071836489968 0 0.09281582529951013 0.26531760197683468 0 0.1032363826911159 0.26199071836489968 0 0.095347394899642571 0.26897860403343782 0 0.09281582529951013 0.26531760197683468 0 0.1032363826911159 0.26199071836489968 0 0.1127969261429474 0.27878364645669212 0 0.1032363826911159 0.26199071836489968 0 0.1007973603915369 0.27561945649948472 0 0.09281582529951013 0.26531760197683468 0 0.095347394899642571 0.26897860403343782 0 0.1127969261429474 0.27878364645669212 0 0.1032363826911159 0.26199071836489968 0 0.1032363826911159 0.26199071836489968 0 0.095347394899642571 0.26897860403343782 0 0.1007973603915369 0.27561945649948472 0 0.091396763501029696 0.27963007171563281 0 0.095347394899642571 0.26897860403343782 0 0.1007973603915369 0.27561945649948472 0 0.101209334722949 0.2887142419267606 0 0.1127969261429474 0.27878364645669212 0 0.1007973603915369 0.27561945649948472 0 0.15027710713494211 0.27091670124078671 0 0.13534678247274079 0.28790547705049241 0 0.14527173263181689 0.24857044614873761 0 0.15027710713494211 0.27091670124078671 0 0.12867010118138 0.27197734710288002 0 0.14527173263181689 0.24857044614873761 0 0.15027710713494211 0.27091670124078671 0 0.15796379009229131 0.25377141809728448 0 0.14527173263181689 0.24857044614873761 0 0.1242540576614666 0.25528058225681932 0 0.12867010118138 0.27197734710288002 0 0.14527173263181689 0.24857044614873761 0 0.1242540576614666 0.25528058225681932 0 0.1127969261429474 0.27878364645669212 0 0.12867010118138 0.27197734710288002 0 0.13534678247274079 0.28790547705049241 0 0.15027710713494211 0.27091670124078671 0 0.12867010118138 0.27197734710288002 0 0.13534678247274079 0.28790547705049241 0 0.1204164578105395 0.30489425286019811 0 0.13534678247274079 0.28790547705049241 0 0.1204164578105395 0.30489425286019811 0 0.14842569442794551 0.30707650636866718 0 0.13310075722078149 0.31949571370022029 0 0.1204164578105395 0.30489425286019811 0 0.13534678247274079 0.28790547705049241 0 0.14842569442794551 0.30707650636866718 0 0.13534678247274079 0.28790547705049241 0 0.14842569442794551 0.30707650636866718 0 0.15469329478538649 0.28962797371610349 0 0.15027710713494211 0.27091670124078671 0 0.13534678247274079 0.28790547705049241 0 0.15469329478538649 0.28962797371610349 0 0.15469329478538649 0.28962797371610349 0 0.16998687666775719 0.29930713025916411 0 0.16924739184581819 0.28042237251213847 0 0.14842569442794551 0.30707650636866718 0 0.16998687666775719 0.29930713025916411 0 0.1699568846931403 0.31723336841146671 0 0.14842569442794551 0.30707650636866718 0 0.15469329478538649 0.28962797371610349 0 0.16998687666775719 0.29930713025916411 0 0.16998687666775719 0.29930713025916411 0 0.1863819123695713 0.30849163413045683 0 0.18782825883278409 0.29230276170785019 0 0.16998687666775719 0.29930713025916411 0 0.1863819123695713 0.30849163413045683 0 0.1699568846931403 0.31723336841146671 0 0.16998687666775719 0.29930713025916411 0 0.16924739184581819 0.28042237251213847 0 0.18782825883278409 0.29230276170785019 0 0.1830709124182093 0.27047728559353063 0 0.16924739184581819 0.28042237251213847 0 0.16997885559707959 0.26021496954105411 0 0.1830709124182093 0.27047728559353063 0 0.16924739184581819 0.28042237251213847 0 0.18782825883278409 0.29230276170785019 0 0.15027710713494211 0.27091670124078671 0 0.16924739184581819 0.28042237251213847 0 0.16997885559707959 0.26021496954105411 0 0.15027710713494211 0.27091670124078671 0 0.15469329478538649 0.28962797371610349 0 0.16924739184581819 0.28042237251213847 0 0.16628940760216721 0.24186031004065581 0 0.15796379009229131 0.25377141809728448 0 0.16997885559707959 0.26021496954105411 0 0.15027710713494211 0.27091670124078671 0 0.15796379009229131 0.25377141809728448 0 0.16997885559707959 0.26021496954105411 0 0.16628940760216721 0.24186031004065581 0 0.16997885559707959 0.26021496954105411 0 0.17807733320552099 0.25045012699835051 0 0.16997885559707959 0.26021496954105411 0 0.17807733320552099 0.25045012699835051 0 0.18730964901371669 0.2576366879621953 0 0.1830709124182093 0.27047728559353063 0 0.16997885559707959 0.26021496954105411 0 0.18730964901371669 0.2576366879621953 0 0.1897668527688976 0.24649595439529251 0 0.17807733320552099 0.25045012699835051 0 0.18730964901371669 0.2576366879621953 0 0.18730964901371669 0.2576366879621953 0 0.19555475708264991 0.25172547770770559 0 0.19853064603726939 0.2575240920183598 0 0.1897668527688976 0.24649595439529251 0 0.18730964901371669 0.2576366879621953 0 0.19555475708264991 0.25172547770770559 0 0.18730964901371669 0.2576366879621953 0 0.19516108450162131 0.26522057758319489 0 0.19853064603726939 0.2575240920183598 0 0.1830709124182093 0.27047728559353063 0 0.18730964901371669 0.2576366879621953 0 0.19516108450162131 0.26522057758319489 0 0.19516108450162131 0.26522057758319489 0 0.20180180408723461 0.26180744995016619 0 0.19853064603726939 0.2575240920183598 0 0.19516108450162131 0.26522057758319489 0 0.20180180408723461 0.26180744995016619 0 0.20272552141191991 0.26794761982750098 0 0.20180180408723461 0.26180744995016619 0 0.19853064603726939 0.2575240920183598 0 0.20466665024713171 0.25608739995905128 0 0.2026128338552913 0.25131534802752492 0 0.19853064603726939 0.2575240920183598 0 0.20466665024713171 0.25608739995905128 0 0.2026128338552913 0.25131534802752492 0 0.19555475708264991 0.25172547770770559 0 0.19853064603726939 0.2575240920183598 0 0.1830709124182093 0.27047728559353063 0 0.19579421028446289 0.27683165183937092 0 0.18782825883278409 0.29230276170785019 0 0.1830709124182093 0.27047728559353063 0 0.19516108450162131 0.26522057758319489 0 0.19579421028446289 0.27683165183937092 0 0.19516108450162131 0.26522057758319489 0 0.20272552141191991 0.26794761982750098 0 0.19579421028446289 0.27683165183937092 0 0.19579421028446289 0.27683165183937092 0 0.20712604976501089 0.27743126442534272 0 0.19880381956280291 0.28711739298445849 0 0.20272552141191991 0.26794761982750098 0 0.19579421028446289 0.27683165183937092 0 0.20712604976501089 0.27743126442534272 0 0.20712604976501089 0.27743126442534272 0 0.21489970272271239 0.25712912204081012 0 0.22180303900461981 0.28301721826273712 0 0.20272552141191991 0.26794761982750098 0 0.20712604976501089 0.27743126442534272 0 0.20792511823823101 0.26225756036272418 0 0.21569748504132349 0.25570309176112233 0 0.21489970272271239 0.25712912204081012 0 0.22180303900461981 0.28301721826273712 0 0.20712604976501089 0.27743126442534272 0 0.20792511823823101 0.26225756036272418 0 0.21489970272271239 0.25712912204081012 0 0.20874451531016261 0.25629362919382542 0 0.2093600207010069 0.25309381511721207 0 0.2059694222183501 0.25281006746413981 0 0.20874451531016261 0.25629362919382542 0 0.21130172061056171 0.25505359159360741 0 0.2113586539740433 0.25727600075261742 0 0.20874451531016261 0.25629362919382542 0 0.2093600207010069 0.25309381511721207 0 0.21130172061056171 0.25505359159360741 0 0.21153344158500181 0.24941587977091709 0 0.2093600207010069 0.25309381511721207 0 0.21130172061056171 0.25505359159360741 0 0.21153344158500181 0.24941587977091709 0 0.20724033172106701 0.24957003866010871 0 0.2093600207010069 0.25309381511721207 0 0.20724033172106701 0.24957003866010871 0 0.2093600207010069 0.25309381511721207 0 0.2059694222183501 0.25281006746413981 0 0.2026128338552913 0.25131534802752492 0 0.2059694222183501 0.25281006746413981 0 0.20466665024713171 0.25608739995905128 0 0.20724033172106701 0.24957003866010871 0 0.2026128338552913 0.25131534802752492 0 0.2059694222183501 0.25281006746413981 0 0.20874451531016261 0.25629362919382542 0 0.2059694222183501 0.25281006746413981 0 0.20466665024713171 0.25608739995905128 0 0.20180180408723461 0.26180744995016619 0 0.20466665024713171 0.25608739995905128 0 0.20792511823823101 0.26225756036272418 0 0.20180180408723461 0.26180744995016619 0 0.20272552141191991 0.26794761982750098 0 0.20792511823823101 0.26225756036272418 0 0.20874451531016261 0.25629362919382542 0 0.20466665024713171 0.25608739995905128 0 0.20792511823823101 0.26225756036272418 0 0.20874451531016261 0.25629362919382542 0 0.20792511823823101 0.26225756036272418 0 0.2113586539740433 0.25727600075261742 0 0.20792511823823101 0.26225756036272418 0 0.21489970272271239 0.25712912204081012 0 0.2113586539740433 0.25727600075261742 0 0.21569748504132349 0.25570309176112233 0 0.21489970272271239 0.25712912204081012 0 0.21569748504132349 0.25570309176112233 0 0.21489970272271239 0.25712912204081012 0 0.2130217066267219 0.25546753142950229 0 0.21489970272271239 0.25712912204081012 0 0.2130217066267219 0.25546753142950229 0 0.2113586539740433 0.25727600075261742 0 0.21569748504132349 0.25570309176112233 0 0.2130217066267219 0.25546753142950229 0 0.21130172061056171 0.25505359159360741 0 0.2130217066267219 0.25546753142950229 0 0.21130172061056171 0.25505359159360741 0 0.2113586539740433 0.25727600075261742 0 0.21153344158500181 0.24941587977091709 0 0.21569748504132349 0.25570309176112233 0 0.21130172061056171 0.25505359159360741 0 0.21569748504132349 0.25570309176112233 0 0.22580675107780779 0.25061744993436252 0 0.2225412324313924 0.26133700711988772 0 0.22580675107780779 0.25061744993436252 0 0.22825048315814389 0.26085887783411282 0 0.2225412324313924 0.26133700711988772 0 0.2332221273836326 0.2484260950697077 0 0.22580675107780779 0.25061744993436252 0 0.22825048315814389 0.26085887783411282 0 0.2332221273836326 0.2484260950697077 0 0.22825048315814389 0.26085887783411282 0 0.24073748530606759 0.26238945068988739 0 0.24073748530606759 0.26238945068988739 0 0.22180303900461981 0.28301721826273712 0 0.22825048315814389 0.26085887783411282 0 0.2225412324313924 0.26133700711988772 0 0.22180303900461981 0.28301721826273712 0 0.21569748504132349 0.25570309176112233 0 0.2225412324313924 0.26133700711988772 0 0.22180303900461981 0.28301721826273712 0 0.21569748504132349 0.25570309176112233 0 0.22180303900461981 0.28301721826273712 0 0.22825048315814389 0.26085887783411282 0 0.24073748530606759 0.26238945068988739 0 0.22180303900461981 0.28301721826273712 0 0.24073748530606759 0.26238945068988739 0 0.23521504907803831 0.2880385033757199 0 0.22180303900461981 0.28301721826273712 0 0.24073748530606759 0.26238945068988739 0 0.23521504907803831 0.2880385033757199 0 0.25129444743430068 0.28959966055747371 0 0.24316293902537719 0.2413439192186545 0 0.2332221273836326 0.2484260950697077 0 0.24073748530606759 0.26238945068988739 0 0.24689028600781421 0.31065116467091058 0 0.23744987687192429 0.30002994614035411 0 0.25129444743430068 0.28959966055747371 0 0.24689028600781421 0.31065116467091058 0 0.23744987687192429 0.30002994614035411 0 0.2286320548914389 0.31356786197753139 0 0.23744987687192429 0.30002994614035411 0 0.23521504907803831 0.2880385033757199 0 0.25129444743430068 0.28959966055747371 0 0.23521504907803831 0.2880385033757199 0 0.22180303900461981 0.28301721826273712 0 0.2252175469480292 0.29829254012013429 0 0.23744987687192429 0.30002994614035411 0 0.23521504907803831 0.2880385033757199 0 0.2252175469480292 0.29829254012013429 0 0.22180303900461981 0.28301721826273712 0 0.2252175469480292 0.29829254012013429 0 0.23744987687192429 0.30002994614035411 0 0.2252175469480292 0.29829254012013429 0 0.2286320548914389 0.31356786197753139 0 0.2252175469480292 0.29829254012013429 0 0.2286320548914389 0.31356786197753139 0 0.2252175469480292 0.29829254012013429 0 0.2145925262986495 0.3132662063310479 0 0.2286320548914389 0.31356786197753139 0 0.2252175469480292 0.29829254012013429 0 0.20446675936895359 0.30190389396527051 0 0.2145925262986495 0.3132662063310479 0 0.20446675936895359 0.30190389396527051 0 0.1987167046522969 0.31493473699472591 0 0.2145925262986495 0.3132662063310479 0 0.20712604976501089 0.27743126442534272 0 0.22180303900461981 0.28301721826273712 0 0.20446675936895359 0.30190389396527051 0 0.22180303900461981 0.28301721826273712 0 0.2252175469480292 0.29829254012013429 0 0.20446675936895359 0.30190389396527051 0 0.22180303900461981 0.28301721826273712 0 0.20446675936895359 0.30190389396527051 0 0.20712604976501089 0.27743126442534272 0 0.20446675936895359 0.30190389396527051 0 0.19880381956280291 0.28711739298445849 0 0.20446675936895359 0.30190389396527051 0 0.19880381956280291 0.28711739298445849 0 0.18782825883278409 0.29230276170785019 0 0.19579421028446289 0.27683165183937092 0 0.19880381956280291 0.28711739298445849 0 0.18782825883278409 0.29230276170785019 0 0.1863819123695713 0.30849163413045683 0 0.20446675936895359 0.30190389396527051 0 0.18782825883278409 0.29230276170785019 0 0.1863819123695713 0.30849163413045683 0 0.20446675936895359 0.30190389396527051 0 0.1987167046522969 0.31493473699472591 0 0.1987167046522969 0.31493473699472591 0 0.18859224168093389 0.32537264888635897 0 0.20849179119795799 0.32533979409013458 0 0.1863819123695713 0.30849163413045683 0 0.1987167046522969 0.31493473699472591 0 0.18859224168093389 0.32537264888635897 0 0.18859224168093389 0.32537264888635897 0 0.19251681716880459 0.34099959726962259 0 0.20849179119795799 0.32533979409013458 0 0.19251681716880459 0.34099959726962259 0 0.20849179119795799 0.32533979409013458 0 0.21444617450139869 0.34530128623173678 0 0.20849179119795799 0.32533979409013458 0 0.2220303007332205 0.32555841083849058 0 0.21444617450139869 0.34530128623173678 0 0.1987167046522969 0.31493473699472591 0 0.20849179119795799 0.32533979409013458 0 0.2145925262986495 0.3132662063310479 0 0.20849179119795799 0.32533979409013458 0 0.2145925262986495 0.3132662063310479 0 0.2220303007332205 0.32555841083849058 0 0.2286320548914389 0.31356786197753139 0 0.2220303007332205 0.32555841083849058 0 0.23837999004083571 0.33113184246771821 0 0.2145925262986495 0.3132662063310479 0 0.2286320548914389 0.31356786197753139 0 0.2220303007332205 0.32555841083849058 0 0.23837999004083571 0.33113184246771821 0 0.21444617450139869 0.34530128623173678 0 0.2220303007332205 0.32555841083849058 0 0.23837999004083571 0.33113184246771821 0 0.21444617450139869 0.34530128623173678 0 0.23837999004083571 0.33113184246771821 0 0.22912821961170871 0.35057288563374461 0 0.21444617450139869 0.34530128623173678 0 0.23837999004083571 0.33113184246771821 0 0.25779474338176328 0.3268911427673406 0 0.25066155442806282 0.3406857927898812 0 0.23837999004083571 0.33113184246771821 0 0.24099968541491831 0.35058231049722988 0 0.25066155442806282 0.3406857927898812 0 0.24689028600781421 0.31065116467091058 0 0.2286320548914389 0.31356786197753139 0 0.23837999004083571 0.33113184246771821 0 0.24689028600781421 0.31065116467091058 0 0.23837999004083571 0.33113184246771821 0 0.25779474338176328 0.3268911427673406 0 0.24129723405748441 0.37363962455656191 0 0.24382990809534219 0.36230775271154603 0 0.23237747952474019 0.36316769585898429 0 0.24129723405748441 0.37363962455656191 0 0.24382990809534219 0.36230775271154603 0 0.25350958233871312 0.36601823387945343 0 0.24129723405748441 0.37363962455656191 0 0.25148855068357462 0.37644529171893287 0 0.25350958233871312 0.36601823387945343 0 0.23837999004083571 0.33113184246771821 0 0.24099968541491831 0.35058231049722988 0 0.22912821961170871 0.35057288563374461 0 0.24382990809534219 0.36230775271154603 0 0.24099968541491831 0.35058231049722988 0 0.25490245674115208 0.35360061023854222 0 0.24099968541491831 0.35058231049722988 0 0.25490245674115208 0.35360061023854222 0 0.25066155442806282 0.3406857927898812 0 0.24382990809534219 0.36230775271154603 0 0.24099968541491831 0.35058231049722988 0 0.23237747952474019 0.36316769585898429 0 0.22912821961170871 0.35057288563374461 0 0.21943776857665009 0.36268129311305342 0 0.23237747952474019 0.36316769585898429 0 0.24099968541491831 0.35058231049722988 0 0.22912821961170871 0.35057288563374461 0 0.23237747952474019 0.36316769585898429 0 0.22912821961170871 0.35057288563374461 0 0.21943776857665009 0.36268129311305342 0 0.21444617450139869 0.34530128623173678 0 0.24129723405748441 0.37363962455656191 0 0.23237747952474019 0.36316769585898429 0 0.22559041422841089 0.37732855107316021 0 0.21943776857665009 0.36268129311305342 0 0.21649051871397901 0.37424260065654941 0 0.22559041422841089 0.37732855107316021 0 0.21943776857665009 0.36268129311305342 0 0.23237747952474019 0.36316769585898429 0 0.22559041422841089 0.37732855107316021 0 0.21943776857665009 0.36268129311305342 0 0.2068854940189154 0.37396930785647348 0 0.21943776857665009 0.36268129311305342 0 0.21649051871397901 0.37424260065654941 0 0.2068854940189154 0.37396930785647348 0 0.21943776857665009 0.36268129311305342 0 0.2053097914645868 0.36262053248560622 0 0.2068854940189154 0.37396930785647348 0 0.2053097914645868 0.36262053248560622 0 0.21444617450139869 0.34530128623173678 0 0.19051235896196159 0.35947072999575552 0 0.21943776857665009 0.36268129311305342 0 0.2053097914645868 0.36262053248560622 0 0.21444617450139869 0.34530128623173678 0 0.21444617450139869 0.34530128623173678 0 0.19051235896196159 0.35947072999575552 0 0.19251681716880459 0.34099959726962259 0 0.21444617450139869 0.34530128623173678 0 0.19051235896196159 0.35947072999575552 0 0.19051235896196159 0.35947072999575552 0 0.195267161264008 0.37168004523101189 0 0.1828394417244609 0.37644567048394673 0 0.2053097914645868 0.36262053248560622 0 0.2068854940189154 0.37396930785647348 0 0.195267161264008 0.37168004523101189 0 0.2053097914645868 0.36262053248560622 0 0.19051235896196159 0.35947072999575552 0 0.195267161264008 0.37168004523101189 0 0.19051235896196159 0.35947072999575552 0 0.16657854342252459 0.3736401737597741 0 0.1689464047758365 0.350341561614255 0 0.19051235896196159 0.35947072999575552 0 0.16657854342252459 0.3736401737597741 0 0.1828394417244609 0.37644567048394673 0 0.19051235896196159 0.35947072999575552 0 0.16657854342252459 0.3736401737597741 0 0.1588441086225828 0.36108448524608427 0 0.16657854342252459 0.3736401737597741 0 0.146320646638019 0.36303376713746521 0 0.1588441086225828 0.36108448524608427 0 0.16657854342252459 0.3736401737597741 0 0.1689464047758365 0.350341561614255 0 0.1588441086225828 0.36108448524608427 0 0.1689464047758365 0.350341561614255 0 0.14574327650027619 0.3454366219081052 0 0.19251681716880459 0.34099959726962259 0 0.19051235896196159 0.35947072999575552 0 0.1689464047758365 0.350341561614255 0 0.18859224168093389 0.32537264888635897 0 0.19251681716880459 0.34099959726962259 0 0.17528753379359169 0.33259671908795568 0 0.19251681716880459 0.34099959726962259 0 0.1689464047758365 0.350341561614255 0 0.17528753379359169 0.33259671908795568 0 0.1863819123695713 0.30849163413045683 0 0.18859224168093389 0.32537264888635897 0 0.1699568846931403 0.31723336841146671 0 0.18859224168093389 0.32537264888635897 0 0.17528753379359169 0.33259671908795568 0 0.1699568846931403 0.31723336841146671 0 0.17528753379359169 0.33259671908795568 0 0.1699568846931403 0.31723336841146671 0 0.156425320649243 0.3290364192580752 0 0.14842569442794551 0.30707650636866718 0 0.1699568846931403 0.31723336841146671 0 0.156425320649243 0.3290364192580752 0 0.1689464047758365 0.350341561614255 0 0.156425320649243 0.3290364192580752 0 0.14574327650027619 0.3454366219081052 0 0.1689464047758365 0.350341561614255 0 0.17528753379359169 0.33259671908795568 0 0.156425320649243 0.3290364192580752 0 0.156425320649243 0.3290364192580752 0 0.13310075722078149 0.31949571370022029 0 0.14574327650027619 0.3454366219081052 0 0.14842569442794551 0.30707650636866718 0 0.156425320649243 0.3290364192580752 0 0.13310075722078149 0.31949571370022029 0 0.13310075722078149 0.31949571370022029 0 0.1265777835538395 0.33784853812482812 0 0.14574327650027619 0.3454366219081052 0 0.12608849482844001 0.35985026705264428 0 0.146320646638019 0.36303376713746521 0 0.14574327650027619 0.3454366219081052 0 0.1265777835538395 0.33784853812482812 0 0.12608849482844001 0.35985026705264428 0 0.14574327650027619 0.3454366219081052 0 0.138780074504184 0.37447093888298089 0 0.12608849482844001 0.35985026705264428 0 0.146320646638019 0.36303376713746521 0 0.1247541262307869 0.3782795632343926 0 0.138780074504184 0.37447093888298089 0 0.12608849482844001 0.35985026705264428 0 0.16657854342252459 0.3736401737597741 0 0.138780074504184 0.37447093888298089 0 0.146320646638019 0.36303376713746521 0 0.1588441086225828 0.36108448524608427 0 0.146320646638019 0.36303376713746521 0 0.14574327650027619 0.3454366219081052 0 0.1434246426038758 0.39817090866091209 0 0.16887893103252799 0.39171411563040248 0 0.1434246426038758 0.39817090866091209 0 0.15202622751482989 0.40373431471358068 0 0.16887893103252799 0.39171411563040248 0 0.1434246426038758 0.39817090866091209 0 0.1485472011824828 0.39095377623226812 0 0.16887893103252799 0.39171411563040248 0 0.14265175341187461 0.3928040741096781 0 0.1434246426038758 0.39817090866091209 0 0.1485472011824828 0.39095377623226812 0 0.1434246426038758 0.39817090866091209 0 0.1399582041753068 0.39579968338183302 0 0.13954765946826 0.40011921404436579 0 0.14265175341187461 0.3928040741096781 0 0.1434246426038758 0.39817090866091209 0 0.1399582041753068 0.39579968338183302 0 0.1434246426038758 0.39817090866091209 0 0.14318285242405501 0.40427848303613217 0 0.13954765946826 0.40011921404436579 0 0.14318285242405501 0.40427848303613217 0 0.15202622751482989 0.40373431471358068 0 0.14447510426961649 0.41025267858093561 0 0.1434246426038758 0.39817090866091209 0 0.14318285242405501 0.40427848303613217 0 0.15202622751482989 0.40373431471358068 0 0.16657854342252459 0.3736401737597741 0 0.14264472788308749 0.38780961752379228 0 0.16657854342252459 0.3736401737597741 0 0.138780074504184 0.37447093888298089 0 0.14264472788308749 0.38780961752379228 0 0.16657854342252459 0.3736401737597741 0 0.1485472011824828 0.39095377623226812 0 0.14264472788308749 0.38780961752379228 0 0.14265175341187461 0.3928040741096781 0 0.1485472011824828 0.39095377623226812 0 0.14264472788308749 0.38780961752379228 0 0.1485472011824828 0.39095377623226812 0 0.14264472788308749 0.38780961752379228 0 0.1247541262307869 0.3782795632343926 0 0.138780074504184 0.37447093888298089 0 0.14264472788308749 0.38780961752379228 0 0.1247541262307869 0.3782795632343926 0 0.14264472788308749 0.38780961752379228 0 0.13628947368020611 0.39157209396159381 0 0.1247541262307869 0.3782795632343926 0 0.14264472788308749 0.38780961752379228 0 0.14264472788308749 0.38780961752379228 0 0.13628947368020611 0.39157209396159381 0 0.1247541262307869 0.3782795632343926 0 0.13628947368020611 0.39157209396159381 0 0.11341375109083709 0.40511511907003178 0 0.13628947368020611 0.39157209396159381 0 0.13324293760677131 0.40358769985347848 0 0.13628947368020611 0.39157209396159381 0 0.1399582041753068 0.39579968338183302 0 0.13954765946826 0.40011921404436579 0 0.13628947368020611 0.39157209396159381 0 0.13324293760677131 0.40358769985347848 0 0.13954765946826 0.40011921404436579 0 0.13628947368020611 0.39157209396159381 0 0.1399582041753068 0.39579968338183302 0 0.14265175341187461 0.3928040741096781 0 0.13628947368020611 0.39157209396159381 0 0.1399582041753068 0.39579968338183302 0 0.14265175341187461 0.3928040741096781 0 0.14264472788308749 0.38780961752379228 0 0.13628947368020611 0.39157209396159381 0 0.14318285242405501 0.40427848303613217 0 0.13324293760677131 0.40358769985347848 0 0.13954765946826 0.40011921404436579 0 0.14318285242405501 0.40427848303613217 0 0.13324293760677131 0.40358769985347848 0 0.1370400005970466 0.40875111607150932 0 0.11341375109083709 0.40511511907003178 0 0.13324293760677131 0.40358769985347848 0 0.12998388838022379 0.4116901729372392 0 0.12088671281092191 0.41701787470520829 0 0.12959563607523361 0.41856328623176109 0 0.1258212466174069 0.42232164347985018 0 0.12088671281092191 0.41701787470520829 0 0.12998388838022379 0.4116901729372392 0 0.12959563607523361 0.41856328623176109 0 0.12959563607523361 0.41856328623176109 0 0.1258212466174069 0.42232164347985018 0 0.12923417460395989 0.42289517157516582 0 0.12959563607523361 0.41856328623176109 0 0.13379149119501471 0.41690514334389672 0 0.13271549141698399 0.42310731061766121 0 0.12959563607523361 0.41856328623176109 0 0.13271549141698399 0.42310731061766121 0 0.12923417460395989 0.42289517157516582 0 0.12998388838022379 0.4116901729372392 0 0.12959563607523361 0.41856328623176109 0 0.13379149119501471 0.41690514334389672 0 0.13379149119501471 0.41690514334389672 0 0.13817952159882571 0.42024452301265192 0 0.13271549141698399 0.42310731061766121 0 0.13817952159882571 0.42024452301265192 0 0.13851362684619609 0.41358233386418047 0 0.1439025556699666 0.41567982261473252 0 0.13379149119501471 0.41690514334389672 0 0.13817952159882571 0.42024452301265192 0 0.13851362684619609 0.41358233386418047 0 0.13851362684619609 0.41358233386418047 0 0.1370400005970466 0.40875111607150932 0 0.14447510426961649 0.41025267858093561 0 0.12998388838022379 0.4116901729372392 0 0.13379149119501471 0.41690514334389672 0 0.13851362684619609 0.41358233386418047 0 0.12998388838022379 0.4116901729372392 0 0.13851362684619609 0.41358233386418047 0 0.1370400005970466 0.40875111607150932 0 0.13324293760677131 0.40358769985347848 0 0.12998388838022379 0.4116901729372392 0 0.1370400005970466 0.40875111607150932 0 0.1215793969357247 0.43610496829251089 0 0.1315705716655578 0.42962823940706668 0 0.1380435148060741 0.43587755187603588 0 0.1216744333753977 0.42473792471790989 0 0.1315705716655578 0.42962823940706668 0 0.12876054817230129 0.42691529809531892 0 0.1315705716655578 0.42962823940706668 0 0.12876054817230129 0.42691529809531892 0 0.13271549141698399 0.42310731061766121 0 0.1315705716655578 0.42962823940706668 0 0.12876054817230129 0.42691529809531892 0 0.1216744333753977 0.42473792471790989 0 0.12876054817230129 0.42691529809531892 0 0.1258212466174069 0.42232164347985018 0 0.12876054817230129 0.42691529809531892 0 0.1258212466174069 0.42232164347985018 0 0.12923417460395989 0.42289517157516582 0 0.12876054817230129 0.42691529809531892 0 0.13271549141698399 0.42310731061766121 0 0.12923417460395989 0.42289517157516582 0 0.1315705716655578 0.42962823940706668 0 0.13798531654698121 0.4255533690169343 0 0.1435704846264178 0.43090725613150221 0 0.13817952159882571 0.42024452301265192 0 0.13271549141698399 0.42310731061766121 0 0.13798531654698121 0.4255533690169343 0 0.1315705716655578 0.42962823940706668 0 0.13271549141698399 0.42310731061766121 0 0.13798531654698121 0.4255533690169343 0 0.1315705716655578 0.42962823940706668 0 0.1380435148060741 0.43587755187603588 0 0.1435704846264178 0.43090725613150221 0 0.1315705716655578 0.42962823940706668 0 0.1435704846264178 0.43090725613150221 0 0.1315705716655578 0.42962823940706668 0 0.1380435148060741 0.43587755187603588 0 0.1435704846264178 0.43090725613150221 0 0.1672806332938952 0.43343441418535023 0 0.15303681989174511 0.43953220783326508 0 0.1435704846264178 0.43090725613150221 0 0.1672806332938952 0.43343441418535023 0 0.1435704846264178 0.43090725613150221 0 0.16049139623800629 0.41569061162096699 0 0.1435704846264178 0.43090725613150221 0 0.14613512008812821 0.42054138032959282 0 0.16049139623800629 0.41569061162096699 0 0.1380435148060741 0.43587755187603588 0 0.1435704846264178 0.43090725613150221 0 0.15303681989174511 0.43953220783326508 0 0.1380435148060741 0.43587755187603588 0 0.1435704846264178 0.43090725613150221 0 0.13817952159882571 0.42024452301265192 0 0.13798531654698121 0.4255533690169343 0 0.14613512008812821 0.42054138032959282 0 0.13798531654698121 0.4255533690169343 0 0.1435704846264178 0.43090725613150221 0 0.14613512008812821 0.42054138032959282 0 0.14447510426961649 0.41025267858093561 0 0.1439025556699666 0.41567982261473252 0 0.1518304210785282 0.41301538929485387 0 0.14318285242405501 0.40427848303613217 0 0.1370400005970466 0.40875111607150932 0 0.14447510426961649 0.41025267858093561 0 0.13851362684619609 0.41358233386418047 0 0.14447510426961649 0.41025267858093561 0 0.1439025556699666 0.41567982261473252 0 0.13817952159882571 0.42024452301265192 0 0.1439025556699666 0.41567982261473252 0 0.14613512008812821 0.42054138032959282 0 0.1439025556699666 0.41567982261473252 0 0.14613512008812821 0.42054138032959282 0 0.1518304210785282 0.41301538929485387 0 0.14613512008812821 0.42054138032959282 0 0.1518304210785282 0.41301538929485387 0 0.16049139623800629 0.41569061162096699 0 0.15202622751482989 0.40373431471358068 0 0.14447510426961649 0.41025267858093561 0 0.1518304210785282 0.41301538929485387 0 0.15202622751482989 0.40373431471358068 0 0.1518304210785282 0.41301538929485387 0 0.15998642921183789 0.40421150508679993 0 0.1518304210785282 0.41301538929485387 0 0.16049139623800629 0.41569061162096699 0 0.15998642921183789 0.40421150508679993 0 0.16049139623800629 0.41569061162096699 0 0.1774123078495935 0.40047396711043032 0 0.15998642921183789 0.40421150508679993 0 0.16049139623800629 0.41569061162096699 0 0.17752409311172829 0.41706180447101099 0 0.1774123078495935 0.40047396711043032 0 0.16049139623800629 0.41569061162096699 0 0.1774123078495935 0.40047396711043032 0 0.1435704846264178 0.43090725613150221 0 0.16049139623800629 0.41569061162096699 0 0.1672806332938952 0.43343441418535023 0 0.16049139623800629 0.41569061162096699 0 0.1672806332938952 0.43343441418535023 0 0.17752409311172829 0.41706180447101099 0 0.1672806332938952 0.43343441418535023 0 0.1850255229680268 0.42549602308727441 0 0.17752409311172829 0.41706180447101099 0 0.1672806332938952 0.43343441418535023 0 0.1850255229680268 0.42549602308727441 0 0.1909907819613724 0.43596157223919968 0 0.1672806332938952 0.43343441418535023 0 0.1909907819613724 0.43596157223919968 0 0.1850255229680268 0.42549602308727441 0 0.17752409311172829 0.41706180447101099 0 0.19398494077600531 0.41447438978002821 0 0.17752409311172829 0.41706180447101099 0 0.1848295836989341 0.40852322828805171 0 0.19398494077600531 0.41447438978002821 0 0.17752409311172829 0.41706180447101099 0 0.1848295836989341 0.40852322828805171 0 0.1774123078495935 0.40047396711043032 0 0.1774123078495935 0.40047396711043032 0 0.16887893103252799 0.39171411563040248 0 0.19433321946118029 0.3852573225998932 0 0.1774123078495935 0.40047396711043032 0 0.19433321946118029 0.3852573225998932 0 0.1848295836989341 0.40852322828805171 0 0.1774123078495935 0.40047396711043032 0 0.19168858337758671 0.40137199151025937 0 0.1774123078495935 0.40047396711043032 0 0.16887893103252799 0.39171411563040248 0 0.15998642921183789 0.40421150508679993 0 0.15202622751482989 0.40373431471358068 0 0.16887893103252799 0.39171411563040248 0 0.15998642921183789 0.40421150508679993 0 0.16657854342252459 0.3736401737597741 0 0.1485472011824828 0.39095377623226812 0 0.16887893103252799 0.39171411563040248 0 0.16887893103252799 0.39171411563040248 0 0.19433321946118029 0.3852573225998932 0 0.16887893103252799 0.39171411563040248 0 0.1828394417244609 0.37644567048394673 0 0.19433321946118029 0.3852573225998932 0 0.16657854342252459 0.3736401737597741 0 0.16887893103252799 0.39171411563040248 0 0.1828394417244609 0.37644567048394673 0 0.195267161264008 0.37168004523101189 0 0.1828394417244609 0.37644567048394673 0 0.19433321946118029 0.3852573225998932 0 0.19433321946118029 0.3852573225998932 0 0.20996181684479559 0.38129293683652649 0 0.2068854940189154 0.37396930785647348 0 0.195267161264008 0.37168004523101189 0 0.19433321946118029 0.3852573225998932 0 0.2068854940189154 0.37396930785647348 0 0.19433321946118029 0.3852573225998932 0 0.1774123078495935 0.40047396711043032 0 0.19433321946118029 0.3852573225998932 0 0.19168858337758671 0.40137199151025937 0 0.19433321946118029 0.3852573225998932 0 0.19168858337758671 0.40137199151025937 0 0.20386142115646261 0.39746575728597228 0 0.19433321946118029 0.3852573225998932 0 0.20386142115646261 0.39746575728597228 0 0.20977510006131819 0.39042905493444741 0 0.19875199812997549 0.40574826928634172 0 0.20386142115646261 0.39746575728597228 0 0.20547304720984741 0.40968093856910659 0 0.19168858337758671 0.40137199151025937 0 0.19875199812997549 0.40574826928634172 0 0.20386142115646261 0.39746575728597228 0 0.20386142115646261 0.39746575728597228 0 0.21268948673986801 0.40081994113719133 0 0.20547304720984741 0.40968093856910659 0 0.20386142115646261 0.39746575728597228 0 0.21268948673986801 0.40081994113719133 0 0.20977510006131819 0.39042905493444741 0 0.21268948673986801 0.40081994113719133 0 0.20977510006131819 0.39042905493444741 0 0.2196269959375943 0.39365832392074929 0 0.21268948673986801 0.40081994113719133 0 0.2196269959375943 0.39365832392074929 0 0.2222629970868355 0.40456487947331571 0 0.21268948673986801 0.40081994113719133 0 0.2222629970868355 0.40456487947331571 0 0.21513735898715011 0.40912069263955692 0 0.19433321946118029 0.3852573225998932 0 0.20996181684479559 0.38129293683652649 0 0.20977510006131819 0.39042905493444741 0 0.2068854940189154 0.37396930785647348 0 0.19433321946118029 0.3852573225998932 0 0.20996181684479559 0.38129293683652649 0 0.20996181684479559 0.38129293683652649 0 0.22559041422841089 0.37732855107316021 0 0.20996181684479559 0.38129293683652649 0 0.21831723209765641 0.38608604251640671 0 0.22559041422841089 0.37732855107316021 0 0.21649051871397901 0.37424260065654941 0 0.20996181684479559 0.38129293683652649 0 0.22559041422841089 0.37732855107316021 0 0.20996181684479559 0.38129293683652649 0 0.20977510006131819 0.39042905493444741 0 0.21831723209765641 0.38608604251640671 0 0.20977510006131819 0.39042905493444741 0 0.21831723209765641 0.38608604251640671 0 0.2196269959375943 0.39365832392074929 0 0.21649051871397901 0.37424260065654941 0 0.2068854940189154 0.37396930785647348 0 0.20996181684479559 0.38129293683652649 0 0.24129723405748441 0.37363962455656191 0 0.22559041422841089 0.37732855107316021 0 0.2361456421026136 0.38582432566422697 0 0.226631833416163 0.38772134581714979 0 0.2332138943119518 0.39800941529621658 0 0.2361456421026136 0.38582432566422697 0 0.22559041422841089 0.37732855107316021 0 0.226631833416163 0.38772134581714979 0 0.2361456421026136 0.38582432566422697 0 0.21831723209765641 0.38608604251640671 0 0.22559041422841089 0.37732855107316021 0 0.226631833416163 0.38772134581714979 0 0.21831723209765641 0.38608604251640671 0 0.226631833416163 0.38772134581714979 0 0.2196269959375943 0.39365832392074929 0 0.226631833416163 0.38772134581714979 0 0.2196269959375943 0.39365832392074929 0 0.2332138943119518 0.39800941529621658 0 0.2196269959375943 0.39365832392074929 0 0.2222629970868355 0.40456487947331571 0 0.2332138943119518 0.39800941529621658 0 0.2222629970868355 0.40456487947331571 0 0.2332138943119518 0.39800941529621658 0 0.23120203433720199 0.41183072111584229 0 0.2332138943119518 0.39800941529621658 0 0.2423822595304477 0.39413164426730118 0 0.2361456421026136 0.38582432566422697 0 0.2332138943119518 0.39800941529621658 0 0.24242906920371249 0.40521342256927012 0 0.2423822595304477 0.39413164426730118 0 0.2332138943119518 0.39800941529621658 0 0.24242906920371249 0.40521342256927012 0 0.23120203433720199 0.41183072111584229 0 0.24242906920371249 0.40521342256927012 0 0.2423822595304477 0.39413164426730118 0 0.25280463964189559 0.39668982154644128 0 0.24242906920371249 0.40521342256927012 0 0.25227719598857462 0.41208556965106269 0 0.25280463964189559 0.39668982154644128 0 0.2423822595304477 0.39413164426730118 0 0.24731805239206511 0.38492123626035118 0 0.25280463964189559 0.39668982154644128 0 0.24129723405748441 0.37363962455656191 0 0.24731805239206511 0.38492123626035118 0 0.25148855068357462 0.37644529171893287 0 0.24129723405748441 0.37363962455656191 0 0.24731805239206511 0.38492123626035118 0 0.2361456421026136 0.38582432566422697 0 0.2423822595304477 0.39413164426730118 0 0.24731805239206511 0.38492123626035118 0 0.2361456421026136 0.38582432566422697 0 0.2406608249691769 0.41801580795949139 0 0.23299714624546181 0.42964439318784969 0 0.25952440933258281 0.42421478826961562 0 0.23299714624546181 0.42964439318784969 0 0.25298026374012311 0.43874227408361138 0 0.25952440933258281 0.42421478826961562 0 0.23299714624546181 0.42964439318784969 0 0.25952440933258281 0.42421478826961562 0 0.23299714624546181 0.42964439318784969 0 0.23841107929632679 0.44101588834689842 0 0.25298026374012311 0.43874227408361138 0 0.24242906920371249 0.40521342256927012 0 0.2406608249691769 0.41801580795949139 0 0.25227719598857462 0.41208556965106269 0 0.24242906920371249 0.40521342256927012 0 0.2406608249691769 0.41801580795949139 0 0.23120203433720199 0.41183072111584229 0 0.2289022154159952 0.41978855449771191 0 0.23120203433720199 0.41183072111584229 0 0.22112676619691929 0.4149439780780842 0 0.2406608249691769 0.41801580795949139 0 0.2289022154159952 0.41978855449771191 0 0.23120203433720199 0.41183072111584229 0 0.2222629970868355 0.40456487947331571 0 0.22112676619691929 0.4149439780780842 0 0.21513735898715011 0.40912069263955692 0 0.2222629970868355 0.40456487947331571 0 0.23120203433720199 0.41183072111584229 0 0.22112676619691929 0.4149439780780842 0 0.2289022154159952 0.41978855449771191 0 0.22112676619691929 0.4149439780780842 0 0.21852430533121581 0.42450787214729202 0 0.23299714624546181 0.42964439318784969 0 0.20646988315834039 0.43507399810608183 0 0.23299714624546181 0.42964439318784969 0 0.2147009306288496 0.43848873029304902 0 0.23841107929632679 0.44101588834689842 0 0.23299714624546181 0.42964439318784969 0 0.21852430533121581 0.42450787214729202 0 0.20646988315834039 0.43507399810608183 0 0.2289022154159952 0.41978855449771191 0 0.23299714624546181 0.42964439318784969 0 0.21852430533121581 0.42450787214729202 0 0.2406608249691769 0.41801580795949139 0 0.2289022154159952 0.41978855449771191 0 0.23299714624546181 0.42964439318784969 0 0.20646988315834039 0.43507399810608183 0 0.1909907819613724 0.43596157223919968 0 0.2147009306288496 0.43848873029304902 0 0.23299714624546181 0.42964439318784969 0 0.20646988315834039 0.43507399810608183 0 0.2147009306288496 0.43848873029304902 0 0.21852430533121581 0.42450787214729202 0 0.21032169773067541 0.42471736824469553 0 0.21253865280149009 0.41741502988129142 0 0.21852430533121581 0.42450787214729202 0 0.21032169773067541 0.42471736824469553 0 0.20646988315834039 0.43507399810608183 0 0.21032169773067541 0.42471736824469553 0 0.20646988315834039 0.43507399810608183 0 0.20375394963165561 0.42187257284411672 0 0.22112676619691929 0.4149439780780842 0 0.21513735898715011 0.40912069263955692 0 0.21253865280149009 0.41741502988129142 0 0.21513735898715011 0.40912069263955692 0 0.21253865280149009 0.41741502988129142 0 0.20547304720984741 0.40968093856910659 0 0.21268948673986801 0.40081994113719133 0 0.21513735898715011 0.40912069263955692 0 0.20547304720984741 0.40968093856910659 0 0.22112676619691929 0.4149439780780842 0 0.21852430533121581 0.42450787214729202 0 0.21253865280149009 0.41741502988129142 0 0.21253865280149009 0.41741502988129142 0 0.20375394963165561 0.42187257284411672 0 0.20547304720984741 0.40968093856910659 0 0.21032169773067541 0.42471736824469553 0 0.21253865280149009 0.41741502988129142 0 0.20375394963165561 0.42187257284411672 0 0.19875199812997549 0.40574826928634172 0 0.20547304720984741 0.40968093856910659 0 0.19398494077600531 0.41447438978002821 0 0.20375394963165561 0.42187257284411672 0 0.19398494077600531 0.41447438978002821 0 0.19534716569713251 0.42654793476078301 0 0.20375394963165561 0.42187257284411672 0 0.20547304720984741 0.40968093856910659 0 0.19398494077600531 0.41447438978002821 0 0.1848295836989341 0.40852322828805171 0 0.19168858337758671 0.40137199151025937 0 0.19398494077600531 0.41447438978002821 0 0.19168858337758671 0.40137199151025937 0 0.19875199812997549 0.40574826928634172 0 0.19398494077600531 0.41447438978002821 0 0.1909907819613724 0.43596157223919968 0 0.2147009306288496 0.43848873029304902 0 0.20646988315834039 0.43507399810608183 0 0.19534716569713251 0.42654793476078301 0 0.1909907819613724 0.43596157223919968 0 0.20646988315834039 0.43507399810608183 0 0.20375394963165561 0.42187257284411672 0 0.19534716569713251 0.42654793476078301 0 0.1850255229680268 0.42549602308727441 0 0.19534716569713251 0.42654793476078301 0 0.1909907819613724 0.43596157223919968 0 0.1850255229680268 0.42549602308727441 0 0.19398494077600531 0.41447438978002821 0 0.19534716569713251 0.42654793476078301 0 0.1909907819613724 0.43596157223919968 0 0.20244733005218651 0.44558739038819939 0 0.2147009306288496 0.43848873029304902 0 0.1909907819613724 0.43596157223919968 0 0.1928975338774461 0.44969789981142538 0 0.17890449863654229 0.45118115573759549 0 0.1928975338774461 0.44969789981142538 0 0.20244733005218651 0.44558739038819939 0 0.20086721890935169 0.45449397223541521 0 0.1909907819613724 0.43596157223919968 0 0.1928975338774461 0.44969789981142538 0 0.20244733005218651 0.44558739038819939 0 0.1928975338774461 0.44969789981142538 0 0.19127783982777741 0.46126540845671682 0 0.20086721890935169 0.45449397223541521 0 0.1928975338774461 0.44969789981142538 0 0.19127783982777741 0.46126540845671682 0 0.17890449863654229 0.45118115573759549 0 0.19127783982777741 0.46126540845671682 0 0.20086721890935169 0.45449397223541521 0 0.20489760694727399 0.46285812025075079 0 0.19127783982777741 0.46126540845671682 0 0.20489760694727399 0.46285812025075079 0 0.1999636586417847 0.47301876689816891 0 0.20489760694727399 0.46285812025075079 0 0.2169105099026184 0.4692183081778239 0 0.1999636586417847 0.47301876689816891 0 0.21265917559483091 0.45199673476971969 0 0.2250831627787386 0.45554711331848241 0 0.2169105099026184 0.4692183081778239 0 0.20489760694727399 0.46285812025075079 0 0.21265917559483091 0.45199673476971969 0 0.2169105099026184 0.4692183081778239 0 0.20086721890935169 0.45449397223541521 0 0.20489760694727399 0.46285812025075079 0 0.21265917559483091 0.45199673476971969 0 0.20244733005218651 0.44558739038819939 0 0.21265917559483091 0.45199673476971969 0 0.2147009306288496 0.43848873029304902 0 0.20244733005218651 0.44558739038819939 0 0.20086721890935169 0.45449397223541521 0 0.21265917559483091 0.45199673476971969 0 0.21265917559483091 0.45199673476971969 0 0.2147009306288496 0.43848873029304902 0 0.22052577410403409 0.44770761397320902 0 0.2147009306288496 0.43848873029304902 0 0.23841107929632679 0.44101588834689842 0 0.2147009306288496 0.43848873029304902 0 0.2283801278122457 0.44701735542117521 0 0.23841107929632679 0.44101588834689842 0 0.2147009306288496 0.43848873029304902 0 0.2283801278122457 0.44701735542117521 0 0.22052577410403409 0.44770761397320902 0 0.2283801278122457 0.44701735542117521 0 0.2250831627787386 0.45554711331848241 0 0.2406202930503363 0.45676638699341759 0 0.2283801278122457 0.44701735542117521 0 0.22052577410403409 0.44770761397320902 0 0.2250831627787386 0.45554711331848241 0 0.21265917559483091 0.45199673476971969 0 0.22052577410403409 0.44770761397320902 0 0.2250831627787386 0.45554711331848241 0 0.2250831627787386 0.45554711331848241 0 0.2320716098186838 0.46727008716051638 0 0.2169105099026184 0.4692183081778239 0 0.2250831627787386 0.45554711331848241 0 0.2320716098186838 0.46727008716051638 0 0.2406202930503363 0.45676638699341759 0 0.2406202930503363 0.45676638699341759 0 0.24813519857889821 0.47224858639342782 0 0.25968782351510139 0.45620616593387092 0 0.2406202930503363 0.45676638699341759 0 0.24729863591483789 0.44797113833021868 0 0.25968782351510139 0.45620616593387092 0 0.2320716098186838 0.46727008716051638 0 0.2406202930503363 0.45676638699341759 0 0.24813519857889821 0.47224858639342782 0 0.2283801278122457 0.44701735542117521 0 0.2406202930503363 0.45676638699341759 0 0.23841107929632679 0.44101588834689842 0 0.2406202930503363 0.45676638699341759 0 0.24729863591483789 0.44797113833021868 0 0.23841107929632679 0.44101588834689842 0 0.24729863591483789 0.44797113833021868 0 0.23841107929632679 0.44101588834689842 0 0.25298026374012311 0.43874227408361138 0 0.2473003860244273 0.5 0 0.24813519857889821 0.47224858639342782 0 0.22960888478282751 0.48257004091943012 0 0.2320716098186838 0.46727008716051638 0 0.24813519857889821 0.47224858639342782 0 0.22960888478282751 0.48257004091943012 0 0.22960888478282751 0.48257004091943012 0 0.2109002675440243 0.48455192553724852 0 0.2169105099026184 0.4692183081778239 0 0.2320716098186838 0.46727008716051638 0 0.22960888478282751 0.48257004091943012 0 0.2169105099026184 0.4692183081778239 0 0.22960888478282751 0.48257004091943012 0 0.21820536360404191 0.5 0 0.2109002675440243 0.48455192553724852 0 0.2473003860244273 0.5 0 0.22960888478282751 0.48257004091943012 0 0.21820536360404191 0.5 0 0.21820536360404191 0.5 0 0.2109002675440243 0.48455192553724852 0 0.19624698301894319 0.49207017580983903 0 0.2109002675440243 0.48455192553724852 0 0.2169105099026184 0.4692183081778239 0 0.1999636586417847 0.47301876689816891 0 0.1999636586417847 0.47301876689816891 0 0.19741409974337781 0.48146044824857748 0 0.17684582694798681 0.47333930116523792 0 0.19127783982777741 0.46126540845671682 0 0.1999636586417847 0.47301876689816891 0 0.17684582694798681 0.47333930116523792 0 0.19741409974337781 0.48146044824857748 0 0.19624698301894319 0.49207017580983903 0 0.17684582694798681 0.47333930116523792 0 0.2109002675440243 0.48455192553724852 0 0.1999636586417847 0.47301876689816891 0 0.19741409974337781 0.48146044824857748 0 0.21820536360404191 0.5 0 0.18911034118365649 0.5 0 0.19624698301894319 0.49207017580983903 0 0.2109002675440243 0.48455192553724852 0 0.19741409974337781 0.48146044824857748 0 0.19624698301894319 0.49207017580983903 0 0.18911034118365649 0.5 0 0.19624698301894319 0.49207017580983903 0 0.1747604379905931 0.48889786723560991 0 0.18911034118365649 0.5 0 0.1747604379905931 0.48889786723560991 0 0.16001531876327121 0.5 0 0.19624698301894319 0.49207017580983903 0 0.1747604379905931 0.48889786723560991 0 0.17684582694798681 0.47333930116523792 0 0.1747604379905931 0.48889786723560991 0 0.16001531876327121 0.5 0 0.15158372003910781 0.47907985920297241 0 0.1747604379905931 0.48889786723560991 0 0.17684582694798681 0.47333930116523792 0 0.15158372003910781 0.47907985920297241 0 0.17684582694798681 0.47333930116523792 0 0.1574446708770304 0.45460842652063688 0 0.15158372003910781 0.47907985920297241 0 0.19624698301894319 0.49207017580983903 0 0.17684582694798681 0.47333930116523792 0 0.19127783982777741 0.46126540845671682 0 0.17684582694798681 0.47333930116523792 0 0.17890449863654229 0.45118115573759549 0 0.1672806332938952 0.43343441418535023 0 0.1909907819613724 0.43596157223919968 0 0.17890449863654229 0.45118115573759549 0 0.1672806332938952 0.43343441418535023 0 0.17890449863654229 0.45118115573759549 0 0.1574446708770304 0.45460842652063688 0 0.1672806332938952 0.43343441418535023 0 0.1574446708770304 0.45460842652063688 0 0.15303681989174511 0.43953220783326508 0 0.17684582694798681 0.47333930116523792 0 0.17890449863654229 0.45118115573759549 0 0.1574446708770304 0.45460842652063688 0 0.17684582694798681 0.47333930116523792 0 0.1574446708770304 0.45460842652063688 0 0.1574446708770304 0.45460842652063688 0 0.13708266323442181 0.45710123729285501 0 0.15158372003910781 0.47907985920297241 0 0.1380435148060741 0.43587755187603588 0 0.1574446708770304 0.45460842652063688 0 0.1380435148060741 0.43587755187603588 0 0.1574446708770304 0.45460842652063688 0 0.13708266323442181 0.45710123729285501 0 0.1380435148060741 0.43587755187603588 0 0.1574446708770304 0.45460842652063688 0 0.15303681989174511 0.43953220783326508 0 0.1215793969357247 0.43610496829251089 0 0.1380435148060741 0.43587755187603588 0 0.12516483524233629 0.44745909625052999 0 0.1380435148060741 0.43587755187603588 0 0.12516483524233629 0.44745909625052999 0 0.13708266323442181 0.45710123729285501 0 0.1380435148060741 0.43587755187603588 0 0.12516483524233629 0.44745909625052999 0 0.1180122412272115 0.45982915841389149 0 0.12516483524233629 0.44745909625052999 0 0.13708266323442181 0.45710123729285501 0 0.124214434134695 0.47796919487293971 0 0.1180122412272115 0.45982915841389149 0 0.13708266323442181 0.45710123729285501 0 0.124214434134695 0.47796919487293971 0 0.13708266323442181 0.45710123729285501 0 0.15158372003910781 0.47907985920297241 0 0.124214434134695 0.47796919487293971 0 0.13092029634288579 0.5 0 0.15158372003910781 0.47907985920297241 0 0.16001531876327121 0.5 0 0.13092029634288579 0.5 0 0.15158372003910781 0.47907985920297241 0 0.35809307764018578 0.47639595660766387 0 0.36368047570596868 0.5 0 0.33458545328558342 0.5 0 0.35809307764018578 0.47639595660766387 0 0.36368047570596868 0.5 0 0.37821167641628189 0.48525057298810192 0 0.35809307764018578 0.47639595660766387 0 0.37794568284097663 0.46786175472251468 0 0.37821167641628189 0.48525057298810192 0 0.35809307764018578 0.47639595660766387 0 0.3650621735603079 0.45039483288229182 0 0.37794568284097663 0.46786175472251468 0 0.3650621735603079 0.45039483288229182 0 0.34606843819212962 0.44096095644527622 0 0.34796766241795313 0.45779637855573369 0 0.3650621735603079 0.45039483288229182 0 0.34606843819212962 0.44096095644527622 0 0.35839284584638531 0.42777941592520852 0 0.35809307764018578 0.47639595660766387 0 0.3650621735603079 0.45039483288229182 0 0.34796766241795313 0.45779637855573369 0 0.35809307764018578 0.47639595660766387 0 0.34796766241795313 0.45779637855573369 0 0.3381229258177858 0.47112254000937498 0 0.34796766241795313 0.45779637855573369 0 0.33286120539104852 0.45375296786298258 0 0.3381229258177858 0.47112254000937498 0 0.33286120539104852 0.45375296786298258 0 0.3177373683649245 0.47169904867318058 0 0.3381229258177858 0.47112254000937498 0 0.34606843819212962 0.44096095644527622 0 0.34796766241795313 0.45779637855573369 0 0.33286120539104852 0.45375296786298258 0 0.34606843819212962 0.44096095644527622 0 0.33286120539104852 0.45375296786298258 0 0.33148983121450198 0.43684100493445083 0 0.33286120539104852 0.45375296786298258 0 0.31551394285507511 0.44530669611855112 0 0.33148983121450198 0.43684100493445083 0 0.33286120539104852 0.45375296786298258 0 0.31551394285507511 0.44530669611855112 0 0.3177373683649245 0.47169904867318058 0 0.35809307764018578 0.47639595660766387 0 0.3381229258177858 0.47112254000937498 0 0.33458545328558342 0.5 0 0.3177373683649245 0.47169904867318058 0 0.3381229258177858 0.47112254000937498 0 0.33458545328558342 0.5 0 0.3177373683649245 0.47169904867318058 0 0.33458545328558342 0.5 0 0.305490430865198 0.5 0 0.3177373683649245 0.47169904867318058 0 0.305490430865198 0.5 0 0.29453798727234271 0.47871098418706792 0 0.3177373683649245 0.47169904867318058 0 0.29453798727234271 0.47871098418706792 0 0.30136778247585388 0.4600609447550239 0 0.29453798727234271 0.47871098418706792 0 0.26954417050096557 0.47825932661835902 0 0.28328264347979959 0.46041558369165603 0 0.305490430865198 0.5 0 0.29453798727234271 0.47871098418706792 0 0.27639540844481258 0.5 0 0.29453798727234271 0.47871098418706792 0 0.27639540844481258 0.5 0 0.26954417050096557 0.47825932661835902 0 0.2473003860244273 0.5 0 0.24813519857889821 0.47224858639342782 0 0.26954417050096557 0.47825932661835902 0 0.24813519857889821 0.47224858639342782 0 0.26954417050096557 0.47825932661835902 0 0.25968782351510139 0.45620616593387092 0 0.2473003860244273 0.5 0 0.27639540844481258 0.5 0 0.26954417050096557 0.47825932661835902 0 0.24729863591483789 0.44797113833021868 0 0.25298026374012311 0.43874227408361138 0 0.25968782351510139 0.45620616593387092 0 0.25298026374012311 0.43874227408361138 0 0.25968782351510139 0.45620616593387092 0 0.27534342667713507 0.4388352520446232 0 0.26954417050096557 0.47825932661835902 0 0.25968782351510139 0.45620616593387092 0 0.28328264347979959 0.46041558369165603 0 0.25968782351510139 0.45620616593387092 0 0.27534342667713507 0.4388352520446232 0 0.28328264347979959 0.46041558369165603 0 0.29576697040712779 0.44417241110466382 0 0.28328264347979959 0.46041558369165603 0 0.27534342667713507 0.4388352520446232 0 0.29576697040712779 0.44417241110466382 0 0.28328264347979959 0.46041558369165603 0 0.29576697040712779 0.44417241110466382 0 0.28328264347979959 0.46041558369165603 0 0.30136778247585388 0.4600609447550239 0 0.29453798727234271 0.47871098418706792 0 0.28328264347979959 0.46041558369165603 0 0.30136778247585388 0.4600609447550239 0 0.31551394285507511 0.44530669611855112 0 0.3177373683649245 0.47169904867318058 0 0.30136778247585388 0.4600609447550239 0 0.31551394285507511 0.44530669611855112 0 0.29576697040712779 0.44417241110466382 0 0.30136778247585388 0.4600609447550239 0 0.31551394285507511 0.44530669611855112 0 0.29576697040712779 0.44417241110466382 0 0.30825129733445611 0.42792923851767162 0 0.29576697040712779 0.44417241110466382 0 0.30825129733445611 0.42792923851767162 0 0.30825129733445611 0.42792923851767162 0 0.30033188595204979 0.41586230671032443 0 0.29192434560261699 0.42936755117345082 0 0.29576697040712779 0.44417241110466382 0 0.30825129733445611 0.42792923851767162 0 0.29192434560261699 0.42936755117345082 0 0.30825129733445611 0.42792923851767162 0 0.30033188595204979 0.41586230671032443 0 0.32073562426178343 0.41168606593067869 0 0.30033188595204979 0.41586230671032443 0 0.32073562426178343 0.41168606593067869 0 0.30033188595204979 0.41586230671032443 0 0.30842237505799641 0.4034586781245843 0 0.32073562426178343 0.41168606593067869 0 0.30033188595204979 0.41586230671032443 0 0.28887642592396079 0.40583612677461223 0 0.30842237505799641 0.4034586781245843 0 0.30033188595204979 0.41586230671032443 0 0.27992814764231649 0.42003854748997099 0 0.30033188595204979 0.41586230671032443 0 0.27992814764231649 0.42003854748997099 0 0.28887642592396079 0.40583612677461223 0 0.30033188595204979 0.41586230671032443 0 0.29192434560261699 0.42936755117345082 0 0.27992814764231649 0.42003854748997099 0 0.27534342667713507 0.4388352520446232 0 0.29192434560261699 0.42936755117345082 0 0.27992814764231649 0.42003854748997099 0 0.27534342667713507 0.4388352520446232 0 0.29576697040712779 0.44417241110466382 0 0.29192434560261699 0.42936755117345082 0 0.27992814764231649 0.42003854748997099 0 0.25952440933258281 0.42421478826961562 0 0.27534342667713507 0.4388352520446232 0 0.27992814764231649 0.42003854748997099 0 0.25952440933258281 0.42421478826961562 0 0.27992814764231649 0.42003854748997099 0 0.27013902654996969 0.40065117727289379 0 0.28887642592396079 0.40583612677461223 0 0.27992814764231649 0.42003854748997099 0 0.25952440933258281 0.42421478826961562 0 0.27013902654996969 0.40065117727289379 0 0.2406608249691769 0.41801580795949139 0 0.25227719598857462 0.41208556965106269 0 0.25952440933258281 0.42421478826961562 0 0.25952440933258281 0.42421478826961562 0 0.27013902654996969 0.40065117727289379 0 0.25227719598857462 0.41208556965106269 0 0.25952440933258281 0.42421478826961562 0 0.27013902654996969 0.40065117727289379 0 0.25298026374012311 0.43874227408361138 0 0.27534342667713507 0.4388352520446232 0 0.25952440933258281 0.42421478826961562 0 0.25298026374012311 0.43874227408361138 0 0.25952440933258281 0.42421478826961562 0 0.2583164601604433 0.38230184746130641 0 0.26598934302059818 0.39033066740034361 0 0.26736468604183089 0.37599870374621291 0 0.2583164601604433 0.38230184746130641 0 0.25280463964189559 0.39668982154644128 0 0.26598934302059818 0.39033066740034361 0 0.2583164601604433 0.38230184746130641 0 0.26736468604183089 0.37599870374621291 0 0.26086252070038413 0.37158087241335602 0 0.24731805239206511 0.38492123626035118 0 0.2583164601604433 0.38230184746130641 0 0.25148855068357462 0.37644529171893287 0 0.2583164601604433 0.38230184746130641 0 0.25148855068357462 0.37644529171893287 0 0.26086252070038413 0.37158087241335602 0 0.24731805239206511 0.38492123626035118 0 0.2583164601604433 0.38230184746130641 0 0.25280463964189559 0.39668982154644128 0 0.25227719598857462 0.41208556965106269 0 0.25280463964189559 0.39668982154644128 0 0.26598934302059818 0.39033066740034361 0 0.25227719598857462 0.41208556965106269 0 0.26598934302059818 0.39033066740034361 0 0.25227719598857462 0.41208556965106269 0 0.27013902654996969 0.40065117727289379 0 0.26598934302059818 0.39033066740034361 0 0.27013902654996969 0.40065117727289379 0 0.28075364376735762 0.37708756627617263 0 0.26598934302059818 0.39033066740034361 0 0.27970149005262163 0.36857576514962448 0 0.27013902654996969 0.40065117727289379 0 0.28075364376735762 0.37708756627617263 0 0.28599924663533582 0.39144710894806989 0 0.26598934302059818 0.39033066740034361 0 0.28075364376735762 0.37708756627617263 0 0.27970149005262163 0.36857576514962448 0 0.26598934302059818 0.39033066740034361 0 0.26736468604183089 0.37599870374621291 0 0.27970149005262163 0.36857576514962448 0 0.27013902654996969 0.40065117727289379 0 0.26598934302059818 0.39033066740034361 0 0.28075364376735762 0.37708756627617263 0 0.28075364376735762 0.37708756627617263 0 0.29367483669328648 0.37915865892394518 0 0.28599924663533582 0.39144710894806989 0 0.29367483669328648 0.37915865892394518 0 0.28599924663533582 0.39144710894806989 0 0.29880064256061672 0.39151213715483552 0 0.28075364376735762 0.37708756627617263 0 0.29367483669328648 0.37915865892394518 0 0.29374788430480753 0.36876846604871522 0 0.27013902654996969 0.40065117727289379 0 0.28887642592396079 0.40583612677461223 0 0.28599924663533582 0.39144710894806989 0 0.28887642592396079 0.40583612677461223 0 0.28599924663533582 0.39144710894806989 0 0.29880064256061672 0.39151213715483552 0 0.28887642592396079 0.40583612677461223 0 0.30842237505799641 0.4034586781245843 0 0.29880064256061672 0.39151213715483552 0 0.30842237505799641 0.4034586781245843 0 0.29880064256061672 0.39151213715483552 0 0.31824808668405458 0.39237890343788667 0 0.29880064256061672 0.39151213715483552 0 0.30907276619831492 0.36697801619193282 0 0.29880064256061672 0.39151213715483552 0 0.31824808668405458 0.39237890343788667 0 0.30907276619831492 0.36697801619193282 0 0.29367483669328648 0.37915865892394518 0 0.29880064256061672 0.39151213715483552 0 0.30907276619831492 0.36697801619193282 0 0.31824808668405458 0.39237890343788667 0 0.32963186692828828 0.37342990040686752 0 0.30907276619831492 0.36697801619193282 0 0.33754529086146751 0.38981525805310308 0 0.31824808668405458 0.39237890343788667 0 0.32963186692828828 0.37342990040686752 0 0.33754529086146751 0.38981525805310308 0 0.3473453421588299 0.3759003483168602 0 0.32963186692828828 0.37342990040686752 0 0.33754529086146751 0.38981525805310308 0 0.32073562426178343 0.41168606593067869 0 0.33725618753107711 0.40830463410771423 0 0.33754529086146751 0.38981525805310308 0 0.32073562426178343 0.41168606593067869 0 0.33754529086146751 0.38981525805310308 0 0.33725618753107711 0.40830463410771423 0 0.35377675080037102 0.40492320228475043 0 0.30842237505799641 0.4034586781245843 0 0.31824808668405458 0.39237890343788667 0 0.32073562426178343 0.41168606593067869 0 0.33754529086146751 0.38981525805310308 0 0.31824808668405458 0.39237890343788667 0 0.32073562426178343 0.41168606593067869 0 0.30825129733445611 0.42792923851767162 0 0.32073562426178343 0.41168606593067869 0 0.32073562426178343 0.41168606593067869 0 0.32236890682524638 0.42665839063203559 0 0.33999595836117041 0.42210230065180332 0 0.30825129733445611 0.42792923851767162 0 0.32073562426178343 0.41168606593067869 0 0.32236890682524638 0.42665839063203559 0 0.31551394285507511 0.44530669611855112 0 0.30825129733445611 0.42792923851767162 0 0.32236890682524638 0.42665839063203559 0 0.31551394285507511 0.44530669611855112 0 0.32236890682524638 0.42665839063203559 0 0.33148983121450198 0.43684100493445083 0 0.32236890682524638 0.42665839063203559 0 0.33999595836117041 0.42210230065180332 0 0.33148983121450198 0.43684100493445083 0 0.34606843819212962 0.44096095644527622 0 0.33999595836117041 0.42210230065180332 0 0.33148983121450198 0.43684100493445083 0 0.32073562426178343 0.41168606593067869 0 0.33725618753107711 0.40830463410771423 0 0.33999595836117041 0.42210230065180332 0 0.33725618753107711 0.40830463410771423 0 0.35377675080037102 0.40492320228475043 0 0.32073562426178343 0.41168606593067869 0 0.33999595836117041 0.42210230065180332 0 0.33725618753107711 0.40830463410771423 0 0.33999595836117041 0.42210230065180332 0 0.35839284584638531 0.42777941592520852 0 0.35377675080037102 0.40492320228475043 0 0.33725618753107711 0.40830463410771423 0 0.35377675080037102 0.40492320228475043 0 0.34606843819212962 0.44096095644527622 0 0.33999595836117041 0.42210230065180332 0 0.35839284584638531 0.42777941592520852 0 0.3650621735603079 0.45039483288229182 0 0.35839284584638531 0.42777941592520852 0 0.37482539966132572 0.43315942459720658 0 0.35839284584638531 0.42777941592520852 0 0.37482539966132572 0.43315942459720658 0 0.3745614888814589 0.41458092588968959 0 0.35839284584638531 0.42777941592520852 0 0.3745614888814589 0.41458092588968959 0 0.35377675080037102 0.40492320228475043 0 0.3745614888814589 0.41458092588968959 0 0.3730606342135166 0.39206785625188117 0 0.35377675080037102 0.40492320228475043 0 0.3730606342135166 0.39206785625188117 0 0.35684316453015641 0.38541737617724597 0 0.35377675080037102 0.40492320228475043 0 0.3730606342135166 0.39206785625188117 0 0.35684316453015641 0.38541737617724597 0 0.36749712784881122 0.37029824237199238 0 0.35684316453015641 0.38541737617724597 0 0.3473453421588299 0.3759003483168602 0 0.36749712784881122 0.37029824237199238 0 0.33754529086146751 0.38981525805310308 0 0.35684316453015641 0.38541737617724597 0 0.3473453421588299 0.3759003483168602 0 0.33754529086146751 0.38981525805310308 0 0.35684316453015641 0.38541737617724597 0 0.35377675080037102 0.40492320228475043 0 0.34520926062542612 0.36054096457509188 0 0.36237765741808797 0.34963301685754261 0 0.3418595521817045 0.33745303321141668 0 0.34520926062542612 0.36054096457509188 0 0.36749712784881122 0.37029824237199238 0 0.36237765741808797 0.34963301685754261 0 0.3473453421588299 0.3759003483168602 0 0.34520926062542612 0.36054096457509188 0 0.36749712784881122 0.37029824237199238 0 0.36749712784881122 0.37029824237199238 0 0.36237765741808797 0.34963301685754261 0 0.38859713440548033 0.35002568591545818 0 0.36237765741808797 0.34963301685754261 0 0.36872521202901831 0.3298471582137536 0 0.38859713440548033 0.35002568591545818 0 0.36872521202901831 0.3298471582137536 0 0.36768519210536948 0.3017923762476501 0 0.36872521202901831 0.3298471582137536 0 0.35037015891871109 0.3111099264964397 0 0.36768519210536948 0.3017923762476501 0 0.36872521202901831 0.3298471582137536 0 0.3418595521817045 0.33745303321141668 0 0.35037015891871109 0.3111099264964397 0 0.36237765741808797 0.34963301685754261 0 0.36872521202901831 0.3298471582137536 0 0.3418595521817045 0.33745303321141668 0 0.3418595521817045 0.33745303321141668 0 0.32961701347371142 0.31790977426612738 0 0.31934488983601311 0.34244389522903013 0 0.3418595521817045 0.33745303321141668 0 0.32961701347371142 0.31790977426612738 0 0.35037015891871109 0.3111099264964397 0 0.32961701347371142 0.31790977426612738 0 0.31556291807264553 0.32342456717136969 0 0.31934488983601311 0.34244389522903013 0 0.32961701347371142 0.31790977426612738 0 0.31556291807264553 0.32342456717136969 0 0.3125974954195212 0.3063967332860088 0 0.32961701347371142 0.31790977426612738 0 0.31934488983601311 0.34244389522903013 0 0.31934488983601311 0.34244389522903013 0 0.30907276619831492 0.36697801619193282 0 0.31934488983601311 0.34244389522903013 0 0.32902366715394937 0.35616916192286779 0 0.30907276619831492 0.36697801619193282 0 0.34520926062542612 0.36054096457509188 0 0.3418595521817045 0.33745303321141668 0 0.32902366715394937 0.35616916192286779 0 0.3418595521817045 0.33745303321141668 0 0.31934488983601311 0.34244389522903013 0 0.32902366715394937 0.35616916192286779 0 0.3473453421588299 0.3759003483168602 0 0.34520926062542612 0.36054096457509188 0 0.32963186692828828 0.37342990040686752 0 0.34520926062542612 0.36054096457509188 0 0.32902366715394937 0.35616916192286779 0 0.32963186692828828 0.37342990040686752 0 0.32902366715394937 0.35616916192286779 0 0.32963186692828828 0.37342990040686752 0 0.30907276619831492 0.36697801619193282 0 0.30907276619831492 0.36697801619193282 0 0.30355331867377389 0.35537215160555319 0 0.29374788430480753 0.36876846604871522 0 0.29367483669328648 0.37915865892394518 0 0.30907276619831492 0.36697801619193282 0 0.29374788430480753 0.36876846604871522 0 0.31934488983601311 0.34244389522903013 0 0.30907276619831492 0.36697801619193282 0 0.30355331867377389 0.35537215160555319 0 0.31934488983601311 0.34244389522903013 0 0.30355331867377389 0.35537215160555319 0 0.30423279204498838 0.34514642527863693 0 0.30355331867377389 0.35537215160555319 0 0.30423279204498838 0.34514642527863693 0 0.29136826098474539 0.3535239552794513 0 0.29341363708464507 0.34682086289890551 0 0.27970149005262163 0.36857576514962448 0 0.29341363708464507 0.34682086289890551 0 0.29136826098474539 0.3535239552794513 0 0.27970149005262163 0.36857576514962448 0 0.29341363708464507 0.34682086289890551 0 0.28208284574048559 0.3540149058461573 0 0.27970149005262163 0.36857576514962448 0 0.30355331867377389 0.35537215160555319 0 0.29136826098474539 0.3535239552794513 0 0.29374788430480753 0.36876846604871522 0 0.29341363708464507 0.34682086289890551 0 0.28208284574048559 0.3540149058461573 0 0.28382601265220192 0.34339003122045902 0 0.28075364376735762 0.37708756627617263 0 0.29136826098474539 0.3535239552794513 0 0.27970149005262163 0.36857576514962448 0 0.28075364376735762 0.37708756627617263 0 0.29136826098474539 0.3535239552794513 0 0.28075364376735762 0.37708756627617263 0 0.29136826098474539 0.3535239552794513 0 0.29374788430480753 0.36876846604871522 0 0.26736468604183089 0.37599870374621291 0 0.26978638086874179 0.36691772167174302 0 0.26086252070038413 0.37158087241335602 0 0.26736468604183089 0.37599870374621291 0 0.27970149005262163 0.36857576514962448 0 0.26978638086874179 0.36691772167174302 0 0.26978638086874179 0.36691772167174302 0 0.27406271946309818 0.35931056765095121 0 0.26470946410900148 0.36180343600248788 0 0.27970149005262163 0.36857576514962448 0 0.26978638086874179 0.36691772167174302 0 0.27406271946309818 0.35931056765095121 0 0.28208284574048559 0.3540149058461573 0 0.27970149005262163 0.36857576514962448 0 0.27406271946309818 0.35931056765095121 0 0.28208284574048559 0.3540149058461573 0 0.27406271946309818 0.35931056765095121 0 0.27775872792144057 0.35047979239574961 0 0.28208284574048559 0.3540149058461573 0 0.27775872792144057 0.35047979239574961 0 0.28382601265220192 0.34339003122045902 0 0.27775872792144057 0.35047979239574961 0 0.27374743288712672 0.34277850158798612 0 0.28382601265220192 0.34339003122045902 0 0.27775872792144057 0.35047979239574961 0 0.2679445976869852 0.3516312443876578 0 0.27374743288712672 0.34277850158798612 0 0.2679445976869852 0.3516312443876578 0 0.26248678500009209 0.34181455845023018 0 0.27374743288712672 0.34277850158798612 0 0.27406271946309818 0.35931056765095121 0 0.2679445976869852 0.3516312443876578 0 0.26470946410900148 0.36180343600248788 0 0.27406271946309818 0.35931056765095121 0 0.27775872792144057 0.35047979239574961 0 0.2679445976869852 0.3516312443876578 0 0.2679445976869852 0.3516312443876578 0 0.25490245674115208 0.35360061023854222 0 0.26470946410900148 0.36180343600248788 0 0.2679445976869852 0.3516312443876578 0 0.25490245674115208 0.35360061023854222 0 0.26248678500009209 0.34181455845023018 0 0.25490245674115208 0.35360061023854222 0 0.25066155442806282 0.3406857927898812 0 0.26248678500009209 0.34181455845023018 0 0.25490245674115208 0.35360061023854222 0 0.25350958233871312 0.36601823387945343 0 0.26470946410900148 0.36180343600248788 0 0.24382990809534219 0.36230775271154603 0 0.25490245674115208 0.35360061023854222 0 0.25350958233871312 0.36601823387945343 0 0.25148855068357462 0.37644529171893287 0 0.25350958233871312 0.36601823387945343 0 0.26086252070038413 0.37158087241335602 0 0.25350958233871312 0.36601823387945343 0 0.26086252070038413 0.37158087241335602 0 0.26470946410900148 0.36180343600248788 0 0.26978638086874179 0.36691772167174302 0 0.26086252070038413 0.37158087241335602 0 0.26470946410900148 0.36180343600248788 0 0.25779474338176328 0.3268911427673406 0 0.27166614764438007 0.32317040342743703 0 0.26624362615809383 0.30768830334841651 0 0.24689028600781421 0.31065116467091058 0 0.25779474338176328 0.3268911427673406 0 0.26624362615809383 0.30768830334841651 0 0.25779474338176328 0.3268911427673406 0 0.25066155442806282 0.3406857927898812 0 0.26248678500009209 0.34181455845023018 0 0.25779474338176328 0.3268911427673406 0 0.26248678500009209 0.34181455845023018 0 0.26904516759909403 0.3333528554771783 0 0.26904516759909403 0.3333528554771783 0 0.27953072908210802 0.33210967115289758 0 0.27166614764438007 0.32317040342743703 0 0.26248678500009209 0.34181455845023018 0 0.26904516759909403 0.3333528554771783 0 0.27374743288712672 0.34277850158798612 0 0.26904516759909403 0.3333528554771783 0 0.27374743288712672 0.34277850158798612 0 0.27953072908210802 0.33210967115289758 0 0.27374743288712672 0.34277850158798612 0 0.27953072908210802 0.33210967115289758 0 0.28382601265220192 0.34339003122045902 0 0.27166614764438007 0.32317040342743703 0 0.28759192226779717 0.31850995651937108 0 0.26624362615809383 0.30768830334841651 0 0.27953072908210802 0.33210967115289758 0 0.27166614764438007 0.32317040342743703 0 0.28759192226779717 0.31850995651937108 0 0.25779474338176328 0.3268911427673406 0 0.26904516759909403 0.3333528554771783 0 0.27166614764438007 0.32317040342743703 0 0.28759192226779717 0.31850995651937108 0 0.29040361777992041 0.33478604339912482 0 0.30198287820213332 0.32996034428273002 0 0.29341363708464507 0.34682086289890551 0 0.29136826098474539 0.3535239552794513 0 0.30198287820213332 0.32996034428273002 0 0.29136826098474539 0.3535239552794513 0 0.30198287820213332 0.32996034428273002 0 0.29341363708464507 0.34682086289890551 0 0.29040361777992041 0.33478604339912482 0 0.30198287820213332 0.32996034428273002 0 0.27953072908210802 0.33210967115289758 0 0.28759192226779717 0.31850995651937108 0 0.29040361777992041 0.33478604339912482 0 0.27953072908210802 0.33210967115289758 0 0.28382601265220192 0.34339003122045902 0 0.29040361777992041 0.33478604339912482 0 0.29341363708464507 0.34682086289890551 0 0.28382601265220192 0.34339003122045902 0 0.29040361777992041 0.33478604339912482 0 0.31556291807264553 0.32342456717136969 0 0.31934488983601311 0.34244389522903013 0 0.30198287820213332 0.32996034428273002 0 0.30423279204498838 0.34514642527863693 0 0.29136826098474539 0.3535239552794513 0 0.30198287820213332 0.32996034428273002 0 0.31934488983601311 0.34244389522903013 0 0.30423279204498838 0.34514642527863693 0 0.30198287820213332 0.32996034428273002 0 0.28759192226779717 0.31850995651937108 0 0.30198287820213332 0.32996034428273002 0 0.3125974954195212 0.3063967332860088 0 0.31556291807264553 0.32342456717136969 0 0.30198287820213332 0.32996034428273002 0 0.3125974954195212 0.3063967332860088 0 0.30198287820213332 0.32996034428273002 0 0.3125974954195212 0.3063967332860088 0 0.30665237411426149 0.28954608514215141 0 0.28959894232615407 0.29614875329455681 0 0.3125974954195212 0.3063967332860088 0 0.28959894232615407 0.29614875329455681 0 0.272112541765195 0.28726650268661558 0 0.2858537580684759 0.27812161569712268 0 0.30665237411426149 0.28954608514215141 0 0.28959894232615407 0.29614875329455681 0 0.2858537580684759 0.27812161569712268 0 0.28759192226779717 0.31850995651937108 0 0.28959894232615407 0.29614875329455681 0 0.3125974954195212 0.3063967332860088 0 0.28759192226779717 0.31850995651937108 0 0.28959894232615407 0.29614875329455681 0 0.26624362615809383 0.30768830334841651 0 0.28959894232615407 0.29614875329455681 0 0.26624362615809383 0.30768830334841651 0 0.272112541765195 0.28726650268661558 0 0.26624362615809383 0.30768830334841651 0 0.272112541765195 0.28726650268661558 0 0.25129444743430068 0.28959966055747371 0 0.24689028600781421 0.31065116467091058 0 0.26624362615809383 0.30768830334841651 0 0.25129444743430068 0.28959966055747371 0 0.24073748530606759 0.26238945068988739 0 0.26718823456659341 0.26539804718999532 0 0.25967193160751512 0.2417616831170373 0 0.24073748530606759 0.26238945068988739 0 0.25967193160751512 0.2417616831170373 0 0.272112541765195 0.28726650268661558 0 0.25129444743430068 0.28959966055747371 0 0.26718823456659341 0.26539804718999532 0 0.24073748530606759 0.26238945068988739 0 0.25129444743430068 0.28959966055747371 0 0.26718823456659341 0.26539804718999532 0 0.272112541765195 0.28726650268661558 0 0.26718823456659341 0.26539804718999532 0 0.2858537580684759 0.27812161569712268 0 0.26718823456659341 0.26539804718999532 0 0.28712225611058201 0.25613465002026359 0 0.2858537580684759 0.27812161569712268 0 0.26718823456659341 0.26539804718999532 0 0.27736957053038419 0.243396225256612 0 0.25967193160751512 0.2417616831170373 0 0.26718823456659341 0.26539804718999532 0 0.28712225611058201 0.25613465002026359 0 0.27736957053038419 0.243396225256612 0 0.28712225611058201 0.25613465002026359 0 0.30000345283656582 0.25532782759190992 0 0.2941259605415642 0.24030250257930669 0 0.28712225611058201 0.25613465002026359 0 0.3026407219830296 0.27010543720478081 0 0.30000345283656582 0.25532782759190992 0 0.28712225611058201 0.25613465002026359 0 0.2858537580684759 0.27812161569712268 0 0.3026407219830296 0.27010543720478081 0 0.30665237411426149 0.28954608514215141 0 0.3026407219830296 0.27010543720478081 0 0.3121026342865677 0.27934956378869358 0 0.30665237411426149 0.28954608514215141 0 0.2858537580684759 0.27812161569712268 0 0.3026407219830296 0.27010543720478081 0 0.3026407219830296 0.27010543720478081 0 0.30948770173030021 0.26071264205294681 0 0.31393992736547349 0.27060337944530621 0 0.3026407219830296 0.27010543720478081 0 0.3121026342865677 0.27934956378869358 0 0.31393992736547349 0.27060337944530621 0 0.3026407219830296 0.27010543720478081 0 0.30000345283656582 0.25532782759190992 0 0.30948770173030021 0.26071264205294681 0 0.30000345283656582 0.25532782759190992 0 0.30948770173030021 0.26071264205294681 0 0.31046309623464141 0.2496451058165077 0 0.30948770173030021 0.26071264205294681 0 0.32118765865205928 0.25793587681336599 0 0.31046309623464141 0.2496451058165077 0 0.30948770173030021 0.26071264205294681 0 0.32118765865205928 0.25793587681336599 0 0.31393992736547349 0.27060337944530621 0 0.32118765865205928 0.25793587681336599 0 0.33605928534923268 0.25431341460684859 0 0.32760910761191159 0.24587093247650291 0 0.32118765865205928 0.25793587681336599 0 0.33605928534923268 0.25431341460684859 0 0.32963569899307088 0.26857326844806811 0 0.33837433247181209 0.26412932431562808 0 0.33605928534923268 0.25431341460684859 0 0.32963569899307088 0.26857326844806811 0 0.33605928534923268 0.25431341460684859 0 0.32963569899307088 0.26857326844806811 0 0.33837433247181209 0.26412932431562808 0 0.33605928534923268 0.25431341460684859 0 0.35014248149949673 0.25448705813839412 0 0.33605928534923268 0.25431341460684859 0 0.35014248149949673 0.25448705813839412 0 0.34262842580625719 0.24529833056174449 0 0.33761482760853689 0.27659576193509 0 0.3398891371114095 0.29337565330322468 0 0.35037643385804701 0.26820841893964958 0 0.33837433247181209 0.26412932431562808 0 0.33761482760853689 0.27659576193509 0 0.35037643385804701 0.26820841893964958 0 0.33837433247181209 0.26412932431562808 0 0.33761482760853689 0.27659576193509 0 0.32963569899307088 0.26857326844806811 0 0.33761482760853689 0.27659576193509 0 0.33031879157689242 0.27833288147368418 0 0.33081252706905501 0.28532937322229202 0 0.33761482760853689 0.27659576193509 0 0.32963569899307088 0.26857326844806811 0 0.33031879157689242 0.27833288147368418 0 0.32963569899307088 0.26857326844806811 0 0.32321211263690702 0.28283312228928659 0 0.32118765865205928 0.25793587681336599 0 0.32321211263690702 0.28283312228928659 0 0.32118765865205928 0.25793587681336599 0 0.31393992736547349 0.27060337944530621 0 0.32321211263690702 0.28283312228928659 0 0.32118765865205928 0.25793587681336599 0 0.32963569899307088 0.26857326844806811 0 0.32321211263690702 0.28283312228928659 0 0.32963569899307088 0.26857326844806811 0 0.33031879157689242 0.27833288147368418 0 0.32321211263690702 0.28283312228928659 0 0.3121026342865677 0.27934956378869358 0 0.31393992736547349 0.27060337944530621 0 0.32321211263690702 0.28283312228928659 0 0.32321211263690702 0.28283312228928659 0 0.3125974954195212 0.3063967332860088 0 0.32321211263690702 0.28283312228928659 0 0.32367238684998778 0.28849369059815771 0 0.3125974954195212 0.3063967332860088 0 0.30665237411426149 0.28954608514215141 0 0.3121026342865677 0.27934956378869358 0 0.32321211263690702 0.28283312228928659 0 0.30665237411426149 0.28954608514215141 0 0.32321211263690702 0.28283312228928659 0 0.3125974954195212 0.3063967332860088 0 0.32367238684998778 0.28849369059815771 0 0.3275887022054792 0.30079219862901191 0 0.33063113520618598 0.29245184518820688 0 0.32321211263690702 0.28283312228928659 0 0.32367238684998778 0.28849369059815771 0 0.33081252706905501 0.28532937322229202 0 0.33031879157689242 0.27833288147368418 0 0.32321211263690702 0.28283312228928659 0 0.33081252706905501 0.28532937322229202 0 0.32321211263690702 0.28283312228928659 0 0.32367238684998778 0.28849369059815771 0 0.32961701347371142 0.31790977426612738 0 0.3125974954195212 0.3063967332860088 0 0.3275887022054792 0.30079219862901191 0 0.32367238684998778 0.28849369059815771 0 0.3125974954195212 0.3063967332860088 0 0.3275887022054792 0.30079219862901191 0 0.32961701347371142 0.31790977426612738 0 0.3398891371114095 0.29337565330322468 0 0.32961701347371142 0.31790977426612738 0 0.3398891371114095 0.29337565330322468 0 0.35037015891871109 0.3111099264964397 0 0.32961701347371142 0.31790977426612738 0 0.3275887022054792 0.30079219862901191 0 0.3398891371114095 0.29337565330322468 0 0.33761482760853689 0.27659576193509 0 0.33081252706905501 0.28532937322229202 0 0.3398891371114095 0.29337565330322468 0 0.32367238684998778 0.28849369059815771 0 0.33081252706905501 0.28532937322229202 0 0.33063113520618598 0.29245184518820688 0 0.33081252706905501 0.28532937322229202 0 0.33063113520618598 0.29245184518820688 0 0.3398891371114095 0.29337565330322468 0 0.3275887022054792 0.30079219862901191 0 0.33063113520618598 0.29245184518820688 0 0.3398891371114095 0.29337565330322468 0 0.3398891371114095 0.29337565330322468 0 0.3544448466110538 0.28628156373646579 0 0.35037643385804701 0.26820841893964958 0 0.3544448466110538 0.28628156373646579 0 0.35037015891871109 0.3111099264964397 0 0.36768519210536948 0.3017923762476501 0 0.3398891371114095 0.29337565330322468 0 0.3544448466110538 0.28628156373646579 0 0.35037015891871109 0.3111099264964397 0 0.36768519210536948 0.3017923762476501 0 0.36664517218172199 0.27373759428154648 0 0.3544448466110538 0.28628156373646579 0 0.36768519210536948 0.3017923762476501 0 0.36664517218172199 0.27373759428154648 0 0.36664517218172199 0.27373759428154648 0 0.36582509891531428 0.251615925107607 0 0.35014248149949673 0.25448705813839412 0 0.36664517218172199 0.27373759428154648 0 0.36582509891531428 0.251615925107607 0 0.3790876824910146 0.26529607064635458 0 0.36664517218172199 0.27373759428154648 0 0.36582509891531428 0.251615925107607 0 0.36664517218172199 0.27373759428154648 0 0.35014248149949673 0.25448705813839412 0 0.35037643385804701 0.26820841893964958 0 0.33837433247181209 0.26412932431562808 0 0.35014248149949673 0.25448705813839412 0 0.35037643385804701 0.26820841893964958 0 0.36664517218172199 0.27373759428154648 0 0.35037643385804701 0.26820841893964958 0 0.33837433247181209 0.26412932431562808 0 0.35037643385804701 0.26820841893964958 0 0.3544448466110538 0.28628156373646579 0 0.36664517218172199 0.27373759428154648 0 0.35037643385804701 0.26820841893964958 0 0.3398891371114095 0.29337565330322468 0 0.35037643385804701 0.26820841893964958 0 0.38901910487957519 0.25250347525939432 0 0.40992268116804143 0.25780842311902408 0 0.40388937553625259 0.24281789912719889 0 0.38901910487957519 0.25250347525939432 0 0.39486135398744698 0.28332728793687079 0 0.40992268116804143 0.25780842311902408 0 0.36582509891531428 0.251615925107607 0 0.3790876824910146 0.26529607064635458 0 0.38901910487957519 0.25250347525939432 0 0.3790876824910146 0.26529607064635458 0 0.38901910487957519 0.25250347525939432 0 0.39486135398744698 0.28332728793687079 0 0.36664517218172199 0.27373759428154648 0 0.39486135398744698 0.28332728793687079 0 0.36664517218172199 0.27373759428154648 0 0.3790876824910146 0.26529607064635458 0 0.39486135398744698 0.28332728793687079 0 0.36768519210536948 0.3017923762476501 0 0.36664517218172199 0.27373759428154648 0 0.39486135398744698 0.28332728793687079 0 0.36768519210536948 0.3017923762476501 0 0.39467583559604258 0.31228517558118951 0 0.39486135398744698 0.28332728793687079 0 0.39467583559604258 0.31228517558118951 0 0.39486135398744698 0.28332728793687079 0 0.42307753579317192 0.29291698159219548 0 0.39486135398744698 0.28332728793687079 0 0.42307753579317192 0.29291698159219548 0 0.4268414284489741 0.2708671586588296 0 0.39486135398744698 0.28332728793687079 0 0.42307753579317192 0.29291698159219548 0 0.42307753579317192 0.29291698159219548 0 0.4268414284489741 0.2708671586588296 0 0.44350709324834492 0.27490154802408218 0 0.39486135398744698 0.28332728793687079 0 0.4268414284489741 0.2708671586588296 0 0.40992268116804143 0.25780842311902408 0 0.40992268116804143 0.25780842311902408 0 0.42603453916873191 0.25345947085399723 0 0.41732352301285458 0.24327750910119431 0 0.4268414284489741 0.2708671586588296 0 0.40992268116804143 0.25780842311902408 0 0.42603453916873191 0.25345947085399723 0 0.4268414284489741 0.2708671586588296 0 0.42603453916873191 0.25345947085399723 0 0.44246433447404082 0.25493525584877869 0 0.44246433447404082 0.25493525584877869 0 0.46316256832110181 0.26553399154927931 0 0.4524287619639612 0.2442773429402236 0 0.44246433447404082 0.25493525584877869 0 0.44350709324834492 0.27490154802408218 0 0.46316256832110181 0.26553399154927931 0 0.4268414284489741 0.2708671586588296 0 0.44246433447404082 0.25493525584877869 0 0.44350709324834492 0.27490154802408218 0 0.44350709324834492 0.27490154802408218 0 0.46316256832110181 0.26553399154927931 0 0.46198959920443622 0.29025435247132841 0 0.46316256832110181 0.26553399154927931 0 0.5 0.28105446247922711 0 0.4730447629479434 0.23934859266800659 0 0.46316256832110181 0.26553399154927931 0 0.5 0.28105446247922711 0 0.46198959920443622 0.29025435247132841 0 0.5 0.28105446247922711 0 0.46198959920443622 0.29025435247132841 0 0.5 0.33413613528679431 0 0.42307753579317192 0.29291698159219548 0 0.44350709324834492 0.27490154802408218 0 0.46198959920443622 0.29025435247132841 0 0.42307753579317192 0.29291698159219548 0 0.46198959920443622 0.29025435247132841 0 0.44479001579289312 0.32055128898896779 0 0.5 0.33413613528679431 0 0.45632192896174772 0.35129299595254287 0 0.5 0.40514670317127288 0 0.44479001579289312 0.32055128898896779 0 0.45632192896174772 0.35129299595254287 0 0.41519910774383678 0.33468091576287751 0 0.44479001579289312 0.32055128898896779 0 0.5 0.33413613528679431 0 0.45632192896174772 0.35129299595254287 0 0.46198959920443622 0.29025435247132841 0 0.44479001579289312 0.32055128898896779 0 0.5 0.33413613528679431 0 0.45632192896174772 0.35129299595254287 0 0.41768394409240772 0.37577392170613733 0 0.45101486173894462 0.39253377551663399 0 0.45632192896174772 0.35129299595254287 0 0.41519910774383678 0.33468091576287751 0 0.41768394409240772 0.37577392170613733 0 0.41519910774383678 0.33468091576287751 0 0.38859713440548033 0.35002568591545818 0 0.41768394409240772 0.37577392170613733 0 0.39467583559604258 0.31228517558118951 0 0.42307753579317192 0.29291698159219548 0 0.41519910774383678 0.33468091576287751 0 0.42307753579317192 0.29291698159219548 0 0.44479001579289312 0.32055128898896779 0 0.41519910774383678 0.33468091576287751 0 0.39467583559604258 0.31228517558118951 0 0.41519910774383678 0.33468091576287751 0 0.38859713440548033 0.35002568591545818 0 0.36872521202901831 0.3298471582137536 0 0.39467583559604258 0.31228517558118951 0 0.38859713440548033 0.35002568591545818 0 0.36872521202901831 0.3298471582137536 0 0.36768519210536948 0.3017923762476501 0 0.39467583559604258 0.31228517558118951 0 0.36749712784881122 0.37029824237199238 0 0.38859713440548033 0.35002568591545818 0 0.39261062203193081 0.37720427085731589 0 0.38859713440548033 0.35002568591545818 0 0.39261062203193081 0.37720427085731589 0 0.41768394409240772 0.37577392170613733 0 0.3913227115751774 0.400144194422206 0 0.39261062203193081 0.37720427085731589 0 0.41768394409240772 0.37577392170613733 0 0.3730606342135166 0.39206785625188117 0 0.3913227115751774 0.400144194422206 0 0.39261062203193081 0.37720427085731589 0 0.3730606342135166 0.39206785625188117 0 0.36749712784881122 0.37029824237199238 0 0.39261062203193081 0.37720427085731589 0 0.3745614888814589 0.41458092588968959 0 0.3730606342135166 0.39206785625188117 0 0.3913227115751774 0.400144194422206 0 0.3745614888814589 0.41458092588968959 0 0.3913227115751774 0.400144194422206 0 0.3983720442794712 0.42365852102957419 0 0.37482539966132572 0.43315942459720658 0 0.3745614888814589 0.41458092588968959 0 0.3983720442794712 0.42365852102957419 0 0.37482539966132572 0.43315942459720658 0 0.3983720442794712 0.42365852102957419 0 0.38714987392064359 0.4488391954028762 0 0.3913227115751774 0.400144194422206 0 0.3983720442794712 0.42365852102957419 0 0.42179448403421732 0.40967623666950109 0 0.3983720442794712 0.42365852102957419 0 0.4241653336660694 0.43834942157981283 0 0.40681741995195808 0.44738300613127202 0 0.3983720442794712 0.42365852102957419 0 0.42179448403421732 0.40967623666950109 0 0.4241653336660694 0.43834942157981283 0 0.42179448403421732 0.40967623666950109 0 0.4482080088532337 0.42759758576264251 0 0.4241653336660694 0.43834942157981283 0 0.3913227115751774 0.400144194422206 0 0.42179448403421732 0.40967623666950109 0 0.41768394409240772 0.37577392170613733 0 0.42179448403421732 0.40967623666950109 0 0.41768394409240772 0.37577392170613733 0 0.45101486173894462 0.39253377551663399 0 0.45632192896174772 0.35129299595254287 0 0.45101486173894462 0.39253377551663399 0 0.5 0.40514670317127288 0 0.5 0.40514670317127288 0 0.4482080088532337 0.42759758576264251 0 0.47099898419631459 0.4537794263229955 0 0.45101486173894462 0.39253377551663399 0 0.5 0.40514670317127288 0 0.4482080088532337 0.42759758576264251 0 0.42179448403421732 0.40967623666950109 0 0.45101486173894462 0.39253377551663399 0 0.4482080088532337 0.42759758576264251 0 0.4482080088532337 0.42759758576264251 0 0.44541149092558818 0.45810801793159889 0 0.4241653336660694 0.43834942157981283 0 0.5 0.40514670317127288 0 0.47099898419631459 0.4537794263229955 0 0.5 0.5 0 0.44541149092558818 0.45810801793159889 0 0.47099898419631459 0.4537794263229955 0 0.46072510401021938 0.47886968925967038 0 0.4482080088532337 0.42759758576264251 0 0.44541149092558818 0.45810801793159889 0 0.47099898419631459 0.4537794263229955 0 0.5 0.5 0 0.46072510401021938 0.47886968925967038 0 0.45096554296712482 0.50000000000000022 0 0.47099898419631459 0.4537794263229955 0 0.5 0.5 0 0.46072510401021938 0.47886968925967038 0 0.44541149092558818 0.45810801793159889 0 0.46072510401021938 0.47886968925967038 0 0.43624950196206919 0.48246100204375758 0 0.46072510401021938 0.47886968925967038 0 0.45096554296712482 0.50000000000000022 0 0.43624950196206919 0.48246100204375758 0 0.45096554296712482 0.50000000000000022 0 0.43624950196206919 0.48246100204375758 0 0.42187052054673951 0.5 0 0.41417008036023062 0.48403226174451008 0 0.43624950196206919 0.48246100204375758 0 0.45096554296712482 0.50000000000000022 0 0.42187052054673951 0.5 0 0.43624950196206919 0.48246100204375758 0 0.42187052054673951 0.5 0 0.41417008036023062 0.48403226174451008 0 0.39277549812635409 0.5 0 0.41417008036023062 0.48403226174451008 0 0.42153346095701372 0.46492200408751477 0 0.39842142020897647 0.47277830259127812 0 0.41417008036023062 0.48403226174451008 0 0.43624950196206919 0.48246100204375758 0 0.42153346095701372 0.46492200408751477 0 0.43624950196206919 0.48246100204375758 0 0.42153346095701372 0.46492200408751477 0 0.44541149092558818 0.45810801793159889 0 0.4241653336660694 0.43834942157981283 0 0.42153346095701372 0.46492200408751477 0 0.44541149092558818 0.45810801793159889 0 0.43624950196206919 0.48246100204375758 0 0.42153346095701372 0.46492200408751477 0 0.4241653336660694 0.43834942157981283 0 0.40681741995195808 0.44738300613127202 0 0.42153346095701372 0.46492200408751477 0 0.40681741995195808 0.44738300613127202 0 0.42153346095701372 0.46492200408751477 0 0.39842142020897647 0.47277830259127812 0 0.40681741995195808 0.44738300613127202 0 0.42153346095701372 0.46492200408751477 0 0.40681741995195808 0.44738300613127202 0 0.38714987392064359 0.4488391954028762 0 0.39842142020897647 0.47277830259127812 0 0.3983720442794712 0.42365852102957419 0 0.40681741995195808 0.44738300613127202 0 0.38714987392064359 0.4488391954028762 0 0.3650621735603079 0.45039483288229182 0 0.37482539966132572 0.43315942459720658 0 0.38714987392064359 0.4488391954028762 0 0.38714987392064359 0.4488391954028762 0 0.37794568284097663 0.46786175472251468 0 0.39842142020897647 0.47277830259127812 0 0.3650621735603079 0.45039483288229182 0 0.38714987392064359 0.4488391954028762 0 0.37794568284097663 0.46786175472251468 0 0.37794568284097663 0.46786175472251468 0 0.37821167641628189 0.48525057298810192 0 0.39842142020897647 0.47277830259127812 0 0.36368047570596868 0.5 0 0.37821167641628189 0.48525057298810192 0 0.39277549812635409 0.5 0 0.37821167641628189 0.48525057298810192 0 0.39277549812635409 0.5 0 0.39842142020897647 0.47277830259127812 0 0.41417008036023062 0.48403226174451008 0 0.39277549812635409 0.5 0 0.39842142020897647 0.47277830259127812 0 0.33461132507982738 0.083558737023906829 0 0.33959576442213502 0.076030035833848264 0 0.32430034282128128 0.081396103437021597 0 0.33461132507982738 0.083558737023906829 0 0.33635383232358529 0.092923891158286365 0 0.32430034282128128 0.081396103437021597 0 0.33461132507982738 0.083558737023906829 0 0.33635383232358529 0.092923891158286365 0 0.34894162119477973 0.082632288170561397 0 0.33461132507982738 0.083558737023906829 0 0.33959576442213502 0.076030035833848264 0 0.34894162119477973 0.082632288170561397 0 0.33959576442213502 0.076030035833848264 0 0.32248773727463642 0.064816267489070573 0 0.33950221807600678 0.059601128877481167 0 0.33959576442213502 0.076030035833848264 0 0.32248773727463642 0.064816267489070573 0 0.32430034282128128 0.081396103437021597 0 0.32248773727463642 0.064816267489070573 0 0.30922296250113213 0.088526959038579864 0 0.30687690601915463 0.078586867280176165 0 0.32248773727463642 0.064816267489070573 0 0.30922296250113213 0.088526959038579864 0 0.33635383232358529 0.092923891158286365 0 0.32386145638601987 0.095735055796928065 0 0.30922296250113213 0.088526959038579864 0 0.32248773727463642 0.064816267489070573 0 0.32430034282128128 0.081396103437021597 0 0.30922296250113213 0.088526959038579864 0 0.33635383232358529 0.092923891158286365 0 0.30922296250113213 0.088526959038579864 0 0.33635383232358529 0.092923891158286365 0 0.32430034282128128 0.081396103437021597 0 0.30922296250113213 0.088526959038579864 0 0.31769405843539339 0.095009084051629666 0 0.32386145638601987 0.095735055796928065 0 0.30922296250113213 0.088526959038579864 0 0.31769405843539339 0.095009084051629666 0 0.30922296250113213 0.088526959038579864 0 0.31195826724146519 0.092141805211485517 0 0.31769405843539339 0.095009084051629666 0 0.31368834408778012 0.097662207331017908 0 0.31195826724146519 0.092141805211485517 0 0.31769405843539339 0.095009084051629666 0 0.31580693662358522 0.1011376532023274 0 0.32211018910498779 0.10191229031309169 0 0.31769405843539339 0.095009084051629666 0 0.31580693662358522 0.1011376532023274 0 0.31368834408778012 0.097662207331017908 0 0.31580693662358522 0.1011376532023274 0 0.31368834408778012 0.097662207331017908 0 0.31056411883242169 0.10325490525543631 0 0.31580693662358522 0.1011376532023274 0 0.31372936160328058 0.1072813266009815 0 0.31056411883242169 0.10325490525543631 0 0.31580693662358522 0.1011376532023274 0 0.31372936160328058 0.1072813266009815 0 0.32009446493632843 0.1087556138329297 0 0.31580693662358522 0.1011376532023274 0 0.32009446493632843 0.1087556138329297 0 0.32211018910498779 0.10191229031309169 0 0.32009446493632843 0.1087556138329297 0 0.32211018910498779 0.10191229031309169 0 0.32768864358085242 0.10494740153978151 0 0.32211018910498779 0.10191229031309169 0 0.32768864358085242 0.10494740153978151 0 0.32811382248905052 0.099912920079595555 0 0.32211018910498779 0.10191229031309169 0 0.32811382248905052 0.099912920079595555 0 0.32386145638601987 0.095735055796928065 0 0.32811382248905052 0.099912920079595555 0 0.32386145638601987 0.095735055796928065 0 0.33085804751242481 0.097103029995999512 0 0.31769405843539339 0.095009084051629666 0 0.32211018910498779 0.10191229031309169 0 0.32386145638601987 0.095735055796928065 0 0.31952152611249018 0.1185447434962329 0 0.31361887933872312 0.11338832285585999 0 0.3109863185134491 0.1198767518015757 0 0.31952152611249018 0.1185447434962329 0 0.3109863185134491 0.1198767518015757 0 0.31670489908083821 0.1268617712404555 0 0.32009446493632843 0.1087556138329297 0 0.31952152611249018 0.1185447434962329 0 0.31361887933872312 0.11338832285585999 0 0.31372936160328058 0.1072813266009815 0 0.32009446493632843 0.1087556138329297 0 0.31361887933872312 0.11338832285585999 0 0.32009446493632843 0.1087556138329297 0 0.31952152611249018 0.1185447434962329 0 0.3306470775517209 0.1162312922608771 0 0.32009446493632843 0.1087556138329297 0 0.32768864358085242 0.10494740153978151 0 0.3306470775517209 0.1162312922608771 0 0.31952152611249018 0.1185447434962329 0 0.32480013764604709 0.12574984988950891 0 0.31670489908083821 0.1268617712404555 0 0.31952152611249018 0.1185447434962329 0 0.3306470775517209 0.1162312922608771 0 0.32480013764604709 0.12574984988950891 0 0.33605077586096788 0.099866822752177023 0 0.34989639117378107 0.12288321823510689 0 0.3306470775517209 0.1162312922608771 0 0.34989639117378107 0.12288321823510689 0 0.33467699207303542 0.13183731917495731 0 0.3306470775517209 0.1162312922608771 0 0.33605077586096788 0.099866822752177023 0 0.34989639117378107 0.12288321823510689 0 0.3306470775517209 0.1162312922608771 0 0.33467699207303542 0.13183731917495731 0 0.32480013764604709 0.12574984988950891 0 0.32768864358085242 0.10494740153978151 0 0.3306470775517209 0.1162312922608771 0 0.33605077586096788 0.099866822752177023 0 0.32811382248905052 0.099912920079595555 0 0.33085804751242481 0.097103029995999512 0 0.33605077586096788 0.099866822752177023 0 0.33635383232358529 0.092923891158286365 0 0.32386145638601987 0.095735055796928065 0 0.33085804751242481 0.097103029995999512 0 0.33635383232358529 0.092923891158286365 0 0.33085804751242481 0.097103029995999512 0 0.33605077586096788 0.099866822752177023 0 0.32768864358085242 0.10494740153978151 0 0.32811382248905052 0.099912920079595555 0 0.33605077586096788 0.099866822752177023 0 0.33635383232358529 0.092923891158286365 0 0.33605077586096788 0.099866822752177023 0 0.35016119264738599 0.1057395156496031 0 0.33635383232358529 0.092923891158286365 0 0.36348470214603851 0.097320823277992699 0 0.33635383232358529 0.092923891158286365 0 0.35016119264738599 0.1057395156496031 0 0.36348470214603851 0.097320823277992699 0 0.33605077586096788 0.099866822752177023 0 0.35016119264738599 0.1057395156496031 0 0.34989639117378107 0.12288321823510689 0 0.35016119264738599 0.1057395156496031 0 0.34989639117378107 0.12288321823510689 0 0.36502026173255742 0.1157028228244527 0 0.34989639117378107 0.12288321823510689 0 0.36502026173255742 0.1157028228244527 0 0.36649422837966628 0.13042877741932421 0 0.36502026173255742 0.1157028228244527 0 0.36649422837966628 0.13042877741932421 0 0.37963034586633759 0.12610643494208459 0 0.36502026173255742 0.1157028228244527 0 0.37963034586633759 0.12610643494208459 0 0.37798951698323069 0.1118300122611573 0 0.35016119264738599 0.1057395156496031 0 0.36502026173255742 0.1157028228244527 0 0.36348470214603851 0.097320823277992699 0 0.36502026173255742 0.1157028228244527 0 0.36348470214603851 0.097320823277992699 0 0.37798951698323069 0.1118300122611573 0 0.36348470214603851 0.097320823277992699 0 0.36512800784472499 0.078046918311935415 0 0.38240209602606767 0.07975842478956835 0 0.33635383232358529 0.092923891158286365 0 0.36348470214603851 0.097320823277992699 0 0.34894162119477973 0.082632288170561397 0 0.36348470214603851 0.097320823277992699 0 0.34894162119477973 0.082632288170561397 0 0.36512800784472499 0.078046918311935415 0 0.33959576442213502 0.076030035833848264 0 0.34894162119477973 0.082632288170561397 0 0.35505347517725211 0.066778836622158583 0 0.34894162119477973 0.082632288170561397 0 0.35505347517725211 0.066778836622158583 0 0.36512800784472499 0.078046918311935415 0 0.33959576442213502 0.076030035833848264 0 0.35505347517725211 0.066778836622158583 0 0.33950221807600678 0.059601128877481167 0 0.36512800784472499 0.078046918311935415 0 0.37399145109802567 0.058827664132880292 0 0.38240209602606767 0.07975842478956835 0 0.35505347517725211 0.066778836622158583 0 0.36512800784472499 0.078046918311935415 0 0.37399145109802567 0.058827664132880292 0 0.35505347517725211 0.066778836622158583 0 0.37399145109802567 0.058827664132880292 0 0.35862747059368022 0.042299764485668551 0 0.37399145109802567 0.058827664132880292 0 0.35862747059368022 0.042299764485668551 0 0.38612820305325918 0.035445972839830538 0 0.35862747059368022 0.042299764485668551 0 0.37193292132848987 0.016453356445610891 0 0.38612820305325918 0.035445972839830538 0 0.35862747059368022 0.042299764485668551 0 0.34901728682164568 0.017394884390052531 0 0.33575251204814099 0.041105575939561552 0 0.35505347517725211 0.066778836622158583 0 0.35862747059368022 0.042299764485668551 0 0.33950221807600678 0.059601128877481167 0 0.35862747059368022 0.042299764485668551 0 0.33950221807600678 0.059601128877481167 0 0.33575251204814099 0.041105575939561552 0 0.37193292132848987 0.016453356445610891 0 0.34901728682164568 0.017394884390052531 0 0.36228206159515042 -0.0063158071594564408 0 0.37193292132848987 0.016453356445610891 0 0.38224050002167942 -0.0009097361468181442 0 0.36228206159515042 -0.0063158071594564408 0 0.35862747059368022 0.042299764485668551 0 0.37193292132848987 0.016453356445610891 0 0.34901728682164568 0.017394884390052531 0 0.34901728682164568 0.017394884390052531 0 0.36228206159515042 -0.0063158071594564408 0 0.34901728682164568 0.017394884390052531 0 0.36228206159515042 -0.0063158071594564408 0 0.3426590178840106 -0.0017279900412659731 0 0.32290502906810631 0.0087589737432974112 0 0.33575251204814099 0.041105575939561552 0 0.30350287596645681 0.024425911962913039 0 0.34901728682164568 0.017394884390052531 0 0.32290502906810631 0.0087589737432974112 0 0.33575251204814099 0.041105575939561552 0 0.34901728682164568 0.017394884390052531 0 0.32290502906810631 0.0087589737432974112 0 0.3426590178840106 -0.0017279900412659731 0 0.34901728682164568 0.017394884390052531 0 0.33575251204814099 0.041105575939561552 0 0.33575251204814099 0.041105575939561552 0 0.30404332329695072 0.045983517729414947 0 0.30350287596645681 0.024425911962913039 0 0.32248773727463642 0.064816267489070573 0 0.33575251204814099 0.041105575939561552 0 0.30404332329695072 0.045983517729414947 0 0.32248773727463642 0.064816267489070573 0 0.33575251204814099 0.041105575939561552 0 0.32248773727463642 0.064816267489070573 0 0.33950221807600678 0.059601128877481167 0 0.33575251204814099 0.041105575939561552 0 0.32248773727463642 0.064816267489070573 0 0.30404332329695072 0.045983517729414947 0 0.30161040169643899 0.064211285933714057 0 0.30404332329695072 0.045983517729414947 0 0.30350287596645681 0.024425911962913039 0 0.27569058823965642 0.03172566690048842 0 0.30404332329695072 0.045983517729414947 0 0.28301446783468531 0.054873684783343347 0 0.27569058823965642 0.03172566690048842 0 0.30404332329695072 0.045983517729414947 0 0.28301446783468531 0.054873684783343347 0 0.30161040169643899 0.064211285933714057 0 0.32290502906810631 0.0087589737432974112 0 0.30350287596645681 0.024425911962913039 0 0.29201578911414372 0.0087506111016703511 0 0.32290502906810631 0.0087589737432974112 0 0.29201578911414372 0.0087506111016703511 0 0.30732326571167717 -0.01117640654811587 0 0.29201578911414372 0.0087506111016703511 0 0.27569058823965642 0.03172566690048842 0 0.30350287596645681 0.024425911962913039 0 0.29201578911414372 0.0087506111016703511 0 0.27569058823965642 0.03172566690048842 0 0.29201578911414372 0.0087506111016703511 0 0.27265066055532022 0.0047061445943817146 0 0.28500898421285331 -0.0097897417193340101 0 0.2417058165822987 0.033817259932701002 0 0.25679813396748657 0.015336681868612 0 0.27569058823965642 0.03172566690048842 0 0.29201578911414372 0.0087506111016703511 0 0.27265066055532022 0.0047061445943817146 0 0.27569058823965642 0.03172566690048842 0 0.27265066055532022 0.0047061445943817146 0 0.25679813396748657 0.015336681868612 0 0.27569058823965642 0.03172566690048842 0 0.23958574122992191 0.0096517243096459655 0 0.25679813396748657 0.015336681868612 0 0.25452241286566479 -0.0019804021957848931 0 0.27265066055532022 0.0047061445943817146 0 0.25679813396748657 0.015336681868612 0 0.25452241286566479 -0.0019804021957848931 0 0.2417058165822987 0.033817259932701002 0 0.27569058823965642 0.03172566690048842 0 0.25936538736516912 0.054700722699306467 0 0.28301446783468531 0.054873684783343347 0 0.27569058823965642 0.03172566690048842 0 0.25936538736516912 0.054700722699306467 0 0.28301446783468531 0.054873684783343347 0 0.25936538736516912 0.054700722699306467 0 0.27340332472775392 0.070229991384938018 0 0.27569058823965642 0.03172566690048842 0 0.25936538736516912 0.054700722699306467 0 0.24304018649068179 0.077675778498124626 0 0.25936538736516912 0.054700722699306467 0 0.25936538736516912 0.054700722699306467 0 0.26188697770053759 0.081178886456434327 0 0.27340332472775392 0.070229991384938018 0 0.24304018649068179 0.077675778498124626 0 0.25936538736516912 0.054700722699306467 0 0.26188697770053759 0.081178886456434327 0 0.26188697770053759 0.081178886456434327 0 0.26702038716575821 0.098707714525336915 0 0.25526680542063002 0.099934576439572501 0 0.24304018649068179 0.077675778498124626 0 0.26188697770053759 0.081178886456434327 0 0.25526680542063002 0.099934576439572501 0 0.26188697770053759 0.081178886456434327 0 0.27322577503323281 0.085824535191327489 0 0.26702038716575821 0.098707714525336915 0 0.26188697770053759 0.081178886456434327 0 0.27322577503323281 0.085824535191327489 0 0.27340332472775392 0.070229991384938018 0 0.27322577503323281 0.085824535191327489 0 0.28106400325943443 0.079378336988665921 0 0.28245876065755809 0.088109943242290004 0 0.27322577503323281 0.085824535191327489 0 0.28106400325943443 0.079378336988665921 0 0.27340332472775392 0.070229991384938018 0 0.27322577503323281 0.085824535191327489 0 0.28245876065755809 0.088109943242290004 0 0.28036509290875428 0.097629536836235944 0 0.28106400325943443 0.079378336988665921 0 0.27340332472775392 0.070229991384938018 0 0.28760989067235349 0.070581896637737576 0 0.28301446783468531 0.054873684783343347 0 0.27340332472775392 0.070229991384938018 0 0.28760989067235349 0.070581896637737576 0 0.28301446783468531 0.054873684783343347 0 0.28760989067235349 0.070581896637737576 0 0.30161040169643899 0.064211285933714057 0 0.28760989067235349 0.070581896637737576 0 0.28862226520627349 0.082145318487036503 0 0.2975258935850455 0.077609747690134845 0 0.28760989067235349 0.070581896637737576 0 0.30161040169643899 0.064211285933714057 0 0.2975258935850455 0.077609747690134845 0 0.28106400325943443 0.079378336988665921 0 0.28760989067235349 0.070581896637737576 0 0.28862226520627349 0.082145318487036503 0 0.28106400325943443 0.079378336988665921 0 0.28862226520627349 0.082145318487036503 0 0.28245876065755809 0.088109943242290004 0 0.28245876065755809 0.088109943242290004 0 0.28958549207354412 0.091745342980889044 0 0.28036509290875428 0.097629536836235944 0 0.28862226520627349 0.082145318487036503 0 0.28245876065755809 0.088109943242290004 0 0.28958549207354412 0.091745342980889044 0 0.28862226520627349 0.082145318487036503 0 0.28958549207354412 0.091745342980889044 0 0.29475092320779822 0.0852872520015691 0 0.28958549207354412 0.091745342980889044 0 0.29475092320779822 0.0852872520015691 0 0.29756396273529723 0.090345267080357866 0 0.28958549207354412 0.091745342980889044 0 0.29756396273529723 0.090345267080357866 0 0.29502231016210889 0.096798838998865516 0 0.28862226520627349 0.082145318487036503 0 0.29475092320779822 0.0852872520015691 0 0.2975258935850455 0.077609747690134845 0 0.30045700243883111 0.084590583769427255 0 0.30592617713072562 0.087992669442198509 0 0.30687690601915463 0.078586867280176165 0 0.30045700243883111 0.084590583769427255 0 0.30687690601915463 0.078586867280176165 0 0.2975258935850455 0.077609747690134845 0 0.29475092320779822 0.0852872520015691 0 0.30045700243883111 0.084590583769427255 0 0.2975258935850455 0.077609747690134845 0 0.30241408139986281 0.091885167812097795 0 0.30922296250113213 0.088526959038579864 0 0.30040957595937118 0.09846615210638586 0 0.29756396273529723 0.090345267080357866 0 0.30159030592617919 0.088703422026020343 0 0.30241408139986281 0.091885167812097795 0 0.29756396273529723 0.090345267080357866 0 0.30241408139986281 0.091885167812097795 0 0.29875113853293872 0.094545984578179518 0 0.30045700243883111 0.084590583769427255 0 0.29756396273529723 0.090345267080357866 0 0.30159030592617919 0.088703422026020343 0 0.29475092320779822 0.0852872520015691 0 0.30045700243883111 0.084590583769427255 0 0.29756396273529723 0.090345267080357866 0 0.30045700243883111 0.084590583769427255 0 0.30159030592617919 0.088703422026020343 0 0.30592617713072562 0.087992669442198509 0 0.30159030592617919 0.088703422026020343 0 0.30241408139986281 0.091885167812097795 0 0.30592617713072562 0.087992669442198509 0 0.30241408139986281 0.091885167812097795 0 0.30592617713072562 0.087992669442198509 0 0.30922296250113213 0.088526959038579864 0 0.30592617713072562 0.087992669442198509 0 0.30922296250113213 0.088526959038579864 0 0.30592617713072562 0.087992669442198509 0 0.30922296250113213 0.088526959038579864 0 0.30687690601915463 0.078586867280176165 0 0.32248773727463642 0.064816267489070573 0 0.30687690601915463 0.078586867280176165 0 0.30161040169643899 0.064211285933714057 0 0.30687690601915463 0.078586867280176165 0 0.30161040169643899 0.064211285933714057 0 0.2975258935850455 0.077609747690134845 0 0.30009027423737278 0.1130909174640846 0 0.30482658564035359 0.1199889673572463 0 0.3076723691246156 0.11532399128666231 0 0.30482658564035359 0.1199889673572463 0 0.30758806918586501 0.1265449364408445 0 0.29940940134685462 0.126927039311485 0 0.30009027423737278 0.1130909174640846 0 0.30482658564035359 0.1199889673572463 0 0.29940940134685462 0.126927039311485 0 0.30482658564035359 0.1199889673572463 0 0.3109863185134491 0.1198767518015757 0 0.3076723691246156 0.11532399128666231 0 0.3109863185134491 0.1198767518015757 0 0.30758806918586501 0.1265449364408445 0 0.31670489908083821 0.1268617712404555 0 0.30482658564035359 0.1199889673572463 0 0.3109863185134491 0.1198767518015757 0 0.30758806918586501 0.1265449364408445 0 0.30009027423737278 0.1130909174640846 0 0.3076723691246156 0.11532399128666231 0 0.30856240828534459 0.1098701378583542 0 0.31361887933872312 0.11338832285585999 0 0.3109863185134491 0.1198767518015757 0 0.3076723691246156 0.11532399128666231 0 0.31372936160328058 0.1072813266009815 0 0.31361887933872312 0.11338832285585999 0 0.30856240828534459 0.1098701378583542 0 0.31361887933872312 0.11338832285585999 0 0.3076723691246156 0.11532399128666231 0 0.30856240828534459 0.1098701378583542 0 0.30009027423737278 0.1130909174640846 0 0.30856240828534459 0.1098701378583542 0 0.31056411883242169 0.10325490525543631 0 0.30922296250113213 0.088526959038579864 0 0.29737508358909709 0.1097049592078928 0 0.31195826724146519 0.092141805211485517 0 0.30009027423737278 0.1130909174640846 0 0.31195826724146519 0.092141805211485517 0 0.30009027423737278 0.1130909174640846 0 0.31056411883242169 0.10325490525543631 0 0.31372936160328058 0.1072813266009815 0 0.30856240828534459 0.1098701378583542 0 0.31056411883242169 0.10325490525543631 0 0.30922296250113213 0.088526959038579864 0 0.31195826724146519 0.092141805211485517 0 0.29737508358909709 0.1097049592078928 0 0.31195826724146519 0.092141805211485517 0 0.29737508358909709 0.1097049592078928 0 0.30009027423737278 0.1130909174640846 0 0.30922296250113213 0.088526959038579864 0 0.29737508358909709 0.1097049592078928 0 0.30040957595937118 0.09846615210638586 0 0.31368834408778012 0.097662207331017908 0 0.31195826724146519 0.092141805211485517 0 0.31056411883242169 0.10325490525543631 0 0.30040957595937118 0.09846615210638586 0 0.29502231016210889 0.096798838998865516 0 0.29626259322975468 0.10075824328237069 0 0.30040957595937118 0.09846615210638586 0 0.29672326279990852 0.10502459049212801 0 0.29626259322975468 0.10075824328237069 0 0.30040957595937118 0.09846615210638586 0 0.29875113853293872 0.094545984578179518 0 0.29502231016210889 0.096798838998865516 0 0.29756396273529723 0.090345267080357866 0 0.29875113853293872 0.094545984578179518 0 0.29502231016210889 0.096798838998865516 0 0.30241408139986281 0.091885167812097795 0 0.30040957595937118 0.09846615210638586 0 0.29875113853293872 0.094545984578179518 0 0.29737508358909709 0.1097049592078928 0 0.30040957595937118 0.09846615210638586 0 0.29672326279990852 0.10502459049212801 0 0.29737508358909709 0.1097049592078928 0 0.29271253607825137 0.1069208324979946 0 0.28939881636974651 0.11028277725708679 0 0.29737508358909709 0.1097049592078928 0 0.29672326279990852 0.10502459049212801 0 0.29271253607825137 0.1069208324979946 0 0.29672326279990852 0.10502459049212801 0 0.29289522399763002 0.1027433915321035 0 0.29271253607825137 0.1069208324979946 0 0.29672326279990852 0.10502459049212801 0 0.29289522399763002 0.1027433915321035 0 0.29626259322975468 0.10075824328237069 0 0.29289522399763002 0.1027433915321035 0 0.28870154716395707 0.099190100691777264 0 0.28627292021028961 0.1055103874127369 0 0.29289522399763002 0.1027433915321035 0 0.29271253607825137 0.1069208324979946 0 0.28627292021028961 0.1055103874127369 0 0.29271253607825137 0.1069208324979946 0 0.28627292021028961 0.1055103874127369 0 0.28939881636974651 0.11028277725708679 0 0.29289522399763002 0.1027433915321035 0 0.29502231016210889 0.096798838998865516 0 0.29626259322975468 0.10075824328237069 0 0.29289522399763002 0.1027433915321035 0 0.29502231016210889 0.096798838998865516 0 0.28870154716395707 0.099190100691777264 0 0.28958549207354412 0.091745342980889044 0 0.29502231016210889 0.096798838998865516 0 0.28870154716395707 0.099190100691777264 0 0.28958549207354412 0.091745342980889044 0 0.28870154716395707 0.099190100691777264 0 0.28036509290875428 0.097629536836235944 0 0.28870154716395707 0.099190100691777264 0 0.28627292021028961 0.1055103874127369 0 0.28036509290875428 0.097629536836235944 0 0.28627292021028961 0.1055103874127369 0 0.28313415690088067 0.11211246065644651 0 0.28939881636974651 0.11028277725708679 0 0.30009027423737278 0.1130909174640846 0 0.28822228123328031 0.13404002971668369 0 0.29737508358909709 0.1097049592078928 0 0.28623972589079077 0.11737846907624119 0 0.28552720467706261 0.13088295937720601 0 0.28627292021028961 0.1055103874127369 0 0.28313415690088067 0.11211246065644651 0 0.27491287202643139 0.1106459699040916 0 0.29737508358909709 0.1097049592078928 0 0.30009027423737278 0.1130909174640846 0 0.28552720467706261 0.13088295937720601 0 0.29737508358909709 0.1097049592078928 0 0.28552720467706261 0.13088295937720601 0 0.30009027423737278 0.1130909174640846 0 0.29940940134685462 0.126927039311485 0 0.28822228123328031 0.13404002971668369 0 0.28313415690088067 0.11211246065644651 0 0.28623972589079077 0.11737846907624119 0 0.2797029782776278 0.11692410249608801 0 0.28313415690088067 0.11211246065644651 0 0.28939881636974651 0.11028277725708679 0 0.28623972589079077 0.11737846907624119 0 0.29737508358909709 0.1097049592078928 0 0.28939881636974651 0.11028277725708679 0 0.28623972589079077 0.11737846907624119 0 0.28623972589079077 0.11737846907624119 0 0.280874389956693 0.1232179949799764 0 0.28552720467706261 0.13088295937720601 0 0.28623972589079077 0.11737846907624119 0 0.280874389956693 0.1232179949799764 0 0.2797029782776278 0.11692410249608801 0 0.27390724421749207 0.1218414416911064 0 0.27491287202643139 0.1106459699040916 0 0.25919333661787081 0.1178928695980586 0 0.280874389956693 0.1232179949799764 0 0.27390724421749207 0.1218414416911064 0 0.27609682823274379 0.12858597220853579 0 0.280874389956693 0.1232179949799764 0 0.27390724421749207 0.1218414416911064 0 0.2797029782776278 0.11692410249608801 0 0.28313415690088067 0.11211246065644651 0 0.27491287202643139 0.1106459699040916 0 0.2797029782776278 0.11692410249608801 0 0.27390724421749207 0.1218414416911064 0 0.27491287202643139 0.1106459699040916 0 0.2797029782776278 0.11692410249608801 0 0.27390724421749207 0.1218414416911064 0 0.25919333661787081 0.1178928695980586 0 0.26723918269429547 0.12924539188441089 0 0.27491287202643139 0.1106459699040916 0 0.26702038716575821 0.098707714525336915 0 0.25919333661787081 0.1178928695980586 0 0.27322577503323281 0.085824535191327489 0 0.28036509290875428 0.097629536836235944 0 0.26702038716575821 0.098707714525336915 0 0.28627292021028961 0.1055103874127369 0 0.27491287202643139 0.1106459699040916 0 0.28036509290875428 0.097629536836235944 0 0.27491287202643139 0.1106459699040916 0 0.28036509290875428 0.097629536836235944 0 0.26702038716575821 0.098707714525336915 0 0.26702038716575821 0.098707714525336915 0 0.25526680542063002 0.099934576439572501 0 0.25919333661787081 0.1178928695980586 0 0.2423697656658077 0.117787542713469 0 0.25526680542063002 0.099934576439572501 0 0.25919333661787081 0.1178928695980586 0 0.2423697656658077 0.117787542713469 0 0.25919333661787081 0.1178928695980586 0 0.25802454571541811 0.1349242511299939 0 0.2417970975408163 0.13792001707504239 0 0.25802454571541811 0.1349242511299939 0 0.25193193932597752 0.14713931079427281 0 0.2423697656658077 0.117787542713469 0 0.25802454571541811 0.1349242511299939 0 0.25919333661787081 0.1178928695980586 0 0.25802454571541811 0.1349242511299939 0 0.26723918269429547 0.12924539188441089 0 0.27390724421749207 0.1218414416911064 0 0.26723918269429547 0.12924539188441089 0 0.27609682823274379 0.12858597220853579 0 0.27293611961817588 0.13774207310997949 0 0.27367932576502818 0.15206095954651919 0 0.28552720467706261 0.13088295937720601 0 0.26723918269429547 0.12924539188441089 0 0.27293611961817588 0.13774207310997949 0 0.27609682823274379 0.12858597220853579 0 0.25802454571541811 0.1349242511299939 0 0.26723918269429547 0.12924539188441089 0 0.27293611961817588 0.13774207310997949 0 0.280874389956693 0.1232179949799764 0 0.27609682823274379 0.12858597220853579 0 0.28552720467706261 0.13088295937720601 0 0.27293611961817588 0.13774207310997949 0 0.27609682823274379 0.12858597220853579 0 0.28552720467706261 0.13088295937720601 0 0.25802454571541811 0.1349242511299939 0 0.27367932576502818 0.15206095954651919 0 0.25802454571541811 0.1349242511299939 0 0.27293611961817588 0.13774207310997949 0 0.27367932576502818 0.15206095954651919 0 0.27367932576502818 0.15206095954651919 0 0.28552720467706261 0.13088295937720601 0 0.27367932576502818 0.15206095954651919 0 0.2763542882291885 0.15498914196928321 0 0.28822228123328031 0.13404002971668369 0 0.27367932576502818 0.15206095954651919 0 0.2763542882291885 0.15498914196928321 0 0.25802454571541811 0.1349242511299939 0 0.26432460989924761 0.15337076433090979 0 0.25193193932597752 0.14713931079427281 0 0.25802454571541811 0.1349242511299939 0 0.27367932576502818 0.15206095954651919 0 0.26432460989924761 0.15337076433090979 0 0.26432460989924761 0.15337076433090979 0 0.25193193932597752 0.14713931079427281 0 0.25038525607998219 0.15849700061999919 0 0.26432460989924761 0.15337076433090979 0 0.25158465383507039 0.1730227057605038 0 0.27367932576502818 0.15206095954651919 0 0.26219311377086207 0.1641064805595257 0 0.25918386558410211 0.17797149260017001 0 0.26432460989924761 0.15337076433090979 0 0.26219311377086207 0.1641064805595257 0 0.25158465383507039 0.1730227057605038 0 0.26432460989924761 0.15337076433090979 0 0.25038525607998219 0.15849700061999919 0 0.25158465383507039 0.1730227057605038 0 0.26219311377086207 0.1641064805595257 0 0.25158465383507039 0.1730227057605038 0 0.25918386558410211 0.17797149260017001 0 0.2485754056483104 0.1868877178011481 0 0.25158465383507039 0.1730227057605038 0 0.25918386558410211 0.17797149260017001 0 0.2588499507310732 0.18588740177015509 0 0.26994383808957789 0.1819685751183133 0 0.26760211948013052 0.17043827186971891 0 0.25918386558410211 0.17797149260017001 0 0.2588499507310732 0.18588740177015509 0 0.26760211948013052 0.17043827186971891 0 0.2588499507310732 0.18588740177015509 0 0.26760211948013052 0.17043827186971891 0 0.26994383808957789 0.1819685751183133 0 0.27979521954420589 0.18628160247354419 0 0.26939926749429782 0.19302518266685911 0 0.2588499507310732 0.18588740177015509 0 0.26994383808957789 0.1819685751183133 0 0.26939926749429782 0.19302518266685911 0 0.26994383808957789 0.1819685751183133 0 0.27550447789891591 0.1762630269487889 0 0.26760211948013052 0.17043827186971891 0 0.27550447789891591 0.1762630269487889 0 0.27979521954420589 0.18628160247354419 0 0.28344314480648281 0.17570954622749621 0 0.27550447789891591 0.1762630269487889 0 0.27765534892093241 0.16793315824250121 0 0.28344314480648281 0.17570954622749621 0 0.26994383808957789 0.1819685751183133 0 0.27550447789891591 0.1762630269487889 0 0.27979521954420589 0.18628160247354419 0 0.27367932576502818 0.15206095954651919 0 0.25918386558410211 0.17797149260017001 0 0.26760211948013052 0.17043827186971891 0 0.27367932576502818 0.15206095954651919 0 0.2763542882291885 0.15498914196928321 0 0.26760211948013052 0.17043827186971891 0 0.27367932576502818 0.15206095954651919 0 0.25918386558410211 0.17797149260017001 0 0.2763542882291885 0.15498914196928321 0 0.26760211948013052 0.17043827186971891 0 0.27367932576502818 0.15206095954651919 0 0.26432460989924761 0.15337076433090979 0 0.26219311377086207 0.1641064805595257 0 0.2763542882291885 0.15498914196928321 0 0.26760211948013052 0.17043827186971891 0 0.27765534892093241 0.16793315824250121 0 0.27550447789891591 0.1762630269487889 0 0.26760211948013052 0.17043827186971891 0 0.27765534892093241 0.16793315824250121 0 0.2763542882291885 0.15498914196928321 0 0.28175647892150613 0.16090272021255991 0 0.28451071123014438 0.15310562226391619 0 0.2763542882291885 0.15498914196928321 0 0.27765534892093241 0.16793315824250121 0 0.28175647892150613 0.16090272021255991 0 0.2763542882291885 0.15498914196928321 0 0.28175647892150613 0.16090272021255991 0 0.28816957519780989 0.1595646665429519 0 0.28175647892150613 0.16090272021255991 0 0.28451071123014438 0.15310562226391619 0 0.28816957519780989 0.1595646665429519 0 0.28175647892150613 0.16090272021255991 0 0.28798865504104249 0.1668545761679727 0 0.27765534892093241 0.16793315824250121 0 0.28175647892150613 0.16090272021255991 0 0.28798865504104249 0.1668545761679727 0 0.27765534892093241 0.16793315824250121 0 0.28798865504104249 0.1668545761679727 0 0.28344314480648281 0.17570954622749621 0 0.28798865504104249 0.1668545761679727 0 0.29104444445153388 0.17363615131114679 0 0.2977700863925492 0.16766978966369861 0 0.28798865504104249 0.1668545761679727 0 0.29526404721464639 0.16064630620333589 0 0.2977700863925492 0.16766978966369861 0 0.28816957519780989 0.1595646665429519 0 0.29526404721464639 0.16064630620333589 0 0.29195445341168852 0.15353386891929319 0 0.28816957519780989 0.1595646665429519 0 0.28798865504104249 0.1668545761679727 0 0.29526404721464639 0.16064630620333589 0 0.27979521954420589 0.18628160247354419 0 0.29005009166977441 0.18193006484198471 0 0.28956100093962989 0.19081459302181319 0 0.27979521954420589 0.18628160247354419 0 0.28344314480648281 0.17570954622749621 0 0.29005009166977441 0.18193006484198471 0 0.28798865504104249 0.1668545761679727 0 0.28344314480648281 0.17570954622749621 0 0.29104444445153388 0.17363615131114679 0 0.28344314480648281 0.17570954622749621 0 0.29104444445153388 0.17363615131114679 0 0.29005009166977441 0.18193006484198471 0 0.29104444445153388 0.17363615131114679 0 0.29787984814026069 0.1758597112271508 0 0.2977700863925492 0.16766978966369861 0 0.29104444445153388 0.17363615131114679 0 0.29005009166977441 0.18193006484198471 0 0.29787984814026069 0.1758597112271508 0 0.29005009166977441 0.18193006484198471 0 0.2995152834646958 0.18489940504574309 0 0.28956100093962989 0.19081459302181319 0 0.29005009166977441 0.18193006484198471 0 0.2995152834646958 0.18489940504574309 0 0.29787984814026069 0.1758597112271508 0 0.2995152834646958 0.18489940504574309 0 0.30567758403213202 0.17709803133937951 0 0.31647527051185731 0.17987838039848661 0 0.2995152834646958 0.18489940504574309 0 0.29787984814026069 0.1758597112271508 0 0.30567758403213202 0.17709803133937951 0 0.29787984814026069 0.1758597112271508 0 0.30567758403213202 0.17709803133937951 0 0.30372738385962389 0.17155308205165051 0 0.30567758403213202 0.17709803133937951 0 0.31076504066646737 0.1710375803934496 0 0.31647527051185731 0.17987838039848661 0 0.30567758403213202 0.17709803133937951 0 0.30372738385962389 0.17155308205165051 0 0.31076504066646737 0.1710375803934496 0 0.29526404721464639 0.16064630620333589 0 0.30302965991115921 0.1591988558568683 0 0.2977700863925492 0.16766978966369861 0 0.29526404721464639 0.16064630620333589 0 0.30302965991115921 0.1591988558568683 0 0.29903722193980542 0.1533597974933166 0 0.29787984814026069 0.1758597112271508 0 0.2977700863925492 0.16766978966369861 0 0.30372738385962389 0.17155308205165051 0 0.2977700863925492 0.16766978966369861 0 0.30372738385962389 0.17155308205165051 0 0.30654436006670999 0.16610029763457421 0 0.30302965991115921 0.1591988558568683 0 0.2977700863925492 0.16766978966369861 0 0.30654436006670999 0.16610029763457421 0 0.30654436006670999 0.16610029763457421 0 0.31076504066646737 0.1710375803934496 0 0.31626169106977498 0.162188866534376 0 0.30372738385962389 0.17155308205165051 0 0.30654436006670999 0.16610029763457421 0 0.31076504066646737 0.1710375803934496 0 0.30654436006670999 0.16610029763457421 0 0.30966468274200798 0.15944463522999711 0 0.31626169106977498 0.162188866534376 0 0.30302965991115921 0.1591988558568683 0 0.30654436006670999 0.16610029763457421 0 0.30966468274200798 0.15944463522999711 0 0.30302965991115921 0.1591988558568683 0 0.30966468274200798 0.15944463522999711 0 0.30687717697953748 0.1523182794037575 0 0.30687717697953748 0.1523182794037575 0 0.30936457667023531 0.14380995453263939 0 0.31740045247937237 0.1530450620499037 0 0.30966468274200798 0.15944463522999711 0 0.30687717697953748 0.1523182794037575 0 0.31740045247937237 0.1530450620499037 0 0.30687717697953748 0.1523182794037575 0 0.29903722193980542 0.1533597974933166 0 0.30220841200832271 0.1474415172001729 0 0.30302965991115921 0.1591988558568683 0 0.30687717697953748 0.1523182794037575 0 0.29903722193980542 0.1533597974933166 0 0.29903722193980542 0.1533597974933166 0 0.30220841200832271 0.1474415172001729 0 0.29618776606161479 0.1468726071798431 0 0.29957531839042029 0.14084694739130779 0 0.30220841200832271 0.1474415172001729 0 0.30936457667023531 0.14380995453263939 0 0.29957531839042029 0.14084694739130779 0 0.30220841200832271 0.1474415172001729 0 0.29618776606161479 0.1468726071798431 0 0.30687717697953748 0.1523182794037575 0 0.30220841200832271 0.1474415172001729 0 0.30936457667023531 0.14380995453263939 0 0.30936457667023531 0.14380995453263939 0 0.30427668569212291 0.13461988730819549 0 0.31312879216139972 0.13431369364685669 0 0.30758806918586501 0.1265449364408445 0 0.31670489908083821 0.1268617712404555 0 0.31312879216139972 0.13431369364685669 0 0.30758806918586501 0.1265449364408445 0 0.30427668569212291 0.13461988730819549 0 0.31312879216139972 0.13431369364685669 0 0.30758806918586501 0.1265449364408445 0 0.29940940134685462 0.126927039311485 0 0.30427668569212291 0.13461988730819549 0 0.29940940134685462 0.126927039311485 0 0.30427668569212291 0.13461988730819549 0 0.29659395639796238 0.13527675252603949 0 0.29957531839042029 0.14084694739130779 0 0.30936457667023531 0.14380995453263939 0 0.30427668569212291 0.13461988730819549 0 0.29957531839042029 0.14084694739130779 0 0.30427668569212291 0.13461988730819549 0 0.29659395639796238 0.13527675252603949 0 0.30009027423737278 0.1130909174640846 0 0.28552720467706261 0.13088295937720601 0 0.28822228123328031 0.13404002971668369 0 0.29957531839042029 0.14084694739130779 0 0.29363653384833133 0.14056305227584431 0 0.29659395639796238 0.13527675252603949 0 0.27367932576502818 0.15206095954651919 0 0.28552720467706261 0.13088295937720601 0 0.28822228123328031 0.13404002971668369 0 0.29363653384833133 0.14056305227584431 0 0.29659395639796238 0.13527675252603949 0 0.28822228123328031 0.13404002971668369 0 0.29363653384833133 0.14056305227584431 0 0.28822228123328031 0.13404002971668369 0 0.28978973693415438 0.1468027898582232 0 0.29940940134685462 0.126927039311485 0 0.29659395639796238 0.13527675252603949 0 0.28822228123328031 0.13404002971668369 0 0.2763542882291885 0.15498914196928321 0 0.28822228123328031 0.13404002971668369 0 0.2763542882291885 0.15498914196928321 0 0.28822228123328031 0.13404002971668369 0 0.28451071123014438 0.15310562226391619 0 0.28822228123328031 0.13404002971668369 0 0.28451071123014438 0.15310562226391619 0 0.28978973693415438 0.1468027898582232 0 0.28816957519780989 0.1595646665429519 0 0.28451071123014438 0.15310562226391619 0 0.29195445341168852 0.15353386891929319 0 0.28451071123014438 0.15310562226391619 0 0.29195445341168852 0.15353386891929319 0 0.28978973693415438 0.1468027898582232 0 0.29195445341168852 0.15353386891929319 0 0.29618776606161479 0.1468726071798431 0 0.28978973693415438 0.1468027898582232 0 0.29526404721464639 0.16064630620333589 0 0.29903722193980542 0.1533597974933166 0 0.29195445341168852 0.15353386891929319 0 0.29903722193980542 0.1533597974933166 0 0.29195445341168852 0.15353386891929319 0 0.29618776606161479 0.1468726071798431 0 0.29363653384833133 0.14056305227584431 0 0.29618776606161479 0.1468726071798431 0 0.28978973693415438 0.1468027898582232 0 0.29957531839042029 0.14084694739130779 0 0.29363653384833133 0.14056305227584431 0 0.29618776606161479 0.1468726071798431 0 0.27736957053038419 0.243396225256612 0 0.25967193160751512 0.2417616831170373 0 0.27860637790896259 0.22113391554418721 0 0.24316293902537719 0.2413439192186545 0 0.25967193160751512 0.2417616831170373 0 0.25199020560742091 0.22434980850916861 0 0.25967193160751512 0.2417616831170373 0 0.25199020560742091 0.22434980850916861 0 0.27860637790896259 0.22113391554418721 0 0.25199020560742091 0.22434980850916861 0 0.27860637790896259 0.22113391554418721 0 0.25796360340040198 0.21114217209019881 0 0.25967193160751512 0.2417616831170373 0 0.27860637790896259 0.22113391554418721 0 0.27860637790896259 0.22113391554418721 0 0.26800905259730151 0.20391373620616479 0 0.28090358580906333 0.20045574477645681 0 0.27860637790896259 0.22113391554418721 0 0.26800905259730151 0.20391373620616479 0 0.25796360340040198 0.21114217209019881 0 0.24468840540317599 0.20388202565382091 0 0.25199020560742091 0.22434980850916861 0 0.25796360340040198 0.21114217209019881 0 0.24468840540317599 0.20388202565382091 0 0.25796360340040198 0.21114217209019881 0 0.25889395819456501 0.1996440356565202 0 0.26800905259730151 0.20391373620616479 0 0.25796360340040198 0.21114217209019881 0 0.25889395819456501 0.1996440356565202 0 0.24468840540317599 0.20388202565382091 0 0.25918386558410211 0.17797149260017001 0 0.2588499507310732 0.18588740177015509 0 0.26800905259730151 0.20391373620616479 0 0.25889395819456501 0.1996440356565202 0 0.26939926749429782 0.19302518266685911 0 0.24468840540317599 0.20388202565382091 0 0.2485754056483104 0.1868877178011481 0 0.25918386558410211 0.17797149260017001 0 0.24468840540317599 0.20388202565382091 0 0.2588499507310732 0.18588740177015509 0 0.25889395819456501 0.1996440356565202 0 0.24468840540317599 0.20388202565382091 0 0.25918386558410211 0.17797149260017001 0 0.2588499507310732 0.18588740177015509 0 0.25889395819456501 0.1996440356565202 0 0.26939926749429782 0.19302518266685911 0 0.26800905259730151 0.20391373620616479 0 0.26939926749429782 0.19302518266685911 0 0.28090358580906333 0.20045574477645681 0 0.27979521954420589 0.18628160247354419 0 0.26939926749429782 0.19302518266685911 0 0.28090358580906333 0.20045574477645681 0 0.28090358580906333 0.20045574477645681 0 0.28956100093962989 0.19081459302181319 0 0.29754082421041023 0.20050614797133701 0 0.27979521954420589 0.18628160247354419 0 0.28090358580906333 0.20045574477645681 0 0.28956100093962989 0.19081459302181319 0 0.2995152834646958 0.18489940504574309 0 0.28956100093962989 0.19081459302181319 0 0.29754082421041023 0.20050614797133701 0 0.29754082421041023 0.20050614797133701 0 0.31647527051185731 0.17987838039848661 0 0.2995152834646958 0.18489940504574309 0 0.29754082421041023 0.20050614797133701 0 0.31647527051185731 0.17987838039848661 0 0.29754082421041023 0.20050614797133701 0 0.31447121241945158 0.2031339555378269 0 0.31647527051185731 0.17987838039848661 0 0.30412232514116477 0.2139562740203495 0 0.31246715432704653 0.2263895306771673 0 0.31447121241945158 0.2031339555378269 0 0.29754082421041023 0.20050614797133701 0 0.30412232514116477 0.2139562740203495 0 0.31447121241945158 0.2031339555378269 0 0.27860637790896259 0.22113391554418721 0 0.28090358580906333 0.20045574477645681 0 0.29754082421041023 0.20050614797133701 0 0.27860637790896259 0.22113391554418721 0 0.29754082421041023 0.20050614797133701 0 0.27860637790896259 0.22113391554418721 0 0.29754082421041023 0.20050614797133701 0 0.30412232514116477 0.2139562740203495 0 0.27860637790896259 0.22113391554418721 0 0.30412232514116477 0.2139562740203495 0 0.29901687564109708 0.22732838822357501 0 0.27860637790896259 0.22113391554418721 0 0.29901687564109708 0.22732838822357501 0 0.2941259605415642 0.24030250257930669 0 0.30412232514116477 0.2139562740203495 0 0.31246715432704653 0.2263895306771673 0 0.29901687564109708 0.22732838822357501 0 0.31246715432704653 0.2263895306771673 0 0.29901687564109708 0.22732838822357501 0 0.3040182716860873 0.23591638182413921 0 0.31246715432704653 0.2263895306771673 0 0.3040182716860873 0.23591638182413921 0 0.31046309623464141 0.2496451058165077 0 0.31246715432704653 0.2263895306771673 0 0.31046309623464141 0.2496451058165077 0 0.30000345283656582 0.25532782759190992 0 0.31046309623464141 0.2496451058165077 0 0.2941259605415642 0.24030250257930669 0 0.29901687564109708 0.22732838822357501 0 0.3040182716860873 0.23591638182413921 0 0.2941259605415642 0.24030250257930669 0 0.3040182716860873 0.23591638182413921 0 0.31046309623464141 0.2496451058165077 0 0.2941259605415642 0.24030250257930669 0 0.28712225611058201 0.25613465002026359 0 0.27736957053038419 0.243396225256612 0 0.2941259605415642 0.24030250257930669 0 0.27736957053038419 0.243396225256612 0 0.27860637790896259 0.22113391554418721 0 0.2941259605415642 0.24030250257930669 0 0.34262842580625719 0.24529833056174449 0 0.33433865228339649 0.23886251263929509 0 0.33515886776269949 0.24608629757109779 0 0.33605928534923268 0.25431341460684859 0 0.34262842580625719 0.24529833056174449 0 0.33515886776269949 0.24608629757109779 0 0.34262842580625719 0.24529833056174449 0 0.34204132313232938 0.23695009540151579 0 0.33433865228339649 0.23886251263929509 0 0.34204132313232938 0.23695009540151579 0 0.33433865228339649 0.23886251263929509 0 0.33834453394281888 0.2316764175936801 0 0.33433865228339649 0.23886251263929509 0 0.32760910761191159 0.24587093247650291 0 0.32699955674371262 0.23470469740330449 0 0.33605928534923268 0.25431341460684859 0 0.33515886776269949 0.24608629757109779 0 0.32760910761191159 0.24587093247650291 0 0.33433865228339649 0.23886251263929509 0 0.33515886776269949 0.24608629757109779 0 0.32760910761191159 0.24587093247650291 0 0.32118765865205928 0.25793587681336599 0 0.31916320466721437 0.2330386313374451 0 0.31246715432704653 0.2263895306771673 0 0.31046309623464141 0.2496451058165077 0 0.31916320466721437 0.2330386313374451 0 0.32118765865205928 0.25793587681336599 0 0.32760910761191159 0.24587093247650291 0 0.31916320466721437 0.2330386313374451 0 0.32118765865205928 0.25793587681336599 0 0.31046309623464141 0.2496451058165077 0 0.31916320466721437 0.2330386313374451 0 0.32760910761191159 0.24587093247650291 0 0.32699955674371262 0.23470469740330449 0 0.31916320466721437 0.2330386313374451 0 0.31916320466721437 0.2330386313374451 0 0.32263477091259002 0.2201917532013252 0 0.31713875068236952 0.2081413858615242 0 0.32602040365813129 0.2272049076533128 0 0.31916320466721437 0.2330386313374451 0 0.32263477091259002 0.2201917532013252 0 0.32699955674371262 0.23470469740330449 0 0.32602040365813129 0.2272049076533128 0 0.31916320466721437 0.2330386313374451 0 0.31246715432704653 0.2263895306771673 0 0.31916320466721437 0.2330386313374451 0 0.31713875068236952 0.2081413858615242 0 0.31916320466721437 0.2330386313374451 0 0.31713875068236952 0.2081413858615242 0 0.32699955674371262 0.23470469740330449 0 0.32602040365813129 0.2272049076533128 0 0.33070282671121781 0.22850055946777589 0 0.32602040365813129 0.2272049076533128 0 0.32263477091259002 0.2201917532013252 0 0.33060165925592211 0.21958889685671321 0 0.33060165925592211 0.21958889685671321 0 0.33070282671121781 0.22850055946777589 0 0.34041461077993562 0.22365065838798839 0 0.32602040365813129 0.2272049076533128 0 0.33060165925592211 0.21958889685671321 0 0.33070282671121781 0.22850055946777589 0 0.33433865228339649 0.23886251263929509 0 0.33070282671121781 0.22850055946777589 0 0.33834453394281888 0.2316764175936801 0 0.33433865228339649 0.23886251263929509 0 0.32699955674371262 0.23470469740330449 0 0.33070282671121781 0.22850055946777589 0 0.33834453394281888 0.2316764175936801 0 0.34041461077993562 0.22365065838798839 0 0.34447730294292522 0.23077839247562471 0 0.33070282671121781 0.22850055946777589 0 0.33834453394281888 0.2316764175936801 0 0.34041461077993562 0.22365065838798839 0 0.34204132313232938 0.23695009540151579 0 0.33834453394281888 0.2316764175936801 0 0.34447730294292522 0.23077839247562471 0 0.33060165925592211 0.21958889685671321 0 0.34041461077993562 0.22365065838798839 0 0.34009638934666048 0.21411852122265801 0 0.34041461077993562 0.22365065838798839 0 0.34009638934666048 0.21411852122265801 0 0.34833605951438729 0.2169555197063216 0 0.34009638934666048 0.21411852122265801 0 0.34147126705000552 0.20457253065948161 0 0.33206472239018958 0.2110514857220698 0 0.34009638934666048 0.21411852122265801 0 0.34147126705000552 0.20457253065948161 0 0.34716417489064672 0.21054740486326939 0 0.34147126705000552 0.20457253065948161 0 0.33142647936405678 0.20330754440847029 0 0.33206472239018958 0.2110514857220698 0 0.33142647936405678 0.20330754440847029 0 0.33206472239018958 0.2110514857220698 0 0.32720131775551292 0.20746706989339639 0 0.33206472239018958 0.2110514857220698 0 0.32511430220603887 0.21235844889967159 0 0.32720131775551292 0.20746706989339639 0 0.33060165925592211 0.21958889685671321 0 0.34009638934666048 0.21411852122265801 0 0.33206472239018958 0.2110514857220698 0 0.33060165925592211 0.21958889685671321 0 0.33206472239018958 0.2110514857220698 0 0.32511430220603887 0.21235844889967159 0 0.31246715432704653 0.2263895306771673 0 0.31447121241945158 0.2031339555378269 0 0.32263477091259002 0.2201917532013252 0 0.32511430220603887 0.21235844889967159 0 0.31713875068236952 0.2081413858615242 0 0.31246715432704653 0.2263895306771673 0 0.31447121241945158 0.2031339555378269 0 0.31713875068236952 0.2081413858615242 0 0.32263477091259002 0.2201917532013252 0 0.33060165925592211 0.21958889685671321 0 0.32511430220603887 0.21235844889967159 0 0.31713875068236952 0.2081413858615242 0 0.31943741441433082 0.20336772396263139 0 0.32263958737866089 0.20682692438722139 0 0.31447121241945158 0.2031339555378269 0 0.31713875068236952 0.2081413858615242 0 0.31943741441433082 0.20336772396263139 0 0.31943741441433082 0.20336772396263139 0 0.32263958737866089 0.20682692438722139 0 0.32402770741945303 0.20181074017503001 0 0.32511430220603887 0.21235844889967159 0 0.31713875068236952 0.2081413858615242 0 0.32263958737866089 0.20682692438722139 0 0.32511430220603887 0.21235844889967159 0 0.32263958737866089 0.20682692438722139 0 0.32720131775551292 0.20746706989339639 0 0.33142647936405678 0.20330754440847029 0 0.32720131775551292 0.20746706989339639 0 0.32402770741945303 0.20181074017503001 0 0.32263958737866089 0.20682692438722139 0 0.32720131775551292 0.20746706989339639 0 0.32402770741945303 0.20181074017503001 0 0.31447121241945158 0.2031339555378269 0 0.31647527051185731 0.17987838039848661 0 0.31890981417171932 0.1969256138515546 0 0.32091472521652731 0.18806555994347521 0 0.31647527051185731 0.17987838039848661 0 0.33142647936405678 0.20330754440847029 0 0.32716159397589839 0.19622111244053611 0 0.32402770741945303 0.20181074017503001 0 0.31447121241945158 0.2031339555378269 0 0.31890981417171932 0.1969256138515546 0 0.31647527051185731 0.17987838039848661 0 0.32716159397589839 0.19622111244053611 0 0.32402770741945303 0.20181074017503001 0 0.31890981417171932 0.1969256138515546 0 0.31943741441433082 0.20336772396263139 0 0.32402770741945303 0.20181074017503001 0 0.31890981417171932 0.1969256138515546 0 0.31447121241945158 0.2031339555378269 0 0.31943741441433082 0.20336772396263139 0 0.31890981417171932 0.1969256138515546 0 0.31890981417171932 0.1969256138515546 0 0.32374059237976482 0.1905287336130051 0 0.32091472521652731 0.18806555994347521 0 0.32374059237976482 0.1905287336130051 0 0.32091472521652731 0.18806555994347521 0 0.3245332238027675 0.18492951191085449 0 0.32716159397589839 0.19622111244053611 0 0.31890981417171932 0.1969256138515546 0 0.32374059237976482 0.1905287336130051 0 0.32716159397589839 0.19622111244053611 0 0.32374059237976482 0.1905287336130051 0 0.3303644735257899 0.18879097768784209 0 0.32374059237976482 0.1905287336130051 0 0.3303644735257899 0.18879097768784209 0 0.3245332238027675 0.18492951191085449 0 0.3303644735257899 0.18879097768784209 0 0.33450049699460682 0.19596306490731449 0 0.3390635873261259 0.187275037183261 0 0.32716159397589839 0.19622111244053611 0 0.3303644735257899 0.18879097768784209 0 0.33450049699460682 0.19596306490731449 0 0.34147126705000552 0.20457253065948161 0 0.33142647936405678 0.20330754440847029 0 0.33450049699460682 0.19596306490731449 0 0.33142647936405678 0.20330754440847029 0 0.32716159397589839 0.19622111244053611 0 0.33450049699460682 0.19596306490731449 0 0.34147126705000552 0.20457253065948161 0 0.33450049699460682 0.19596306490731449 0 0.34472496450389711 0.1951510994640675 0 0.33450049699460682 0.19596306490731449 0 0.34472496450389711 0.1951510994640675 0 0.3390635873261259 0.187275037183261 0 0.34472496450389711 0.1951510994640675 0 0.3390635873261259 0.187275037183261 0 0.34877587036393992 0.18446706768090809 0 0.34472496450389711 0.1951510994640675 0 0.35463529159572588 0.1912121569080632 0 0.34877587036393992 0.18446706768090809 0 0.34472496450389711 0.1951510994640675 0 0.35463529159572588 0.1912121569080632 0 0.35289303128168148 0.20451558352477089 0 0.34147126705000552 0.20457253065948161 0 0.34472496450389711 0.1951510994640675 0 0.35289303128168148 0.20451558352477089 0 0.35463529159572588 0.1912121569080632 0 0.36383643124592308 0.1979711471575159 0 0.35289303128168148 0.20451558352477089 0 0.36383643124592308 0.1979711471575159 0 0.35289303128168148 0.20451558352477089 0 0.35463529159572588 0.1912121569080632 0 0.36383643124592308 0.1979711471575159 0 0.3629461605831879 0.1739558867130537 0 0.36383643124592308 0.1979711471575159 0 0.37304449197202222 0.17950521829296179 0 0.37616836505937379 0.19059633161654679 0 0.36383643124592308 0.1979711471575159 0 0.36418495238250131 0.20737258675972781 0 0.37616836505937379 0.19059633161654679 0 0.36418495238250131 0.20737258675972781 0 0.37616836505937379 0.19059633161654679 0 0.36418495238250131 0.20737258675972781 0 0.3768453168999365 0.20430791584601371 0 0.37616836505937379 0.19059633161654679 0 0.36383643124592308 0.1979711471575159 0 0.37616836505937379 0.19059633161654679 0 0.36383643124592308 0.1979711471575159 0 0.36418495238250131 0.20737258675972781 0 0.36418495238250131 0.20737258675972781 0 0.36044489958897707 0.21260849756452041 0 0.3650050256489078 0.2294942559336674 0 0.36383643124592308 0.1979711471575159 0 0.36418495238250131 0.20737258675972781 0 0.35289303128168148 0.20451558352477089 0 0.36418495238250131 0.20737258675972781 0 0.37397469500578617 0.2180857058977077 0 0.3650050256489078 0.2294942559336674 0 0.36418495238250131 0.20737258675972781 0 0.3650050256489078 0.2294942559336674 0 0.36418495238250131 0.20737258675972781 0 0.36044489958897707 0.21260849756452041 0 0.36418495238250131 0.20737258675972781 0 0.37397469500578617 0.2180857058977077 0 0.3768453168999365 0.20430791584601371 0 0.3530241272604987 0.212574869203115 0 0.34833605951438729 0.2169555197063216 0 0.35628875115326242 0.2199422734098388 0 0.36044489958897707 0.21260849756452041 0 0.3530241272604987 0.212574869203115 0 0.35628875115326242 0.2199422734098388 0 0.36418495238250131 0.20737258675972781 0 0.36044489958897707 0.21260849756452041 0 0.35289303128168148 0.20451558352477089 0 0.36044489958897707 0.21260849756452041 0 0.3530241272604987 0.212574869203115 0 0.35289303128168148 0.20451558352477089 0 0.3530241272604987 0.212574869203115 0 0.35289303128168148 0.20451558352477089 0 0.34716417489064672 0.21054740486326939 0 0.34147126705000552 0.20457253065948161 0 0.35289303128168148 0.20451558352477089 0 0.34716417489064672 0.21054740486326939 0 0.34009638934666048 0.21411852122265801 0 0.34716417489064672 0.21054740486326939 0 0.34833605951438729 0.2169555197063216 0 0.3530241272604987 0.212574869203115 0 0.34716417489064672 0.21054740486326939 0 0.34833605951438729 0.2169555197063216 0 0.34041461077993562 0.22365065838798839 0 0.34833605951438729 0.2169555197063216 0 0.35088295683975051 0.22622739831375169 0 0.35088295683975051 0.22622739831375169 0 0.34447730294292522 0.23077839247562471 0 0.35084889197837671 0.2376991872569513 0 0.34041461077993562 0.22365065838798839 0 0.35088295683975051 0.22622739831375169 0 0.34447730294292522 0.23077839247562471 0 0.35088295683975051 0.22622739831375169 0 0.3650050256489078 0.2294942559336674 0 0.35084889197837671 0.2376991872569513 0 0.34833605951438729 0.2169555197063216 0 0.35088295683975051 0.22622739831375169 0 0.35628875115326242 0.2199422734098388 0 0.35088295683975051 0.22622739831375169 0 0.35628875115326242 0.2199422734098388 0 0.3650050256489078 0.2294942559336674 0 0.36044489958897707 0.21260849756452041 0 0.35628875115326242 0.2199422734098388 0 0.3650050256489078 0.2294942559336674 0 0.37397469500578617 0.2180857058977077 0 0.3650050256489078 0.2294942559336674 0 0.37881466647912171 0.2358080875229811 0 0.36582509891531428 0.251615925107607 0 0.3650050256489078 0.2294942559336674 0 0.36582509891531428 0.251615925107607 0 0.3650050256489078 0.2294942559336674 0 0.37881466647912171 0.2358080875229811 0 0.36582509891531428 0.251615925107607 0 0.3650050256489078 0.2294942559336674 0 0.35084889197837671 0.2376991872569513 0 0.36582509891531428 0.251615925107607 0 0.35014248149949673 0.25448705813839412 0 0.35084889197837671 0.2376991872569513 0 0.35014248149949673 0.25448705813839412 0 0.34262842580625719 0.24529833056174449 0 0.35084889197837671 0.2376991872569513 0 0.34262842580625719 0.24529833056174449 0 0.34204132313232938 0.23695009540151579 0 0.35084889197837671 0.2376991872569513 0 0.34204132313232938 0.23695009540151579 0 0.34447730294292522 0.23077839247562471 0 0.35084889197837671 0.2376991872569513 0 0.33533612626091203 0.1593307846345271 0 0.34458186416304332 0.1421237390248592 0 0.35016151586644712 0.15227764691526741 0 0.32437610098683128 0.14551040343652291 0 0.33533612626091203 0.1593307846345271 0 0.34458186416304332 0.1421237390248592 0 0.33467699207303542 0.13183731917495731 0 0.32437610098683128 0.14551040343652291 0 0.34458186416304332 0.1421237390248592 0 0.34989639117378107 0.12288321823510689 0 0.33467699207303542 0.13183731917495731 0 0.34458186416304332 0.1421237390248592 0 0.33467699207303542 0.13183731917495731 0 0.32361635708644432 0.13438322000681879 0 0.32437610098683128 0.14551040343652291 0 0.32361635708644432 0.13438322000681879 0 0.31312879216139972 0.13431369364685669 0 0.32437610098683128 0.14551040343652291 0 0.32361635708644432 0.13438322000681879 0 0.32480013764604709 0.12574984988950891 0 0.31670489908083821 0.1268617712404555 0 0.33467699207303542 0.13183731917495731 0 0.32361635708644432 0.13438322000681879 0 0.32480013764604709 0.12574984988950891 0 0.32361635708644432 0.13438322000681879 0 0.31670489908083821 0.1268617712404555 0 0.31312879216139972 0.13431369364685669 0 0.30936457667023531 0.14380995453263939 0 0.31312879216139972 0.13431369364685669 0 0.32437610098683128 0.14551040343652291 0 0.30936457667023531 0.14380995453263939 0 0.32437610098683128 0.14551040343652291 0 0.31740045247937237 0.1530450620499037 0 0.32437610098683128 0.14551040343652291 0 0.31740045247937237 0.1530450620499037 0 0.33533612626091203 0.1593307846345271 0 0.31626169106977498 0.162188866534376 0 0.31712226881559669 0.17237045549118421 0 0.33533612626091203 0.1593307846345271 0 0.31647527051185731 0.17987838039848661 0 0.31712226881559669 0.17237045549118421 0 0.33533612626091203 0.1593307846345271 0 0.31740045247937237 0.1530450620499037 0 0.31626169106977498 0.162188866534376 0 0.33533612626091203 0.1593307846345271 0 0.31647527051185731 0.17987838039848661 0 0.33533612626091203 0.1593307846345271 0 0.30966468274200798 0.15944463522999711 0 0.31740045247937237 0.1530450620499037 0 0.31626169106977498 0.162188866534376 0 0.31076504066646737 0.1710375803934496 0 0.31626169106977498 0.162188866534376 0 0.31712226881559669 0.17237045549118421 0 0.31647527051185731 0.17987838039848661 0 0.3245332238027675 0.18492951191085449 0 0.33402587024523223 0.1783464142594848 0 0.31076504066646737 0.1710375803934496 0 0.31647527051185731 0.17987838039848661 0 0.31712226881559669 0.17237045549118421 0 0.31647527051185731 0.17987838039848661 0 0.31712226881559669 0.17237045549118421 0 0.32091472521652731 0.18806555994347521 0 0.31647527051185731 0.17987838039848661 0 0.3245332238027675 0.18492951191085449 0 0.31647527051185731 0.17987838039848661 0 0.33402587024523223 0.1783464142594848 0 0.33533612626091203 0.1593307846345271 0 0.3303644735257899 0.18879097768784209 0 0.33402587024523223 0.1783464142594848 0 0.3390635873261259 0.187275037183261 0 0.3303644735257899 0.18879097768784209 0 0.3245332238027675 0.18492951191085449 0 0.33402587024523223 0.1783464142594848 0 0.33402587024523223 0.1783464142594848 0 0.34291202976172253 0.1799521980561557 0 0.34774270263407409 0.1712549686069611 0 0.33402587024523223 0.1783464142594848 0 0.34291202976172253 0.1799521980561557 0 0.3390635873261259 0.187275037183261 0 0.34291202976172253 0.1799521980561557 0 0.3390635873261259 0.187275037183261 0 0.34877587036393992 0.18446706768090809 0 0.33402587024523223 0.1783464142594848 0 0.33533612626091203 0.1593307846345271 0 0.34774270263407409 0.1712549686069611 0 0.34774270263407409 0.1712549686069611 0 0.35572656725104052 0.1618572821259685 0 0.35016151586644712 0.15227764691526741 0 0.33533612626091203 0.1593307846345271 0 0.34774270263407409 0.1712549686069611 0 0.35016151586644712 0.15227764691526741 0 0.34774270263407409 0.1712549686069611 0 0.35572656725104052 0.1618572821259685 0 0.3629461605831879 0.1739558867130537 0 0.35463529159572588 0.1912121569080632 0 0.34877587036393992 0.18446706768090809 0 0.3629461605831879 0.1739558867130537 0 0.34291202976172253 0.1799521980561557 0 0.34774270263407409 0.1712549686069611 0 0.34877587036393992 0.18446706768090809 0 0.34774270263407409 0.1712549686069611 0 0.34877587036393992 0.18446706768090809 0 0.3629461605831879 0.1739558867130537 0 0.36383643124592308 0.1979711471575159 0 0.3629461605831879 0.1739558867130537 0 0.37304449197202222 0.17950521829296179 0 0.36383643124592308 0.1979711471575159 0 0.3629461605831879 0.1739558867130537 0 0.3629461605831879 0.1739558867130537 0 0.37304449197202222 0.17950521829296179 0 0.37758762179940758 0.1689160092009668 0 0.35572656725104052 0.1618572821259685 0 0.3629461605831879 0.1739558867130537 0 0.36205588992045268 0.1499406262685917 0 0.3629461605831879 0.1739558867130537 0 0.36205588992045268 0.1499406262685917 0 0.36374200648659433 0.14589961371803681 0 0.37758762179940758 0.1689160092009668 0 0.3629461605831879 0.1739558867130537 0 0.36658291969741058 0.1596780339751622 0 0.36205588992045268 0.1499406262685917 0 0.36658291969741058 0.1596780339751622 0 0.36374200648659433 0.14589961371803681 0 0.37758762179940758 0.1689160092009668 0 0.3629461605831879 0.1739558867130537 0 0.36658291969741058 0.1596780339751622 0 0.37758762179940758 0.1689160092009668 0 0.3731934717237741 0.15093200941279081 0 0.36374200648659433 0.14589961371803681 0 0.37758762179940758 0.1689160092009668 0 0.3731934717237741 0.15093200941279081 0 0.36959743520416349 0.1409040000159418 0 0.36374200648659433 0.14589961371803681 0 0.36959743520416349 0.1409040000159418 0 0.37452292202397808 0.13709573841057701 0 0.37661949936533551 0.14523386550784179 0 0.3731934717237741 0.15093200941279081 0 0.36959743520416349 0.1409040000159418 0 0.37661949936533551 0.14523386550784179 0 0.36658291969741058 0.1596780339751622 0 0.36374200648659433 0.14589961371803681 0 0.36205588992045268 0.1499406262685917 0 0.35572656725104052 0.1618572821259685 0 0.36205588992045268 0.1499406262685917 0 0.35016151586644712 0.15227764691526741 0 0.36374200648659433 0.14589961371803681 0 0.36205588992045268 0.1499406262685917 0 0.35016151586644712 0.15227764691526741 0 0.36374200648659433 0.14589961371803681 0 0.34458186416304332 0.1421237390248592 0 0.35016151586644712 0.15227764691526741 0 0.34989639117378107 0.12288321823510689 0 0.36374200648659433 0.14589961371803681 0 0.34458186416304332 0.1421237390248592 0 0.34989639117378107 0.12288321823510689 0 0.36374200648659433 0.14589961371803681 0 0.34989639117378107 0.12288321823510689 0 0.36374200648659433 0.14589961371803681 0 0.36649422837966628 0.13042877741932421 0 0.36959743520416349 0.1409040000159418 0 0.36374200648659433 0.14589961371803681 0 0.36649422837966628 0.13042877741932421 0 0.36959743520416349 0.1409040000159418 0 0.36649422837966628 0.13042877741932421 0 0.37452292202397808 0.13709573841057701 0 0.36649422837966628 0.13042877741932421 0 0.37452292202397808 0.13709573841057701 0 0.37963034586633759 0.12610643494208459 0 0.37963034586633759 0.12610643494208459 0 0.385056107912498 0.13987120563845959 0 0.39614177832586428 0.13257014357362959 0 0.37963034586633759 0.12610643494208459 0 0.39614177832586428 0.13257014357362959 0 0.39119670320272859 0.1183022248635574 0 0.37452292202397808 0.13709573841057701 0 0.37963034586633759 0.12610643494208459 0 0.385056107912498 0.13987120563845959 0 0.39614177832586428 0.13257014357362959 0 0.40840930946528908 0.14546041549687491 0 0.40951185122170819 0.12046736827760859 0 0.385056107912498 0.13987120563845959 0 0.39614177832586428 0.13257014357362959 0 0.39294775373552798 0.14807475371088369 0 0.39294775373552798 0.14807475371088369 0 0.39228883726233149 0.16802837355671091 0 0.40840930946528908 0.14546041549687491 0 0.39614177832586428 0.13257014357362959 0 0.39294775373552798 0.14807475371088369 0 0.40840930946528908 0.14546041549687491 0 0.39294775373552798 0.14807475371088369 0 0.38379334042871061 0.14951028794367119 0 0.38544673612441049 0.15759183443369901 0 0.385056107912498 0.13987120563845959 0 0.39294775373552798 0.14807475371088369 0 0.38379334042871061 0.14951028794367119 0 0.37452292202397808 0.13709573841057701 0 0.385056107912498 0.13987120563845959 0 0.37661949936533551 0.14523386550784179 0 0.385056107912498 0.13987120563845959 0 0.38379334042871061 0.14951028794367119 0 0.37661949936533551 0.14523386550784179 0 0.38379334042871061 0.14951028794367119 0 0.3784207957633694 0.15370655862116661 0 0.38544673612441049 0.15759183443369901 0 0.3731934717237741 0.15093200941279081 0 0.37661949936533551 0.14523386550784179 0 0.3784207957633694 0.15370655862116661 0 0.38379334042871061 0.14951028794367119 0 0.37661949936533551 0.14523386550784179 0 0.3784207957633694 0.15370655862116661 0 0.3731934717237741 0.15093200941279081 0 0.3784207957633694 0.15370655862116661 0 0.37758762179940758 0.1689160092009668 0 0.39294775373552798 0.14807475371088369 0 0.38544673612441049 0.15759183443369901 0 0.39228883726233149 0.16802837355671091 0 0.3784207957633694 0.15370655862116661 0 0.37758762179940758 0.1689160092009668 0 0.38544673612441049 0.15759183443369901 0 0.37758762179940758 0.1689160092009668 0 0.38544673612441049 0.15759183443369901 0 0.39228883726233149 0.16802837355671091 0 0.37304449197202222 0.17950521829296179 0 0.39228883726233149 0.16802837355671091 0 0.37616836505937379 0.19059633161654679 0 0.39605454023604381 0.17870388425493419 0 0.37616836505937379 0.19059633161654679 0 0.39228883726233149 0.16802837355671091 0 0.37616836505937379 0.19059633161654679 0 0.39605454023604381 0.17870388425493419 0 0.39449331200550891 0.1761394563935568 0 0.37616836505937379 0.19059633161654679 0 0.39449331200550891 0.1761394563935568 0 0.39228883726233149 0.16802837355671091 0 0.37616836505937379 0.19059633161654679 0 0.37304449197202222 0.17950521829296179 0 0.37758762179940758 0.1689160092009668 0 0.39228883726233149 0.16802837355671091 0 0.39605454023604381 0.17870388425493419 0 0.39449331200550891 0.1761394563935568 0 0.40093475507880599 0.17003365197747139 0 0.39605454023604381 0.17870388425493419 0 0.39449331200550891 0.1761394563935568 0 0.39605454023604381 0.17870388425493419 0 0.40979871361055248 0.17048451291112021 0 0.39605454023604381 0.17870388425493419 0 0.40093475507880599 0.17003365197747139 0 0.40979871361055248 0.17048451291112021 0 0.39228883726233149 0.16802837355671091 0 0.40840930946528908 0.14546041549687491 0 0.39228883726233149 0.16802837355671091 0 0.40093475507880599 0.17003365197747139 0 0.40840930946528908 0.14546041549687491 0 0.39449331200550891 0.1761394563935568 0 0.39228883726233149 0.16802837355671091 0 0.40093475507880599 0.17003365197747139 0 0.40979871361055248 0.17048451291112021 0 0.42354288698506071 0.1622651415673054 0 0.40840930946528908 0.14546041549687491 0 0.40093475507880599 0.17003365197747139 0 0.40979871361055248 0.17048451291112021 0 0.40840930946528908 0.14546041549687491 0 0.40979871361055248 0.17048451291112021 0 0.42354288698506071 0.1622651415673054 0 0.40979871361055248 0.17048451291112021 0 0.42266698961276722 0.17531638399390631 0 0.42354288698506071 0.1622651415673054 0 0.39605454023604381 0.17870388425493419 0 0.40979871361055248 0.17048451291112021 0 0.41298565736590981 0.18306490182424659 0 0.40979871361055248 0.17048451291112021 0 0.41298565736590981 0.18306490182424659 0 0.42266698961276722 0.17531638399390631 0 0.41298565736590981 0.18306490182424659 0 0.42266698961276722 0.17531638399390631 0 0.42682851701413671 0.18883976769731869 0 0.42682851701413671 0.18883976769731869 0 0.44338543303475098 0.19031700585182421 0 0.44017917308817622 0.1719275959695408 0 0.42266698961276722 0.17531638399390631 0 0.42682851701413671 0.18883976769731869 0 0.44017917308817622 0.1719275959695408 0 0.42266698961276722 0.17531638399390631 0 0.42354288698506071 0.1622651415673054 0 0.44017917308817622 0.1719275959695408 0 0.42354288698506071 0.1622651415673054 0 0.43706052096127229 0.15490445582282161 0 0.44017917308817622 0.1719275959695408 0 0.42354288698506071 0.1622651415673054 0 0.43706052096127229 0.15490445582282161 0 0.43095574648572832 0.13900255484327931 0 0.43095574648572832 0.13900255484327931 0 0.40840930946528908 0.14546041549687491 0 0.40951185122170819 0.12046736827760859 0 0.42354288698506071 0.1622651415673054 0 0.43095574648572832 0.13900255484327931 0 0.40840930946528908 0.14546041549687491 0 0.38901910487957519 0.25250347525939432 0 0.40388937553625259 0.24281789912719889 0 0.39386200474537558 0.2317058056924079 0 0.40388937553625259 0.24281789912719889 0 0.39386200474537558 0.2317058056924079 0 0.40931956387541618 0.22879428246397401 0 0.38901910487957519 0.25250347525939432 0 0.37881466647912171 0.2358080875229811 0 0.39386200474537558 0.2317058056924079 0 0.36582509891531428 0.251615925107607 0 0.38901910487957519 0.25250347525939432 0 0.37881466647912171 0.2358080875229811 0 0.37397469500578617 0.2180857058977077 0 0.37881466647912171 0.2358080875229811 0 0.38639532252655351 0.22231923417935959 0 0.37881466647912171 0.2358080875229811 0 0.38639532252655351 0.22231923417935959 0 0.39386200474537558 0.2317058056924079 0 0.38639532252655351 0.22231923417935959 0 0.39386200474537558 0.2317058056924079 0 0.39851988720351339 0.2174532878708044 0 0.39386200474537558 0.2317058056924079 0 0.40931956387541618 0.22879428246397401 0 0.39386200474537558 0.2317058056924079 0 0.39851988720351339 0.2174532878708044 0 0.40931956387541618 0.22879428246397401 0 0.39851988720351339 0.2174532878708044 0 0.41041583162075018 0.20229332174523679 0 0.40931956387541618 0.22879428246397401 0 0.39851988720351339 0.2174532878708044 0 0.39717023272067709 0.20582828930472261 0 0.41041583162075018 0.20229332174523679 0 0.39851988720351339 0.2174532878708044 0 0.39717023272067709 0.20582828930472261 0 0.38680535919897058 0.208543283912897 0 0.38639532252655351 0.22231923417935959 0 0.39851988720351339 0.2174532878708044 0 0.38680535919897058 0.208543283912897 0 0.37397469500578617 0.2180857058977077 0 0.38639532252655351 0.22231923417935959 0 0.38680535919897058 0.208543283912897 0 0.37397469500578617 0.2180857058977077 0 0.3768453168999365 0.20430791584601371 0 0.38680535919897058 0.208543283912897 0 0.3768453168999365 0.20430791584601371 0 0.38680535919897058 0.208543283912897 0 0.38304298505402762 0.19884047852772579 0 0.39605454023604381 0.17870388425493419 0 0.37616836505937379 0.19059633161654679 0 0.39227253457939282 0.19495247471070401 0 0.38680535919897058 0.208543283912897 0 0.38304298505402762 0.19884047852772579 0 0.39227253457939282 0.19495247471070401 0 0.38304298505402762 0.19884047852772579 0 0.37616836505937379 0.19059633161654679 0 0.39227253457939282 0.19495247471070401 0 0.3768453168999365 0.20430791584601371 0 0.38304298505402762 0.19884047852772579 0 0.37616836505937379 0.19059633161654679 0 0.39605454023604381 0.17870388425493419 0 0.39227253457939282 0.19495247471070401 0 0.41041583162075018 0.20229332174523679 0 0.39605454023604381 0.17870388425493419 0 0.41041583162075018 0.20229332174523679 0 0.39717023272067709 0.20582828930472261 0 0.39227253457939282 0.19495247471070401 0 0.41041583162075018 0.20229332174523679 0 0.39717023272067709 0.20582828930472261 0 0.38680535919897058 0.208543283912897 0 0.39227253457939282 0.19495247471070401 0 0.39605454023604381 0.17870388425493419 0 0.41298565736590981 0.18306490182424659 0 0.41041583162075018 0.20229332174523679 0 0.41298565736590981 0.18306490182424659 0 0.41041583162075018 0.20229332174523679 0 0.42682851701413671 0.18883976769731869 0 0.41041583162075018 0.20229332174523679 0 0.42682851701413671 0.18883976769731869 0 0.434136120741547 0.2066482149880266 0 0.42682851701413671 0.18883976769731869 0 0.434136120741547 0.2066482149880266 0 0.44338543303475098 0.19031700585182421 0 0.434136120741547 0.2066482149880266 0 0.42477712300545672 0.22588275923553949 0 0.44985141533697143 0.2211598670928944 0 0.41041583162075018 0.20229332174523679 0 0.434136120741547 0.2066482149880266 0 0.42477712300545672 0.22588275923553949 0 0.41041583162075018 0.20229332174523679 0 0.42477712300545672 0.22588275923553949 0 0.41041583162075018 0.20229332174523679 0 0.40931956387541618 0.22879428246397401 0 0.42477712300545672 0.22588275923553949 0 0.40931956387541618 0.22879428246397401 0 0.42477712300545672 0.22588275923553949 0 0.41732352301285458 0.24327750910119431 0 0.40931956387541618 0.22879428246397401 0 0.42477712300545672 0.22588275923553949 0 0.42477712300545672 0.22588275923553949 0 0.44985141533697143 0.2211598670928944 0 0.42477712300545672 0.22588275923553949 0 0.43362072873974877 0.2404090075421591 0 0.44985141533697143 0.2211598670928944 0 0.42477712300545672 0.22588275923553949 0 0.43362072873974877 0.2404090075421591 0 0.42603453916873191 0.25345947085399723 0 0.44246433447404082 0.25493525584877869 0 0.43362072873974877 0.2404090075421591 0 0.42603453916873191 0.25345947085399723 0 0.43362072873974877 0.2404090075421591 0 0.41732352301285458 0.24327750910119431 0 0.42477712300545672 0.22588275923553949 0 0.43362072873974877 0.2404090075421591 0 0.41732352301285458 0.24327750910119431 0 0.40388937553625259 0.24281789912719889 0 0.40931956387541618 0.22879428246397401 0 0.41732352301285458 0.24327750910119431 0 0.40992268116804143 0.25780842311902408 0 0.40388937553625259 0.24281789912719889 0 0.41732352301285458 0.24327750910119431 0 0.5 0.28105446247922711 0 0.50000000000000067 0.2117140828076032 0 0.4730447629479434 0.23934859266800659 0 0.46316256832110181 0.26553399154927931 0 0.4524287619639612 0.2442773429402236 0 0.4730447629479434 0.23934859266800659 0 0.4524287619639612 0.2442773429402236 0 0.44985141533697143 0.2211598670928944 0 0.4730447629479434 0.23934859266800659 0 0.43362072873974877 0.2404090075421591 0 0.4524287619639612 0.2442773429402236 0 0.44985141533697143 0.2211598670928944 0 0.44246433447404082 0.25493525584877869 0 0.43362072873974877 0.2404090075421591 0 0.4524287619639612 0.2442773429402236 0 0.44246433447404082 0.25493525584877869 0 0.43362072873974877 0.2404090075421591 0 0.44985141533697143 0.2211598670928944 0 0.47492570766848602 0.21643697495024891 0 0.4730447629479434 0.23934859266800659 0 0.44985141533697143 0.2211598670928944 0 0.47492570766848602 0.21643697495024891 0 0.44985141533697143 0.2211598670928944 0 0.45652490340716961 0.20217447938393521 0 0.47492570766848602 0.21643697495024891 0 0.434136120741547 0.2066482149880266 0 0.44985141533697143 0.2211598670928944 0 0.45652490340716961 0.20217447938393521 0 0.434136120741547 0.2066482149880266 0 0.44338543303475098 0.19031700585182421 0 0.45652490340716961 0.20217447938393521 0 0.44338543303475098 0.19031700585182421 0 0.45652490340716961 0.20217447938393521 0 0.45925845092272521 0.1819949712202994 0 0.45652490340716961 0.20217447938393521 0 0.47804693069697329 0.1936920419086807 0 0.45925845092272521 0.1819949712202994 0 0.47804693069697329 0.1936920419086807 0 0.50000000000000067 0.2117140828076032 0 0.5 0.1820397020660339 0 0.50000000000000067 0.2117140828076032 0 0.47492570766848602 0.21643697495024891 0 0.47804693069697329 0.1936920419086807 0 0.50000000000000067 0.2117140828076032 0 0.47492570766848602 0.21643697495024891 0 0.45652490340716961 0.20217447938393521 0 0.47804693069697329 0.1936920419086807 0 0.47492570766848602 0.21643697495024891 0 0.50000000000000067 0.2117140828076032 0 0.47492570766848602 0.21643697495024891 0 0.4730447629479434 0.23934859266800659 0 0.45300757796569568 0.15140776929833241 0 0.47464256746854039 0.16674341509508631 0 0.47515101731226139 0.13908704675707181 0 0.45171749367956221 0.12593844671664259 0 0.45300757796569568 0.15140776929833241 0 0.47515101731226139 0.13908704675707181 0 0.45171749367956221 0.12593844671664259 0 0.47515101731226139 0.13908704675707181 0 0.46977294460307079 0.11638486767879359 0 0.43095574648572832 0.13900255484327931 0 0.45171749367956221 0.12593844671664259 0 0.45300757796569568 0.15140776929833241 0 0.43095574648572832 0.13900255484327931 0 0.45171749367956221 0.12593844671664259 0 0.43223862605521779 0.1131834991158323 0 0.43706052096127229 0.15490445582282161 0 0.43095574648572832 0.13900255484327931 0 0.45300757796569568 0.15140776929833241 0 0.45300757796569568 0.15140776929833241 0 0.44017917308817622 0.1719275959695408 0 0.45677194236128438 0.16801843789581469 0 0.43706052096127229 0.15490445582282161 0 0.45300757796569568 0.15140776929833241 0 0.44017917308817622 0.1719275959695408 0 0.44338543303475098 0.19031700585182421 0 0.44017917308817622 0.1719275959695408 0 0.45925845092272521 0.1819949712202994 0 0.44017917308817622 0.1719275959695408 0 0.45925845092272521 0.1819949712202994 0 0.45677194236128438 0.16801843789581469 0 0.45925845092272521 0.1819949712202994 0 0.45677194236128438 0.16801843789581469 0 0.47464256746854039 0.16674341509508631 0 0.45300757796569568 0.15140776929833241 0 0.45677194236128438 0.16801843789581469 0 0.47464256746854039 0.16674341509508631 0 0.47804693069697329 0.1936920419086807 0 0.45925845092272521 0.1819949712202994 0 0.47464256746854039 0.16674341509508631 0 0.47804693069697329 0.1936920419086807 0 0.47464256746854039 0.16674341509508631 0 0.5 0.1820397020660339 0 0.47464256746854039 0.16674341509508631 0 0.5 0.1820397020660339 0 0.5 0.1523653213244647 0 0.47464256746854039 0.16674341509508631 0 0.5 0.1523653213244647 0 0.47515101731226139 0.13908704675707181 0 0.47515101731226139 0.13908704675707181 0 0.5 0.1226909405828954 0 0.46977294460307079 0.11638486767879359 0 0.5 0.1523653213244647 0 0.47515101731226139 0.13908704675707181 0 0.5 0.1226909405828954 0 0.5 0.1226909405828954 0 0.48435232995745792 0.1033921318849442 0 0.46977294460307079 0.11638486767879359 0 0.5 0.1226909405828954 0 0.48435232995745792 0.1033921318849442 0 0.5 0.093016559841326174 0 0.48435232995745792 0.1033921318849442 0 0.46977294460307079 0.11638486767879359 0 0.46714866721127418 0.095002683033460003 0 0.5 0.063342179099756923 0 0.48191827071576548 0.080700241898728264 0 0.47319588035600851 0.062547933831014396 0 0.5 0.063342179099756923 0 0.5 0.093016559841326174 0 0.48191827071576548 0.080700241898728264 0 0.48435232995745792 0.1033921318849442 0 0.5 0.093016559841326174 0 0.48191827071576548 0.080700241898728264 0 0.48435232995745792 0.1033921318849442 0 0.48191827071576548 0.080700241898728264 0 0.46714866721127418 0.095002683033460003 0 0.48191827071576548 0.080700241898728264 0 0.46295340176831118 0.07625505887197076 0 0.46714866721127418 0.095002683033460003 0 0.48191827071576548 0.080700241898728264 0 0.47319588035600851 0.062547933831014396 0 0.46295340176831118 0.07625505887197076 0 0.46295340176831118 0.07625505887197076 0 0.4461353299715683 0.071486104706107195 0 0.45907056354986581 0.061587340699094127 0 0.47319588035600851 0.062547933831014396 0 0.46295340176831118 0.07625505887197076 0 0.45907056354986581 0.061587340699094127 0 0.46295340176831118 0.07625505887197076 0 0.45025169880538551 0.086206049063420623 0 0.46714866721127418 0.095002683033460003 0 0.45025169880538551 0.086206049063420623 0 0.43698076577359157 0.095467766270137977 0 0.43550074018970869 0.082647983097021149 0 0.45025169880538551 0.086206049063420623 0 0.4461353299715683 0.071486104706107195 0 0.43550074018970869 0.082647983097021149 0 0.46295340176831118 0.07625505887197076 0 0.45025169880538551 0.086206049063420623 0 0.4461353299715683 0.071486104706107195 0 0.4461353299715683 0.071486104706107195 0 0.42824470093199418 0.071005042124450676 0 0.44348800755926088 0.04830643868701831 0 0.45171749367956221 0.12593844671664259 0 0.46977294460307079 0.11638486767879359 0 0.45135169935468361 0.1053638853130479 0 0.45025169880538551 0.086206049063420623 0 0.46714866721127418 0.095002683033460003 0 0.45135169935468361 0.1053638853130479 0 0.46977294460307079 0.11638486767879359 0 0.46714866721127418 0.095002683033460003 0 0.45135169935468361 0.1053638853130479 0 0.45025169880538551 0.086206049063420623 0 0.45135169935468361 0.1053638853130479 0 0.43698076577359157 0.095467766270137977 0 0.45135169935468361 0.1053638853130479 0 0.43223862605521779 0.1131834991158323 0 0.43698076577359157 0.095467766270137977 0 0.45171749367956221 0.12593844671664259 0 0.45135169935468361 0.1053638853130479 0 0.43223862605521779 0.1131834991158323 0 0.43095574648572832 0.13900255484327931 0 0.43223862605521779 0.1131834991158323 0 0.40951185122170819 0.12046736827760859 0 0.43223862605521779 0.1131834991158323 0 0.40951185122170819 0.12046736827760859 0 0.41300139430472799 0.093703645561883181 0 0.43223862605521779 0.1131834991158323 0 0.43698076577359157 0.095467766270137977 0 0.41300139430472799 0.093703645561883181 0 0.43698076577359157 0.095467766270137977 0 0.43550074018970869 0.082647983097021149 0 0.41300139430472799 0.093703645561883181 0 0.43550074018970869 0.082647983097021149 0 0.42824470093199418 0.071005042124450676 0 0.41300139430472799 0.093703645561883181 0 0.4461353299715683 0.071486104706107195 0 0.43550074018970869 0.082647983097021149 0 0.42824470093199418 0.071005042124450676 0 0.40276406653713209 0.069274429422051836 0 0.42312603704819662 0.058790434054535309 0 0.42824470093199418 0.071005042124450676 0 0.40276406653713209 0.069274429422051836 0 0.42312603704819662 0.058790434054535309 0 0.42824470093199418 0.071005042124450676 0 0.41300139430472799 0.093703645561883181 0 0.40276406653713209 0.069274429422051836 0 0.42824470093199418 0.071005042124450676 0 0.41300139430472799 0.093703645561883181 0 0.41300139430472799 0.093703645561883181 0 0.39719578220910479 0.086113563792800607 0 0.40276406653713209 0.069274429422051836 0 0.39719578220910479 0.086113563792800607 0 0.40276406653713209 0.069274429422051836 0 0.38240209602606767 0.07975842478956835 0 0.40276406653713209 0.069274429422051836 0 0.38240209602606767 0.07975842478956835 0 0.39083016817518651 0.056585884350158093 0 0.40276406653713209 0.069274429422051836 0 0.38240209602606767 0.07975842478956835 0 0.37399145109802567 0.058827664132880292 0 0.38240209602606767 0.07975842478956835 0 0.39083016817518651 0.056585884350158093 0 0.39719578220910479 0.086113563792800607 0 0.38240209602606767 0.07975842478956835 0 0.39061557196849161 0.10171775539769901 0 0.36348470214603851 0.097320823277992699 0 0.38240209602606767 0.07975842478956835 0 0.39061557196849161 0.10171775539769901 0 0.36348470214603851 0.097320823277992699 0 0.39061557196849161 0.10171775539769901 0 0.37798951698323069 0.1118300122611573 0 0.36348470214603851 0.097320823277992699 0 0.39061557196849161 0.10171775539769901 0 0.39061557196849161 0.10171775539769901 0 0.37798951698323069 0.1118300122611573 0 0.39119670320272859 0.1183022248635574 0 0.37963034586633759 0.12610643494208459 0 0.37798951698323069 0.1118300122611573 0 0.39119670320272859 0.1183022248635574 0 0.40951185122170819 0.12046736827760859 0 0.39061557196849161 0.10171775539769901 0 0.39119670320272859 0.1183022248635574 0 0.39614177832586428 0.13257014357362959 0 0.40951185122170819 0.12046736827760859 0 0.39119670320272859 0.1183022248635574 0 0.41300139430472799 0.093703645561883181 0 0.39719578220910479 0.086113563792800607 0 0.39061557196849161 0.10171775539769901 0 0.40951185122170819 0.12046736827760859 0 0.41300139430472799 0.093703645561883181 0 0.39061557196849161 0.10171775539769901 0 0.40062918443100248 0.029791246447515778 0 0.39484193382565458 0.015380282064663591 0 0.4113903279631671 0.021607982747009171 0 0.40062918443100248 0.029791246447515778 0 0.39484193382565458 0.015380282064663591 0 0.38612820305325918 0.035445972839830538 0 0.39484193382565458 0.015380282064663591 0 0.39744114710291661 0.0001130861356555651 0 0.41364512076411752 0.0060945182858327179 0 0.39484193382565458 0.015380282064663591 0 0.39744114710291661 0.0001130861356555651 0 0.38224050002167942 -0.0009097361468181442 0 0.37193292132848987 0.016453356445610891 0 0.39484193382565458 0.015380282064663591 0 0.38224050002167942 -0.0009097361468181442 0 0.37193292132848987 0.016453356445610891 0 0.39484193382565458 0.015380282064663591 0 0.38612820305325918 0.035445972839830538 0 0.37399145109802567 0.058827664132880292 0 0.38612820305325918 0.035445972839830538 0 0.39083016817518651 0.056585884350158093 0 0.40276406653713209 0.069274429422051836 0 0.39083016817518651 0.056585884350158093 0 0.40173490804065781 0.044789760076139683 0 0.38612820305325918 0.035445972839830538 0 0.39083016817518651 0.056585884350158093 0 0.40173490804065781 0.044789760076139683 0 0.40062918443100248 0.029791246447515778 0 0.38612820305325918 0.035445972839830538 0 0.40173490804065781 0.044789760076139683 0 0.40062918443100248 0.029791246447515778 0 0.40173490804065781 0.044789760076139683 0 0.41231015997972098 0.03497421518738103 0 0.40173490804065781 0.044789760076139683 0 0.41231015997972098 0.03497421518738103 0 0.41547649462663172 0.049084457048479337 0 0.41231015997972098 0.03497421518738103 0 0.41547649462663172 0.049084457048479337 0 0.42304843507778672 0.039244309268036293 0 0.41231015997972098 0.03497421518738103 0 0.42304843507778672 0.039244309268036293 0 0.4227737065802688 0.02820115961286683 0 0.40276406653713209 0.069274429422051836 0 0.41547649462663172 0.049084457048479337 0 0.42312603704819662 0.058790434054535309 0 0.40276406653713209 0.069274429422051836 0 0.40173490804065781 0.044789760076139683 0 0.41547649462663172 0.049084457048479337 0 0.42824470093199418 0.071005042124450676 0 0.42312603704819662 0.058790434054535309 0 0.44348800755926088 0.04830643868701831 0 0.42312603704819662 0.058790434054535309 0 0.43057462314135381 0.048241582521802523 0 0.44348800755926088 0.04830643868701831 0 0.42312603704819662 0.058790434054535309 0 0.44348800755926088 0.04830643868701831 0 0.42824470093199418 0.071005042124450676 0 0.44348800755926088 0.04830643868701831 0 0.41547649462663172 0.049084457048479337 0 0.42312603704819662 0.058790434054535309 0 0.43057462314135381 0.048241582521802523 0 0.42304843507778672 0.039244309268036293 0 0.43436795152922442 0.036277547646752908 0 0.4227737065802688 0.02820115961286683 0 0.43057462314135381 0.048241582521802523 0 0.42304843507778672 0.039244309268036293 0 0.43436795152922442 0.036277547646752908 0 0.41547649462663172 0.049084457048479337 0 0.43057462314135381 0.048241582521802523 0 0.42304843507778672 0.039244309268036293 0 0.43057462314135381 0.048241582521802523 0 0.43436795152922442 0.036277547646752908 0 0.43754646805962488 0.043502749385207137 0 0.43057462314135381 0.048241582521802523 0 0.44348800755926088 0.04830643868701831 0 0.43754646805962488 0.043502749385207137 0 0.43436795152922442 0.036277547646752908 0 0.43287160711772088 0.02337493983905092 0 0.44387508237324153 0.029232292421320021 0 0.43436795152922442 0.036277547646752908 0 0.43287160711772088 0.02337493983905092 0 0.4227737065802688 0.02820115961286683 0 0.43287160711772088 0.02337493983905092 0 0.4337088310715595 0.0089016538601040356 0 0.44127575990446521 0.018146705103633129 0 0.43287160711772088 0.02337493983905092 0 0.42297514512235679 0.01744916040857445 0 0.4337088310715595 0.0089016538601040356 0 0.43287160711772088 0.02337493983905092 0 0.42297514512235679 0.01744916040857445 0 0.4227737065802688 0.02820115961286683 0 0.41231015997972098 0.03497421518738103 0 0.4227737065802688 0.02820115961286683 0 0.4113903279631671 0.021607982747009171 0 0.42297514512235679 0.01744916040857445 0 0.4227737065802688 0.02820115961286683 0 0.4113903279631671 0.021607982747009171 0 0.40062918443100248 0.029791246447515778 0 0.41231015997972098 0.03497421518738103 0 0.4113903279631671 0.021607982747009171 0 0.39484193382565458 0.015380282064663591 0 0.4113903279631671 0.021607982747009171 0 0.41364512076411752 0.0060945182858327179 0 0.42297514512235679 0.01744916040857445 0 0.4113903279631671 0.021607982747009171 0 0.41364512076411752 0.0060945182858327179 0 0.42297514512235679 0.01744916040857445 0 0.41364512076411752 0.0060945182858327179 0 0.4337088310715595 0.0089016538601040356 0 0.41364512076411752 0.0060945182858327179 0 0.4337088310715595 0.0089016538601040356 0 0.42824840838168998 -0.0057431913028308506 0 0.4337088310715595 0.0089016538601040356 0 0.44546239880888538 0.0014269471041428361 0 0.44482793629300499 0.0093978291519393672 0 0.45109534266679868 0.019826810245751308 0 0.45301686617743792 -0.00018615241139363639 0 0.44482793629300499 0.0093978291519393672 0 0.45109534266679868 0.019826810245751308 0 0.45301686617743792 -0.00018615241139363639 0 0.4337088310715595 0.0089016538601040356 0 0.44546239880888538 0.0014269471041428361 0 0.43969618441870328 -0.0037133679519610889 0 0.44546239880888538 0.0014269471041428361 0 0.44482793629300499 0.0093978291519393672 0 0.45301686617743792 -0.00018615241139363639 0 0.4337088310715595 0.0089016538601040356 0 0.44482793629300499 0.0093978291519393672 0 0.44127575990446521 0.018146705103633129 0 0.45004485604925099 0.030767789803069049 0 0.45109534266679868 0.019826810245751308 0 0.45631347695023211 0.0048922901598004546 0 0.43287160711772088 0.02337493983905092 0 0.44127575990446521 0.018146705103633129 0 0.44387508237324153 0.029232292421320021 0 0.44387508237324153 0.029232292421320021 0 0.45004485604925099 0.030767789803069049 0 0.45109534266679868 0.019826810245751308 0 0.45004485604925099 0.030767789803069049 0 0.45109534266679868 0.019826810245751308 0 0.44127575990446521 0.018146705103633129 0 0.44387508237324153 0.029232292421320021 0 0.45109534266679868 0.019826810245751308 0 0.44482793629300499 0.0093978291519393672 0 0.44127575990446521 0.018146705103633129 0 0.45109534266679868 0.019826810245751308 0 0.45004485604925099 0.030767789803069049 0 0.46154194786121111 0.014993456790874601 0 0.45631347695023211 0.0048922901598004546 0 0.45004485604925099 0.030767789803069049 0 0.45631347695023211 0.0048922901598004546 0 0.45004485604925099 0.030767789803069049 0 0.45849945313071178 0.025953096437805169 0 0.46154194786121111 0.014993456790874601 0 0.45849945313071178 0.025953096437805169 0 0.4686292050784488 0.022743345776159649 0 0.46808087663082149 0.035644033283765808 0 0.4686292050784488 0.022743345776159649 0 0.46154194786121111 0.014993456790874601 0 0.4728527858173362 0.01419175461201307 0 0.45849945313071178 0.025953096437805169 0 0.4686292050784488 0.022743345776159649 0 0.46154194786121111 0.014993456790874601 0 0.45109534266679868 0.019826810245751308 0 0.45631347695023211 0.0048922901598004546 0 0.45301686617743792 -0.00018615241139363639 0 0.46154194786121111 0.014993456790874601 0 0.45631347695023211 0.0048922901598004546 0 0.46886332382934981 0.0047037880946074534 0 0.46154194786121111 0.014993456790874601 0 0.46886332382934981 0.0047037880946074534 0 0.4728527858173362 0.01419175461201307 0 0.45631347695023211 0.0048922901598004546 0 0.46886332382934981 0.0047037880946074534 0 0.46498175383042928 -0.005605544094261076 0 0.4461353299715683 0.071486104706107195 0 0.44861432461591 0.045666994520989317 0 0.45907056354986581 0.061587340699094127 0 0.4461353299715683 0.071486104706107195 0 0.44348800755926088 0.04830643868701831 0 0.44861432461591 0.045666994520989317 0 0.4461353299715683 0.071486104706107195 0 0.44861432461591 0.045666994520989317 0 0.44348800755926088 0.04830643868701831 0 0.44861432461591 0.045666994520989317 0 0.44348800755926088 0.04830643868701831 0 0.44917381915615923 0.039839772902896198 0 0.44917381915615923 0.039839772902896198 0 0.44861432461591 0.045666994520989317 0 0.45669515238393238 0.036505267747987423 0 0.44348800755926088 0.04830643868701831 0 0.44917381915615923 0.039839772902896198 0 0.44861432461591 0.045666994520989317 0 0.44917381915615923 0.039839772902896198 0 0.44861432461591 0.045666994520989317 0 0.44348800755926088 0.04830643868701831 0 0.44917381915615923 0.039839772902896198 0 0.44175529000866037 0.041185428685254419 0 0.44348800755926088 0.04830643868701831 0 0.43754646805962488 0.043502749385207137 0 0.44175529000866037 0.041185428685254419 0 0.43436795152922442 0.036277547646752908 0 0.43754646805962488 0.043502749385207137 0 0.44175529000866037 0.041185428685254419 0 0.44917381915615923 0.039839772902896198 0 0.44175529000866037 0.041185428685254419 0 0.4429819476201684 0.036294196248273958 0 0.43436795152922442 0.036277547646752908 0 0.44387508237324153 0.029232292421320021 0 0.4429819476201684 0.036294196248273958 0 0.43436795152922442 0.036277547646752908 0 0.44175529000866037 0.041185428685254419 0 0.4429819476201684 0.036294196248273958 0 0.44387508237324153 0.029232292421320021 0 0.45004485604925099 0.030767789803069049 0 0.44917381915615923 0.039839772902896198 0 0.45004485604925099 0.030767789803069049 0 0.44917381915615923 0.039839772902896198 0 0.44387508237324153 0.029232292421320021 0 0.44917381915615923 0.039839772902896198 0 0.4429819476201684 0.036294196248273958 0 0.45004485604925099 0.030767789803069049 0 0.45849945313071178 0.025953096437805169 0 0.44917381915615923 0.039839772902896198 0 0.44861432461591 0.045666994520989317 0 0.46808087663082149 0.035644033283765808 0 0.44861432461591 0.045666994520989317 0 0.45669515238393238 0.036505267747987423 0 0.46808087663082149 0.035644033283765808 0 0.44861432461591 0.045666994520989317 0 0.46808087663082149 0.035644033283765808 0 0.4642259666229171 0.050181078220961031 0 0.45849945313071178 0.025953096437805169 0 0.44917381915615923 0.039839772902896198 0 0.45669515238393238 0.036505267747987423 0 0.45849945313071178 0.025953096437805169 0 0.44917381915615923 0.039839772902896198 0 0.45849945313071178 0.025953096437805169 0 0.45669515238393238 0.036505267747987423 0 0.46808087663082149 0.035644033283765808 0 0.44861432461591 0.045666994520989317 0 0.4642259666229171 0.050181078220961031 0 0.45907056354986581 0.061587340699094127 0 0.47319588035600851 0.062547933831014396 0 0.4642259666229171 0.050181078220961031 0 0.45907056354986581 0.061587340699094127 0 0.47319588035600851 0.062547933831014396 0 0.4642259666229171 0.050181078220961031 0 0.48151777103780191 0.045498040003496748 0 0.46808087663082149 0.035644033283765808 0 0.48151777103780191 0.045498040003496748 0 0.48217096195216352 0.02293438775633961 0 0.46808087663082149 0.035644033283765808 0 0.4642259666229171 0.050181078220961031 0 0.48151777103780191 0.045498040003496748 0 0.48151777103780191 0.045498040003496748 0 0.5 0.033667798358187673 0 0.48217096195216352 0.02293438775633961 0 0.5 0.063342179099756923 0 0.48151777103780191 0.045498040003496748 0 0.5 0.033667798358187673 0 0.5 0.063342179099756923 0 0.47319588035600851 0.062547933831014396 0 0.48151777103780191 0.045498040003496748 0 0.48122491415901508 0.0050085747552192517 0 0.4728527858173362 0.01419175461201307 0 0.48217096195216352 0.02293438775633961 0 0.48122491415901508 0.0050085747552192517 0 0.46886332382934981 0.0047037880946074534 0 0.47527842649042612 -0.006441388949399017 0 0.48122491415901508 0.0050085747552192517 0 0.46886332382934981 0.0047037880946074534 0 0.4728527858173362 0.01419175461201307 0 0.4686292050784488 0.022743345776159649 0 0.4728527858173362 0.01419175461201307 0 0.48217096195216352 0.02293438775633961 0 0.4686292050784488 0.022743345776159649 0 0.46808087663082149 0.035644033283765808 0 0.48217096195216352 0.02293438775633961 0 0.5 0.033667798358187673 0 0.48217096195216352 0.02293438775633961 0 0.5 0.0039934176166184221 0 0.48122491415901508 0.0050085747552192517 0 0.48217096195216352 0.02293438775633961 0 0.5 0.0039934176166184221 0 0.48122491415901508 0.0050085747552192517 0 0.5 0.0039934176166184221 0 0.48818398686481551 -0.009330510598864028 0 0.5 0.0039934176166184221 0 0.48818398686481551 -0.009330510598864028 0 0.50000000000000155 -0.02568096312495077 0 0.46916906652122919 -0.01348935108679747 0 0.47527842649042612 -0.006441388949399017 0 0.48095617801141061 -0.023364238581994521 0 0.48818398686481551 -0.009330510598864028 0 0.47527842649042612 -0.006441388949399017 0 0.48095617801141061 -0.023364238581994521 0 0.48122491415901508 0.0050085747552192517 0 0.48818398686481551 -0.009330510598864028 0 0.47527842649042612 -0.006441388949399017 0 0.46916906652122919 -0.01348935108679747 0 0.47527842649042612 -0.006441388949399017 0 0.46498175383042928 -0.005605544094261076 0 0.46886332382934981 0.0047037880946074534 0 0.47527842649042612 -0.006441388949399017 0 0.46498175383042928 -0.005605544094261076 0 0.48095617801141061 -0.023364238581994521 0 0.46191235602281983 -0.021047514039038491 0 0.4720009793800285 -0.030152361214447618 0 0.48095617801141061 -0.023364238581994521 0 0.46191235602281983 -0.021047514039038491 0 0.46916906652122919 -0.01348935108679747 0 0.48095617801141061 -0.023364238581994521 0 0.46191235602281983 -0.021047514039038491 0 0.4720009793800285 -0.030152361214447618 0 0.48095617801141061 -0.023364238581994521 0 0.48441552629491041 -0.037995186688798283 0 0.48095617801141061 -0.023364238581994521 0 0.50000000000000155 -0.02568096312495077 0 0.48095617801141061 -0.023364238581994521 0 0.50000000000000155 -0.02568096312495077 0 0.48441552629491041 -0.037995186688798283 0 0.48818398686481551 -0.009330510598864028 0 0.48095617801141061 -0.023364238581994521 0 0.50000000000000155 -0.02568096312495077 0 0.50000000000000155 -0.02568096312495077 0 0.48441552629491041 -0.037995186688798283 0 0.5 -0.053241762308865792 0 0.5 -0.053241762308865792 0 0.48170803904764969 -0.05392228832564646 0 0.48990241846866872 -0.066770081463524714 0 0.48441552629491041 -0.037995186688798283 0 0.5 -0.053241762308865792 0 0.48170803904764969 -0.05392228832564646 0 0.48170803904764969 -0.05392228832564646 0 0.48990241846866872 -0.066770081463524714 0 0.47529007969809062 -0.064291892878718934 0 0.48170803904764969 -0.05392228832564646 0 0.46884309694029452 -0.053157881135980967 0 0.47446907362888813 -0.04246608299047662 0 0.48170803904764969 -0.05392228832564646 0 0.46884309694029452 -0.053157881135980967 0 0.47529007969809062 -0.064291892878718934 0 0.46884309694029452 -0.053157881135980967 0 0.47529007969809062 -0.064291892878718934 0 0.4640624106021306 -0.067554606961529762 0 0.46884309694029452 -0.053157881135980967 0 0.47446907362888813 -0.04246608299047662 0 0.46537772648155712 -0.037102697587509739 0 0.48441552629491041 -0.037995186688798283 0 0.48170803904764969 -0.05392228832564646 0 0.47446907362888813 -0.04246608299047662 0 0.4720009793800285 -0.030152361214447618 0 0.48441552629491041 -0.037995186688798283 0 0.47446907362888813 -0.04246608299047662 0 0.4720009793800285 -0.030152361214447618 0 0.47446907362888813 -0.04246608299047662 0 0.46537772648155712 -0.037102697587509739 0 0.46537772648155712 -0.037102697587509739 0 0.45749906753871927 -0.046868968400091283 0 0.45493838968807659 -0.020199115068538678 0 0.46884309694029452 -0.053157881135980967 0 0.46537772648155712 -0.037102697587509739 0 0.46884309694029452 -0.053157881135980967 0 0.46537772648155712 -0.037102697587509739 0 0.45749906753871927 -0.046868968400091283 0 0.45749906753871927 -0.046868968400091283 0 0.45493838968807659 -0.020199115068538678 0 0.46884309694029452 -0.053157881135980967 0 0.45294913704919593 -0.05728617147518008 0 0.4640624106021306 -0.067554606961529762 0 0.46884309694029452 -0.053157881135980967 0 0.45749906753871927 -0.046868968400091283 0 0.45294913704919593 -0.05728617147518008 0 0.45749906753871927 -0.046868968400091283 0 0.45294913704919593 -0.05728617147518008 0 0.44552636499135628 -0.046683725416979793 0 0.45294913704919593 -0.05728617147518008 0 0.43835717798001211 -0.053765344244100087 0 0.44552636499135628 -0.046683725416979793 0 0.43835717798001211 -0.053765344244100087 0 0.44552636499135628 -0.046683725416979793 0 0.43504931716875728 -0.041780934049512039 0 0.45294913704919593 -0.05728617147518008 0 0.43835717798001211 -0.053765344244100087 0 0.4421179531552476 -0.065410704187113602 0 0.45749906753871927 -0.046868968400091283 0 0.4437771252200966 -0.033717208916015463 0 0.45493838968807659 -0.020199115068538678 0 0.45749906753871927 -0.046868968400091283 0 0.44552636499135628 -0.046683725416979793 0 0.4437771252200966 -0.033717208916015463 0 0.44552636499135628 -0.046683725416979793 0 0.4437771252200966 -0.033717208916015463 0 0.43504931716875728 -0.041780934049512039 0 0.43857518181637739 -0.018208493369779071 0 0.45493838968807659 -0.020199115068538678 0 0.4437771252200966 -0.033717208916015463 0 0.43857518181637739 -0.018208493369779071 0 0.45493838968807659 -0.020199115068538678 0 0.43857518181637739 -0.018208493369779071 0 0.44867401356873471 -0.01070185468173334 0 0.45493838968807659 -0.020199115068538678 0 0.45301686617743792 -0.00018615241139363639 0 0.44867401356873471 -0.01070185468173334 0 0.45493838968807659 -0.020199115068538678 0 0.43857518181637739 -0.018208493369779071 0 0.43969618441870328 -0.0037133679519610889 0 0.44867401356873471 -0.01070185468173334 0 0.43969618441870328 -0.0037133679519610889 0 0.44671236574344031 -0.0032936069852363072 0 0.44867401356873471 -0.01070185468173334 0 0.44546239880888538 0.0014269471041428361 0 0.43969618441870328 -0.0037133679519610889 0 0.44671236574344031 -0.0032936069852363072 0 0.44671236574344031 -0.0032936069852363072 0 0.45301686617743792 -0.00018615241139363639 0 0.44867401356873471 -0.01070185468173334 0 0.44546239880888538 0.0014269471041428361 0 0.44671236574344031 -0.0032936069852363072 0 0.45301686617743792 -0.00018615241139363639 0 0.45631347695023211 0.0048922901598004546 0 0.45301686617743792 -0.00018615241139363639 0 0.46191235602281983 -0.021047514039038491 0 0.45631347695023211 0.0048922901598004546 0 0.46191235602281983 -0.021047514039038491 0 0.45301686617743792 -0.00018615241139363639 0 0.46191235602281983 -0.021047514039038491 0 0.45493838968807659 -0.020199115068538678 0 0.45631347695023211 0.0048922901598004546 0 0.46498175383042928 -0.005605544094261076 0 0.46191235602281983 -0.021047514039038491 0 0.45301686617743792 -0.00018615241139363639 0 0.45493838968807659 -0.020199115068538678 0 0.46916906652122919 -0.01348935108679747 0 0.46498175383042928 -0.005605544094261076 0 0.46191235602281983 -0.021047514039038491 0 0.46537772648155712 -0.037102697587509739 0 0.46191235602281983 -0.021047514039038491 0 0.4720009793800285 -0.030152361214447618 0 0.46537772648155712 -0.037102697587509739 0 0.46191235602281983 -0.021047514039038491 0 0.46537772648155712 -0.037102697587509739 0 0.46191235602281983 -0.021047514039038491 0 0.45493838968807659 -0.020199115068538678 0 0.46191235602281983 -0.021047514039038491 0 0.45493838968807659 -0.020199115068538678 0 0.4810507127577211 -0.1175955314676826 0 0.48745031532272148 -0.1234211766301698 0 0.48391745696981908 -0.1084412352263667 0 0.47152027219727127 -0.1186864323683656 0 0.4810507127577211 -0.1175955314676826 0 0.48391745696981908 -0.1084412352263667 0 0.4810507127577211 -0.1175955314676826 0 0.48745031532272148 -0.1234211766301698 0 0.47953015760397488 -0.13219088228210779 0 0.47152027219727127 -0.1186864323683656 0 0.4810507127577211 -0.1175955314676826 0 0.47953015760397488 -0.13219088228210779 0 0.48745031532272148 -0.1234211766301698 0 0.5 -0.1083633606766959 0 0.5 -0.13592415986061079 0 0.48745031532272148 -0.1234211766301698 0 0.5 -0.1083633606766959 0 0.48391745696981908 -0.1084412352263667 0 0.5 -0.1083633606766959 0 0.48391745696981908 -0.1084412352263667 0 0.47824892340894831 -0.093390587996682553 0 0.5 -0.1083633606766959 0 0.47824892340894831 -0.093390587996682553 0 0.5 -0.080802561492780811 0 0.47152027219727127 -0.1186864323683656 0 0.47824892340894831 -0.093390587996682553 0 0.47152027219727127 -0.1186864323683656 0 0.48391745696981908 -0.1084412352263667 0 0.47824892340894831 -0.093390587996682553 0 0.47152027219727127 -0.1186864323683656 0 0.47824892340894831 -0.093390587996682553 0 0.46564504338659829 -0.10196532732690169 0 0.47159392294106572 -0.079341431773779433 0 0.47824892340894831 -0.093390587996682553 0 0.46564504338659829 -0.10196532732690169 0 0.47159392294106572 -0.079341431773779433 0 0.47824892340894831 -0.093390587996682553 0 0.4849363162046707 -0.080076165681691874 0 0.47824892340894831 -0.093390587996682553 0 0.5 -0.080802561492780811 0 0.4849363162046707 -0.080076165681691874 0 0.5 -0.080802561492780811 0 0.4849363162046707 -0.080076165681691874 0 0.48990241846866872 -0.066770081463524714 0 0.5 -0.053241762308865792 0 0.5 -0.080802561492780811 0 0.48990241846866872 -0.066770081463524714 0 0.47159392294106572 -0.079341431773779433 0 0.4849363162046707 -0.080076165681691874 0 0.48990241846866872 -0.066770081463524714 0 0.47159392294106572 -0.079341431773779433 0 0.48990241846866872 -0.066770081463524714 0 0.47529007969809062 -0.064291892878718934 0 0.47159392294106572 -0.079341431773779433 0 0.48990241846866872 -0.066770081463524714 0 0.47159392294106572 -0.079341431773779433 0 0.47529007969809062 -0.064291892878718934 0 0.4640624106021306 -0.067554606961529762 0 0.47159392294106572 -0.079341431773779433 0 0.4640624106021306 -0.067554606961529762 0 0.45765370912356462 -0.0790336132302836 0 0.4640624106021306 -0.067554606961529762 0 0.45310407887676718 -0.069009496447139301 0 0.45765370912356462 -0.0790336132302836 0 0.45294913704919593 -0.05728617147518008 0 0.4640624106021306 -0.067554606961529762 0 0.45310407887676718 -0.069009496447139301 0 0.4421179531552476 -0.065410704187113602 0 0.44148116085750372 -0.082633244054408986 0 0.43131549879020631 -0.071321718626398828 0 0.45310407887676718 -0.069009496447139301 0 0.4421179531552476 -0.065410704187113602 0 0.44148116085750372 -0.082633244054408986 0 0.45310407887676718 -0.069009496447139301 0 0.44148116085750372 -0.082633244054408986 0 0.45765370912356462 -0.0790336132302836 0 0.45294913704919593 -0.05728617147518008 0 0.45310407887676718 -0.069009496447139301 0 0.4421179531552476 -0.065410704187113602 0 0.44148116085750372 -0.082633244054408986 0 0.45328542741346262 -0.091912782084034139 0 0.43497693188585979 -0.1044841323942894 0 0.44148116085750372 -0.082633244054408986 0 0.45328542741346262 -0.091912782084034139 0 0.45765370912356462 -0.0790336132302836 0 0.47159392294106572 -0.079341431773779433 0 0.45328542741346262 -0.091912782084034139 0 0.46564504338659829 -0.10196532732690169 0 0.47159392294106572 -0.079341431773779433 0 0.45328542741346262 -0.091912782084034139 0 0.45765370912356462 -0.0790336132302836 0 0.47159392294106572 -0.079341431773779433 0 0.45328542741346262 -0.091912782084034139 0 0.45328542741346262 -0.091912782084034139 0 0.46564504338659829 -0.10196532732690169 0 0.45139954874823379 -0.11098162071094619 0 0.45328542741346262 -0.091912782084034139 0 0.43497693188585979 -0.1044841323942894 0 0.45328542741346262 -0.091912782084034139 0 0.45139954874823379 -0.11098162071094619 0 0.43497693188585979 -0.1044841323942894 0 0.45139954874823379 -0.11098162071094619 0 0.43497693188585979 -0.1044841323942894 0 0.45139954874823379 -0.11098162071094619 0 0.4372008052875902 -0.11996367504429011 0 0.43497693188585979 -0.1044841323942894 0 0.45139954874823379 -0.11098162071094619 0 0.4372008052875902 -0.11996367504429011 0 0.45415408310345812 -0.12802254202861579 0 0.46564504338659829 -0.10196532732690169 0 0.45139954874823379 -0.11098162071094619 0 0.46782216561060819 -0.11747910902760229 0 0.45139954874823379 -0.11098162071094619 0 0.46782216561060819 -0.11747910902760229 0 0.45415408310345812 -0.12802254202861579 0 0.47152027219727127 -0.1186864323683656 0 0.46564504338659829 -0.10196532732690169 0 0.46782216561060819 -0.11747910902760229 0 0.47152027219727127 -0.1186864323683656 0 0.46782216561060819 -0.11747910902760229 0 0.45415408310345812 -0.12802254202861579 0 0.45139954874823379 -0.11098162071094619 0 0.46782216561060819 -0.11747910902760229 0 0.41174745670848351 -0.10946339113309 0 0.39851806275726998 -0.11370726713393869 0 0.41002067204624859 -0.12659962076666809 0 0.41174745670848351 -0.10946339113309 0 0.42123239226856363 -0.11392168678654881 0 0.41002067204624859 -0.12659962076666809 0 0.42123239226856363 -0.11392168678654881 0 0.42511925144472879 -0.12747886317116039 0 0.41002067204624859 -0.12659962076666809 0 0.42123239226856363 -0.11392168678654881 0 0.4372008052875902 -0.11996367504429011 0 0.43497693188585979 -0.1044841323942894 0 0.42123239226856363 -0.11392168678654881 0 0.4372008052875902 -0.11996367504429011 0 0.42511925144472879 -0.12747886317116039 0 0.41174745670848351 -0.10946339113309 0 0.42123239226856363 -0.11392168678654881 0 0.43497693188585979 -0.1044841323942894 0 0.43497693188585979 -0.1044841323942894 0 0.41054740891681818 -0.092589775803073621 0 0.42706064096377377 -0.086392955964028267 0 0.42123239226856363 -0.11392168678654881 0 0.43497693188585979 -0.1044841323942894 0 0.43497693188585979 -0.1044841323942894 0 0.4144791922374223 -0.1025886017045925 0 0.40858836782640567 -0.094043689917521767 0 0.41174745670848351 -0.10946339113309 0 0.43497693188585979 -0.1044841323942894 0 0.4144791922374223 -0.1025886017045925 0 0.43497693188585979 -0.1044841323942894 0 0.40858836782640567 -0.094043689917521767 0 0.43497693188585979 -0.1044841323942894 0 0.40858836782640567 -0.094043689917521767 0 0.41054740891681818 -0.092589775803073621 0 0.41174745670848351 -0.10946339113309 0 0.4144791922374223 -0.1025886017045925 0 0.40260401252894029 -0.102363193373469 0 0.4144791922374223 -0.1025886017045925 0 0.40858836782640567 -0.094043689917521767 0 0.40260401252894029 -0.102363193373469 0 0.41054740891681818 -0.092589775803073621 0 0.42706064096377377 -0.086392955964028267 0 0.41579399832618957 -0.076745382900871559 0 0.41054740891681818 -0.092589775803073621 0 0.41579399832618957 -0.076745382900871559 0 0.39888055140076378 -0.071735350105037579 0 0.44148116085750372 -0.082633244054408986 0 0.43497693188585979 -0.1044841323942894 0 0.42706064096377377 -0.086392955964028267 0 0.44148116085750372 -0.082633244054408986 0 0.42706064096377377 -0.086392955964028267 0 0.43131549879020631 -0.071321718626398828 0 0.42706064096377377 -0.086392955964028267 0 0.43131549879020631 -0.071321718626398828 0 0.41579399832618957 -0.076745382900871559 0 0.43835717798001211 -0.053765344244100087 0 0.4421179531552476 -0.065410704187113602 0 0.43131549879020631 -0.071321718626398828 0 0.43131549879020631 -0.071321718626398828 0 0.41579399832618957 -0.076745382900871559 0 0.41865726962607752 -0.061539944784884677 0 0.41579399832618957 -0.076745382900871559 0 0.39888055140076378 -0.071735350105037579 0 0.41865726962607752 -0.061539944784884677 0 0.39888055140076378 -0.071735350105037579 0 0.38085848803832029 -0.06665243473336932 0 0.38219980376695212 -0.083603247440753259 0 0.39888055140076378 -0.071735350105037579 0 0.38085848803832029 -0.06665243473336932 0 0.3872136938847095 -0.05088092440700151 0 0.38085848803832029 -0.06665243473336932 0 0.38219980376695212 -0.083603247440753259 0 0.37112916478173602 -0.070617998687929326 0 0.38219980376695212 -0.083603247440753259 0 0.39165760759513829 -0.0982675410541827 0 0.37357280442579133 -0.098971971227533997 0 0.41054740891681818 -0.092589775803073621 0 0.39888055140076378 -0.071735350105037579 0 0.40858836782640567 -0.094043689917521767 0 0.38219980376695212 -0.083603247440753259 0 0.39165760759513829 -0.0982675410541827 0 0.40858836782640567 -0.094043689917521767 0 0.38219980376695212 -0.083603247440753259 0 0.40858836782640567 -0.094043689917521767 0 0.39888055140076378 -0.071735350105037579 0 0.38219980376695212 -0.083603247440753259 0 0.40858836782640567 -0.094043689917521767 0 0.41054740891681818 -0.092589775803073621 0 0.39888055140076378 -0.071735350105037579 0 0.40858836782640567 -0.094043689917521767 0 0.40260401252894029 -0.102363193373469 0 0.39165760759513829 -0.0982675410541827 0 0.41174745670848351 -0.10946339113309 0 0.40260401252894029 -0.102363193373469 0 0.39851806275726998 -0.11370726713393869 0 0.39165760759513829 -0.0982675410541827 0 0.38396610509497492 -0.1108671781372757 0 0.39851806275726998 -0.11370726713393869 0 0.40260401252894029 -0.102363193373469 0 0.39165760759513829 -0.0982675410541827 0 0.39851806275726998 -0.11370726713393869 0 0.39165760759513829 -0.0982675410541827 0 0.38396610509497492 -0.1108671781372757 0 0.37357280442579133 -0.098971971227533997 0 0.38396610509497492 -0.1108671781372757 0 0.39851806275726998 -0.11370726713393869 0 0.38351784665369182 -0.12995923037026921 0 0.38396610509497492 -0.1108671781372757 0 0.3602007449464511 -0.1138351589093477 0 0.38351784665369182 -0.12995923037026921 0 0.39851806275726998 -0.11370726713393869 0 0.38351784665369182 -0.12995923037026921 0 0.41002067204624859 -0.12659962076666809 0 0.4074609491311843 -0.022265775435040901 0 0.41727089749887242 -0.0095190003098786016 0 0.42746759567043591 -0.02449518063279154 0 0.4074609491311843 -0.022265775435040901 0 0.42746759567043591 -0.02449518063279154 0 0.4222551908718758 -0.042931962005437398 0 0.4074609491311843 -0.022265775435040901 0 0.41727089749887242 -0.0095190003098786016 0 0.40535471266126238 -0.0092909511357738804 0 0.41364512076411752 0.0060945182858327179 0 0.41727089749887242 -0.0095190003098786016 0 0.40535471266126238 -0.0092909511357738804 0 0.41364512076411752 0.0060945182858327179 0 0.41727089749887242 -0.0095190003098786016 0 0.42824840838168998 -0.0057431913028308506 0 0.41727089749887242 -0.0095190003098786016 0 0.42824840838168998 -0.0057431913028308506 0 0.42746759567043591 -0.02449518063279154 0 0.4337088310715595 0.0089016538601040356 0 0.43969618441870328 -0.0037133679519610889 0 0.42824840838168998 -0.0057431913028308506 0 0.43857518181637739 -0.018208493369779071 0 0.43969618441870328 -0.0037133679519610889 0 0.42824840838168998 -0.0057431913028308506 0 0.4437771252200966 -0.033717208916015463 0 0.43857518181637739 -0.018208493369779071 0 0.42746759567043591 -0.02449518063279154 0 0.43857518181637739 -0.018208493369779071 0 0.42824840838168998 -0.0057431913028308506 0 0.42746759567043591 -0.02449518063279154 0 0.4437771252200966 -0.033717208916015463 0 0.42746759567043591 -0.02449518063279154 0 0.43504931716875728 -0.041780934049512039 0 0.43835717798001211 -0.053765344244100087 0 0.4222551908718758 -0.042931962005437398 0 0.43504931716875728 -0.041780934049512039 0 0.42746759567043591 -0.02449518063279154 0 0.4222551908718758 -0.042931962005437398 0 0.43504931716875728 -0.041780934049512039 0 0.43835717798001211 -0.053765344244100087 0 0.43131549879020631 -0.071321718626398828 0 0.41865726962607752 -0.061539944784884677 0 0.43835717798001211 -0.053765344244100087 0 0.4222551908718758 -0.042931962005437398 0 0.41865726962607752 -0.061539944784884677 0 0.4222551908718758 -0.042931962005437398 0 0.41865726962607752 -0.061539944784884677 0 0.40534120038741772 -0.052739910827462752 0 0.39888055140076378 -0.071735350105037579 0 0.41865726962607752 -0.061539944784884677 0 0.40534120038741772 -0.052739910827462752 0 0.4074609491311843 -0.022265775435040901 0 0.4222551908718758 -0.042931962005437398 0 0.39890101362026409 -0.036479230357203428 0 0.4222551908718758 -0.042931962005437398 0 0.39890101362026409 -0.036479230357203428 0 0.4222551908718758 -0.042931962005437398 0 0.39890101362026409 -0.036479230357203428 0 0.40534120038741772 -0.052739910827462752 0 0.39890101362026409 -0.036479230357203428 0 0.40534120038741772 -0.052739910827462752 0 0.3872136938847095 -0.05088092440700151 0 0.39888055140076378 -0.071735350105037579 0 0.40534120038741772 -0.052739910827462752 0 0.3872136938847095 -0.05088092440700151 0 0.39888055140076378 -0.071735350105037579 0 0.3872136938847095 -0.05088092440700151 0 0.38085848803832029 -0.06665243473336932 0 0.3872136938847095 -0.05088092440700151 0 0.37843704483471419 -0.054077896112545418 0 0.3872136938847095 -0.05088092440700151 0 0.37843704483471419 -0.054077896112545418 0 0.38074751571648641 -0.039322676440581718 0 0.39890101362026409 -0.036479230357203428 0 0.3872136938847095 -0.05088092440700151 0 0.38074751571648641 -0.039322676440581718 0 0.39890101362026409 -0.036479230357203428 0 0.38074751571648641 -0.039322676440581718 0 0.37554683636865333 -0.030026498708966509 0 0.39890101362026409 -0.036479230357203428 0 0.37554683636865333 -0.030026498708966509 0 0.3872136938847095 -0.05088092440700151 0 0.38074751571648641 -0.039322676440581718 0 0.38074751571648641 -0.039322676440581718 0 0.37554683636865333 -0.030026498708966509 0 0.36999662803494232 -0.038225129906286251 0 0.38074751571648641 -0.039322676440581718 0 0.37554683636865333 -0.030026498708966509 0 0.39890101362026409 -0.036479230357203428 0 0.37554683636865333 -0.030026498708966509 0 0.39189830648318152 -0.016223435168266069 0 0.37554683636865333 -0.030026498708966509 0 0.39189830648318152 -0.016223435168266069 0 0.37809311055202333 -0.01336635906273332 0 0.4074609491311843 -0.022265775435040901 0 0.39890101362026409 -0.036479230357203428 0 0.39189830648318152 -0.016223435168266069 0 0.4074609491311843 -0.022265775435040901 0 0.39189830648318152 -0.016223435168266069 0 0.40535471266126238 -0.0092909511357738804 0 0.39744114710291661 0.0001130861356555651 0 0.41364512076411752 0.0060945182858327179 0 0.40535471266126238 -0.0092909511357738804 0 0.39744114710291661 0.0001130861356555651 0 0.39189830648318152 -0.016223435168266069 0 0.40535471266126238 -0.0092909511357738804 0 0.39744114710291661 0.0001130861356555651 0 0.39189830648318152 -0.016223435168266069 0 0.38224050002167942 -0.0009097361468181442 0 0.39189830648318152 -0.016223435168266069 0 0.37809311055202333 -0.01336635906273332 0 0.38224050002167942 -0.0009097361468181442 0 0.37809311055202333 -0.01336635906273332 0 0.38224050002167942 -0.0009097361468181442 0 0.36228206159515042 -0.0063158071594564408 0 0.37554683636865333 -0.030026498708966509 0 0.37809311055202333 -0.01336635906273332 0 0.36228206159515042 -0.0063158071594564408 0 0.37554683636865333 -0.030026498708966509 0 0.3528056461496607 -0.023743134655351598 0 0.36999662803494232 -0.038225129906286251 0 0.37554683636865333 -0.030026498708966509 0 0.36228206159515042 -0.0063158071594564408 0 0.3528056461496607 -0.023743134655351598 0 0.37554683636865333 -0.030026498708966509 0 0.36228206159515042 -0.0063158071594564408 0 0.37554683636865333 -0.030026498708966509 0 0.3528056461496607 -0.023743134655351598 0 0.3528056461496607 -0.023743134655351598 0 0.33787841252308742 -0.031285113131257543 0 0.34895069725587852 -0.037353190111724187 0 0.36228206159515042 -0.0063158071594564408 0 0.3528056461496607 -0.023743134655351598 0 0.3426590178840106 -0.0017279900412659731 0 0.3528056461496607 -0.023743134655351598 0 0.3426590178840106 -0.0017279900412659731 0 0.33006445593066902 -0.017459770601733749 0 0.32290502906810631 0.0087589737432974112 0 0.3426590178840106 -0.0017279900412659731 0 0.33006445593066902 -0.017459770601733749 0 0.33006445593066902 -0.017459770601733749 0 0.31946060319861141 -0.033768785137868823 0 0.33787841252308742 -0.031285113131257543 0 0.3528056461496607 -0.023743134655351598 0 0.33006445593066902 -0.017459770601733749 0 0.33787841252308742 -0.031285113131257543 0 0.3528056461496607 -0.023743134655351598 0 0.33006445593066902 -0.017459770601733749 0 0.33006445593066902 -0.017459770601733749 0 0.30732326571167717 -0.01117640654811587 0 0.30977597723402411 -0.024712996279377598 0 0.33006445593066902 -0.017459770601733749 0 0.31946060319861141 -0.033768785137868823 0 0.30977597723402411 -0.024712996279377598 0 0.32290502906810631 0.0087589737432974112 0 0.33006445593066902 -0.017459770601733749 0 0.30732326571167717 -0.01117640654811587 0 0.33006445593066902 -0.017459770601733749 0 0.30732326571167717 -0.01117640654811587 0 0.32588123327808571 -0.054851307554296992 0 0.31623338404484891 -0.044178698837363889 0 0.29881562946981299 -0.048655447545302641 0 0.32588123327808571 -0.054851307554296992 0 0.31495551999281279 -0.057303489851941253 0 0.29881562946981299 -0.048655447545302641 0 0.32588123327808571 -0.054851307554296992 0 0.31623338404484891 -0.044178698837363889 0 0.32950226716624109 -0.042162319534020762 0 0.32588123327808571 -0.054851307554296992 0 0.31495551999281279 -0.057303489851941253 0 0.32164705593543003 -0.067320680317800183 0 0.32588123327808571 -0.054851307554296992 0 0.33204357765787929 -0.063895714456014691 0 0.32164705593543003 -0.067320680317800183 0 0.31623338404484891 -0.044178698837363889 0 0.31946060319861141 -0.033768785137868823 0 0.30750718711149339 -0.041455634415330248 0 0.31623338404484891 -0.044178698837363889 0 0.31946060319861141 -0.033768785137868823 0 0.32950226716624109 -0.042162319534020762 0 0.31946060319861141 -0.033768785137868823 0 0.32950226716624109 -0.042162319534020762 0 0.33787841252308742 -0.031285113131257543 0 0.33787841252308742 -0.031285113131257543 0 0.34138920183414417 -0.04149819279865874 0 0.34895069725587852 -0.037353190111724187 0 0.32950226716624109 -0.042162319534020762 0 0.33787841252308742 -0.031285113131257543 0 0.34138920183414417 -0.04149819279865874 0 0.32950226716624109 -0.042162319534020762 0 0.34138920183414417 -0.04149819279865874 0 0.3402093995030967 -0.04960828130264551 0 0.32588123327808571 -0.054851307554296992 0 0.35294683708635832 -0.061047167563291323 0 0.33204357765787929 -0.063895714456014691 0 0.32588123327808571 -0.054851307554296992 0 0.35294683708635832 -0.061047167563291323 0 0.32588123327808571 -0.054851307554296992 0 0.3402093995030967 -0.04960828130264551 0 0.35294683708635832 -0.061047167563291323 0 0.32588123327808571 -0.054851307554296992 0 0.32950226716624109 -0.042162319534020762 0 0.3402093995030967 -0.04960828130264551 0 0.3402093995030967 -0.04960828130264551 0 0.3513274581506543 -0.048482419062959761 0 0.35294683708635832 -0.061047167563291323 0 0.3513274581506543 -0.048482419062959761 0 0.35294683708635832 -0.061047167563291323 0 0.36564712761417362 -0.059053507613610133 0 0.3528056461496607 -0.023743134655351598 0 0.34895069725587852 -0.037353190111724187 0 0.36135276762184593 -0.041757090910393299 0 0.34138920183414417 -0.04149819279865874 0 0.3513274581506543 -0.048482419062959761 0 0.34895069725587852 -0.037353190111724187 0 0.34138920183414417 -0.04149819279865874 0 0.3402093995030967 -0.04960828130264551 0 0.3513274581506543 -0.048482419062959761 0 0.3513274581506543 -0.048482419062959761 0 0.34895069725587852 -0.037353190111724187 0 0.36135276762184593 -0.041757090910393299 0 0.36135276762184593 -0.041757090910393299 0 0.36999662803494232 -0.038225129906286251 0 0.36564712761417362 -0.059053507613610133 0 0.3528056461496607 -0.023743134655351598 0 0.36135276762184593 -0.041757090910393299 0 0.36999662803494232 -0.038225129906286251 0 0.38074751571648641 -0.039322676440581718 0 0.36999662803494232 -0.038225129906286251 0 0.36564712761417362 -0.059053507613610133 0 0.37843704483471419 -0.054077896112545418 0 0.38074751571648641 -0.039322676440581718 0 0.36564712761417362 -0.059053507613610133 0 0.38074751571648641 -0.039322676440581718 0 0.36564712761417362 -0.059053507613610133 0 0.3513274581506543 -0.048482419062959761 0 0.36135276762184593 -0.041757090910393299 0 0.36564712761417362 -0.059053507613610133 0 0.38085848803832029 -0.06665243473336932 0 0.37843704483471419 -0.054077896112545418 0 0.36564712761417362 -0.059053507613610133 0 0.38085848803832029 -0.06665243473336932 0 0.36564712761417362 -0.059053507613610133 0 0.37112916478173602 -0.070617998687929326 0 0.38219980376695212 -0.083603247440753259 0 0.37112916478173602 -0.070617998687929326 0 0.35538497867388807 -0.072845642000542929 0 0.36564712761417362 -0.059053507613610133 0 0.37112916478173602 -0.070617998687929326 0 0.35538497867388807 -0.072845642000542929 0 0.36564712761417362 -0.059053507613610133 0 0.35538497867388807 -0.072845642000542929 0 0.38219980376695212 -0.083603247440753259 0 0.35538497867388807 -0.072845642000542929 0 0.38219980376695212 -0.083603247440753259 0 0.36423484953993462 -0.089406728356698023 0 0.37357280442579133 -0.098971971227533997 0 0.38219980376695212 -0.083603247440753259 0 0.36137104823437288 -0.082133184665430736 0 0.35538497867388807 -0.072845642000542929 0 0.38219980376695212 -0.083603247440753259 0 0.36423484953993462 -0.089406728356698023 0 0.36137104823437288 -0.082133184665430736 0 0.36423484953993462 -0.089406728356698023 0 0.36137104823437288 -0.082133184665430736 0 0.3543029628346932 -0.089106349660880727 0 0.3543029628346932 -0.089106349660880727 0 0.35126538542669372 -0.078382297531019524 0 0.33688364323921027 -0.097711087448426395 0 0.35126538542669372 -0.078382297531019524 0 0.33688364323921027 -0.097711087448426395 0 0.36137104823437288 -0.082133184665430736 0 0.3543029628346932 -0.089106349660880727 0 0.35126538542669372 -0.078382297531019524 0 0.36423484953993462 -0.089406728356698023 0 0.3543029628346932 -0.089106349660880727 0 0.35775988773325418 -0.097898450302828954 0 0.35294683708635832 -0.061047167563291323 0 0.35126538542669372 -0.078382297531019524 0 0.34667240797398702 -0.070628776525170772 0 0.35294683708635832 -0.061047167563291323 0 0.35126538542669372 -0.078382297531019524 0 0.35538497867388807 -0.072845642000542929 0 0.35126538542669372 -0.078382297531019524 0 0.34667240797398702 -0.070628776525170772 0 0.34086518348478673 -0.075278408473240771 0 0.35294683708635832 -0.061047167563291323 0 0.34667240797398702 -0.070628776525170772 0 0.33888820241071771 -0.068674620263290548 0 0.35294683708635832 -0.061047167563291323 0 0.36564712761417362 -0.059053507613610133 0 0.35538497867388807 -0.072845642000542929 0 0.36137104823437288 -0.082133184665430736 0 0.35126538542669372 -0.078382297531019524 0 0.35538497867388807 -0.072845642000542929 0 0.35126538542669372 -0.078382297531019524 0 0.35538497867388807 -0.072845642000542929 0 0.3602007449464511 -0.1138351589093477 0 0.35577708572665723 -0.129039081113861 0 0.38351784665369182 -0.12995923037026921 0 0.3602007449464511 -0.1138351589093477 0 0.38351784665369182 -0.12995923037026921 0 0.3602007449464511 -0.1138351589093477 0 0.37357280442579133 -0.098971971227533997 0 0.35775988773325418 -0.097898450302828954 0 0.38396610509497492 -0.1108671781372757 0 0.3602007449464511 -0.1138351589093477 0 0.37357280442579133 -0.098971971227533997 0 0.36423484953993462 -0.089406728356698023 0 0.37357280442579133 -0.098971971227533997 0 0.35775988773325418 -0.097898450302828954 0 0.3602007449464511 -0.1138351589093477 0 0.3433855818259976 -0.11323012639187589 0 0.33688364323921027 -0.097711087448426395 0 0.3602007449464511 -0.1138351589093477 0 0.35775988773325418 -0.097898450302828954 0 0.33688364323921027 -0.097711087448426395 0 0.3543029628346932 -0.089106349660880727 0 0.35775988773325418 -0.097898450302828954 0 0.33688364323921027 -0.097711087448426395 0 0.3602007449464511 -0.1138351589093477 0 0.33688364323921027 -0.097711087448426395 0 0.3602007449464511 -0.1138351589093477 0 0.3433855818259976 -0.11323012639187589 0 0.35577708572665723 -0.129039081113861 0 0.3433855818259976 -0.11323012639187589 0 0.33724441578048042 -0.1275980582989652 0 0.35577708572665723 -0.129039081113861 0 0.33397202411751209 -0.11703286866167729 0 0.32722258219061079 -0.1230596825477264 0 0.33724441578048042 -0.1275980582989652 0 0.3433855818259976 -0.11323012639187589 0 0.33397202411751209 -0.11703286866167729 0 0.33724441578048042 -0.1275980582989652 0 0.3433855818259976 -0.11323012639187589 0 0.33535475825387029 -0.10981530503504711 0 0.33397202411751209 -0.11703286866167729 0 0.33397202411751209 -0.11703286866167729 0 0.32665278253660102 -0.11146117103477191 0 0.32722258219061079 -0.1230596825477264 0 0.33535475825387029 -0.10981530503504711 0 0.33397202411751209 -0.11703286866167729 0 0.32665278253660102 -0.11146117103477191 0 0.33688364323921027 -0.097711087448426395 0 0.32665278253660102 -0.11146117103477191 0 0.33535475825387029 -0.10981530503504711 0 0.33688364323921027 -0.097711087448426395 0 0.32665278253660102 -0.11146117103477191 0 0.33688364323921027 -0.097711087448426395 0 0.32587350038055007 -0.1036603381085036 0 0.32665278253660102 -0.11146117103477191 0 0.3433855818259976 -0.11323012639187589 0 0.33535475825387029 -0.10981530503504711 0 0.33688364323921027 -0.097711087448426395 0 0.32587350038055007 -0.1036603381085036 0 0.313935470925293 -0.081842135340530225 0 0.30722428229342119 -0.099689326117771926 0 0.33688364323921027 -0.097711087448426395 0 0.32587350038055007 -0.1036603381085036 0 0.313935470925293 -0.081842135340530225 0 0.32587350038055007 -0.1036603381085036 0 0.30064008096595718 -0.1175837544230087 0 0.32587350038055007 -0.1036603381085036 0 0.32665278253660102 -0.11146117103477191 0 0.30064008096595718 -0.1175837544230087 0 0.32665278253660102 -0.11146117103477191 0 0.30064008096595718 -0.1175837544230087 0 0.3164219218339881 -0.12521125462111479 0 0.32665278253660102 -0.11146117103477191 0 0.32722258219061079 -0.1230596825477264 0 0.3164219218339881 -0.12521125462111479 0 0.32665278253660102 -0.11146117103477191 0 0.3164219218339881 -0.12521125462111479 0 0.35294683708635832 -0.061047167563291323 0 0.33204357765787929 -0.063895714456014691 0 0.33888820241071771 -0.068674620263290548 0 0.33044222653943089 -0.073139827703872215 0 0.33204357765787929 -0.063895714456014691 0 0.33888820241071771 -0.068674620263290548 0 0.33044222653943089 -0.073139827703872215 0 0.33888820241071771 -0.068674620263290548 0 0.34086518348478673 -0.075278408473240771 0 0.34667240797398702 -0.070628776525170772 0 0.33888820241071771 -0.068674620263290548 0 0.34086518348478673 -0.075278408473240771 0 0.33044222653943089 -0.073139827703872215 0 0.34086518348478673 -0.075278408473240771 0 0.3372712994392762 -0.082984705522873153 0 0.35126538542669372 -0.078382297531019524 0 0.34086518348478673 -0.075278408473240771 0 0.3372712994392762 -0.082984705522873153 0 0.33688364323921027 -0.097711087448426395 0 0.3372712994392762 -0.082984705522873153 0 0.313935470925293 -0.081842135340530225 0 0.35126538542669372 -0.078382297531019524 0 0.33688364323921027 -0.097711087448426395 0 0.3372712994392762 -0.082984705522873153 0 0.33688364323921027 -0.097711087448426395 0 0.313935470925293 -0.081842135340530225 0 0.33044222653943089 -0.073139827703872215 0 0.3372712994392762 -0.082984705522873153 0 0.313935470925293 -0.081842135340530225 0 0.313935470925293 -0.081842135340530225 0 0.32164705593543003 -0.067320680317800183 0 0.31024997807800908 -0.068035053031969328 0 0.33044222653943089 -0.073139827703872215 0 0.313935470925293 -0.081842135340530225 0 0.32164705593543003 -0.067320680317800183 0 0.33044222653943089 -0.073139827703872215 0 0.33204357765787929 -0.063895714456014691 0 0.32164705593543003 -0.067320680317800183 0 0.31495551999281279 -0.057303489851941253 0 0.32164705593543003 -0.067320680317800183 0 0.31024997807800908 -0.068035053031969328 0 0.313935470925293 -0.081842135340530225 0 0.29608241380880029 -0.083432645696248087 0 0.29098729861137551 -0.065973183232634125 0 0.313935470925293 -0.081842135340530225 0 0.31024997807800908 -0.068035053031969328 0 0.29098729861137551 -0.065973183232634125 0 0.31024997807800908 -0.068035053031969328 0 0.29098729861137551 -0.065973183232634125 0 0.30213997741971821 -0.061434551048258047 0 0.313935470925293 -0.081842135340530225 0 0.29098729861137551 -0.065973183232634125 0 0.313935470925293 -0.081842135340530225 0 0.29608241380880029 -0.083432645696248087 0 0.30722428229342119 -0.099689326117771926 0 0.29608241380880029 -0.083432645696248087 0 0.28471941437813009 -0.084624663394858704 0 0.29072385533163358 -0.099513372182572293 0 0.28471941437813009 -0.084624663394858704 0 0.29072385533163358 -0.099513372182572293 0 0.2765233807858497 -0.093124840568146419 0 0.29608241380880029 -0.083432645696248087 0 0.28471941437813009 -0.084624663394858704 0 0.28296497030392997 -0.074603431324827343 0 0.29608241380880029 -0.083432645696248087 0 0.28296497030392997 -0.074603431324827343 0 0.29098729861137551 -0.065973183232634125 0 0.28296497030392997 -0.074603431324827343 0 0.29098729861137551 -0.065973183232634125 0 0.27332749663626721 -0.067466473248108727 0 0.30064008096595718 -0.1175837544230087 0 0.29681430578650619 -0.13058083904157389 0 0.3164219218339881 -0.12521125462111479 0 0.32587350038055007 -0.1036603381085036 0 0.30064008096595718 -0.1175837544230087 0 0.30722428229342119 -0.099689326117771926 0 0.30064008096595718 -0.1175837544230087 0 0.30722428229342119 -0.099689326117771926 0 0.29072385533163358 -0.099513372182572293 0 0.29608241380880029 -0.083432645696248087 0 0.30722428229342119 -0.099689326117771926 0 0.29072385533163358 -0.099513372182572293 0 0.29072385533163358 -0.099513372182572293 0 0.278951525551832 -0.1054966556737898 0 0.2765233807858497 -0.093124840568146419 0 0.29072385533163358 -0.099513372182572293 0 0.28541907745451311 -0.1141532860269467 0 0.278951525551832 -0.1054966556737898 0 0.30064008096595718 -0.1175837544230087 0 0.29072385533163358 -0.099513372182572293 0 0.28541907745451311 -0.1141532860269467 0 0.30064008096595718 -0.1175837544230087 0 0.2754066615513644 -0.1315071707375142 0 0.30064008096595718 -0.1175837544230087 0 0.28541907745451311 -0.1141532860269467 0 0.2754066615513644 -0.1315071707375142 0 0.28541907745451311 -0.1141532860269467 0 0.27491725188797289 -0.11640522419920959 0 0.2754066615513644 -0.1315071707375142 0 0.27491725188797289 -0.11640522419920959 0 0.26299143100352601 -0.1198649079244455 0 0.2754066615513644 -0.1315071707375142 0 0.27491725188797289 -0.11640522419920959 0 0.2682681578428347 -0.10973730698750141 0 0.278951525551832 -0.1054966556737898 0 0.28541907745451311 -0.1141532860269467 0 0.27491725188797289 -0.11640522419920959 0 0.278951525551832 -0.1054966556737898 0 0.27491725188797289 -0.11640522419920959 0 0.2682681578428347 -0.10973730698750141 0 0.26299143100352601 -0.1198649079244455 0 0.2682681578428347 -0.10973730698750141 0 0.278951525551832 -0.1054966556737898 0 0.26817763256790422 -0.098941401625534178 0 0.2682681578428347 -0.10973730698750141 0 0.26817763256790422 -0.098941401625534178 0 0.26133710415066869 -0.1031553066004758 0 0.278951525551832 -0.1054966556737898 0 0.26817763256790422 -0.098941401625534178 0 0.2765233807858497 -0.093124840568146419 0 0.26817763256790422 -0.098941401625534178 0 0.25817448626650141 -0.094176577626947922 0 0.26133710415066869 -0.1031553066004758 0 0.25817448626650141 -0.094176577626947922 0 0.25096500491655088 -0.1025810790785824 0 0.26133710415066869 -0.1031553066004758 0 0.25817448626650141 -0.094176577626947922 0 0.25096500491655088 -0.1025810790785824 0 0.24874299097860589 -0.090617112372454497 0 0.25096500491655088 -0.1025810790785824 0 0.26133710415066869 -0.1031553066004758 0 0.25983507584901838 -0.1109084078013773 0 0.2682681578428347 -0.10973730698750141 0 0.26133710415066869 -0.1031553066004758 0 0.25983507584901838 -0.1109084078013773 0 0.25096500491655088 -0.1025810790785824 0 0.25983507584901838 -0.1109084078013773 0 0.25660467205585602 -0.1192659136719091 0 0.25660467205585602 -0.1192659136719091 0 0.26299143100352601 -0.1198649079244455 0 0.2754066615513644 -0.1315071707375142 0 0.25983507584901838 -0.1109084078013773 0 0.25660467205585602 -0.1192659136719091 0 0.26299143100352601 -0.1198649079244455 0 0.2682681578428347 -0.10973730698750141 0 0.25983507584901838 -0.1109084078013773 0 0.26299143100352601 -0.1198649079244455 0 0.25660467205585602 -0.1192659136719091 0 0.25195024941704952 -0.12597208579303881 0 0.24694544084397221 -0.1234400746602491 0 0.25660467205585602 -0.1192659136719091 0 0.26299143100352601 -0.1198649079244455 0 0.27332749663626721 -0.067466473248108727 0 0.27368375503053671 -0.079745635581786559 0 0.26131845149163008 -0.075383959369153472 0 0.27332749663626721 -0.067466473248108727 0 0.26131845149163008 -0.075383959369153472 0 0.26231231203218502 -0.062465343634772061 0 0.28296497030392997 -0.074603431324827343 0 0.27332749663626721 -0.067466473248108727 0 0.27368375503053671 -0.079745635581786559 0 0.28471941437813009 -0.084624663394858704 0 0.27368375503053671 -0.079745635581786559 0 0.2765233807858497 -0.093124840568146419 0 0.28471941437813009 -0.084624663394858704 0 0.28296497030392997 -0.074603431324827343 0 0.27368375503053671 -0.079745635581786559 0 0.26817763256790422 -0.098941401625534178 0 0.2765233807858497 -0.093124840568146419 0 0.26581114080973861 -0.087957722296343688 0 0.27368375503053671 -0.079745635581786559 0 0.2765233807858497 -0.093124840568146419 0 0.26581114080973861 -0.087957722296343688 0 0.27368375503053671 -0.079745635581786559 0 0.26581114080973861 -0.087957722296343688 0 0.26131845149163008 -0.075383959369153472 0 0.26581114080973861 -0.087957722296343688 0 0.25624069249936149 -0.085389266187269108 0 0.26131845149163008 -0.075383959369153472 0 0.26817763256790422 -0.098941401625534178 0 0.25817448626650141 -0.094176577626947922 0 0.26581114080973861 -0.087957722296343688 0 0.25817448626650141 -0.094176577626947922 0 0.26581114080973861 -0.087957722296343688 0 0.25624069249936149 -0.085389266187269108 0 0.25817448626650141 -0.094176577626947922 0 0.25624069249936149 -0.085389266187269108 0 0.24874299097860589 -0.090617112372454497 0 0.25624069249936149 -0.085389266187269108 0 0.26131845149163008 -0.075383959369153472 0 0.24715639295033159 -0.078810959271446018 0 0.25624069249936149 -0.085389266187269108 0 0.24715639295033159 -0.078810959271446018 0 0.24874299097860589 -0.090617112372454497 0 0.26131845149163008 -0.075383959369153472 0 0.2521054653009599 -0.066677124806146265 0 0.24715639295033159 -0.078810959271446018 0 0.26131845149163008 -0.075383959369153472 0 0.2521054653009599 -0.066677124806146265 0 0.26231231203218502 -0.062465343634772061 0 0.2521054653009599 -0.066677124806146265 0 0.25409995514052292 -0.056048758880425611 0 0.26231231203218502 -0.062465343634772061 0 0.25409995514052292 -0.056048758880425611 0 0.26803912629746041 -0.050104231124734833 0 0.2424473659406173 -0.046177209254932523 0 0.26803912629746041 -0.050104231124734833 0 0.2424473659406173 -0.046177209254932523 0 0.25409995514052292 -0.056048758880425611 0 0.26231231203218502 -0.062465343634772061 0 0.26803912629746041 -0.050104231124734833 0 0.27332749663626721 -0.067466473248108727 0 0.26231231203218502 -0.062465343634772061 0 0.26803912629746041 -0.050104231124734833 0 0.29098729861137551 -0.065973183232634125 0 0.27332749663626721 -0.067466473248108727 0 0.26803912629746041 -0.050104231124734833 0 0.26803912629746041 -0.050104231124734833 0 0.29149732314513699 -0.05370386048833585 0 0.26803912629746041 -0.050104231124734833 0 0.27175002566154027 -0.042459587536308303 0 0.29149732314513699 -0.05370386048833585 0 0.29098729861137551 -0.065973183232634125 0 0.26803912629746041 -0.050104231124734833 0 0.27857445743515102 -0.034977592574864699 0 0.27175002566154027 -0.042459587536308303 0 0.28640733983715622 -0.039593357148910588 0 0.27857445743515102 -0.034977592574864699 0 0.27175002566154027 -0.042459587536308303 0 0.27024842808906391 -0.03427926774946409 0 0.27857445743515102 -0.034977592574864699 0 0.27024842808906391 -0.03427926774946409 0 0.27555500473368028 -0.026254908118160759 0 0.26803912629746041 -0.050104231124734833 0 0.27175002566154027 -0.042459587536308303 0 0.26251547703290479 -0.03730612504863122 0 0.27175002566154027 -0.042459587536308303 0 0.27024842808906391 -0.03427926774946409 0 0.26251547703290479 -0.03730612504863122 0 0.27024842808906391 -0.03427926774946409 0 0.26251547703290479 -0.03730612504863122 0 0.26317404976318792 -0.027672959062748779 0 0.26803912629746041 -0.050104231124734833 0 0.2424473659406173 -0.046177209254932523 0 0.2486608046782359 -0.036703876033263291 0 0.26803912629746041 -0.050104231124734833 0 0.2486608046782359 -0.036703876033263291 0 0.26803912629746041 -0.050104231124734833 0 0.26251547703290479 -0.03730612504863122 0 0.2486608046782359 -0.036703876033263291 0 0.26251547703290479 -0.03730612504863122 0 0.25597369282990518 -0.03121006357617364 0 0.26317404976318792 -0.027672959062748779 0 0.26251547703290479 -0.03730612504863122 0 0.25597369282990518 -0.03121006357617364 0 0.2486608046782359 -0.036703876033263291 0 0.25597369282990518 -0.03121006357617364 0 0.25029908842709009 -0.020265960344412019 0 0.26317404976318792 -0.027672959062748779 0 0.25597369282990518 -0.03121006357617364 0 0.25029908842709009 -0.020265960344412019 0 0.2486608046782359 -0.036703876033263291 0 0.25029908842709009 -0.020265960344412019 0 0.26317404976318792 -0.027672959062748779 0 0.26679275353865761 -0.013034052691556211 0 0.27265066055532022 0.0047061445943817146 0 0.25452241286566479 -0.0019804021957848931 0 0.26679275353865761 -0.013034052691556211 0 0.25029908842709009 -0.020265960344412019 0 0.25452241286566479 -0.0019804021957848931 0 0.26679275353865761 -0.013034052691556211 0 0.27265066055532022 0.0047061445943817146 0 0.26679275353865761 -0.013034052691556211 0 0.28500898421285331 -0.0097897417193340101 0 0.26679275353865761 -0.013034052691556211 0 0.27555500473368028 -0.026254908118160759 0 0.28500898421285331 -0.0097897417193340101 0 0.27024842808906391 -0.03427926774946409 0 0.26317404976318792 -0.027672959062748779 0 0.27555500473368028 -0.026254908118160759 0 0.26317404976318792 -0.027672959062748779 0 0.26679275353865761 -0.013034052691556211 0 0.27555500473368028 -0.026254908118160759 0 0.27857445743515102 -0.034977592574864699 0 0.27555500473368028 -0.026254908118160759 0 0.28956523721660482 -0.02685050950826642 0 0.28956523721660482 -0.02685050950826642 0 0.28500898421285331 -0.0097897417193340101 0 0.30732326571167717 -0.01117640654811587 0 0.27555500473368028 -0.026254908118160759 0 0.28956523721660482 -0.02685050950826642 0 0.28500898421285331 -0.0097897417193340101 0 0.29201578911414372 0.0087506111016703511 0 0.28500898421285331 -0.0097897417193340101 0 0.30732326571167717 -0.01117640654811587 0 0.31946060319861141 -0.033768785137868823 0 0.30977597723402411 -0.024712996279377598 0 0.30246632411255808 -0.034309509600903162 0 0.28956523721660482 -0.02685050950826642 0 0.30977597723402411 -0.024712996279377598 0 0.30246632411255808 -0.034309509600903162 0 0.28956523721660482 -0.02685050950826642 0 0.30732326571167717 -0.01117640654811587 0 0.30977597723402411 -0.024712996279377598 0 0.31946060319861141 -0.033768785137868823 0 0.30246632411255808 -0.034309509600903162 0 0.30750718711149339 -0.041455634415330248 0 0.31623338404484891 -0.044178698837363889 0 0.30750718711149339 -0.041455634415330248 0 0.29881562946981299 -0.048655447545302641 0 0.30246632411255808 -0.034309509600903162 0 0.30750718711149339 -0.041455634415330248 0 0.29563980820442359 -0.039622106925646813 0 0.30750718711149339 -0.041455634415330248 0 0.29881562946981299 -0.048655447545302641 0 0.29563980820442359 -0.039622106925646813 0 0.31495551999281279 -0.057303489851941253 0 0.30213997741971821 -0.061434551048258047 0 0.29149732314513699 -0.05370386048833585 0 0.31495551999281279 -0.057303489851941253 0 0.29149732314513699 -0.05370386048833585 0 0.32588123327808571 -0.054851307554296992 0 0.29881562946981299 -0.048655447545302641 0 0.31495551999281279 -0.057303489851941253 0 0.29881562946981299 -0.048655447545302641 0 0.29149732314513699 -0.05370386048833585 0 0.31495551999281279 -0.057303489851941253 0 0.31024997807800908 -0.068035053031969328 0 0.30213997741971821 -0.061434551048258047 0 0.29098729861137551 -0.065973183232634125 0 0.26803912629746041 -0.050104231124734833 0 0.29149732314513699 -0.05370386048833585 0 0.27175002566154027 -0.042459587536308303 0 0.29881562946981299 -0.048655447545302641 0 0.29149732314513699 -0.05370386048833585 0 0.29098729861137551 -0.065973183232634125 0 0.30213997741971821 -0.061434551048258047 0 0.29149732314513699 -0.05370386048833585 0 0.27175002566154027 -0.042459587536308303 0 0.29881562946981299 -0.048655447545302641 0 0.28640733983715622 -0.039593357148910588 0 0.27175002566154027 -0.042459587536308303 0 0.29881562946981299 -0.048655447545302641 0 0.27857445743515102 -0.034977592574864699 0 0.28956523721660482 -0.02685050950826642 0 0.28640733983715622 -0.039593357148910588 0 0.28956523721660482 -0.02685050950826642 0 0.28640733983715622 -0.039593357148910588 0 0.29563980820442359 -0.039622106925646813 0 0.28956523721660482 -0.02685050950826642 0 0.30246632411255808 -0.034309509600903162 0 0.29563980820442359 -0.039622106925646813 0 0.29881562946981299 -0.048655447545302641 0 0.28640733983715622 -0.039593357148910588 0 0.29563980820442359 -0.039622106925646813 0 0.28775216743969723 -0.20809665009234779 0 0.28995005824259279 -0.22659716288656551 0 0.27349015640507762 -0.2150826399435434 0 0.28775216743969723 -0.20809665009234779 0 0.3050937968038468 -0.21339944378459899 0 0.28995005824259279 -0.22659716288656551 0 0.28775216743969723 -0.20809665009234779 0 0.28303548855327337 -0.1921094980429493 0 0.30009199789342778 -0.19794038018670659 0 0.28303548855327337 -0.1921094980429493 0 0.30009199789342778 -0.19794038018670659 0 0.29888466274366982 -0.18185151586979781 0 0.30009199789342778 -0.19794038018670659 0 0.29888466274366982 -0.18185151586979781 0 0.31885900669065642 -0.19407319833280851 0 0.30009199789342778 -0.19794038018670659 0 0.3050937968038468 -0.21339944378459899 0 0.31885900669065642 -0.19407319833280851 0 0.28775216743969723 -0.20809665009234779 0 0.30009199789342778 -0.19794038018670659 0 0.3050937968038468 -0.21339944378459899 0 0.3050937968038468 -0.21339944378459899 0 0.30654714473456462 -0.23216039028756849 0 0.28995005824259279 -0.22659716288656551 0 0.30654714473456462 -0.23216039028756849 0 0.32386361588875329 -0.23888114559754881 0 0.30351358569384429 -0.25088115198832228 0 0.30654714473456462 -0.23216039028756849 0 0.29292988975178769 -0.24081595174771009 0 0.30351358569384429 -0.25088115198832228 0 0.29292988975178769 -0.24081595174771009 0 0.28995005824259279 -0.22659716288656551 0 0.27627693767639427 -0.24131308559254 0 0.29292988975178769 -0.24081595174771009 0 0.27627693767639427 -0.24131308559254 0 0.28836172241154268 -0.25312796798355452 0 0.29292988975178769 -0.24081595174771009 0 0.30351358569384429 -0.25088115198832228 0 0.28836172241154268 -0.25312796798355452 0 0.30654714473456462 -0.23216039028756849 0 0.29292988975178769 -0.24081595174771009 0 0.28995005824259279 -0.22659716288656551 0 0.28995005824259279 -0.22659716288656551 0 0.27627693767639427 -0.24131308559254 0 0.27349015640507762 -0.2150826399435434 0 0.27627693767639427 -0.24131308559254 0 0.2634404904433375 -0.22198171604782921 0 0.25769742253275962 -0.2309313168591966 0 0.27627693767639427 -0.24131308559254 0 0.27349015640507762 -0.2150826399435434 0 0.27627693767639427 -0.24131308559254 0 0.2634404904433375 -0.22198171604782921 0 0.27349015640507762 -0.2150826399435434 0 0.27627693767639427 -0.24131308559254 0 0.25769742253275962 -0.2309313168591966 0 0.26495493643446733 -0.25567555333791819 0 0.25769742253275962 -0.2309313168591966 0 0.24954558159322551 -0.24675869842961379 0 0.24703015147305241 -0.2357666449011277 0 0.25769742253275962 -0.2309313168591966 0 0.26495493643446733 -0.25567555333791819 0 0.24954558159322551 -0.24675869842961379 0 0.25769742253275962 -0.2309313168591966 0 0.26495493643446733 -0.25567555333791819 0 0.25769742253275962 -0.2309313168591966 0 0.24703015147305241 -0.2357666449011277 0 0.24802633208289551 -0.22480320887852731 0 0.2634404904433375 -0.22198171604782921 0 0.25769742253275962 -0.2309313168591966 0 0.24802633208289551 -0.22480320887852731 0 0.2632013944824601 -0.20903306231988009 0 0.24780163132278371 -0.209693480380823 0 0.24802633208289551 -0.22480320887852731 0 0.2634404904433375 -0.22198171604782921 0 0.2632013944824601 -0.20903306231988009 0 0.24802633208289551 -0.22480320887852731 0 0.2632013944824601 -0.20903306231988009 0 0.24802633208289551 -0.22480320887852731 0 0.2632013944824601 -0.20903306231988009 0 0.25498763715555078 -0.19954335839653109 0 0.24780163132278371 -0.209693480380823 0 0.2632013944824601 -0.20903306231988009 0 0.27023375798737748 -0.20183407110562299 0 0.25498763715555078 -0.19954335839653109 0 0.28775216743969723 -0.20809665009234779 0 0.27349015640507762 -0.2150826399435434 0 0.27023375798737748 -0.20183407110562299 0 0.2634404904433375 -0.22198171604782921 0 0.2632013944824601 -0.20903306231988009 0 0.27349015640507762 -0.2150826399435434 0 0.2632013944824601 -0.20903306231988009 0 0.27349015640507762 -0.2150826399435434 0 0.27023375798737748 -0.20183407110562299 0 0.28303548855327337 -0.1921094980429493 0 0.27023375798737748 -0.20183407110562299 0 0.25893570388820603 -0.18713921783848619 0 0.28775216743969723 -0.20809665009234779 0 0.28303548855327337 -0.1921094980429493 0 0.27023375798737748 -0.20183407110562299 0 0.27023375798737748 -0.20183407110562299 0 0.25498763715555078 -0.19954335839653109 0 0.25893570388820603 -0.18713921783848619 0 0.25498763715555078 -0.19954335839653109 0 0.25893570388820603 -0.18713921783848619 0 0.24663828593967249 -0.19119020945945539 0 0.25893570388820603 -0.18713921783848619 0 0.26120773497194 -0.16518110780241549 0 0.23934400996232061 -0.18025686477495381 0 0.26120773497194 -0.16518110780241549 0 0.27652543009779418 -0.16154953653344861 0 0.27288003939725081 -0.1485234614937222 0 0.26120773497194 -0.16518110780241549 0 0.27652543009779418 -0.16154953653344861 0 0.27805288672000911 -0.17516454801394529 0 0.28303548855327337 -0.1921094980429493 0 0.25893570388820603 -0.18713921783848619 0 0.27805288672000911 -0.17516454801394529 0 0.25893570388820603 -0.18713921783848619 0 0.26120773497194 -0.16518110780241549 0 0.27805288672000911 -0.17516454801394529 0 0.25383227150051291 -0.1434115904070811 0 0.2754066615513644 -0.1315071707375142 0 0.25632830534804962 -0.13131368155395259 0 0.25383227150051291 -0.1434115904070811 0 0.2754066615513644 -0.1315071707375142 0 0.25660467205585602 -0.1192659136719091 0 0.25632830534804962 -0.13131368155395259 0 0.2754066615513644 -0.1315071707375142 0 0.25632830534804962 -0.13131368155395259 0 0.25130992210280118 -0.13689782982029669 0 0.24792257942031951 -0.12986867328604559 0 0.25632830534804962 -0.13131368155395259 0 0.25195024941704952 -0.12597208579303881 0 0.24792257942031951 -0.12986867328604559 0 0.25660467205585602 -0.1192659136719091 0 0.25632830534804962 -0.13131368155395259 0 0.25195024941704952 -0.12597208579303881 0 0.25632830534804962 -0.13131368155395259 0 0.25130992210280118 -0.13689782982029669 0 0.25383227150051291 -0.1434115904070811 0 0.25130992210280118 -0.13689782982029669 0 0.25383227150051291 -0.1434115904070811 0 0.24798520103963889 -0.1411992638902734 0 0.26120773497194 -0.16518110780241549 0 0.25383227150051291 -0.1434115904070811 0 0.24798520103963889 -0.1411992638902734 0 0.26120773497194 -0.16518110780241549 0 0.24605233270990531 -0.15398389375486729 0 0.24798520103963889 -0.1411992638902734 0 0.26120773497194 -0.16518110780241549 0 0.24798520103963889 -0.1411992638902734 0 0.26120773497194 -0.16518110780241549 0 0.25383227150051291 -0.1434115904070811 0 0.27288003939725081 -0.1485234614937222 0 0.25383227150051291 -0.1434115904070811 0 0.27288003939725081 -0.1485234614937222 0 0.2754066615513644 -0.1315071707375142 0 0.27652543009779418 -0.16154953653344861 0 0.27288003939725081 -0.1485234614937222 0 0.28440983304202028 -0.15252485004682881 0 0.27288003939725081 -0.1485234614937222 0 0.2754066615513644 -0.1315071707375142 0 0.28665343178326991 -0.1388295131736425 0 0.25660467205585602 -0.1192659136719091 0 0.2754066615513644 -0.1315071707375142 0 0.2754066615513644 -0.1315071707375142 0 0.28665343178326991 -0.1388295131736425 0 0.29681430578650619 -0.13058083904157389 0 0.28665343178326991 -0.1388295131736425 0 0.3049494327979515 -0.1397725022525895 0 0.30064008096595718 -0.1175837544230087 0 0.2754066615513644 -0.1315071707375142 0 0.29681430578650619 -0.13058083904157389 0 0.2754066615513644 -0.1315071707375142 0 0.29681430578650619 -0.13058083904157389 0 0.28665343178326991 -0.1388295131736425 0 0.28665343178326991 -0.1388295131736425 0 0.29626196386661541 -0.15056532703675571 0 0.3049494327979515 -0.1397725022525895 0 0.28665343178326991 -0.1388295131736425 0 0.28440983304202028 -0.15252485004682881 0 0.29626196386661541 -0.15056532703675571 0 0.27288003939725081 -0.1485234614937222 0 0.28665343178326991 -0.1388295131736425 0 0.28440983304202028 -0.15252485004682881 0 0.28440983304202028 -0.15252485004682881 0 0.29626196386661541 -0.15056532703675571 0 0.28972830006517108 -0.16315641199657499 0 0.29626196386661541 -0.15056532703675571 0 0.31210962651009849 -0.15512987167006281 0 0.3049494327979515 -0.1397725022525895 0 0.29681430578650619 -0.13058083904157389 0 0.3049494327979515 -0.1397725022525895 0 0.3164219218339881 -0.12521125462111479 0 0.27805288672000911 -0.17516454801394529 0 0.28972830006517108 -0.16315641199657499 0 0.29888466274366982 -0.18185151586979781 0 0.28303548855327337 -0.1921094980429493 0 0.27805288672000911 -0.17516454801394529 0 0.29888466274366982 -0.18185151586979781 0 0.27652543009779418 -0.16154953653344861 0 0.27805288672000911 -0.17516454801394529 0 0.28972830006517108 -0.16315641199657499 0 0.29626196386661541 -0.15056532703675571 0 0.28972830006517108 -0.16315641199657499 0 0.30389840375071409 -0.16774799690121059 0 0.27652543009779418 -0.16154953653344861 0 0.28440983304202028 -0.15252485004682881 0 0.28972830006517108 -0.16315641199657499 0 0.28972830006517108 -0.16315641199657499 0 0.30389840375071409 -0.16774799690121059 0 0.29888466274366982 -0.18185151586979781 0 0.31210962651009849 -0.15512987167006281 0 0.30389840375071409 -0.16774799690121059 0 0.31745231271117741 -0.17385061703652241 0 0.29626196386661541 -0.15056532703675571 0 0.31210962651009849 -0.15512987167006281 0 0.30389840375071409 -0.16774799690121059 0 0.30389840375071409 -0.16774799690121059 0 0.29888466274366982 -0.18185151586979781 0 0.31745231271117741 -0.17385061703652241 0 0.29888466274366982 -0.18185151586979781 0 0.31745231271117741 -0.17385061703652241 0 0.31885900669065642 -0.19407319833280851 0 0.31745231271117741 -0.17385061703652241 0 0.34025467631287221 -0.17840535822067399 0 0.31885900669065642 -0.19407319833280851 0 0.31210962651009849 -0.15512987167006281 0 0.31745231271117741 -0.17385061703652241 0 0.33150999498451539 -0.15955436217684241 0 0.31745231271117741 -0.17385061703652241 0 0.33150999498451539 -0.15955436217684241 0 0.34025467631287221 -0.17840535822067399 0 0.33150999498451539 -0.15955436217684241 0 0.34025467631287221 -0.17840535822067399 0 0.35846435697477902 -0.16484887615750171 0 0.3049494327979515 -0.1397725022525895 0 0.32475757941264549 -0.1391121166224594 0 0.3164219218339881 -0.12521125462111479 0 0.32722258219061079 -0.1230596825477264 0 0.32475757941264549 -0.1391121166224594 0 0.3164219218339881 -0.12521125462111479 0 0.31210962651009849 -0.15512987167006281 0 0.33150999498451539 -0.15955436217684241 0 0.32475757941264549 -0.1391121166224594 0 0.31210962651009849 -0.15512987167006281 0 0.3049494327979515 -0.1397725022525895 0 0.32475757941264549 -0.1391121166224594 0 0.33150999498451539 -0.15955436217684241 0 0.32475757941264549 -0.1391121166224594 0 0.34456608471261019 -0.14448888126987181 0 0.32722258219061079 -0.1230596825477264 0 0.32475757941264549 -0.1391121166224594 0 0.33724441578048042 -0.1275980582989652 0 0.32475757941264549 -0.1391121166224594 0 0.33724441578048042 -0.1275980582989652 0 0.34456608471261019 -0.14448888126987181 0 0.35577708572665723 -0.129039081113861 0 0.34456608471261019 -0.14448888126987181 0 0.36574784044071262 -0.1451230314428362 0 0.33724441578048042 -0.1275980582989652 0 0.35577708572665723 -0.129039081113861 0 0.34456608471261019 -0.14448888126987181 0 0.34456608471261019 -0.14448888126987181 0 0.36574784044071262 -0.1451230314428362 0 0.35846435697477902 -0.16484887615750171 0 0.36574784044071262 -0.1451230314428362 0 0.35846435697477902 -0.16484887615750171 0 0.38075208826928059 -0.1585952757073249 0 0.35577708572665723 -0.129039081113861 0 0.36574784044071262 -0.1451230314428362 0 0.38351784665369182 -0.12995923037026921 0 0.34025467631287221 -0.17840535822067399 0 0.36287501612764478 -0.18719861194730331 0 0.34025467631287221 -0.17840535822067399 0 0.35846435697477902 -0.16484887615750171 0 0.36287501612764478 -0.18719861194730331 0 0.33150999498451539 -0.15955436217684241 0 0.34456608471261019 -0.14448888126987181 0 0.35846435697477902 -0.16484887615750171 0 0.35846435697477902 -0.16484887615750171 0 0.38075208826928059 -0.1585952757073249 0 0.38019324105590191 -0.17965179452485849 0 0.35846435697477902 -0.16484887615750171 0 0.36287501612764478 -0.18719861194730331 0 0.38019324105590191 -0.17965179452485849 0 0.36287501612764478 -0.18719861194730331 0 0.38549535594241752 -0.19599186567393259 0 0.36287501612764478 -0.18719861194730331 0 0.36848387439178032 -0.19833241966349069 0 0.38549535594241752 -0.19599186567393259 0 0.36848387439178032 -0.19833241966349069 0 0.36495144259119611 -0.21028829231513799 0 0.38549535594241752 -0.19599186567393259 0 0.36287501612764478 -0.18719861194730331 0 0.36848387439178032 -0.19833241966349069 0 0.35750956389136412 -0.20092624229890771 0 0.37345199301869952 -0.21573701051151359 0 0.36495144259119611 -0.21028829231513799 0 0.37955793552918171 -0.20937934705934361 0 0.37345199301869952 -0.21573701051151359 0 0.36495144259119611 -0.21028829231513799 0 0.36366494420794659 -0.21562582018900639 0 0.36848387439178032 -0.19833241966349069 0 0.36495144259119611 -0.21028829231513799 0 0.35750956389136412 -0.20092624229890771 0 0.36495144259119611 -0.21028829231513799 0 0.34839602085083649 -0.21082469989083299 0 0.35750956389136412 -0.20092624229890771 0 0.36495144259119611 -0.21028829231513799 0 0.34839602085083649 -0.21082469989083299 0 0.34440752923997459 -0.22458471895634341 0 0.36495144259119611 -0.21028829231513799 0 0.36366494420794659 -0.21562582018900639 0 0.34440752923997459 -0.22458471895634341 0 0.36495144259119611 -0.21028829231513799 0 0.34440752923997459 -0.22458471895634341 0 0.34839602085083649 -0.21082469989083299 0 0.35750956389136412 -0.20092624229890771 0 0.34284146549536249 -0.19798718767777321 0 0.36287501612764478 -0.18719861194730331 0 0.35750956389136412 -0.20092624229890771 0 0.34284146549536249 -0.19798718767777321 0 0.34025467631287221 -0.17840535822067399 0 0.36287501612764478 -0.18719861194730331 0 0.34284146549536249 -0.19798718767777321 0 0.34025467631287221 -0.17840535822067399 0 0.34284146549536249 -0.19798718767777321 0 0.31885900669065642 -0.19407319833280851 0 0.34284146549536249 -0.19798718767777321 0 0.32752128183643148 -0.21661660654376541 0 0.31885900669065642 -0.19407319833280851 0 0.34839602085083649 -0.21082469989083299 0 0.32752128183643148 -0.21661660654376541 0 0.34440752923997459 -0.22458471895634341 0 0.34839602085083649 -0.21082469989083299 0 0.34284146549536249 -0.19798718767777321 0 0.32752128183643148 -0.21661660654376541 0 0.3050937968038468 -0.21339944378459899 0 0.32752128183643148 -0.21661660654376541 0 0.31885900669065642 -0.19407319833280851 0 0.32386361588875329 -0.23888114559754881 0 0.31937390008924621 -0.25849150631529022 0 0.30351358569384429 -0.25088115198832228 0 0.30654714473456462 -0.23216039028756849 0 0.32752128183643148 -0.21661660654376541 0 0.32386361588875329 -0.23888114559754881 0 0.3050937968038468 -0.21339944378459899 0 0.30654714473456462 -0.23216039028756849 0 0.32752128183643148 -0.21661660654376541 0 0.32386361588875329 -0.23888114559754881 0 0.34440752923997459 -0.22458471895634341 0 0.32752128183643148 -0.21661660654376541 0 0.32386361588875329 -0.23888114559754881 0 0.34440752923997459 -0.22458471895634341 0 0.32386361588875329 -0.23888114559754881 0 0.34676493608032161 -0.24443352573784161 0 0.33845404477492591 -0.26376806691123722 0 0.32386361588875329 -0.23888114559754881 0 0.34676493608032161 -0.24443352573784161 0 0.34440752923997459 -0.22458471895634341 0 0.34676493608032161 -0.24443352573784161 0 0.35507978509024168 -0.23114595929750201 0 0.36548173083272412 -0.2399397723068166 0 0.36366494420794659 -0.21562582018900639 0 0.35507978509024168 -0.23114595929750201 0 0.34440752923997459 -0.22458471895634341 0 0.34676493608032161 -0.24443352573784161 0 0.35507978509024168 -0.23114595929750201 0 0.34440752923997459 -0.22458471895634341 0 0.36366494420794659 -0.21562582018900639 0 0.36548173083272412 -0.2399397723068166 0 0.37597654543962028 -0.2288572135090734 0 0.36366494420794659 -0.21562582018900639 0 0.36548173083272412 -0.2399397723068166 0 0.36366494420794659 -0.21562582018900639 0 0.35507978509024168 -0.23114595929750201 0 0.36548173083272412 -0.2399397723068166 0 0.37345199301869952 -0.21573701051151359 0 0.36366494420794659 -0.21562582018900639 0 0.37597654543962028 -0.2288572135090734 0 0.34676493608032161 -0.24443352573784161 0 0.36548173083272412 -0.2399397723068166 0 0.36729851745750158 -0.2642537244246268 0 0.36548173083272412 -0.2399397723068166 0 0.37975320136154472 -0.248482397295271 0 0.37597654543962028 -0.2288572135090734 0 0.37975320136154472 -0.248482397295271 0 0.39020011327872411 -0.23411705898645119 0 0.37597654543962028 -0.2288572135090734 0 0.37975320136154472 -0.248482397295271 0 0.39020011327872411 -0.23411705898645119 0 0.39541904943727452 -0.2519474413582945 0 0.40481017046522361 -0.23769589089573109 0 0.39020011327872411 -0.23411705898645119 0 0.39541904943727452 -0.2519474413582945 0 0.40481017046522361 -0.23769589089573109 0 0.39541904943727452 -0.2519474413582945 0 0.41044227084512791 -0.25299848788381851 0 0.40139191869072921 -0.219249085248888 0 0.39020011327872411 -0.23411705898645119 0 0.38454408678693208 -0.21854687411078491 0 0.40481017046522361 -0.23769589089573109 0 0.40139191869072921 -0.219249085248888 0 0.41196701155019477 -0.23085143166790889 0 0.40481017046522361 -0.23769589089573109 0 0.40139191869072921 -0.219249085248888 0 0.39020011327872411 -0.23411705898645119 0 0.39020011327872411 -0.23411705898645119 0 0.37597654543962028 -0.2288572135090734 0 0.38454408678693208 -0.21854687411078491 0 0.37345199301869952 -0.21573701051151359 0 0.37597654543962028 -0.2288572135090734 0 0.38454408678693208 -0.21854687411078491 0 0.37345199301869952 -0.21573701051151359 0 0.37955793552918171 -0.20937934705934361 0 0.38454408678693208 -0.21854687411078491 0 0.36495144259119611 -0.21028829231513799 0 0.37955793552918171 -0.20937934705934361 0 0.38549535594241752 -0.19599186567393259 0 0.36495144259119611 -0.21028829231513799 0 0.38549535594241752 -0.19599186567393259 0 0.37955793552918171 -0.20937934705934361 0 0.39001781665820712 -0.2080172843199701 0 0.38549535594241752 -0.19599186567393259 0 0.37955793552918171 -0.20937934705934361 0 0.39001781665820712 -0.2080172843199701 0 0.38454408678693208 -0.21854687411078491 0 0.36287501612764478 -0.18719861194730331 0 0.38549535594241752 -0.19599186567393259 0 0.38019324105590191 -0.17965179452485849 0 0.38549535594241752 -0.19599186567393259 0 0.39367293809822779 -0.19030111915479281 0 0.38019324105590191 -0.17965179452485849 0 0.38549535594241752 -0.19599186567393259 0 0.39367293809822779 -0.19030111915479281 0 0.39001781665820712 -0.2080172843199701 0 0.38549535594241752 -0.19599186567393259 0 0.40034317582793821 -0.20176369088123611 0 0.38549535594241752 -0.19599186567393259 0 0.39367293809822779 -0.19030111915479281 0 0.40034317582793821 -0.20176369088123611 0 0.38549535594241752 -0.19599186567393259 0 0.40034317582793821 -0.20176369088123611 0 0.39367293809822779 -0.19030111915479281 0 0.40321356657708701 -0.19194467435055579 0 0.40364324282270531 -0.18287143444262571 0 0.39367293809822779 -0.19030111915479281 0 0.40034317582793821 -0.20176369088123611 0 0.40321356657708701 -0.19194467435055579 0 0.40139191869072921 -0.219249085248888 0 0.40034317582793821 -0.20176369088123611 0 0.41519099571345902 -0.2075355160885396 0 0.40139191869072921 -0.219249085248888 0 0.39001781665820712 -0.2080172843199701 0 0.38454408678693208 -0.21854687411078491 0 0.40139191869072921 -0.219249085248888 0 0.39001781665820712 -0.2080172843199701 0 0.40034317582793821 -0.20176369088123611 0 0.41519099571345902 -0.2075355160885396 0 0.41519490955947658 -0.19284245292356869 0 0.41895362220143428 -0.21976773448352849 0 0.40139191869072921 -0.219249085248888 0 0.41519099571345902 -0.2075355160885396 0 0.41895362220143428 -0.21976773448352849 0 0.41519490955947658 -0.19284245292356869 0 0.41895362220143428 -0.21976773448352849 0 0.40034317582793821 -0.20176369088123611 0 0.41519099571345902 -0.2075355160885396 0 0.40321356657708701 -0.19194467435055579 0 0.41519490955947658 -0.19284245292356869 0 0.40364324282270531 -0.18287143444262571 0 0.40034317582793821 -0.20176369088123611 0 0.40321356657708701 -0.19194467435055579 0 0.41519490955947658 -0.19284245292356869 0 0.40034317582793821 -0.20176369088123611 0 0.41519099571345902 -0.2075355160885396 0 0.41519490955947658 -0.19284245292356869 0 0.41519490955947658 -0.19284245292356869 0 0.43260761877060422 -0.2050800677821823 0 0.43466953688676258 -0.1830044265040183 0 0.43260761877060422 -0.2050800677821823 0 0.4328659147695082 -0.22281813827426911 0 0.41895362220143428 -0.21976773448352849 0 0.41519490955947658 -0.19284245292356869 0 0.43260761877060422 -0.2050800677821823 0 0.41895362220143428 -0.21976773448352849 0 0.43260761877060422 -0.2050800677821823 0 0.4328659147695082 -0.22281813827426911 0 0.44460566735056312 -0.21986980985509821 0 0.42832112815328233 -0.23126253486282669 0 0.42271233484339188 -0.24669301604348809 0 0.41895362220143428 -0.21976773448352849 0 0.4328659147695082 -0.22281813827426911 0 0.42832112815328233 -0.23126253486282669 0 0.41895362220143428 -0.21976773448352849 0 0.4328659147695082 -0.22281813827426911 0 0.42832112815328233 -0.23126253486282669 0 0.43984153737165749 -0.23811054438770979 0 0.42271233484339188 -0.24669301604348809 0 0.43984153737165749 -0.23811054438770979 0 0.43658188798014352 -0.25780185117890853 0 0.42832112815328233 -0.23126253486282669 0 0.42271233484339188 -0.24669301604348809 0 0.43984153737165749 -0.23811054438770979 0 0.40481017046522361 -0.23769589089573109 0 0.42271233484339188 -0.24669301604348809 0 0.41044227084512791 -0.25299848788381851 0 0.40481017046522361 -0.23769589089573109 0 0.42271233484339188 -0.24669301604348809 0 0.41196701155019477 -0.23085143166790889 0 0.42271233484339188 -0.24669301604348809 0 0.41196701155019477 -0.23085143166790889 0 0.41895362220143428 -0.21976773448352849 0 0.42271233484339188 -0.24669301604348809 0 0.41895362220143428 -0.21976773448352849 0 0.40139191869072921 -0.219249085248888 0 0.41196701155019477 -0.23085143166790889 0 0.41895362220143428 -0.21976773448352849 0 0.38351784665369182 -0.12995923037026921 0 0.40683494836093242 -0.14608330183119059 0 0.41002067204624859 -0.12659962076666809 0 0.38351784665369182 -0.12995923037026921 0 0.40683494836093242 -0.14608330183119059 0 0.38351784665369182 -0.12995923037026921 0 0.39550118628317998 -0.1546550291733641 0 0.38075208826928059 -0.1585952757073249 0 0.36574784044071262 -0.1451230314428362 0 0.38351784665369182 -0.12995923037026921 0 0.38075208826928059 -0.1585952757073249 0 0.38351784665369182 -0.12995923037026921 0 0.39550118628317998 -0.1546550291733641 0 0.40683494836093242 -0.14608330183119059 0 0.39550118628317998 -0.1546550291733641 0 0.41143619691751898 -0.1659171713636092 0 0.40683494836093242 -0.14608330183119059 0 0.39550118628317998 -0.1546550291733641 0 0.394964851214476 -0.17272016659442671 0 0.41143619691751898 -0.1659171713636092 0 0.38075208826928059 -0.1585952757073249 0 0.38019324105590191 -0.17965179452485849 0 0.394964851214476 -0.17272016659442671 0 0.39550118628317998 -0.1546550291733641 0 0.38075208826928059 -0.1585952757073249 0 0.394964851214476 -0.17272016659442671 0 0.39367293809822779 -0.19030111915479281 0 0.38019324105590191 -0.17965179452485849 0 0.394964851214476 -0.17272016659442671 0 0.39367293809822779 -0.19030111915479281 0 0.394964851214476 -0.17272016659442671 0 0.40364324282270531 -0.18287143444262571 0 0.394964851214476 -0.17272016659442671 0 0.40364324282270531 -0.18287143444262571 0 0.41143619691751898 -0.1659171713636092 0 0.41519490955947658 -0.19284245292356869 0 0.41143619691751898 -0.1659171713636092 0 0.41519490955947658 -0.19284245292356869 0 0.42286317335798279 -0.17599285602082701 0 0.41143619691751898 -0.1659171713636092 0 0.41519490955947658 -0.19284245292356869 0 0.40364324282270531 -0.18287143444262571 0 0.41143619691751898 -0.1659171713636092 0 0.43466953688676258 -0.1830044265040183 0 0.42286317335798279 -0.17599285602082701 0 0.43015205006817298 -0.16220737329211199 0 0.41519490955947658 -0.19284245292356869 0 0.43466953688676258 -0.1830044265040183 0 0.42286317335798279 -0.17599285602082701 0 0.42286317335798279 -0.17599285602082701 0 0.43015205006817298 -0.16220737329211199 0 0.41143619691751898 -0.1659171713636092 0 0.43015205006817298 -0.16220737329211199 0 0.41143619691751898 -0.1659171713636092 0 0.40683494836093242 -0.14608330183119059 0 0.43015205006817298 -0.16220737329211199 0 0.40683494836093242 -0.14608330183119059 0 0.43015205006817298 -0.16220737329211199 0 0.40683494836093242 -0.14608330183119059 0 0.42529179434293801 -0.14235930043162559 0 0.43015205006817298 -0.16220737329211199 0 0.42529179434293801 -0.14235930043162559 0 0.44555769494442798 -0.1489383671031862 0 0.42529179434293801 -0.14235930043162559 0 0.43749947453690591 -0.1349835136866834 0 0.44555769494442798 -0.1489383671031862 0 0.42529179434293801 -0.14235930043162559 0 0.43749947453690591 -0.1349835136866834 0 0.42511925144472879 -0.12747886317116039 0 0.4372008052875902 -0.11996367504429011 0 0.43749947453690591 -0.1349835136866834 0 0.42511925144472879 -0.12747886317116039 0 0.42529179434293801 -0.14235930043162559 0 0.42511925144472879 -0.12747886317116039 0 0.41002067204624859 -0.12659962076666809 0 0.40683494836093242 -0.14608330183119059 0 0.42529179434293801 -0.14235930043162559 0 0.41002067204624859 -0.12659962076666809 0 0.47152027219727127 -0.1186864323683656 0 0.45415408310345812 -0.12802254202861579 0 0.46479162098559418 -0.14398227674004879 0 0.47152027219727127 -0.1186864323683656 0 0.46479162098559418 -0.14398227674004879 0 0.45415408310345812 -0.12802254202861579 0 0.44555769494442798 -0.1489383671031862 0 0.46479162098559418 -0.14398227674004879 0 0.4372008052875902 -0.11996367504429011 0 0.43749947453690591 -0.1349835136866834 0 0.45415408310345812 -0.12802254202861579 0 0.43749947453690591 -0.1349835136866834 0 0.45415408310345812 -0.12802254202861579 0 0.44555769494442798 -0.1489383671031862 0 0.46479162098559418 -0.14398227674004879 0 0.45806296977391719 -0.16927812111173191 0 0.48129355607432972 -0.15368762627925139 0 0.44555769494442798 -0.1489383671031862 0 0.46479162098559418 -0.14398227674004879 0 0.45806296977391719 -0.16927812111173191 0 0.46479162098559418 -0.14398227674004879 0 0.45806296977391719 -0.16927812111173191 0 0.43015205006817298 -0.16220737329211199 0 0.44555769494442798 -0.1489383671031862 0 0.45806296977391719 -0.16927812111173191 0 0.43466953688676258 -0.1830044265040183 0 0.43015205006817298 -0.16220737329211199 0 0.45806296977391719 -0.16927812111173191 0 0.43466953688676258 -0.1830044265040183 0 0.45806296977391719 -0.16927812111173191 0 0.4513343185622401 -0.1945739654834151 0 0.45806296977391719 -0.16927812111173191 0 0.4513343185622401 -0.1945739654834151 0 0.45806296977391719 -0.16927812111173191 0 0.4513343185622401 -0.1945739654834151 0 0.47319917013501772 -0.19469461696032769 0 0.45806296977391719 -0.16927812111173191 0 0.48537658808249201 -0.17726535863648341 0 0.47319917013501772 -0.19469461696032769 0 0.48537658808249201 -0.17726535863648341 0 0.5 -0.1634849590445259 0 0.5 -0.19104575822844089 0 0.48537658808249201 -0.17726535863648341 0 0.5 -0.1634849590445259 0 0.48129355607432972 -0.15368762627925139 0 0.45806296977391719 -0.16927812111173191 0 0.48537658808249201 -0.17726535863648341 0 0.48129355607432972 -0.15368762627925139 0 0.46479162098559418 -0.14398227674004879 0 0.48129355607432972 -0.15368762627925139 0 0.47953015760397488 -0.13219088228210779 0 0.5 -0.1634849590445259 0 0.48129355607432972 -0.15368762627925139 0 0.5 -0.13592415986061079 0 0.48129355607432972 -0.15368762627925139 0 0.5 -0.13592415986061079 0 0.47953015760397488 -0.13219088228210779 0 0.48745031532272148 -0.1234211766301698 0 0.5 -0.13592415986061079 0 0.47953015760397488 -0.13219088228210779 0 0.47152027219727127 -0.1186864323683656 0 0.46479162098559418 -0.14398227674004879 0 0.47953015760397488 -0.13219088228210779 0 0.46089552727266653 -0.23464318486163771 0 0.44460566735056312 -0.21986980985509821 0 0.46678628872015049 -0.21545981385350371 0 0.46089552727266653 -0.23464318486163771 0 0.47364362040659341 -0.25100261809855889 0 0.45511275419336839 -0.25440223463873401 0 0.46089552727266653 -0.23464318486163771 0 0.43984153737165749 -0.23811054438770979 0 0.45511275419336839 -0.25440223463873401 0 0.4328659147695082 -0.22281813827426911 0 0.43984153737165749 -0.23811054438770979 0 0.44460566735056312 -0.21986980985509821 0 0.46089552727266653 -0.23464318486163771 0 0.43984153737165749 -0.23811054438770979 0 0.44460566735056312 -0.21986980985509821 0 0.43260761877060422 -0.2050800677821823 0 0.44460566735056312 -0.21986980985509821 0 0.4513343185622401 -0.1945739654834151 0 0.44460566735056312 -0.21986980985509821 0 0.4513343185622401 -0.1945739654834151 0 0.43260761877060422 -0.2050800677821823 0 0.43466953688676258 -0.1830044265040183 0 0.4513343185622401 -0.1945739654834151 0 0.4513343185622401 -0.1945739654834151 0 0.46678628872015049 -0.21545981385350371 0 0.47319917013501772 -0.19469461696032769 0 0.44460566735056312 -0.21986980985509821 0 0.4513343185622401 -0.1945739654834151 0 0.46678628872015049 -0.21545981385350371 0 0.46678628872015049 -0.21545981385350371 0 0.48260272219473183 -0.21340136936176299 0 0.47319917013501772 -0.19469461696032769 0 0.48537658808249201 -0.17726535863648341 0 0.47319917013501772 -0.19469461696032769 0 0.48766029023859653 -0.19668653235218009 0 0.48260272219473183 -0.21340136936176299 0 0.47319917013501772 -0.19469461696032769 0 0.48766029023859653 -0.19668653235218009 0 0.5 -0.19104575822844089 0 0.48766029023859653 -0.19668653235218009 0 0.49712297078074058 -0.2070255585738853 0 0.48537658808249201 -0.17726535863648341 0 0.5 -0.19104575822844089 0 0.48766029023859653 -0.19668653235218009 0 0.49712297078074058 -0.2070255585738853 0 0.48538329559366661 -0.22901408833622189 0 0.5 -0.19104575822844089 0 0.49712297078074058 -0.2070255585738853 0 0.5 -0.2186065574123558 0 0.49712297078074058 -0.2070255585738853 0 0.5 -0.2186065574123558 0 0.48538329559366661 -0.22901408833622189 0 0.48260272219473183 -0.21340136936176299 0 0.48766029023859653 -0.19668653235218009 0 0.49712297078074058 -0.2070255585738853 0 0.48260272219473183 -0.21340136936176299 0 0.49712297078074058 -0.2070255585738853 0 0.48538329559366661 -0.22901408833622189 0 0.5 -0.2186065574123558 0 0.48538329559366661 -0.22901408833622189 0 0.50000000000000111 -0.24616735659627079 0 0.46678628872015049 -0.21545981385350371 0 0.48260272219473183 -0.21340136936176299 0 0.48538329559366661 -0.22901408833622189 0 0.46089552727266653 -0.23464318486163771 0 0.46678628872015049 -0.21545981385350371 0 0.48538329559366661 -0.22901408833622189 0 0.46089552727266653 -0.23464318486163771 0 0.48538329559366661 -0.22901408833622189 0 0.47364362040659341 -0.25100261809855889 0 0.48538329559366661 -0.22901408833622189 0 0.47364362040659341 -0.25100261809855889 0 0.48538329559366661 -0.22901408833622189 0 0.50000000000000111 -0.24616735659627079 0 0.47364362040659341 -0.25100261809855889 0 0.50000000000000111 -0.24616735659627079 0 0.47364362040659341 -0.25100261809855889 0 0.50000000000000111 -0.24616735659627079 0 0.48856711553898569 -0.25993583340677279 0 0.5 -0.27304316706433079 0 0.50000000000000111 -0.24616735659627079 0 0.48856711553898569 -0.25993583340677279 0 0.47364362040659341 -0.25100261809855889 0 0.48856711553898569 -0.25993583340677279 0 0.5 -0.27304316706433079 0 0.48141341244862779 -0.27578946311118002 0 0.48141341244862779 -0.27578946311118002 0 0.46360116491166659 -0.26981223829829382 0 0.46875387917283251 -0.28401835491238347 0 0.48141341244862779 -0.27578946311118002 0 0.47364362040659341 -0.25100261809855889 0 0.46360116491166659 -0.26981223829829382 0 0.48856711553898569 -0.25993583340677279 0 0.48141341244862779 -0.27578946311118002 0 0.47364362040659341 -0.25100261809855889 0 0.47364362040659341 -0.25100261809855889 0 0.45511275419336839 -0.25440223463873401 0 0.46360116491166659 -0.26981223829829382 0 0.47364362040659341 -0.25100261809855889 0 0.46360116491166659 -0.26981223829829382 0 0.47364362040659341 -0.25100261809855889 0 0.45511275419336839 -0.25440223463873401 0 0.45511275419336839 -0.25440223463873401 0 0.46360116491166659 -0.26981223829829382 0 0.44737615948894133 -0.26443554157190102 0 0.46360116491166659 -0.26981223829829382 0 0.4535587094167407 -0.28862185849802902 0 0.46875387917283251 -0.28401835491238347 0 0.46360116491166659 -0.26981223829829382 0 0.44299151130278119 -0.27806845632927202 0 0.4535587094167407 -0.28862185849802902 0 0.46360116491166659 -0.26981223829829382 0 0.4535587094167407 -0.28862185849802902 0 0.46360116491166659 -0.26981223829829382 0 0.44299151130278119 -0.27806845632927202 0 0.44737615948894133 -0.26443554157190102 0 0.44299151130278119 -0.27806845632927202 0 0.44737615948894133 -0.26443554157190102 0 0.4349740767931497 -0.27018858681550129 0 0.44737615948894133 -0.26443554157190102 0 0.43658188798014352 -0.25780185117890853 0 0.4349740767931497 -0.27018858681550129 0 0.45511275419336839 -0.25440223463873401 0 0.43658188798014352 -0.25780185117890853 0 0.45511275419336839 -0.25440223463873401 0 0.44737615948894133 -0.26443554157190102 0 0.43658188798014352 -0.25780185117890853 0 0.43984153737165749 -0.23811054438770979 0 0.45511275419336839 -0.25440223463873401 0 0.43658188798014352 -0.25780185117890853 0 0.44351625392181482 -0.30743147869776422 0 0.4535587094167407 -0.28862185849802902 0 0.45325804209987791 -0.30047445589883193 0 0.44351625392181482 -0.30743147869776422 0 0.4535587094167407 -0.28862185849802902 0 0.45163657799977402 -0.30676602059237129 0 0.44351625392181482 -0.30743147869776422 0 0.45324124996680037 -0.31233085434039942 0 0.45163657799977402 -0.30676602059237129 0 0.44351625392181482 -0.30743147869776422 0 0.45325804209987791 -0.30047445589883193 0 0.44032427325110979 -0.30782110397744189 0 0.44351625392181482 -0.30743147869776422 0 0.44085666897882159 -0.29378085134540149 0 0.44351625392181482 -0.30743147869776422 0 0.44085666897882159 -0.29378085134540149 0 0.4535587094167407 -0.28862185849802902 0 0.44299151130278119 -0.27806845632927202 0 0.44085666897882159 -0.29378085134540149 0 0.4535587094167407 -0.28862185849802902 0 0.4535587094167407 -0.28862185849802902 0 0.46482196298625811 -0.29528840453019428 0 0.45325804209987791 -0.30047445589883193 0 0.4535587094167407 -0.28862185849802902 0 0.46482196298625811 -0.29528840453019428 0 0.46875387917283251 -0.28401835491238347 0 0.46482196298625811 -0.29528840453019428 0 0.46296417698969627 -0.3052394294688221 0 0.47187042870694063 -0.30370213558618331 0 0.45325804209987791 -0.30047445589883193 0 0.45630189436218488 -0.30712301995523739 0 0.46296417698969627 -0.3052394294688221 0 0.46482196298625811 -0.29528840453019428 0 0.45325804209987791 -0.30047445589883193 0 0.46296417698969627 -0.3052394294688221 0 0.45163657799977402 -0.30676602059237129 0 0.45324124996680037 -0.31233085434039942 0 0.45630189436218488 -0.30712301995523739 0 0.45324124996680037 -0.31233085434039942 0 0.45630189436218488 -0.30712301995523739 0 0.46073646909572591 -0.3116740931717682 0 0.45163657799977402 -0.30676602059237129 0 0.45325804209987791 -0.30047445589883193 0 0.45630189436218488 -0.30712301995523739 0 0.45630189436218488 -0.30712301995523739 0 0.46073646909572591 -0.3116740931717682 0 0.46296417698969627 -0.3052394294688221 0 0.46296417698969627 -0.3052394294688221 0 0.47187042870694063 -0.30370213558618331 0 0.46949628679452149 -0.3130396511514319 0 0.46073646909572591 -0.3116740931717682 0 0.46296417698969627 -0.3052394294688221 0 0.46949628679452149 -0.3130396511514319 0 0.47910207874303701 -0.29443513594117382 0 0.48606805249535828 -0.31418029011695281 0 0.47187042870694063 -0.30370213558618331 0 0.48201272345181628 -0.31082339598333042 0 0.46949628679452149 -0.3130396511514319 0 0.48201272345181628 -0.31082339598333042 0 0.47910207874303701 -0.29443513594117382 0 0.48606805249535828 -0.31418029011695281 0 0.47187042870694063 -0.30370213558618331 0 0.48201272345181628 -0.31082339598333042 0 0.47910207874303701 -0.29443513594117382 0 0.46482196298625811 -0.29528840453019428 0 0.47187042870694063 -0.30370213558618331 0 0.47910207874303701 -0.29443513594117382 0 0.48141341244862779 -0.27578946311118002 0 0.46875387917283251 -0.28401835491238347 0 0.47910207874303701 -0.29443513594117382 0 0.46482196298625811 -0.29528840453019428 0 0.46875387917283251 -0.28401835491238347 0 0.47910207874303701 -0.29443513594117382 0 0.48141341244862779 -0.27578946311118002 0 0.47910207874303701 -0.29443513594117382 0 0.5 -0.29991897753239088 0 0.5 -0.27304316706433079 0 0.48141341244862779 -0.27578946311118002 0 0.5 -0.29991897753239088 0 0.47910207874303701 -0.29443513594117382 0 0.5 -0.29991897753239088 0 0.48606805249535828 -0.31418029011695281 0 0.48606805249535828 -0.31418029011695281 0 0.49303402624767961 -0.33392544429273202 0 0.48606805249535828 -0.31418029011695281 0 0.49303402624767961 -0.33392544429273202 0 0.48252716120781591 -0.32775264182837283 0 0.5 -0.32679478800045098 0 0.48606805249535828 -0.31418029011695281 0 0.49303402624767961 -0.33392544429273202 0 0.5 -0.29991897753239088 0 0.5 -0.32679478800045098 0 0.48606805249535828 -0.31418029011695281 0 0.49303402624767961 -0.33392544429273202 0 0.48873675934440108 -0.34363067860651519 0 0.50000000000000044 -0.35367059846851118 0 0.5 -0.32679478800045098 0 0.49303402624767961 -0.33392544429273202 0 0.50000000000000044 -0.35367059846851118 0 0.49303402624767961 -0.33392544429273202 0 0.48873675934440108 -0.34363067860651519 0 0.48370057430341129 -0.33620023859608772 0 0.49303402624767961 -0.33392544429273202 0 0.48370057430341129 -0.33620023859608772 0 0.48252716120781591 -0.32775264182837283 0 0.47955796330620643 -0.34229446887215842 0 0.47384275769448242 -0.33450980529905783 0 0.4628451457497687 -0.33836596680910941 0 0.47955796330620643 -0.34229446887215842 0 0.47713282876053592 -0.34816074801767388 0 0.4628451457497687 -0.33836596680910941 0 0.48370057430341129 -0.33620023859608772 0 0.47384275769448242 -0.33450980529905783 0 0.48252716120781591 -0.32775264182837283 0 0.48873675934440108 -0.34363067860651519 0 0.47955796330620643 -0.34229446887215842 0 0.48370057430341129 -0.33620023859608772 0 0.47955796330620643 -0.34229446887215842 0 0.48370057430341129 -0.33620023859608772 0 0.47384275769448242 -0.33450980529905783 0 0.47384275769448242 -0.33450980529905783 0 0.47242893460079372 -0.32459468139622061 0 0.4628451457497687 -0.33836596680910941 0 0.47384275769448242 -0.33450980529905783 0 0.47242893460079372 -0.32459468139622061 0 0.48252716120781591 -0.32775264182837283 0 0.48201272345181628 -0.31082339598333042 0 0.47242893460079372 -0.32459468139622061 0 0.46949628679452149 -0.3130396511514319 0 0.48201272345181628 -0.31082339598333042 0 0.47242893460079372 -0.32459468139622061 0 0.48201272345181628 -0.31082339598333042 0 0.48606805249535828 -0.31418029011695281 0 0.47242893460079372 -0.32459468139622061 0 0.48606805249535828 -0.31418029011695281 0 0.47242893460079372 -0.32459468139622061 0 0.48252716120781591 -0.32775264182837283 0 0.49224383436031022 -0.3668661462496518 0 0.50000000000000044 -0.35367059846851118 0 0.5 -0.38762612606622049 0 0.49224383436031022 -0.3668661462496518 0 0.4787369731214603 -0.35991991358634112 0 0.49462880049315261 -0.38147386036357228 0 0.4787369731214603 -0.35991991358634112 0 0.49462880049315261 -0.38147386036357228 0 0.49224383436031022 -0.3668661462496518 0 0.48739123286470798 -0.35206264280308691 0 0.4787369731214603 -0.35991991358634112 0 0.49303402624767961 -0.33392544429273202 0 0.50000000000000044 -0.35367059846851118 0 0.49224383436031022 -0.3668661462496518 0 0.48739123286470798 -0.35206264280308691 0 0.50000000000000044 -0.35367059846851118 0 0.48873675934440108 -0.34363067860651519 0 0.47955796330620643 -0.34229446887215842 0 0.48739123286470798 -0.35206264280308691 0 0.48873675934440108 -0.34363067860651519 0 0.48739123286470798 -0.35206264280308691 0 0.50000000000000044 -0.35367059846851118 0 0.4787369731214603 -0.35991991358634112 0 0.4628451457497687 -0.33836596680910941 0 0.47713282876053592 -0.34816074801767388 0 0.4787369731214603 -0.35991991358634112 0 0.4628451457497687 -0.33836596680910941 0 0.47955796330620643 -0.34229446887215842 0 0.48739123286470798 -0.35206264280308691 0 0.47713282876053592 -0.34816074801767388 0 0.48739123286470798 -0.35206264280308691 0 0.47713282876053592 -0.34816074801767388 0 0.4787369731214603 -0.35991991358634112 0 0.47825733482808003 -0.3689639544430644 0 0.46156226383715859 -0.36658153904943519 0 0.46840660085504843 -0.37830659628550772 0 0.4787369731214603 -0.35991991358634112 0 0.47825733482808003 -0.3689639544430644 0 0.46156226383715859 -0.36658153904943519 0 0.47825733482808003 -0.3689639544430644 0 0.46156226383715859 -0.36658153904943519 0 0.4787369731214603 -0.35991991358634112 0 0.47825733482808003 -0.3689639544430644 0 0.49462880049315261 -0.38147386036357228 0 0.46156226383715859 -0.36658153904943519 0 0.4482105639785795 -0.3732006477900115 0 0.45341417847396992 -0.38245166595538183 0 0.46156226383715859 -0.36658153904943519 0 0.44486719284623732 -0.3641991236558057 0 0.4787369731214603 -0.35991991358634112 0 0.46156226383715859 -0.36658153904943519 0 0.46425013800159792 -0.35403749116933592 0 0.46156226383715859 -0.36658153904943519 0 0.45385616929800382 -0.35128254523245811 0 0.44486719284623732 -0.3641991236558057 0 0.46425013800159792 -0.35403749116933592 0 0.45385616929800382 -0.35128254523245811 0 0.4628451457497687 -0.33836596680910941 0 0.4787369731214603 -0.35991991358634112 0 0.46425013800159792 -0.35403749116933592 0 0.4628451457497687 -0.33836596680910941 0 0.46156226383715859 -0.36658153904943519 0 0.46425013800159792 -0.35403749116933592 0 0.45385616929800382 -0.35128254523245811 0 0.45385616929800382 -0.35128254523245811 0 0.4628451457497687 -0.33836596680910941 0 0.45385616929800382 -0.35128254523245811 0 0.44267432427541109 -0.35308693224186388 0 0.44753056147549131 -0.3402978117228691 0 0.44267432427541109 -0.35308693224186388 0 0.44753056147549131 -0.3402978117228691 0 0.43326891375065202 -0.34677601127502072 0 0.45385616929800382 -0.35128254523245811 0 0.44486719284623732 -0.3641991236558057 0 0.45385616929800382 -0.35128254523245811 0 0.44267432427541109 -0.35308693224186388 0 0.44486719284623732 -0.3641991236558057 0 0.46156226383715859 -0.36658153904943519 0 0.44486719284623732 -0.3641991236558057 0 0.4482105639785795 -0.3732006477900115 0 0.44267432427541109 -0.35308693224186388 0 0.44486719284623732 -0.3641991236558057 0 0.42904769804233878 -0.36194165449256099 0 0.44486719284623732 -0.3641991236558057 0 0.4482105639785795 -0.3732006477900115 0 0.43695737788381128 -0.37556501673879039 0 0.44486719284623732 -0.3641991236558057 0 0.43695737788381128 -0.37556501673879039 0 0.47242893460079372 -0.32459468139622061 0 0.4616787373654257 -0.32063751094295029 0 0.4628451457497687 -0.33836596680910941 0 0.4616787373654257 -0.32063751094295029 0 0.4628451457497687 -0.33836596680910941 0 0.45158470950043889 -0.3230935353932759 0 0.45324124996680037 -0.31233085434039942 0 0.4616787373654257 -0.32063751094295029 0 0.45158470950043889 -0.3230935353932759 0 0.45324124996680037 -0.31233085434039942 0 0.46073646909572591 -0.3116740931717682 0 0.4616787373654257 -0.32063751094295029 0 0.46073646909572591 -0.3116740931717682 0 0.46949628679452149 -0.3130396511514319 0 0.4616787373654257 -0.32063751094295029 0 0.47242893460079372 -0.32459468139622061 0 0.46949628679452149 -0.3130396511514319 0 0.4616787373654257 -0.32063751094295029 0 0.47242893460079372 -0.32459468139622061 0 0.4628451457497687 -0.33836596680910941 0 0.4628451457497687 -0.33836596680910941 0 0.44753056147549131 -0.3402978117228691 0 0.45158470950043889 -0.3230935353932759 0 0.45385616929800382 -0.35128254523245811 0 0.4628451457497687 -0.33836596680910941 0 0.44753056147549131 -0.3402978117228691 0 0.4628451457497687 -0.33836596680910941 0 0.45158470950043889 -0.3230935353932759 0 0.44753056147549131 -0.3402978117228691 0 0.44095410627867337 -0.32918187938548682 0 0.45158470950043889 -0.3230935353932759 0 0.44753056147549131 -0.3402978117228691 0 0.44095410627867337 -0.32918187938548682 0 0.43326891375065202 -0.34677601127502072 0 0.44351625392181482 -0.30743147869776422 0 0.45324124996680037 -0.31233085434039942 0 0.45158470950043889 -0.3230935353932759 0 0.44032427325110979 -0.30782110397744189 0 0.44351625392181482 -0.30743147869776422 0 0.45158470950043889 -0.3230935353932759 0 0.44095410627867337 -0.32918187938548682 0 0.45158470950043889 -0.3230935353932759 0 0.44060215057984747 -0.31957238563017548 0 0.44032427325110979 -0.30782110397744189 0 0.45158470950043889 -0.3230935353932759 0 0.44032427325110979 -0.30782110397744189 0 0.45158470950043889 -0.3230935353932759 0 0.44060215057984747 -0.31957238563017548 0 0.44032427325110979 -0.30782110397744189 0 0.44060215057984747 -0.31957238563017548 0 0.42954551328916768 -0.31819302376449737 0 0.42954551328916768 -0.31819302376449737 0 0.42113591642306503 -0.33004212404394528 0 0.41791873910599608 -0.31921805027990802 0 0.44095410627867337 -0.32918187938548682 0 0.44060215057984747 -0.31957238563017548 0 0.42954551328916768 -0.31819302376449737 0 0.42954551328916768 -0.31819302376449737 0 0.43326891375065202 -0.34677601127502072 0 0.41817769130579319 -0.34321952637121422 0 0.42113591642306503 -0.33004212404394528 0 0.43326891375065202 -0.34677601127502072 0 0.42954551328916768 -0.31819302376449737 0 0.42113591642306503 -0.33004212404394528 0 0.43326891375065202 -0.34677601127502072 0 0.44095410627867337 -0.32918187938548682 0 0.42954551328916768 -0.31819302376449737 0 0.43326891375065202 -0.34677601127502072 0 0.41817769130579319 -0.34321952637121422 0 0.40730768456924937 -0.32449739824986629 0 0.41817769130579319 -0.34321952637121422 0 0.42113591642306503 -0.33004212404394528 0 0.40730768456924937 -0.32449739824986629 0 0.41817769130579319 -0.34321952637121422 0 0.40730768456924937 -0.32449739824986629 0 0.39441735534957589 -0.33992831428645309 0 0.40730768456924937 -0.32449739824986629 0 0.41791873910599608 -0.31921805027990802 0 0.41454817799135568 -0.30684907861457139 0 0.42954551328916768 -0.31819302376449737 0 0.41791873910599608 -0.31921805027990802 0 0.41454817799135568 -0.30684907861457139 0 0.42113591642306503 -0.33004212404394528 0 0.40730768456924937 -0.32449739824986629 0 0.41791873910599608 -0.31921805027990802 0 0.44486719284623732 -0.3641991236558057 0 0.42904769804233878 -0.36194165449256099 0 0.44486719284623732 -0.3641991236558057 0 0.42904769804233878 -0.36194165449256099 0 0.43695737788381128 -0.37556501673879039 0 0.42904769804233878 -0.36194165449256099 0 0.41398768910653078 -0.37483313988643108 0 0.42679964524729619 -0.37549544497938558 0 0.42904769804233878 -0.36194165449256099 0 0.42679964524729619 -0.37549544497938558 0 0.43695737788381128 -0.37556501673879039 0 0.42904769804233878 -0.36194165449256099 0 0.43695737788381128 -0.37556501673879039 0 0.41817769130579319 -0.34321952637121422 0 0.42904769804233878 -0.36194165449256099 0 0.41817769130579319 -0.34321952637121422 0 0.42904769804233878 -0.36194165449256099 0 0.43326891375065202 -0.34677601127502072 0 0.44267432427541109 -0.35308693224186388 0 0.42904769804233878 -0.36194165449256099 0 0.43326891375065202 -0.34677601127502072 0 0.41817769130579319 -0.34321952637121422 0 0.42904769804233878 -0.36194165449256099 0 0.40273125669246529 -0.3581862529724581 0 0.42904769804233878 -0.36194165449256099 0 0.40273125669246529 -0.3581862529724581 0 0.42904769804233878 -0.36194165449256099 0 0.41398768910653078 -0.37483313988643108 0 0.40273125669246529 -0.3581862529724581 0 0.41398768910653078 -0.37483313988643108 0 0.40273125669246529 -0.3581862529724581 0 0.3878215402835033 -0.37308133692233031 0 0.40273125669246529 -0.3581862529724581 0 0.3792834414250571 -0.35508315977584021 0 0.39441735534957589 -0.33992831428645309 0 0.41817769130579319 -0.34321952637121422 0 0.40273125669246529 -0.3581862529724581 0 0.39441735534957589 -0.33992831428645309 0 0.3792834414250571 -0.35508315977584021 0 0.39441735534957589 -0.33992831428645309 0 0.37274887733183398 -0.33719558077805722 0 0.3792834414250571 -0.35508315977584021 0 0.3878215402835033 -0.37308133692233031 0 0.3667466200937507 -0.37297689428278918 0 0.40273125669246529 -0.3581862529724581 0 0.3792834414250571 -0.35508315977584021 0 0.3878215402835033 -0.37308133692233031 0 0.40730768456924937 -0.32449739824986629 0 0.38804376595924328 -0.3234846286014802 0 0.39643767783270539 -0.30577527012851852 0 0.40730768456924937 -0.32449739824986629 0 0.39643767783270539 -0.30577527012851852 0 0.40730768456924937 -0.32449739824986629 0 0.39441735534957589 -0.33992831428645309 0 0.38804376595924328 -0.3234846286014802 0 0.39441735534957589 -0.33992831428645309 0 0.38804376595924328 -0.3234846286014802 0 0.37274887733183398 -0.33719558077805722 0 0.38804376595924328 -0.3234846286014802 0 0.39643767783270539 -0.30577527012851852 0 0.37093209070705652 -0.31288162866024699 0 0.38804376595924328 -0.3234846286014802 0 0.37093209070705652 -0.31288162866024699 0 0.37274887733183398 -0.33719558077805722 0 0.38743614203580712 -0.28977283693280992 0 0.36911530408227911 -0.28856767654243698 0 0.37093209070705652 -0.31288162866024699 0 0.39643767783270539 -0.30577527012851852 0 0.38743614203580712 -0.28977283693280992 0 0.37093209070705652 -0.31288162866024699 0 0.40730768456924937 -0.32449739824986629 0 0.39643767783270539 -0.30577527012851852 0 0.41454817799135568 -0.30684907861457139 0 0.39643767783270539 -0.30577527012851852 0 0.40530304015172841 -0.29440768910522658 0 0.41454817799135568 -0.30684907861457139 0 0.39643767783270539 -0.30577527012851852 0 0.40530304015172841 -0.29440768910522658 0 0.38743614203580712 -0.28977283693280992 0 0.40530304015172841 -0.29440768910522658 0 0.38743614203580712 -0.28977283693280992 0 0.40227109007109019 -0.28003122359625882 0 0.38743614203580712 -0.28977283693280992 0 0.38711156416066062 -0.27011273881533171 0 0.36911530408227911 -0.28856767654243698 0 0.37975320136154472 -0.248482397295271 0 0.38711156416066062 -0.27011273881533171 0 0.39541904943727452 -0.2519474413582945 0 0.37975320136154472 -0.248482397295271 0 0.38711156416066062 -0.27011273881533171 0 0.36729851745750158 -0.2642537244246268 0 0.38711156416066062 -0.27011273881533171 0 0.39541904943727452 -0.2519474413582945 0 0.40843346793445401 -0.26733627842963992 0 0.39541904943727452 -0.2519474413582945 0 0.40843346793445401 -0.26733627842963992 0 0.41044227084512791 -0.25299848788381851 0 0.38711156416066062 -0.27011273881533171 0 0.40227109007109019 -0.28003122359625882 0 0.40843346793445401 -0.26733627842963992 0 0.38743614203580712 -0.28977283693280992 0 0.38711156416066062 -0.27011273881533171 0 0.40227109007109019 -0.28003122359625882 0 0.40843346793445401 -0.26733627842963992 0 0.422098712366199 -0.26102704874345067 0 0.42582211282768329 -0.28961003625397419 0 0.40227109007109019 -0.28003122359625882 0 0.40843346793445401 -0.26733627842963992 0 0.42582211282768329 -0.28961003625397419 0 0.40843346793445401 -0.26733627842963992 0 0.41044227084512791 -0.25299848788381851 0 0.422098712366199 -0.26102704874345067 0 0.42271233484339188 -0.24669301604348809 0 0.41044227084512791 -0.25299848788381851 0 0.422098712366199 -0.26102704874345067 0 0.42271233484339188 -0.24669301604348809 0 0.422098712366199 -0.26102704874345067 0 0.43658188798014352 -0.25780185117890853 0 0.422098712366199 -0.26102704874345067 0 0.43658188798014352 -0.25780185117890853 0 0.4349740767931497 -0.27018858681550129 0 0.422098712366199 -0.26102704874345067 0 0.4349740767931497 -0.27018858681550129 0 0.42582211282768329 -0.28961003625397419 0 0.44299151130278119 -0.27806845632927202 0 0.4349740767931497 -0.27018858681550129 0 0.42582211282768329 -0.28961003625397419 0 0.422098712366199 -0.26102704874345067 0 0.42582211282768329 -0.28961003625397419 0 0.44299151130278119 -0.27806845632927202 0 0.44085666897882159 -0.29378085134540149 0 0.42582211282768329 -0.28961003625397419 0 0.44032427325110979 -0.30782110397744189 0 0.44085666897882159 -0.29378085134540149 0 0.42582211282768329 -0.28961003625397419 0 0.42954551328916768 -0.31819302376449737 0 0.42582211282768329 -0.28961003625397419 0 0.42954551328916768 -0.31819302376449737 0 0.42582211282768329 -0.28961003625397419 0 0.41454817799135568 -0.30684907861457139 0 0.44032427325110979 -0.30782110397744189 0 0.42954551328916768 -0.31819302376449737 0 0.42582211282768329 -0.28961003625397419 0 0.40530304015172841 -0.29440768910522658 0 0.42582211282768329 -0.28961003625397419 0 0.41454817799135568 -0.30684907861457139 0 0.40530304015172841 -0.29440768910522658 0 0.40227109007109019 -0.28003122359625882 0 0.42582211282768329 -0.28961003625397419 0 0.5 -0.5 0 0.49527152993309298 -0.47600331934664891 0 0.5 -0.43470950877933989 0 0.43768019877080838 -0.4822577833314497 0 0.45826389994190808 -0.47491686115587511 0 0.45463867088110549 -0.4999999999999975 0 0.43768019877080838 -0.4822577833314497 0 0.45463867088110549 -0.4999999999999975 0 0.42489622482988659 -0.5 0 0.43768019877080838 -0.4822577833314497 0 0.45826389994190808 -0.47491686115587511 0 0.44340387903212641 -0.45804693898153392 0 0.45826389994190808 -0.47491686115587511 0 0.45463867088110549 -0.4999999999999975 0 0.47507602895952011 -0.47518847570356942 0 0.45826389994190808 -0.47491686115587511 0 0.45463867088110549 -0.4999999999999975 0 0.45463867088110549 -0.4999999999999975 0 0.5 -0.5 0 0.47507602895952011 -0.47518847570356942 0 0.5 -0.5 0 0.49527152993309298 -0.47600331934664891 0 0.47507602895952011 -0.47518847570356942 0 0.47507602895952011 -0.47518847570356942 0 0.48039294399830318 -0.45037695140713963 0 0.46188912900271112 -0.44983372231175273 0 0.49527152993309298 -0.47600331934664891 0 0.48039294399830318 -0.45037695140713963 0 0.5 -0.43470950877933989 0 0.49527152993309298 -0.47600331934664891 0 0.47507602895952011 -0.47518847570356942 0 0.48039294399830318 -0.45037695140713963 0 0.49527152993309298 -0.47600331934664891 0 0.48039294399830318 -0.45037695140713963 0 0.48039294399830318 -0.45037695140713963 0 0.46551435806351371 -0.42475058346763023 0 0.48039294399830318 -0.45037695140713963 0 0.46188912900271112 -0.44983372231175273 0 0.46551435806351371 -0.42475058346763023 0 0.45826389994190808 -0.47491686115587511 0 0.46188912900271112 -0.44983372231175273 0 0.44340387903212641 -0.45804693898153392 0 0.45826389994190808 -0.47491686115587511 0 0.46188912900271112 -0.44983372231175273 0 0.45826389994190808 -0.47491686115587511 0 0.47507602895952011 -0.47518847570356942 0 0.46188912900271112 -0.44983372231175273 0 0.46188912900271112 -0.44983372231175273 0 0.44340387903212641 -0.45804693898153392 0 0.44310057490410842 -0.43891346841137618 0 0.46188912900271112 -0.44983372231175273 0 0.44310057490410842 -0.43891346841137618 0 0.45402962130737079 -0.43334019524392048 0 0.44310057490410842 -0.43891346841137618 0 0.44561442325915013 -0.41986300678492311 0 0.45402962130737079 -0.43334019524392048 0 0.44310057490410842 -0.43891346841137618 0 0.44561442325915013 -0.41986300678492311 0 0.43008317881887598 -0.43133494087710561 0 0.44561442325915013 -0.41986300678492311 0 0.45123586797366161 -0.40015780010321089 0 0.43382118212434628 -0.41258247711000501 0 0.46551435806351371 -0.42475058346763023 0 0.45123586797366161 -0.40015780010321089 0 0.44561442325915013 -0.41986300678492311 0 0.46551435806351371 -0.42475058346763023 0 0.45123586797366161 -0.40015780010321089 0 0.46760632055771051 -0.41027619169305768 0 0.46551435806351371 -0.42475058346763023 0 0.45123586797366161 -0.40015780010321089 0 0.46760632055771051 -0.41027619169305768 0 0.46551435806351371 -0.42475058346763023 0 0.46188912900271112 -0.44983372231175273 0 0.46551435806351371 -0.42475058346763023 0 0.45402962130737079 -0.43334019524392048 0 0.46188912900271112 -0.44983372231175273 0 0.46551435806351371 -0.42475058346763023 0 0.44561442325915013 -0.41986300678492311 0 0.46551435806351371 -0.42475058346763023 0 0.45402962130737079 -0.43334019524392048 0 0.48039294399830318 -0.45037695140713963 0 0.46551435806351371 -0.42475058346763023 0 0.48018443807210698 -0.4194824584794995 0 0.5 -0.43470950877933989 0 0.488231026181073 -0.40643953444857178 0 0.5 -0.38762612606622049 0 0.48039294399830318 -0.45037695140713963 0 0.5 -0.43470950877933989 0 0.48018443807210698 -0.4194824584794995 0 0.5 -0.43470950877933989 0 0.488231026181073 -0.40643953444857178 0 0.48018443807210698 -0.4194824584794995 0 0.488231026181073 -0.40643953444857178 0 0.48018443807210698 -0.4194824584794995 0 0.47677634907881872 -0.40206494936907528 0 0.46760632055771051 -0.41027619169305768 0 0.48018443807210698 -0.4194824584794995 0 0.47677634907881872 -0.40206494936907528 0 0.46760632055771051 -0.41027619169305768 0 0.46551435806351371 -0.42475058346763023 0 0.48018443807210698 -0.4194824584794995 0 0.488231026181073 -0.40643953444857178 0 0.47677634907881872 -0.40206494936907528 0 0.48618562834615198 -0.38888199777432642 0 0.46760632055771051 -0.41027619169305768 0 0.47677634907881872 -0.40206494936907528 0 0.46414561411031768 -0.39757323874442418 0 0.47677634907881872 -0.40206494936907528 0 0.4743050672055521 -0.38973627507457242 0 0.46414561411031768 -0.39757323874442418 0 0.47677634907881872 -0.40206494936907528 0 0.48618562834615198 -0.38888199777432642 0 0.4743050672055521 -0.38973627507457242 0 0.488231026181073 -0.40643953444857178 0 0.5 -0.38762612606622049 0 0.48618562834615198 -0.38888199777432642 0 0.49224383436031022 -0.3668661462496518 0 0.49462880049315261 -0.38147386036357228 0 0.5 -0.38762612606622049 0 0.47825733482808003 -0.3689639544430644 0 0.49462880049315261 -0.38147386036357228 0 0.48035668634559697 -0.38147253678820858 0 0.49462880049315261 -0.38147386036357228 0 0.5 -0.38762612606622049 0 0.48618562834615198 -0.38888199777432642 0 0.49462880049315261 -0.38147386036357228 0 0.48618562834615198 -0.38888199777432642 0 0.48035668634559697 -0.38147253678820858 0 0.48618562834615198 -0.38888199777432642 0 0.48035668634559697 -0.38147253678820858 0 0.4743050672055521 -0.38973627507457242 0 0.48035668634559697 -0.38147253678820858 0 0.4743050672055521 -0.38973627507457242 0 0.46840660085504843 -0.37830659628550772 0 0.4743050672055521 -0.38973627507457242 0 0.46840660085504843 -0.37830659628550772 0 0.46506786516122212 -0.3870169440149715 0 0.47825733482808003 -0.3689639544430644 0 0.48035668634559697 -0.38147253678820858 0 0.46840660085504843 -0.37830659628550772 0 0.46840660085504843 -0.37830659628550772 0 0.45341417847396992 -0.38245166595538183 0 0.46506786516122212 -0.3870169440149715 0 0.46156226383715859 -0.36658153904943519 0 0.46840660085504843 -0.37830659628550772 0 0.45341417847396992 -0.38245166595538183 0 0.45341417847396992 -0.38245166595538183 0 0.46506786516122212 -0.3870169440149715 0 0.46414561411031768 -0.39757323874442418 0 0.45341417847396992 -0.38245166595538183 0 0.46414561411031768 -0.39757323874442418 0 0.45123586797366161 -0.40015780010321089 0 0.4743050672055521 -0.38973627507457242 0 0.46506786516122212 -0.3870169440149715 0 0.46414561411031768 -0.39757323874442418 0 0.46760632055771051 -0.41027619169305768 0 0.46414561411031768 -0.39757323874442418 0 0.45123586797366161 -0.40015780010321089 0 0.45123586797366161 -0.40015780010321089 0 0.43504921121759782 -0.3987774565248291 0 0.43382118212434628 -0.41258247711000501 0 0.45123586797366161 -0.40015780010321089 0 0.43189348509050007 -0.382841503527166 0 0.43504921121759782 -0.3987774565248291 0 0.45123586797366161 -0.40015780010321089 0 0.43695737788381128 -0.37556501673879039 0 0.45123586797366161 -0.40015780010321089 0 0.43695737788381128 -0.37556501673879039 0 0.43189348509050007 -0.382841503527166 0 0.4482105639785795 -0.3732006477900115 0 0.45341417847396992 -0.38245166595538183 0 0.43695737788381128 -0.37556501673879039 0 0.45341417847396992 -0.38245166595538183 0 0.45123586797366161 -0.40015780010321089 0 0.43695737788381128 -0.37556501673879039 0 0.42312131920197199 -0.38327519180789349 0 0.43189348509050007 -0.382841503527166 0 0.42543431131563658 -0.39201406660618732 0 0.42312131920197199 -0.38327519180789349 0 0.42679964524729619 -0.37549544497938558 0 0.43189348509050007 -0.382841503527166 0 0.42679964524729619 -0.37549544497938558 0 0.43695737788381128 -0.37556501673879039 0 0.43189348509050007 -0.382841503527166 0 0.43695737788381128 -0.37556501673879039 0 0.43189348509050007 -0.382841503527166 0 0.43189348509050007 -0.382841503527166 0 0.43504921121759782 -0.3987774565248291 0 0.42543431131563658 -0.39201406660618732 0 0.43504921121759782 -0.3987774565248291 0 0.42201891562486238 -0.40389550561202892 0 0.43382118212434628 -0.41258247711000501 0 0.43504921121759782 -0.3987774565248291 0 0.42201891562486238 -0.40389550561202892 0 0.42543431131563658 -0.39201406660618732 0 0.42201891562486238 -0.40389550561202892 0 0.42543431131563658 -0.39201406660618732 0 0.41508862544325043 -0.3912806755590188 0 0.41508862544325043 -0.3912806755590188 0 0.39996542420356612 -0.38954672423055681 0 0.40461059648895742 -0.40518757828565227 0 0.42201891562486238 -0.40389550561202892 0 0.41508862544325043 -0.3912806755590188 0 0.40461059648895742 -0.40518757828565227 0 0.41398768910653078 -0.37483313988643108 0 0.42312131920197199 -0.38327519180789349 0 0.41508862544325043 -0.3912806755590188 0 0.41398768910653078 -0.37483313988643108 0 0.41508862544325043 -0.3912806755590188 0 0.39996542420356612 -0.38954672423055681 0 0.42312131920197199 -0.38327519180789349 0 0.42543431131563658 -0.39201406660618732 0 0.41508862544325043 -0.3912806755590188 0 0.41398768910653078 -0.37483313988643108 0 0.42312131920197199 -0.38327519180789349 0 0.42679964524729619 -0.37549544497938558 0 0.41398768910653078 -0.37483313988643108 0 0.3878215402835033 -0.37308133692233031 0 0.39996542420356612 -0.38954672423055681 0 0.3878215402835033 -0.37308133692233031 0 0.38352664371881051 -0.39105807461169162 0 0.3667466200937507 -0.37297689428278918 0 0.3878215402835033 -0.37308133692233031 0 0.39996542420356612 -0.38954672423055681 0 0.38352664371881051 -0.39105807461169162 0 0.38352664371881051 -0.39105807461169162 0 0.37981234305967421 -0.40959187640827349 0 0.36598269762695579 -0.39672548469831592 0 0.38352664371881051 -0.39105807461169162 0 0.39163471086968032 -0.40240020939270121 0 0.37981234305967421 -0.40959187640827349 0 0.39996542420356612 -0.38954672423055681 0 0.38352664371881051 -0.39105807461169162 0 0.39163471086968032 -0.40240020939270121 0 0.39996542420356612 -0.38954672423055681 0 0.39163471086968032 -0.40240020939270121 0 0.40461059648895742 -0.40518757828565227 0 0.39163471086968032 -0.40240020939270121 0 0.40461059648895742 -0.40518757828565227 0 0.39499919845723758 -0.41871436580653892 0 0.40461059648895742 -0.40518757828565227 0 0.39499919845723758 -0.41871436580653892 0 0.41287618831826117 -0.42375026933409338 0 0.39499919845723758 -0.41871436580653892 0 0.37981234305967421 -0.40959187640827349 0 0.37972702557530003 -0.43146851566795302 0 0.39163471086968032 -0.40240020939270121 0 0.39499919845723758 -0.41871436580653892 0 0.37981234305967421 -0.40959187640827349 0 0.39499919845723758 -0.41871436580653892 0 0.37972702557530003 -0.43146851566795302 0 0.39499919845723758 -0.41871436580653892 0 0.37972702557530003 -0.43146851566795302 0 0.39463393831969679 -0.43379772986721998 0 0.39499919845723758 -0.41871436580653892 0 0.39463393831969679 -0.43379772986721998 0 0.41287618831826117 -0.42375026933409338 0 0.39463393831969679 -0.43379772986721998 0 0.41287618831826117 -0.42375026933409338 0 0.40448564451664271 -0.44456058750908589 0 0.42201891562486238 -0.40389550561202892 0 0.40461059648895742 -0.40518757828565227 0 0.41287618831826117 -0.42375026933409338 0 0.42201891562486238 -0.40389550561202892 0 0.41287618831826117 -0.42375026933409338 0 0.43382118212434628 -0.41258247711000501 0 0.44561442325915013 -0.41986300678492311 0 0.43382118212434628 -0.41258247711000501 0 0.43008317881887598 -0.43133494087710561 0 0.41287618831826117 -0.42375026933409338 0 0.43382118212434628 -0.41258247711000501 0 0.43008317881887598 -0.43133494087710561 0 0.41287618831826117 -0.42375026933409338 0 0.43008317881887598 -0.43133494087710561 0 0.42293927650768232 -0.44707197882810362 0 0.44310057490410842 -0.43891346841137618 0 0.43008317881887598 -0.43133494087710561 0 0.42293927650768232 -0.44707197882810362 0 0.44340387903212641 -0.45804693898153392 0 0.44310057490410842 -0.43891346841137618 0 0.42293927650768232 -0.44707197882810362 0 0.44340387903212641 -0.45804693898153392 0 0.42293927650768232 -0.44707197882810362 0 0.42543071448662068 -0.46567663383594721 0 0.43768019877080838 -0.4822577833314497 0 0.44340387903212641 -0.45804693898153392 0 0.42543071448662068 -0.46567663383594721 0 0.42293927650768232 -0.44707197882810362 0 0.42543071448662068 -0.46567663383594721 0 0.40587710809980049 -0.46016636492458218 0 0.42293927650768232 -0.44707197882810362 0 0.40448564451664271 -0.44456058750908589 0 0.40587710809980049 -0.46016636492458218 0 0.41287618831826117 -0.42375026933409338 0 0.42293927650768232 -0.44707197882810362 0 0.40448564451664271 -0.44456058750908589 0 0.40448564451664271 -0.44456058750908589 0 0.38498457628269928 -0.45072298744329631 0 0.40587710809980049 -0.46016636492458218 0 0.39463393831969679 -0.43379772986721998 0 0.40448564451664271 -0.44456058750908589 0 0.38498457628269928 -0.45072298744329631 0 0.37972702557530003 -0.43146851566795302 0 0.39463393831969679 -0.43379772986721998 0 0.38498457628269928 -0.45072298744329631 0 0.37972702557530003 -0.43146851566795302 0 0.38498457628269928 -0.45072298744329631 0 0.36445485269336431 -0.44422266552936918 0 0.37523476501613762 -0.45906829407633509 0 0.38795422525529211 -0.47155236881176821 0 0.36363353331548381 -0.46975559374328207 0 0.38498457628269928 -0.45072298744329631 0 0.37523476501613762 -0.45906829407633509 0 0.38795422525529211 -0.47155236881176821 0 0.38498457628269928 -0.45072298744329631 0 0.40587710809980049 -0.46016636492458218 0 0.38795422525529211 -0.47155236881176821 0 0.40587710809980049 -0.46016636492458218 0 0.38795422525529211 -0.47155236881176821 0 0.40946821154986568 -0.48141363311929208 0 0.38795422525529211 -0.47155236881176821 0 0.38195938188330059 -0.48710041684738548 0 0.40946821154986568 -0.48141363311929208 0 0.38795422525529211 -0.47155236881176821 0 0.38195938188330059 -0.48710041684738548 0 0.36652747674851638 -0.48321032600682318 0 0.38795422525529211 -0.47155236881176821 0 0.36652747674851638 -0.48321032600682318 0 0.38195938188330059 -0.48710041684738548 0 0.39515377877866759 -0.5 0 0.36541133272744858 -0.5 0 0.38195938188330059 -0.48710041684738548 0 0.39515377877866759 -0.5 0 0.40946821154986568 -0.48141363311929208 0 0.39515377877866759 -0.5 0 0.40946821154986568 -0.48141363311929208 0 0.42489622482988659 -0.5 0 0.42543071448662068 -0.46567663383594721 0 0.40587710809980049 -0.46016636492458218 0 0.40946821154986568 -0.48141363311929208 0 0.43768019877080838 -0.4822577833314497 0 0.42543071448662068 -0.46567663383594721 0 0.40946821154986568 -0.48141363311929208 0 0.43768019877080838 -0.4822577833314497 0 0.40946821154986568 -0.48141363311929208 0 0.42489622482988659 -0.5 0 0.32061471318140172 -0.48667631245581572 0 0.31255922496610822 -0.5 0 0.33566888667622963 -0.49999999999999889 0 0.32061471318140172 -0.48667631245581572 0 0.31255922496610822 -0.5 0 0.3104099371346537 -0.48996781110619342 0 0.32061471318140172 -0.48667631245581572 0 0.32006250125283858 -0.4711165373241577 0 0.30504807804315098 -0.48637397053948472 0 0.32006250125283858 -0.4711165373241577 0 0.32718545352259892 -0.47811767427159613 0 0.3326130547542312 -0.4708144980021946 0 0.32061471318140172 -0.48667631245581572 0 0.32718545352259892 -0.47811767427159613 0 0.33545154490192419 -0.48386334930421671 0 0.32061471318140172 -0.48667631245581572 0 0.32006250125283858 -0.4711165373241577 0 0.32718545352259892 -0.47811767427159613 0 0.32718545352259892 -0.47811767427159613 0 0.33545154490192419 -0.48386334930421671 0 0.3326130547542312 -0.4708144980021946 0 0.33545154490192419 -0.48386334930421671 0 0.3326130547542312 -0.4708144980021946 0 0.34619107365116308 -0.47540719254510289 0 0.32061471318140172 -0.48667631245581572 0 0.33545154490192419 -0.48386334930421671 0 0.33566888667622963 -0.49999999999999889 0 0.33545154490192419 -0.48386334930421671 0 0.33566888667622963 -0.49999999999999889 0 0.35109818171237289 -0.49160516300341089 0 0.33566888667622963 -0.49999999999999889 0 0.35109818171237289 -0.49160516300341089 0 0.33566888667622963 -0.49999999999999889 0 0.35109818171237289 -0.49160516300341089 0 0.36541133272744858 -0.5 0 0.35109818171237289 -0.49160516300341089 0 0.36652747674851638 -0.48321032600682318 0 0.35109818171237289 -0.49160516300341089 0 0.36724126624001352 -0.48642617314642961 0 0.36652747674851638 -0.48321032600682318 0 0.38195938188330059 -0.48710041684738548 0 0.36541133272744858 -0.5 0 0.36724126624001352 -0.48642617314642961 0 0.35109818171237289 -0.49160516300341089 0 0.36541133272744858 -0.5 0 0.36724126624001352 -0.48642617314642961 0 0.36724126624001352 -0.48642617314642961 0 0.36652747674851638 -0.48321032600682318 0 0.38195938188330059 -0.48710041684738548 0 0.36724126624001352 -0.48642617314642961 0 0.36652747674851638 -0.48321032600682318 0 0.38795422525529211 -0.47155236881176821 0 0.36652747674851638 -0.48321032600682318 0 0.36363353331548381 -0.46975559374328207 0 0.36652747674851638 -0.48321032600682318 0 0.36363353331548381 -0.46975559374328207 0 0.35696287349136191 -0.47773447122633922 0 0.36652747674851638 -0.48321032600682318 0 0.36363353331548381 -0.46975559374328207 0 0.36363353331548381 -0.46975559374328207 0 0.35696287349136191 -0.47773447122633922 0 0.35347249215666199 -0.4669165268034608 0 0.35696287349136191 -0.47773447122633922 0 0.34619107365116308 -0.47540719254510289 0 0.35347249215666199 -0.4669165268034608 0 0.35109818171237289 -0.49160516300341089 0 0.35696287349136191 -0.47773447122633922 0 0.34619107365116308 -0.47540719254510289 0 0.33545154490192419 -0.48386334930421671 0 0.35109818171237289 -0.49160516300341089 0 0.34619107365116308 -0.47540719254510289 0 0.35109818171237289 -0.49160516300341089 0 0.36652747674851638 -0.48321032600682318 0 0.35696287349136191 -0.47773447122633922 0 0.34575798039760441 -0.45983686221527859 0 0.35347249215666199 -0.4669165268034608 0 0.35890290604097841 -0.44885922642836362 0 0.34619107365116308 -0.47540719254510289 0 0.34575798039760441 -0.45983686221527859 0 0.35347249215666199 -0.4669165268034608 0 0.36363353331548381 -0.46975559374328207 0 0.35347249215666199 -0.4669165268034608 0 0.35890290604097841 -0.44885922642836362 0 0.34575798039760441 -0.45983686221527859 0 0.35890290604097841 -0.44885922642836362 0 0.36363353331548381 -0.46975559374328207 0 0.36445485269336431 -0.44422266552936918 0 0.35890290604097841 -0.44885922642836362 0 0.36363353331548381 -0.46975559374328207 0 0.36445485269336431 -0.44422266552936918 0 0.36363353331548381 -0.46975559374328207 0 0.35890290604097841 -0.44885922642836362 0 0.37523476501613762 -0.45906829407633509 0 0.36363353331548381 -0.46975559374328207 0 0.36445485269336431 -0.44422266552936918 0 0.38498457628269928 -0.45072298744329631 0 0.37523476501613762 -0.45906829407633509 0 0.36445485269336431 -0.44422266552936918 0 0.37972702557530003 -0.43146851566795302 0 0.36445485269336431 -0.44422266552936918 0 0.36445485269336431 -0.44422266552936918 0 0.35890290604097841 -0.44885922642836362 0 0.35890290604097841 -0.44885922642836362 0 0.34556104124829468 -0.43893047883943492 0 0.35400450139732392 -0.42679036614177829 0 0.35890290604097841 -0.44885922642836362 0 0.35400450139732392 -0.42679036614177829 0 0.36445485269336431 -0.44422266552936918 0 0.35890290604097841 -0.44885922642836362 0 0.35400450139732392 -0.42679036614177829 0 0.34575798039760441 -0.45983686221527859 0 0.35890290604097841 -0.44885922642836362 0 0.34481786980775597 -0.44985206154292251 0 0.35890290604097841 -0.44885922642836362 0 0.34481786980775597 -0.44985206154292251 0 0.34556104124829468 -0.43893047883943492 0 0.34481786980775597 -0.44985206154292251 0 0.34556104124829468 -0.43893047883943492 0 0.33646302529116928 -0.445370160227125 0 0.34556104124829468 -0.43893047883943492 0 0.33646302529116928 -0.445370160227125 0 0.33512128379087708 -0.43595214280113131 0 0.33646302529116928 -0.445370160227125 0 0.32685342456137262 -0.44133745969956478 0 0.33512128379087708 -0.43595214280113131 0 0.33646302529116928 -0.445370160227125 0 0.33670727015772339 -0.45541211321884212 0 0.32806701210309341 -0.44994110800846521 0 0.33646302529116928 -0.445370160227125 0 0.32685342456137262 -0.44133745969956478 0 0.32806701210309341 -0.44994110800846521 0 0.34481786980775597 -0.44985206154292251 0 0.33646302529116928 -0.445370160227125 0 0.33670727015772339 -0.45541211321884212 0 0.34575798039760441 -0.45983686221527859 0 0.34481786980775597 -0.44985206154292251 0 0.33670727015772339 -0.45541211321884212 0 0.32006250125283858 -0.4711165373241577 0 0.3326130547542312 -0.4708144980021946 0 0.33670727015772339 -0.45541211321884212 0 0.32006250125283858 -0.4711165373241577 0 0.33670727015772339 -0.45541211321884212 0 0.3326130547542312 -0.4708144980021946 0 0.34575798039760441 -0.45983686221527859 0 0.3326130547542312 -0.4708144980021946 0 0.34619107365116308 -0.47540719254510289 0 0.34575798039760441 -0.45983686221527859 0 0.3326130547542312 -0.4708144980021946 0 0.34575798039760441 -0.45983686221527859 0 0.33670727015772339 -0.45541211321884212 0 0.33670727015772339 -0.45541211321884212 0 0.32316596451573898 -0.45785540026162769 0 0.32806701210309341 -0.44994110800846521 0 0.32006250125283858 -0.4711165373241577 0 0.33670727015772339 -0.45541211321884212 0 0.32316596451573898 -0.45785540026162769 0 0.32006250125283858 -0.4711165373241577 0 0.31311924355923693 -0.46189367849712809 0 0.30778410662722377 -0.47258173307134449 0 0.32006250125283858 -0.4711165373241577 0 0.32316596451573898 -0.45785540026162769 0 0.31311924355923693 -0.46189367849712809 0 0.32316596451573898 -0.45785540026162769 0 0.31311924355923693 -0.46189367849712809 0 0.31714537598946252 -0.44973040663516672 0 0.31714537598946252 -0.44973040663516672 0 0.32685342456137262 -0.44133745969956478 0 0.31628434755210239 -0.43737564303258719 0 0.31714537598946252 -0.44973040663516672 0 0.31628434755210239 -0.43737564303258719 0 0.30512728233959718 -0.44042347692187139 0 0.31714537598946252 -0.44973040663516672 0 0.32685342456137262 -0.44133745969956478 0 0.32806701210309341 -0.44994110800846521 0 0.32316596451573898 -0.45785540026162769 0 0.31714537598946252 -0.44973040663516672 0 0.32806701210309341 -0.44994110800846521 0 0.32587284179577369 -0.42792609682149879 0 0.31841762086925768 -0.41375363835809681 0 0.30799864905282009 -0.42674454364108749 0 0.32587284179577369 -0.42792609682149879 0 0.31628434755210239 -0.43737564303258719 0 0.30799864905282009 -0.42674454364108749 0 0.32685342456137262 -0.44133745969956478 0 0.32587284179577369 -0.42792609682149879 0 0.31628434755210239 -0.43737564303258719 0 0.31841762086925768 -0.41375363835809681 0 0.33610815857100368 -0.41270021172988941 0 0.32056999900696992 -0.40000336097239031 0 0.32587284179577369 -0.42792609682149879 0 0.31841762086925768 -0.41375363835809681 0 0.33610815857100368 -0.41270021172988941 0 0.33610815857100368 -0.41270021172988941 0 0.339012424934658 -0.42697163916201242 0 0.35400450139732392 -0.42679036614177829 0 0.32587284179577369 -0.42792609682149879 0 0.33610815857100368 -0.41270021172988941 0 0.339012424934658 -0.42697163916201242 0 0.32685342456137262 -0.44133745969956478 0 0.32587284179577369 -0.42792609682149879 0 0.33512128379087708 -0.43595214280113131 0 0.32587284179577369 -0.42792609682149879 0 0.339012424934658 -0.42697163916201242 0 0.33512128379087708 -0.43595214280113131 0 0.34556104124829468 -0.43893047883943492 0 0.339012424934658 -0.42697163916201242 0 0.33512128379087708 -0.43595214280113131 0 0.34556104124829468 -0.43893047883943492 0 0.339012424934658 -0.42697163916201242 0 0.35400450139732392 -0.42679036614177829 0 0.36445485269336431 -0.44422266552936918 0 0.35400450139732392 -0.42679036614177829 0 0.3652187751601611 -0.4204740751138426 0 0.36445485269336431 -0.44422266552936918 0 0.3652187751601611 -0.4204740751138426 0 0.37972702557530003 -0.43146851566795302 0 0.36445485269336431 -0.44422266552936918 0 0.3652187751601611 -0.4204740751138426 0 0.3652187751601611 -0.4204740751138426 0 0.34910609675366883 -0.40472150585519329 0 0.36598269762695579 -0.39672548469831592 0 0.37981234305967421 -0.40959187640827349 0 0.37972702557530003 -0.43146851566795302 0 0.3652187751601611 -0.4204740751138426 0 0.37981234305967421 -0.40959187640827349 0 0.3652187751601611 -0.4204740751138426 0 0.36598269762695579 -0.39672548469831592 0 0.3652187751601611 -0.4204740751138426 0 0.36598269762695579 -0.39672548469831592 0 0.35400450139732392 -0.42679036614177829 0 0.34910609675366883 -0.40472150585519329 0 0.33610815857100368 -0.41270021172988941 0 0.35400450139732392 -0.42679036614177829 0 0.34910609675366883 -0.40472150585519329 0 0.35400450139732392 -0.42679036614177829 0 0.3652187751601611 -0.4204740751138426 0 0.34910609675366883 -0.40472150585519329 0 0.34910609675366883 -0.40472150585519329 0 0.36598269762695579 -0.39672548469831592 0 0.35165984867802569 -0.38832828200759589 0 0.34910609675366883 -0.40472150585519329 0 0.35165984867802569 -0.38832828200759589 0 0.33747942356549759 -0.39449987990695262 0 0.36598269762695579 -0.39672548469831592 0 0.35165984867802569 -0.38832828200759589 0 0.3667466200937507 -0.37297689428278918 0 0.36598269762695579 -0.39672548469831592 0 0.3667466200937507 -0.37297689428278918 0 0.38352664371881051 -0.39105807461169162 0 0.36598269762695579 -0.39672548469831592 0 0.3667466200937507 -0.37297689428278918 0 0.35165984867802569 -0.38832828200759589 0 0.3667466200937507 -0.37297689428278918 0 0.33898440535025548 -0.37271764529472828 0 0.33747942356549759 -0.39449987990695262 0 0.31041419578893448 -0.37676425123118029 0 0.33898440535025548 -0.37271764529472828 0 0.35165984867802569 -0.38832828200759589 0 0.33747942356549759 -0.39449987990695262 0 0.33898440535025548 -0.37271764529472828 0 0.33610815857100368 -0.41270021172988941 0 0.34910609675366883 -0.40472150585519329 0 0.33747942356549759 -0.39449987990695262 0 0.33610815857100368 -0.41270021172988941 0 0.33747942356549759 -0.39449987990695262 0 0.32056999900696992 -0.40000336097239031 0 0.31841762086925768 -0.41375363835809681 0 0.32056999900696992 -0.40000336097239031 0 0.30153845591972089 -0.40139397862561782 0 0.33747942356549759 -0.39449987990695262 0 0.32056999900696992 -0.40000336097239031 0 0.31041419578893448 -0.37676425123118029 0 0.31041419578893448 -0.37676425123118029 0 0.30153845591972089 -0.40139397862561782 0 0.28262557406510569 -0.38299456853272928 0 0.31041419578893448 -0.37676425123118029 0 0.30153845591972089 -0.40139397862561782 0 0.32056999900696992 -0.40000336097239031 0 0.31041419578893448 -0.37676425123118029 0 0.30153845591972089 -0.40139397862561782 0 0.30153845591972089 -0.40139397862561782 0 0.28262557406510569 -0.38299456853272928 0 0.27568529932438213 -0.41311698465820412 0 0.28262557406510569 -0.38299456853272928 0 0.25721705867823869 -0.39719719175748069 0 0.26129066326552353 -0.36994769264947758 0 0.25721705867823869 -0.39719719175748069 0 0.26129066326552353 -0.36994769264947758 0 0.24120506155657701 -0.3843158002560545 0 0.25721705867823869 -0.39719719175748069 0 0.26129066326552353 -0.36994769264947758 0 0.28262557406510569 -0.38299456853272928 0 0.25721705867823869 -0.39719719175748069 0 0.27568529932438213 -0.41311698465820412 0 0.27568529932438213 -0.41311698465820412 0 0.2525028597698723 -0.41670180313412242 0 0.26345563031193048 -0.42994517373347219 0 0.25721705867823869 -0.39719719175748069 0 0.27568529932438213 -0.41311698465820412 0 0.2525028597698723 -0.41670180313412242 0 0.26345563031193048 -0.42994517373347219 0 0.25106768037805421 -0.44343583832246442 0 0.24646454990772459 -0.42980635813593088 0 0.2525028597698723 -0.41670180313412242 0 0.26345563031193048 -0.42994517373347219 0 0.24646454990772459 -0.42980635813593088 0 0.26345563031193048 -0.42994517373347219 0 0.27677347086388798 -0.43254222883720561 0 0.26827673245132749 -0.44297184635980441 0 0.27568529932438213 -0.41311698465820412 0 0.26345563031193048 -0.42994517373347219 0 0.27677347086388798 -0.43254222883720561 0 0.27568529932438213 -0.41311698465820412 0 0.27677347086388798 -0.43254222883720561 0 0.29266271605050731 -0.42602370602005518 0 0.27677347086388798 -0.43254222883720561 0 0.29266271605050731 -0.42602370602005518 0 0.28378697618129273 -0.45065343341449221 0 0.30153845591972089 -0.40139397862561782 0 0.27568529932438213 -0.41311698465820412 0 0.29266271605050731 -0.42602370602005518 0 0.30153845591972089 -0.40139397862561782 0 0.29266271605050731 -0.42602370602005518 0 0.30799864905282009 -0.42674454364108749 0 0.30153845591972089 -0.40139397862561782 0 0.29266271605050731 -0.42602370602005518 0 0.31841762086925768 -0.41375363835809681 0 0.30153845591972089 -0.40139397862561782 0 0.30799864905282009 -0.42674454364108749 0 0.31628434755210239 -0.43737564303258719 0 0.30799864905282009 -0.42674454364108749 0 0.30512728233959718 -0.44042347692187139 0 0.29266271605050731 -0.42602370602005518 0 0.30799864905282009 -0.42674454364108749 0 0.30512728233959718 -0.44042347692187139 0 0.29266271605050731 -0.42602370602005518 0 0.30512728233959718 -0.44042347692187139 0 0.29334332352372522 -0.4480688976541764 0 0.30512728233959718 -0.44042347692187139 0 0.30350999700411663 -0.45451552791469829 0 0.29334332352372522 -0.4480688976541764 0 0.31714537598946252 -0.44973040663516672 0 0.30512728233959718 -0.44042347692187139 0 0.30350999700411663 -0.45451552791469829 0 0.31311924355923693 -0.46189367849712809 0 0.31714537598946252 -0.44973040663516672 0 0.30350999700411663 -0.45451552791469829 0 0.31311924355923693 -0.46189367849712809 0 0.30129709833716922 -0.46607061475275119 0 0.30350999700411663 -0.45451552791469829 0 0.31311924355923693 -0.46189367849712809 0 0.30129709833716922 -0.46607061475275119 0 0.30778410662722377 -0.47258173307134449 0 0.30129709833716922 -0.46607061475275119 0 0.30350999700411663 -0.45451552791469829 0 0.29185005237094108 -0.4591040181207483 0 0.30350999700411663 -0.45451552791469829 0 0.29185005237094108 -0.4591040181207483 0 0.29334332352372522 -0.4480688976541764 0 0.30129709833716922 -0.46607061475275119 0 0.29185005237094108 -0.4591040181207483 0 0.29165702271301502 -0.46893651977610079 0 0.29185005237094108 -0.4591040181207483 0 0.2782617208140874 -0.4659857364657537 0 0.29165702271301502 -0.46893651977610079 0 0.29185005237094108 -0.4591040181207483 0 0.28378697618129273 -0.45065343341449221 0 0.2782617208140874 -0.4659857364657537 0 0.28378697618129273 -0.45065343341449221 0 0.29334332352372522 -0.4480688976541764 0 0.29266271605050731 -0.42602370602005518 0 0.28378697618129273 -0.45065343341449221 0 0.29334332352372522 -0.4480688976541764 0 0.29266271605050731 -0.42602370602005518 0 0.28378697618129273 -0.45065343341449221 0 0.29185005237094108 -0.4591040181207483 0 0.28378697618129273 -0.45065343341449221 0 0.29334332352372522 -0.4480688976541764 0 0.28378697618129273 -0.45065343341449221 0 0.26827673245132749 -0.44297184635980441 0 0.26225973734268548 -0.45647552386448392 0 0.27677347086388798 -0.43254222883720561 0 0.28378697618129273 -0.45065343341449221 0 0.26827673245132749 -0.44297184635980441 0 0.26345563031193048 -0.42994517373347219 0 0.26827673245132749 -0.44297184635980441 0 0.25106768037805421 -0.44343583832246442 0 0.26827673245132749 -0.44297184635980441 0 0.25106768037805421 -0.44343583832246442 0 0.26225973734268548 -0.45647552386448392 0 0.26225973734268548 -0.45647552386448392 0 0.25214910779759903 -0.46759124077863662 0 0.24073249850407891 -0.46229761431447741 0 0.25106768037805421 -0.44343583832246442 0 0.26225973734268548 -0.45647552386448392 0 0.24073249850407891 -0.46229761431447741 0 0.26225973734268548 -0.45647552386448392 0 0.25214910779759903 -0.46759124077863662 0 0.26345682632857931 -0.47313544163038551 0 0.26225973734268548 -0.45647552386448392 0 0.24073249850407891 -0.46229761431447741 0 0.28378697618129273 -0.45065343341449221 0 0.26225973734268548 -0.45647552386448392 0 0.28378697618129273 -0.45065343341449221 0 0.26225973734268548 -0.45647552386448392 0 0.2782617208140874 -0.4659857364657537 0 0.26225973734268548 -0.45647552386448392 0 0.2782617208140874 -0.4659857364657537 0 0.26345682632857931 -0.47313544163038551 0 0.28378697618129273 -0.45065343341449221 0 0.2782617208140874 -0.4659857364657537 0 0.2782617208140874 -0.4659857364657537 0 0.27479253821555782 -0.47953722972932261 0 0.28849684575613049 -0.47880132332167741 0 0.27479253821555782 -0.47953722972932261 0 0.2793832505704153 -0.49341048071473648 0 0.28849684575613049 -0.47880132332167741 0 0.27479253821555782 -0.47953722972932261 0 0.26345682632857931 -0.47313544163038551 0 0.26272316981507798 -0.48728853319621113 0 0.2782617208140874 -0.4659857364657537 0 0.27479253821555782 -0.47953722972932261 0 0.26345682632857931 -0.47313544163038551 0 0.26345682632857931 -0.47313544163038551 0 0.26272316981507798 -0.48728853319621113 0 0.24901550066171091 -0.47977901970758141 0 0.25214910779759903 -0.46759124077863662 0 0.26345682632857931 -0.47313544163038551 0 0.24901550066171091 -0.47977901970758141 0 0.25080977993530212 -0.49260398157336349 0 0.25534876879287682 -0.5 0 0.26272316981507798 -0.48728853319621113 0 0.25080977993530212 -0.49260398157336349 0 0.26272316981507798 -0.48728853319621113 0 0.24901550066171091 -0.47977901970758141 0 0.27239916602443182 -0.5 0 0.2793832505704153 -0.49341048071473648 0 0.28944956325598681 -0.50000000000000089 0 0.25534876879287682 -0.5 0 0.26272316981507798 -0.48728853319621113 0 0.2793832505704153 -0.49341048071473648 0 0.25534876879287682 -0.5 0 0.27239916602443182 -0.5 0 0.2793832505704153 -0.49341048071473648 0 0.25534876879287682 -0.5 0 0.2793832505704153 -0.49341048071473648 0 0.27479253821555782 -0.47953722972932261 0 0.26272316981507798 -0.48728853319621113 0 0.2793832505704153 -0.49341048071473648 0 0.2793832505704153 -0.49341048071473648 0 0.28944956325598681 -0.50000000000000089 0 0.30341773234795377 -0.48682096142947312 0 0.2793832505704153 -0.49341048071473648 0 0.28849684575613049 -0.47880132332167741 0 0.30341773234795377 -0.48682096142947312 0 0.2793832505704153 -0.49341048071473648 0 0.30341773234795377 -0.48682096142947312 0 0.28944956325598681 -0.50000000000000089 0 0.30341773234795377 -0.48682096142947312 0 0.2782617208140874 -0.4659857364657537 0 0.28849684575613049 -0.47880132332167741 0 0.29165702271301502 -0.46893651977610079 0 0.28849684575613049 -0.47880132332167741 0 0.29165702271301502 -0.46893651977610079 0 0.29837939628674659 -0.47472090621957302 0 0.28849684575613049 -0.47880132332167741 0 0.29837939628674659 -0.47472090621957302 0 0.30341773234795377 -0.48682096142947312 0 0.29837939628674659 -0.47472090621957302 0 0.30778410662722377 -0.47258173307134449 0 0.30341773234795377 -0.48682096142947312 0 0.32006250125283858 -0.4711165373241577 0 0.30778410662722377 -0.47258173307134449 0 0.30341773234795377 -0.48682096142947312 0 0.32006250125283858 -0.4711165373241577 0 0.30504807804315098 -0.48637397053948472 0 0.30341773234795377 -0.48682096142947312 0 0.32006250125283858 -0.4711165373241577 0 0.30341773234795377 -0.48682096142947312 0 0.30129709833716922 -0.46607061475275119 0 0.29165702271301502 -0.46893651977610079 0 0.29837939628674659 -0.47472090621957302 0 0.30129709833716922 -0.46607061475275119 0 0.29837939628674659 -0.47472090621957302 0 0.30778410662722377 -0.47258173307134449 0 0.32061471318140172 -0.48667631245581572 0 0.30504807804315098 -0.48637397053948472 0 0.3104099371346537 -0.48996781110619342 0 0.31255922496610822 -0.5 0 0.28944956325598681 -0.50000000000000089 0 0.30341773234795377 -0.48682096142947312 0 0.30504807804315098 -0.48637397053948472 0 0.3104099371346537 -0.48996781110619342 0 0.30341773234795377 -0.48682096142947312 0 0.31255922496610822 -0.5 0 0.3104099371346537 -0.48996781110619342 0 0.30341773234795377 -0.48682096142947312 0 0.30504807804315098 -0.48637397053948472 0 0.30341773234795377 -0.48682096142947312 0 0.33704141539657528 -0.30287506904786798 0 0.31881022763898942 -0.29462003784859092 0 0.3297110491141037 -0.27889013779430771 0 0.33704141539657528 -0.30287506904786798 0 0.3297110491141037 -0.27889013779430771 0 0.34905743655763338 -0.28339900673632079 0 0.33704141539657528 -0.30287506904786798 0 0.3216665712399161 -0.31107425656426962 0 0.31881022763898942 -0.29462003784859092 0 0.3216665712399161 -0.31107425656426962 0 0.31881022763898942 -0.29462003784859092 0 0.3073553402695291 -0.30593541199319141 0 0.3216665712399161 -0.31107425656426962 0 0.31223715150518611 -0.31939762250190051 0 0.3073553402695291 -0.30593541199319141 0 0.31881022763898942 -0.29462003784859092 0 0.3297110491141037 -0.27889013779430771 0 0.31247548224491362 -0.27746465507119572 0 0.31937390008924621 -0.25849150631529022 0 0.3061607832970592 -0.26503915438732389 0 0.31247548224491362 -0.27746465507119572 0 0.31937390008924621 -0.25849150631529022 0 0.3297110491141037 -0.27889013779430771 0 0.31247548224491362 -0.27746465507119572 0 0.32386361588875329 -0.23888114559754881 0 0.31937390008924621 -0.25849150631529022 0 0.33845404477492591 -0.26376806691123722 0 0.31937390008924621 -0.25849150631529022 0 0.33845404477492591 -0.26376806691123722 0 0.3297110491141037 -0.27889013779430771 0 0.33845404477492591 -0.26376806691123722 0 0.3297110491141037 -0.27889013779430771 0 0.34905743655763338 -0.28339900673632079 0 0.33845404477492591 -0.26376806691123722 0 0.36729851745750158 -0.2642537244246268 0 0.34905743655763338 -0.28339900673632079 0 0.34676493608032161 -0.24443352573784161 0 0.33845404477492591 -0.26376806691123722 0 0.36729851745750158 -0.2642537244246268 0 0.36548173083272412 -0.2399397723068166 0 0.37975320136154472 -0.248482397295271 0 0.36729851745750158 -0.2642537244246268 0 0.36548173083272412 -0.2399397723068166 0 0.36729851745750158 -0.2642537244246268 0 0.38711156416066062 -0.27011273881533171 0 0.36729851745750158 -0.2642537244246268 0 0.36911530408227911 -0.28856767654243698 0 0.36729851745750158 -0.2642537244246268 0 0.36911530408227911 -0.28856767654243698 0 0.34905743655763338 -0.28339900673632079 0 0.36729851745750158 -0.2642537244246268 0 0.36911530408227911 -0.28856767654243698 0 0.36911530408227911 -0.28856767654243698 0 0.34905743655763338 -0.28339900673632079 0 0.35578480897868059 -0.30178861052560402 0 0.33704141539657528 -0.30287506904786798 0 0.34905743655763338 -0.28339900673632079 0 0.35578480897868059 -0.30178861052560402 0 0.33704141539657528 -0.30287506904786798 0 0.35578480897868059 -0.30178861052560402 0 0.35265131112345349 -0.32189604414450568 0 0.36911530408227911 -0.28856767654243698 0 0.35578480897868059 -0.30178861052560402 0 0.37093209070705652 -0.31288162866024699 0 0.35578480897868059 -0.30178861052560402 0 0.37093209070705652 -0.31288162866024699 0 0.35265131112345349 -0.32189604414450568 0 0.36911530408227911 -0.28856767654243698 0 0.37093209070705652 -0.31288162866024699 0 0.37093209070705652 -0.31288162866024699 0 0.37274887733183398 -0.33719558077805722 0 0.35265131112345349 -0.32189604414450568 0 0.37093209070705652 -0.31288162866024699 0 0.37274887733183398 -0.33719558077805722 0 0.37274887733183398 -0.33719558077805722 0 0.35265131112345349 -0.32189604414450568 0 0.35123499879921372 -0.34913057941295272 0 0.35265131112345349 -0.32189604414450568 0 0.35123499879921372 -0.34913057941295272 0 0.32816567552736159 -0.32750479644230562 0 0.3792834414250571 -0.35508315977584021 0 0.3667466200937507 -0.37297689428278918 0 0.35123499879921372 -0.34913057941295272 0 0.3792834414250571 -0.35508315977584021 0 0.37274887733183398 -0.33719558077805722 0 0.35123499879921372 -0.34913057941295272 0 0.3667466200937507 -0.37297689428278918 0 0.35123499879921372 -0.34913057941295272 0 0.33898440535025548 -0.37271764529472828 0 0.35123499879921372 -0.34913057941295272 0 0.33898440535025548 -0.37271764529472828 0 0.31928993565814812 -0.35213452383674287 0 0.31041419578893448 -0.37676425123118029 0 0.33898440535025548 -0.37271764529472828 0 0.31928993565814812 -0.35213452383674287 0 0.31041419578893448 -0.37676425123118029 0 0.31928993565814812 -0.35213452383674287 0 0.35123499879921372 -0.34913057941295272 0 0.31928993565814812 -0.35213452383674287 0 0.32816567552736159 -0.32750479644230562 0 0.33704141539657528 -0.30287506904786798 0 0.35265131112345349 -0.32189604414450568 0 0.32816567552736159 -0.32750479644230562 0 0.33704141539657528 -0.30287506904786798 0 0.32816567552736159 -0.32750479644230562 0 0.33704141539657528 -0.30287506904786798 0 0.3216665712399161 -0.31107425656426962 0 0.32816567552736159 -0.32750479644230562 0 0.31928993565814812 -0.35213452383674287 0 0.32816567552736159 -0.32750479644230562 0 0.30758181449860228 -0.33361801357247323 0 0.31928993565814812 -0.35213452383674287 0 0.32816567552736159 -0.32750479644230562 0 0.3216665712399161 -0.31107425656426962 0 0.32816567552736159 -0.32750479644230562 0 0.31223715150518611 -0.31939762250190051 0 0.32816567552736159 -0.32750479644230562 0 0.31223715150518611 -0.31939762250190051 0 0.30758181449860228 -0.33361801357247323 0 0.31223715150518611 -0.31939762250190051 0 0.30758181449860228 -0.33361801357247323 0 0.29543238810261763 -0.31780597873153549 0 0.31223715150518611 -0.31939762250190051 0 0.29543238810261763 -0.31780597873153549 0 0.3073553402695291 -0.30593541199319141 0 0.30758181449860228 -0.33361801357247323 0 0.28729304139871931 -0.33055516274587282 0 0.29204120269313288 -0.34559074457163652 0 0.28729304139871931 -0.33055516274587282 0 0.29204120269313288 -0.34559074457163652 0 0.27957673882512968 -0.34030062997856741 0 0.28729304139871931 -0.33055516274587282 0 0.29543238810261763 -0.31780597873153549 0 0.28055051250535512 -0.31625323113453091 0 0.30758181449860228 -0.33361801357247323 0 0.28729304139871931 -0.33055516274587282 0 0.29543238810261763 -0.31780597873153549 0 0.29543238810261763 -0.31780597873153549 0 0.28055051250535512 -0.31625323113453091 0 0.28766343812044959 -0.31009139237336297 0 0.31041419578893448 -0.37676425123118029 0 0.31928993565814812 -0.35213452383674287 0 0.29543808365214341 -0.36420559880811709 0 0.31928993565814812 -0.35213452383674287 0 0.29204120269313288 -0.34559074457163652 0 0.29543808365214341 -0.36420559880811709 0 0.31928993565814812 -0.35213452383674287 0 0.30758181449860228 -0.33361801357247323 0 0.29204120269313288 -0.34559074457163652 0 0.29204120269313288 -0.34559074457163652 0 0.27882884072824698 -0.35714459262971698 0 0.27957673882512968 -0.34030062997856741 0 0.29204120269313288 -0.34559074457163652 0 0.29543808365214341 -0.36420559880811709 0 0.27882884072824698 -0.35714459262971698 0 0.28262557406510569 -0.38299456853272928 0 0.29543808365214341 -0.36420559880811709 0 0.27882884072824698 -0.35714459262971698 0 0.31041419578893448 -0.37676425123118029 0 0.28262557406510569 -0.38299456853272928 0 0.29543808365214341 -0.36420559880811709 0 0.28262557406510569 -0.38299456853272928 0 0.27882884072824698 -0.35714459262971698 0 0.26129066326552353 -0.36994769264947758 0 0.27882884072824698 -0.35714459262971698 0 0.26129066326552353 -0.36994769264947758 0 0.26536426785280831 -0.34269819354147468 0 0.27882884072824698 -0.35714459262971698 0 0.27957673882512968 -0.34030062997856741 0 0.26536426785280831 -0.34269819354147468 0 0.25395127084038449 -0.35492126926410339 0 0.26129066326552353 -0.36994769264947758 0 0.26536426785280831 -0.34269819354147468 0 0.26129066326552353 -0.36994769264947758 0 0.26536426785280831 -0.34269819354147468 0 0.25395127084038449 -0.35492126926410339 0 0.26536426785280831 -0.34269819354147468 0 0.25263706765094102 -0.33992559090750701 0 0.25395127084038449 -0.35492126926410339 0 0.26129066326552353 -0.36994769264947758 0 0.24526284011489749 -0.36582625435455829 0 0.26943787244009298 -0.31544869443347168 0 0.27435634145274113 -0.32551445640413562 0 0.26536426785280831 -0.34269819354147468 0 0.26943787244009298 -0.31544869443347168 0 0.27435634145274113 -0.32551445640413562 0 0.26943787244009298 -0.31544869443347168 0 0.28055051250535512 -0.31625323113453091 0 0.27435634145274113 -0.32551445640413562 0 0.26943787244009298 -0.31544869443347168 0 0.28055051250535512 -0.31625323113453091 0 0.27506010489954252 -0.31083073098049352 0 0.28729304139871931 -0.33055516274587282 0 0.28055051250535512 -0.31625323113453091 0 0.27435634145274113 -0.32551445640413562 0 0.26943787244009298 -0.31544869443347168 0 0.26536426785280831 -0.34269819354147468 0 0.28729304139871931 -0.33055516274587282 0 0.27435634145274113 -0.32551445640413562 0 0.27957673882512968 -0.34030062997856741 0 0.27435634145274113 -0.32551445640413562 0 0.27957673882512968 -0.34030062997856741 0 0.26536426785280831 -0.34269819354147468 0 0.26536426785280831 -0.34269819354147468 0 0.25263706765094102 -0.33992559090750701 0 0.25626830730697608 -0.32539635708965919 0 0.25263706765094102 -0.33992559090750701 0 0.25626830730697608 -0.32539635708965919 0 0.24514041959345259 -0.33125653555100121 0 0.26943787244009298 -0.31544869443347168 0 0.26536426785280831 -0.34269819354147468 0 0.25626830730697608 -0.32539635708965919 0 0.26943787244009298 -0.31544869443347168 0 0.25626830730697608 -0.32539635708965919 0 0.25317524917564233 -0.30956261424101172 0 0.25626830730697608 -0.32539635708965919 0 0.25317524917564233 -0.30956261424101172 0 0.24715128114414101 -0.31978968424211779 0 0.25317524917564233 -0.30956261424101172 0 0.25724233818783798 -0.29049024810137219 0 0.24596102916990739 -0.29980925850229551 0 0.26943787244009298 -0.31544869443347168 0 0.25724233818783798 -0.29049024810137219 0 0.26943787244009298 -0.31544869443347168 0 0.25317524917564233 -0.30956261424101172 0 0.25724233818783798 -0.29049024810137219 0 0.26998422194911892 -0.29451886170373243 0 0.27946996423788267 -0.30516402629536132 0 0.27221245033617503 -0.28041978981663968 0 0.27946996423788267 -0.30516402629536132 0 0.28185050021902769 -0.29377397689053331 0 0.27221245033617503 -0.28041978981663968 0 0.27946996423788267 -0.30516402629536132 0 0.27221245033617503 -0.28041978981663968 0 0.25724233818783798 -0.29049024810137219 0 0.26998422194911892 -0.29451886170373243 0 0.27221245033617503 -0.28041978981663968 0 0.25724233818783798 -0.29049024810137219 0 0.26998422194911892 -0.29451886170373243 0 0.27078207041483943 -0.30645697205861 0 0.26943787244009298 -0.31544869443347168 0 0.25724233818783798 -0.29049024810137219 0 0.27078207041483943 -0.30645697205861 0 0.26943787244009298 -0.31544869443347168 0 0.27078207041483943 -0.30645697205861 0 0.26943787244009298 -0.31544869443347168 0 0.27078207041483943 -0.30645697205861 0 0.27506010489954252 -0.31083073098049352 0 0.26998422194911892 -0.29451886170373243 0 0.27078207041483943 -0.30645697205861 0 0.27946996423788267 -0.30516402629536132 0 0.27078207041483943 -0.30645697205861 0 0.27506010489954252 -0.31083073098049352 0 0.27946996423788267 -0.30516402629536132 0 0.28055051250535512 -0.31625323113453091 0 0.27506010489954252 -0.31083073098049352 0 0.27946996423788267 -0.30516402629536132 0 0.28055051250535512 -0.31625323113453091 0 0.27946996423788267 -0.30516402629536132 0 0.28766343812044959 -0.31009139237336297 0 0.27946996423788267 -0.30516402629536132 0 0.28766343812044959 -0.31009139237336297 0 0.2936696030463557 -0.30218797797516972 0 0.29543238810261763 -0.31780597873153549 0 0.28766343812044959 -0.31009139237336297 0 0.2936696030463557 -0.30218797797516972 0 0.27946996423788267 -0.30516402629536132 0 0.2936696030463557 -0.30218797797516972 0 0.28185050021902769 -0.29377397689053331 0 0.28185050021902769 -0.29377397689053331 0 0.29325309819515022 -0.2915087767792231 0 0.29404386183581471 -0.27921526708827632 0 0.2936696030463557 -0.30218797797516972 0 0.28185050021902769 -0.29377397689053331 0 0.29325309819515022 -0.2915087767792231 0 0.2936696030463557 -0.30218797797516972 0 0.29325309819515022 -0.2915087767792231 0 0.30344842767940311 -0.29085788516291311 0 0.31881022763898942 -0.29462003784859092 0 0.30344842767940311 -0.29085788516291311 0 0.31247548224491362 -0.27746465507119572 0 0.30344842767940311 -0.29085788516291311 0 0.31247548224491362 -0.27746465507119572 0 0.29404386183581471 -0.27921526708827632 0 0.29325309819515022 -0.2915087767792231 0 0.30344842767940311 -0.29085788516291311 0 0.29404386183581471 -0.27921526708827632 0 0.31881022763898942 -0.29462003784859092 0 0.30344842767940311 -0.29085788516291311 0 0.3073553402695291 -0.30593541199319141 0 0.29543238810261763 -0.31780597873153549 0 0.2936696030463557 -0.30218797797516972 0 0.3073553402695291 -0.30593541199319141 0 0.2936696030463557 -0.30218797797516972 0 0.30344842767940311 -0.29085788516291311 0 0.3073553402695291 -0.30593541199319141 0 0.31937390008924621 -0.25849150631529022 0 0.30351358569384429 -0.25088115198832228 0 0.3061607832970592 -0.26503915438732389 0 0.30351358569384429 -0.25088115198832228 0 0.3061607832970592 -0.26503915438732389 0 0.29278086692898081 -0.26538722923169628 0 0.3061607832970592 -0.26503915438732389 0 0.31247548224491362 -0.27746465507119572 0 0.29404386183581471 -0.27921526708827632 0 0.3061607832970592 -0.26503915438732389 0 0.29404386183581471 -0.27921526708827632 0 0.29278086692898081 -0.26538722923169628 0 0.28185050021902769 -0.29377397689053331 0 0.29404386183581471 -0.27921526708827632 0 0.27906371894771098 -0.26754353124153663 0 0.29404386183581471 -0.27921526708827632 0 0.29278086692898081 -0.26538722923169628 0 0.27906371894771098 -0.26754353124153663 0 0.29278086692898081 -0.26538722923169628 0 0.28836172241154268 -0.25312796798355452 0 0.27906371894771098 -0.26754353124153663 0 0.30351358569384429 -0.25088115198832228 0 0.29278086692898081 -0.26538722923169628 0 0.28836172241154268 -0.25312796798355452 0 0.27627693767639427 -0.24131308559254 0 0.27906371894771098 -0.26754353124153663 0 0.27627693767639427 -0.24131308559254 0 0.27906371894771098 -0.26754353124153663 0 0.26495493643446733 -0.25567555333791819 0 0.27627693767639427 -0.24131308559254 0 0.28836172241154268 -0.25312796798355452 0 0.27906371894771098 -0.26754353124153663 0 0.28185050021902769 -0.29377397689053331 0 0.27906371894771098 -0.26754353124153663 0 0.27221245033617503 -0.28041978981663968 0 0.26495493643446733 -0.25567555333791819 0 0.27906371894771098 -0.26754353124153663 0 0.27221245033617503 -0.28041978981663968 0 0.26495493643446733 -0.25567555333791819 0 0.27221245033617503 -0.28041978981663968 0 0.25991314920861991 -0.27147421421914802 0 0.26495493643446733 -0.25567555333791819 0 0.28185050021902769 -0.29377397689053331 0 0.27906371894771098 -0.26754353124153663 0 0.27221245033617503 -0.28041978981663968 0 0.25724233818783798 -0.29049024810137219 0 0.24504680393558309 -0.2655318017692726 0 0.25724233818783798 -0.29049024810137219 0 0.25991314920861991 -0.27147421421914802 0 0.24504680393558309 -0.2655318017692726 0 0.25724233818783798 -0.29049024810137219 0 0.27221245033617503 -0.28041978981663968 0 0.25991314920861991 -0.27147421421914802 0 0.26495493643446733 -0.25567555333791819 0 0.24504680393558309 -0.2655318017692726 0 0.24954558159322551 -0.24675869842961379 0 0.25991314920861991 -0.27147421421914802 0 0.26495493643446733 -0.25567555333791819 0 0.24504680393558309 -0.2655318017692726 0 0.24504680393558309 -0.2655318017692726 0 0.24954558159322551 -0.24675869842961379 0 0.232851269683329 -0.2405733554371729 0 0.24504680393558309 -0.2655318017692726 0 0.22933786041485801 -0.26326731549021948 0 0.232851269683329 -0.2405733554371729 0 0.24504680393558309 -0.2655318017692726 0 0.232851269683329 -0.2405733554371729 0 0.24504680393558309 -0.2655318017692726 0 0.23031552646086781 -0.27942862300323101 0 0.24078803216480371 -0.28911814409392023 0 0.24504680393558309 -0.2655318017692726 0 0.23031552646086781 -0.27942862300323101 0 0.22933786041485801 -0.26326731549021948 0 0.23031552646086781 -0.27942862300323101 0 0.21979139256632341 -0.27393982540316258 0 0.22933786041485801 -0.26326731549021948 0 0.21979139256632341 -0.27393982540316258 0 0.22933786041485801 -0.26326731549021948 0 0.22006889123781229 -0.26350435063976901 0 0.23031552646086781 -0.27942862300323101 0 0.21979139256632341 -0.27393982540316258 0 0.21983220969694839 -0.28599169921906192 0 0.22933786041485801 -0.26326731549021948 0 0.22127153243417949 -0.25260718757054251 0 0.232851269683329 -0.2405733554371729 0 0.22933786041485801 -0.26326731549021948 0 0.22006889123781229 -0.26350435063976901 0 0.22127153243417949 -0.25260718757054251 0 0.22127153243417949 -0.25260718757054251 0 0.2096917951850277 -0.26464101970390969 0 0.21401421420884581 -0.23558610350572981 0 0.2096917951850277 -0.26464101970390969 0 0.21401421420884581 -0.23558610350572981 0 0.22127153243417949 -0.25260718757054251 0 0.2096917951850277 -0.26464101970390969 0 0.22006889123781229 -0.26350435063976901 0 0.22127153243417949 -0.25260718757054251 0 0.2096917951850277 -0.26464101970390969 0 0.20742234917084471 -0.27989603394362661 0 0.20375480366409379 -0.27081082803400658 0 0.1997662727825994 -0.28744457509713423 0 0.21979139256632341 -0.27393982540316258 0 0.2096917951850277 -0.26464101970390969 0 0.20742234917084471 -0.27989603394362661 0 0.21979139256632341 -0.27393982540316258 0 0.22006889123781229 -0.26350435063976901 0 0.2096917951850277 -0.26464101970390969 0 0.21979139256632341 -0.27393982540316258 0 0.20742234917084471 -0.27989603394362661 0 0.21983220969694839 -0.28599169921906192 0 0.20742234917084471 -0.27989603394362661 0 0.20375480366409379 -0.27081082803400658 0 0.2096917951850277 -0.26464101970390969 0 0.20742234917084471 -0.27989603394362661 0 0.2096917951850277 -0.26464101970390969 0 0.20742234917084471 -0.27989603394362661 0 0.20375480366409379 -0.27081082803400658 0 0.2096917951850277 -0.26464101970390969 0 0.20375480366409379 -0.27081082803400658 0 0.20375480366409379 -0.27081082803400658 0 0.1890466831437288 -0.28609572176960502 0 0.18731116633005321 -0.27041359968811451 0 0.20375480366409379 -0.27081082803400658 0 0.18619304383383589 -0.25827966306913802 0 0.18731116633005321 -0.27041359968811451 0 0.20375480366409379 -0.27081082803400658 0 0.1890466831437288 -0.28609572176960502 0 0.2096917951850277 -0.26464101970390969 0 0.20375480366409379 -0.27081082803400658 0 0.193499078652628 -0.2454054517925742 0 0.20375480366409379 -0.27081082803400658 0 0.18619304383383589 -0.25827966306913802 0 0.193499078652628 -0.2454054517925742 0 0.20375480366409379 -0.27081082803400658 0 0.193499078652628 -0.2454054517925742 0 0.19466480205847719 -0.30305899078294862 0 0.20473944193599039 -0.29793029773124691 0 0.2020565347011366 -0.3159645615188672 0 0.19466480205847719 -0.30305899078294862 0 0.19165853717252099 -0.29464266936820133 0 0.20473944193599039 -0.29793029773124691 0 0.19466480205847719 -0.30305899078294862 0 0.2020565347011366 -0.3159645615188672 0 0.19097976098972769 -0.30960737044880893 0 0.19466480205847719 -0.30305899078294862 0 0.2020565347011366 -0.3159645615188672 0 0.19097976098972769 -0.30960737044880893 0 0.19466480205847719 -0.30305899078294862 0 0.18734084347928329 -0.30246760488820629 0 0.19466480205847719 -0.30305899078294862 0 0.19165853717252099 -0.29464266936820133 0 0.18734084347928329 -0.30246760488820629 0 0.20375480366409379 -0.27081082803400658 0 0.1890466831437288 -0.28609572176960502 0 0.1997662727825994 -0.28744457509713423 0 0.19165853717252099 -0.29464266936820133 0 0.1890466831437288 -0.28609572176960502 0 0.1997662727825994 -0.28744457509713423 0 0.19165853717252099 -0.29464266936820133 0 0.1997662727825994 -0.28744457509713423 0 0.20473944193599039 -0.29793029773124691 0 0.20742234917084471 -0.27989603394362661 0 0.21591420988119289 -0.30093198372728741 0 0.20742234917084471 -0.27989603394362661 0 0.20473944193599039 -0.29793029773124691 0 0.20742234917084471 -0.27989603394362661 0 0.1997662727825994 -0.28744457509713423 0 0.20473944193599039 -0.29793029773124691 0 0.20742234917084471 -0.27989603394362661 0 0.21591420988119289 -0.30093198372728741 0 0.21983220969694839 -0.28599169921906192 0 0.20742234917084471 -0.27989603394362661 0 0.21591420988119289 -0.30093198372728741 0 0.20473944193599039 -0.29793029773124691 0 0.20473944193599039 -0.29793029773124691 0 0.21266975652241729 -0.31009826733031393 0 0.2020565347011366 -0.3159645615188672 0 0.21591420988119289 -0.30093198372728741 0 0.20473944193599039 -0.29793029773124691 0 0.21266975652241729 -0.31009826733031393 0 0.20473944193599039 -0.29793029773124691 0 0.2020565347011366 -0.3159645615188672 0 0.21591420988119289 -0.30093198372728741 0 0.21266975652241729 -0.31009826733031393 0 0.22308613029307961 -0.30807561211836942 0 0.21591420988119289 -0.30093198372728741 0 0.22308613029307961 -0.30807561211836942 0 0.2266480496461287 -0.29506413873894882 0 0.22308613029307961 -0.30807561211836942 0 0.2266480496461287 -0.29506413873894882 0 0.23531174980582081 -0.3028189165044759 0 0.22308613029307961 -0.30807561211836942 0 0.23531174980582081 -0.3028189165044759 0 0.2301764837220758 -0.31680727629782718 0 0.23031552646086781 -0.27942862300323101 0 0.2266480496461287 -0.29506413873894882 0 0.24078803216480371 -0.28911814409392023 0 0.23031552646086781 -0.27942862300323101 0 0.21983220969694839 -0.28599169921906192 0 0.2266480496461287 -0.29506413873894882 0 0.21591420988119289 -0.30093198372728741 0 0.21983220969694839 -0.28599169921906192 0 0.2266480496461287 -0.29506413873894882 0 0.2266480496461287 -0.29506413873894882 0 0.24078803216480371 -0.28911814409392023 0 0.23531174980582081 -0.3028189165044759 0 0.25724233818783798 -0.29049024810137219 0 0.24504680393558309 -0.2655318017692726 0 0.24078803216480371 -0.28911814409392023 0 0.25724233818783798 -0.29049024810137219 0 0.24078803216480371 -0.28911814409392023 0 0.24596102916990739 -0.29980925850229551 0 0.24208521843674491 -0.31127766152504699 0 0.23531174980582081 -0.3028189165044759 0 0.2301764837220758 -0.31680727629782718 0 0.24208521843674491 -0.31127766152504699 0 0.23531174980582081 -0.3028189165044759 0 0.24596102916990739 -0.29980925850229551 0 0.24078803216480371 -0.28911814409392023 0 0.23531174980582081 -0.3028189165044759 0 0.24596102916990739 -0.29980925850229551 0 0.25317524917564233 -0.30956261424101172 0 0.24208521843674491 -0.31127766152504699 0 0.24596102916990739 -0.29980925850229551 0 0.24208521843674491 -0.31127766152504699 0 0.24715128114414101 -0.31978968424211779 0 0.2390872112078892 -0.32145525280386988 0 0.25317524917564233 -0.30956261424101172 0 0.24208521843674491 -0.31127766152504699 0 0.24715128114414101 -0.31978968424211779 0 0.24208521843674491 -0.31127766152504699 0 0.2390872112078892 -0.32145525280386988 0 0.2301764837220758 -0.31680727629782718 0 0.24715128114414101 -0.31978968424211779 0 0.2390872112078892 -0.32145525280386988 0 0.24514041959345259 -0.33125653555100121 0 0.25626830730697608 -0.32539635708965919 0 0.24715128114414101 -0.31978968424211779 0 0.24514041959345259 -0.33125653555100121 0 0.25263706765094102 -0.33992559090750701 0 0.24514041959345259 -0.33125653555100121 0 0.24246107266108349 -0.34535559909129609 0 0.24514041959345259 -0.33125653555100121 0 0.23130898368807221 -0.33367553269966799 0 0.24246107266108349 -0.34535559909129609 0 0.2390872112078892 -0.32145525280386988 0 0.24514041959345259 -0.33125653555100121 0 0.23130898368807221 -0.33367553269966799 0 0.23130898368807221 -0.33367553269966799 0 0.219036102374291 -0.32057370337876079 0 0.21510604365295011 -0.33874830776459608 0 0.2390872112078892 -0.32145525280386988 0 0.23130898368807221 -0.33367553269966799 0 0.2301764837220758 -0.31680727629782718 0 0.23130898368807221 -0.33367553269966799 0 0.219036102374291 -0.32057370337876079 0 0.2301764837220758 -0.31680727629782718 0 0.22308613029307961 -0.30807561211836942 0 0.219036102374291 -0.32057370337876079 0 0.2301764837220758 -0.31680727629782718 0 0.22815555260476361 -0.36153205401032529 0 0.24120506155657701 -0.3843158002560545 0 0.26129066326552353 -0.36994769264947758 0 0.24526284011489749 -0.36582625435455829 0 0.24120506155657701 -0.3843158002560545 0 0.24526284011489749 -0.36582625435455829 0 0.22815555260476361 -0.36153205401032529 0 0.24120506155657701 -0.3843158002560545 0 0.24526284011489749 -0.36582625435455829 0 0.24246107266108349 -0.34535559909129609 0 0.22815555260476361 -0.36153205401032529 0 0.25395127084038449 -0.35492126926410339 0 0.24526284011489749 -0.36582625435455829 0 0.24246107266108349 -0.34535559909129609 0 0.25395127084038449 -0.35492126926410339 0 0.25263706765094102 -0.33992559090750701 0 0.24246107266108349 -0.34535559909129609 0 0.23130898368807221 -0.33367553269966799 0 0.22815555260476361 -0.36153205401032529 0 0.21510604365295011 -0.33874830776459608 0 0.22815555260476361 -0.36153205401032529 0 0.21510604365295011 -0.33874830776459608 0 0.23130898368807221 -0.33367553269966799 0 0.24246107266108349 -0.34535559909129609 0 0.22815555260476361 -0.36153205401032529 0 0.22815555260476361 -0.36153205401032529 0 0.218645245120585 -0.37145960520633858 0 0.24120506155657701 -0.3843158002560545 0 0.22815555260476361 -0.36153205401032529 0 0.218645245120585 -0.37145960520633858 0 0.2109607249697362 -0.35699812214204962 0 0.218645245120585 -0.37145960520633858 0 0.2109607249697362 -0.35699812214204962 0 0.2059158417812261 -0.37665234165420419 0 0.2109607249697362 -0.35699812214204962 0 0.19444104075663629 -0.35092203727120858 0 0.2059158417812261 -0.37665234165420419 0 0.22815555260476361 -0.36153205401032529 0 0.2109607249697362 -0.35699812214204962 0 0.21510604365295011 -0.33874830776459608 0 0.2109607249697362 -0.35699812214204962 0 0.21510604365295011 -0.33874830776459608 0 0.20215982823283851 -0.34168673846949138 0 0.2109607249697362 -0.35699812214204962 0 0.19444104075663629 -0.35092203727120858 0 0.20215982823283851 -0.34168673846949138 0 0.19444104075663629 -0.35092203727120858 0 0.2059158417812261 -0.37665234165420419 0 0.19444104075663629 -0.35092203727120858 0 0.18732567069351669 -0.35777044118220869 0 0.2059158417812261 -0.37665234165420419 0 0.1831089172716758 -0.37059190449821838 0 0.18732567069351669 -0.35777044118220869 0 0.19460862567135279 -0.37989517940644918 0 0.18732567069351669 -0.35777044118220869 0 0.2059158417812261 -0.37665234165420419 0 0.19460862567135279 -0.37989517940644918 0 0.18732567069351669 -0.35777044118220869 0 0.19460862567135279 -0.37989517940644918 0 0.219036102374291 -0.32057370337876079 0 0.21510604365295011 -0.33874830776459608 0 0.2020565347011366 -0.3159645615188672 0 0.21510604365295011 -0.33874830776459608 0 0.2020565347011366 -0.3159645615188672 0 0.21266975652241729 -0.31009826733031393 0 0.219036102374291 -0.32057370337876079 0 0.2020565347011366 -0.3159645615188672 0 0.21266975652241729 -0.31009826733031393 0 0.22308613029307961 -0.30807561211836942 0 0.219036102374291 -0.32057370337876079 0 0.21510604365295011 -0.33874830776459608 0 0.19982148950309961 -0.33098833653240939 0 0.2020565347011366 -0.3159645615188672 0 0.21510604365295011 -0.33874830776459608 0 0.19982148950309961 -0.33098833653240939 0 0.20215982823283851 -0.34168673846949138 0 0.19444104075663629 -0.35092203727120858 0 0.1829662397320467 -0.32519173288821318 0 0.19982148950309961 -0.33098833653240939 0 0.20215982823283851 -0.34168673846949138 0 0.19471651741985541 -0.33437178318554728 0 0.19444104075663629 -0.35092203727120858 0 0.19471651741985541 -0.33437178318554728 0 0.1829662397320467 -0.32519173288821318 0 0.19982148950309961 -0.33098833653240939 0 0.19471651741985541 -0.33437178318554728 0 0.19419398887465589 -0.32307007076641409 0 0.19444104075663629 -0.35092203727120858 0 0.20215982823283851 -0.34168673846949138 0 0.19471651741985541 -0.33437178318554728 0 0.19419398887465589 -0.32307007076641409 0 0.1886296278323957 -0.3165899283544667 0 0.1829662397320467 -0.32519173288821318 0 0.19471651741985541 -0.33437178318554728 0 0.19419398887465589 -0.32307007076641409 0 0.1829662397320467 -0.32519173288821318 0 0.19982148950309961 -0.33098833653240939 0 0.19419398887465589 -0.32307007076641409 0 0.2020565347011366 -0.3159645615188672 0 0.19982148950309961 -0.33098833653240939 0 0.2020565347011366 -0.3159645615188672 0 0.19097976098972769 -0.30960737044880893 0 0.2020565347011366 -0.3159645615188672 0 0.1886296278323957 -0.3165899283544667 0 0.19419398887465589 -0.32307007076641409 0 0.2020565347011366 -0.3159645615188672 0 0.1886296278323957 -0.3165899283544667 0 0.1727597607378446 -0.31352096473372731 0 0.18004271571568059 -0.33564570295796797 0 0.17958732557790361 -0.31784836834566482 0 0.1829662397320467 -0.32519173288821318 0 0.18004271571568059 -0.33564570295796797 0 0.1886296278323957 -0.3165899283544667 0 0.17958732557790361 -0.31784836834566482 0 0.1822069968773459 -0.30995576669955588 0 0.1727597607378446 -0.31352096473372731 0 0.17958732557790361 -0.31784836834566482 0 0.18004271571568059 -0.33564570295796797 0 0.1886296278323957 -0.3165899283544667 0 0.17958732557790361 -0.31784836834566482 0 0.1829662397320467 -0.32519173288821318 0 0.1727597607378446 -0.31352096473372731 0 0.18004271571568059 -0.33564570295796797 0 0.16909930751454719 -0.32901621013455079 0 0.1727597607378446 -0.31352096473372731 0 0.17958732557790361 -0.31784836834566482 0 0.1822069968773459 -0.30995576669955588 0 0.19444104075663629 -0.35092203727120858 0 0.1829662397320467 -0.32519173288821318 0 0.18004271571568059 -0.33564570295796797 0 0.18004271571568059 -0.33564570295796797 0 0.17006639191968731 -0.33888669102217761 0 0.17641250439961581 -0.34941639567727367 0 0.18004271571568059 -0.33564570295796797 0 0.16909930751454719 -0.32901621013455079 0 0.17006639191968731 -0.33888669102217761 0 0.16909930751454719 -0.32901621013455079 0 0.1614612427757417 -0.33329410975149382 0 0.16382339281848959 -0.32452001784988788 0 0.16909930751454719 -0.32901621013455079 0 0.17006639191968731 -0.33888669102217761 0 0.1614612427757417 -0.33329410975149382 0 0.17006639191968731 -0.33888669102217761 0 0.16073667904279301 -0.34341766311907063 0 0.1614612427757417 -0.33329410975149382 0 0.16073667904279301 -0.34341766311907063 0 0.1614612427757417 -0.33329410975149382 0 0.15199208541574111 -0.34261662822991218 0 0.1727597607378446 -0.31352096473372731 0 0.15380250498633119 -0.32272198664065949 0 0.17433856262336231 -0.30138061550520179 0 0.1614612427757417 -0.33329410975149382 0 0.16382339281848959 -0.32452001784988788 0 0.15380250498633119 -0.32272198664065949 0 0.1727597607378446 -0.31352096473372731 0 0.16382339281848959 -0.32452001784988788 0 0.15380250498633119 -0.32272198664065949 0 0.1727597607378446 -0.31352096473372731 0 0.16909930751454719 -0.32901621013455079 0 0.16382339281848959 -0.32452001784988788 0 0.17446393105572469 -0.37426528981589902 0 0.1831089172716758 -0.37059190449821838 0 0.17441624151622129 -0.3609662554148283 0 0.17446393105572469 -0.37426528981589902 0 0.1831089172716758 -0.37059190449821838 0 0.18421921914873471 -0.37949443536802219 0 0.1831089172716758 -0.37059190449821838 0 0.17441624151622129 -0.3609662554148283 0 0.18732567069351669 -0.35777044118220869 0 0.18004271571568059 -0.33564570295796797 0 0.18732567069351669 -0.35777044118220869 0 0.19444104075663629 -0.35092203727120858 0 0.18004271571568059 -0.33564570295796797 0 0.18732567069351669 -0.35777044118220869 0 0.18004271571568059 -0.33564570295796797 0 0.18732567069351669 -0.35777044118220869 0 0.17641250439961581 -0.34941639567727367 0 0.17441624151622129 -0.3609662554148283 0 0.18732567069351669 -0.35777044118220869 0 0.17641250439961581 -0.34941639567727367 0 0.17006639191968731 -0.33888669102217761 0 0.17641250439961581 -0.34941639567727367 0 0.15942699606000191 -0.35887322347269918 0 0.16073667904279301 -0.34341766311907063 0 0.15942699606000191 -0.35887322347269918 0 0.15199208541574111 -0.34261662822991218 0 0.17441624151622129 -0.3609662554148283 0 0.17641250439961581 -0.34941639567727367 0 0.15942699606000191 -0.35887322347269918 0 0.17006639191968731 -0.33888669102217761 0 0.16073667904279301 -0.34341766311907063 0 0.15942699606000191 -0.35887322347269918 0 0.17006639191968731 -0.33888669102217761 0 0.15942699606000191 -0.35887322347269918 0 0.15942699606000191 -0.35887322347269918 0 0.16221439980477359 -0.37985212508275468 0 0.14878760020031781 -0.37885975592322158 0 0.17446393105572469 -0.37426528981589902 0 0.15942699606000191 -0.35887322347269918 0 0.16221439980477359 -0.37985212508275468 0 0.17446393105572469 -0.37426528981589902 0 0.17441624151622129 -0.3609662554148283 0 0.15942699606000191 -0.35887322347269918 0 0.14438195779249419 -0.35493890292313102 0 0.13694655457266849 -0.36863056599324001 0 0.14878760020031781 -0.37885975592322158 0 0.15942699606000191 -0.35887322347269918 0 0.14438195779249419 -0.35493890292313102 0 0.14878760020031781 -0.37885975592322158 0 0.15942699606000191 -0.35887322347269918 0 0.14878760020031781 -0.37885975592322158 0 0.13694655457266849 -0.36863056599324001 0 0.14878760020031781 -0.37885975592322158 0 0.14438195779249419 -0.35493890292313102 0 0.13326644734929899 -0.34406335777611641 0 0.15199208541574111 -0.34261662822991218 0 0.15942699606000191 -0.35887322347269918 0 0.14438195779249419 -0.35493890292313102 0 0.15199208541574111 -0.34261662822991218 0 0.13326644734929899 -0.34406335777611641 0 0.12510550894502029 -0.35840137606325689 0 0.12254757337631091 -0.33610918870454148 0 0.14438195779249419 -0.35493890292313102 0 0.13326644734929899 -0.34406335777611641 0 0.12510550894502029 -0.35840137606325689 0 0.12510550894502029 -0.35840137606325689 0 0.13694655457266849 -0.36863056599324001 0 0.12817089919403771 -0.38511598709354078 0 0.12510550894502029 -0.35840137606325689 0 0.12817089919403771 -0.38511598709354078 0 0.14438195779249419 -0.35493890292313102 0 0.12510550894502029 -0.35840137606325689 0 0.13694655457266849 -0.36863056599324001 0 0.12510550894502029 -0.35840137606325689 0 0.13694655457266849 -0.36863056599324001 0 0.145744957556906 -0.31577011287677592 0 0.15380250498633119 -0.32272198664065949 0 0.14192960744621161 -0.32842310172922512 0 0.145744957556906 -0.31577011287677592 0 0.15380250498633119 -0.32272198664065949 0 0.15397149931875709 -0.31063776368379792 0 0.13326644734929899 -0.34406335777611641 0 0.15380250498633119 -0.32272198664065949 0 0.13326644734929899 -0.34406335777611641 0 0.15380250498633119 -0.32272198664065949 0 0.14192960744621161 -0.32842310172922512 0 0.1614612427757417 -0.33329410975149382 0 0.15380250498633119 -0.32272198664065949 0 0.15199208541574111 -0.34261662822991218 0 0.13326644734929899 -0.34406335777611641 0 0.15380250498633119 -0.32272198664065949 0 0.15199208541574111 -0.34261662822991218 0 0.13326644734929899 -0.34406335777611641 0 0.14192960744621161 -0.32842310172922512 0 0.1318822061679224 -0.33356054631652821 0 0.14192960744621161 -0.32842310172922512 0 0.1318822061679224 -0.33356054631652821 0 0.129785196499868 -0.3256465370562297 0 0.13326644734929899 -0.34406335777611641 0 0.1318822061679224 -0.33356054631652821 0 0.12254757337631091 -0.33610918870454148 0 0.1318822061679224 -0.33356054631652821 0 0.129785196499868 -0.3256465370562297 0 0.12254757337631091 -0.33610918870454148 0 0.14192960744621161 -0.32842310172922512 0 0.129785196499868 -0.3256465370562297 0 0.13296959340982131 -0.3146249042610974 0 0.14192960744621161 -0.32842310172922512 0 0.13296959340982131 -0.3146249042610974 0 0.145744957556906 -0.31577011287677592 0 0.14192960744621161 -0.32842310172922512 0 0.13296959340982131 -0.3146249042610974 0 0.129785196499868 -0.3256465370562297 0 0.13296959340982131 -0.3146249042610974 0 0.1199896378075995 -0.31381700134582652 0 0.13296959340982131 -0.3146249042610974 0 0.12511169682859771 -0.29726525443351881 0 0.14972512972598001 -0.29932293496935952 0 0.13296959340982131 -0.3146249042610974 0 0.12511169682859771 -0.29726525443351881 0 0.12400957937343191 -0.30082670679296919 0 0.13296959340982131 -0.3146249042610974 0 0.12400957937343191 -0.30082670679296919 0 0.13296959340982131 -0.3146249042610974 0 0.12400957937343191 -0.30082670679296919 0 0.1199896378075995 -0.31381700134582652 0 0.12511169682859771 -0.29726525443351881 0 0.14972512972598001 -0.29932293496935952 0 0.145744957556906 -0.31577011287677592 0 0.13296959340982131 -0.3146249042610974 0 0.14972512972598001 -0.29932293496935952 0 0.145744957556906 -0.31577011287677592 0 0.14972512972598001 -0.29932293496935952 0 0.15397149931875709 -0.31063776368379792 0 0.14972512972598001 -0.29932293496935952 0 0.15152699873656461 -0.27494262927677371 0 0.16592989841370179 -0.2833487756157731 0 0.14972512972598001 -0.29932293496935952 0 0.13823546618257401 -0.28852072293282532 0 0.15152699873656461 -0.27494262927677371 0 0.12511169682859771 -0.29726525443351881 0 0.14972512972598001 -0.29932293496935952 0 0.13823546618257401 -0.28852072293282532 0 0.12511169682859771 -0.29726525443351881 0 0.13234471807836801 -0.27389201007093261 0 0.12511169682859771 -0.29726525443351881 0 0.13823546618257401 -0.28852072293282532 0 0.13234471807836801 -0.27389201007093261 0 0.13234471807836801 -0.27389201007093261 0 0.13957773932813719 -0.25051876570834603 0 0.1450234080143222 -0.26394476600410938 0 0.13234471807836801 -0.27389201007093261 0 0.13957773932813719 -0.25051876570834603 0 0.13234471807836801 -0.27389201007093261 0 0.13957773932813719 -0.25051876570834603 0 0.1144661237917889 -0.26568005418222018 0 0.1450234080143222 -0.26394476600410938 0 0.15152699873656461 -0.27494262927677371 0 0.15664417591421889 -0.25642565896038561 0 0.13957773932813719 -0.25051876570834603 0 0.15664417591421889 -0.25642565896038561 0 0.13957773932813719 -0.25051876570834603 0 0.1450234080143222 -0.26394476600410938 0 0.15664417591421889 -0.25642565896038561 0 0.13823546618257401 -0.28852072293282532 0 0.13234471807836801 -0.27389201007093261 0 0.15152699873656461 -0.27494262927677371 0 0.13234471807836801 -0.27389201007093261 0 0.1450234080143222 -0.26394476600410938 0 0.15152699873656461 -0.27494262927677371 0 0.15152699873656461 -0.27494262927677371 0 0.17371061250030059 -0.26233255221242519 0 0.16592989841370179 -0.2833487756157731 0 0.15152699873656461 -0.27494262927677371 0 0.15664417591421889 -0.25642565896038561 0 0.17371061250030059 -0.26233255221242519 0 0.15664417591421889 -0.25642565896038561 0 0.17371061250030059 -0.26233255221242519 0 0.1726895580221042 -0.24243588361856941 0 0.15664417591421889 -0.25642565896038561 0 0.17371061250030059 -0.26233255221242519 0 0.17371061250030059 -0.26233255221242519 0 0.18619304383383589 -0.25827966306913802 0 0.1726895580221042 -0.24243588361856941 0 0.17371061250030059 -0.26233255221242519 0 0.18619304383383589 -0.25827966306913802 0 0.18731116633005321 -0.27041359968811451 0 0.1890466831437288 -0.28609572176960502 0 0.1780673846022294 -0.28071425295822389 0 0.18731116633005321 -0.27041359968811451 0 0.17371061250030059 -0.26233255221242519 0 0.1780673846022294 -0.28071425295822389 0 0.18731116633005321 -0.27041359968811451 0 0.17371061250030059 -0.26233255221242519 0 0.1780673846022294 -0.28071425295822389 0 0.16592989841370179 -0.2833487756157731 0 0.1890466831437288 -0.28609572176960502 0 0.1780673846022294 -0.28071425295822389 0 0.17433856262336231 -0.30138061550520179 0 0.1780673846022294 -0.28071425295822389 0 0.17433856262336231 -0.30138061550520179 0 0.16592989841370179 -0.2833487756157731 0 0.19165853717252099 -0.29464266936820133 0 0.1890466831437288 -0.28609572176960502 0 0.17433856262336231 -0.30138061550520179 0 0.1890466831437288 -0.28609572176960502 0 0.17433856262336231 -0.30138061550520179 0 0.19165853717252099 -0.29464266936820133 0 0.18734084347928329 -0.30246760488820629 0 0.17433856262336231 -0.30138061550520179 0 0.18734084347928329 -0.30246760488820629 0 0.17433856262336231 -0.30138061550520179 0 0.18734084347928329 -0.30246760488820629 0 0.1822069968773459 -0.30995576669955588 0 0.17433856262336231 -0.30138061550520179 0 0.19097976098972769 -0.30960737044880893 0 0.18734084347928329 -0.30246760488820629 0 0.1822069968773459 -0.30995576669955588 0 0.19097976098972769 -0.30960737044880893 0 0.1886296278323957 -0.3165899283544667 0 0.1822069968773459 -0.30995576669955588 0 0.1727597607378446 -0.31352096473372731 0 0.1822069968773459 -0.30995576669955588 0 0.17433856262336231 -0.30138061550520179 0 0.14972512972598001 -0.29932293496935952 0 0.15397149931875709 -0.31063776368379792 0 0.17433856262336231 -0.30138061550520179 0 0.14972512972598001 -0.29932293496935952 0 0.17433856262336231 -0.30138061550520179 0 0.15380250498633119 -0.32272198664065949 0 0.17433856262336231 -0.30138061550520179 0 0.15380250498633119 -0.32272198664065949 0 0.15397149931875709 -0.31063776368379792 0 0.17433856262336231 -0.30138061550520179 0 0.14972512972598001 -0.29932293496935952 0 0.17433856262336231 -0.30138061550520179 0 0.16592989841370179 -0.2833487756157731 0 0.19834836381251869 -0.48142218377744311 0 0.20679611785594409 -0.50000000000000111 0 0.18498186548782089 -0.5 0 0.19834836381251869 -0.48142218377744311 0 0.18590788628421309 -0.47308378272221369 0 0.18498186548782089 -0.5 0 0.19834836381251869 -0.48142218377744311 0 0.19535748024548691 -0.46109318564867441 0 0.18590788628421309 -0.47308378272221369 0 0.21712547985600891 -0.47346286187946518 0 0.20679611785594409 -0.50000000000000111 0 0.22334886553639521 -0.47699930378056371 0 0.19834836381251869 -0.48142218377744311 0 0.21712547985600891 -0.47346286187946518 0 0.19535748024548691 -0.46109318564867441 0 0.21712547985600891 -0.47346286187946518 0 0.21869819441077959 -0.46942240484408931 0 0.21712547985600891 -0.47346286187946518 0 0.21869819441077959 -0.46942240484408931 0 0.21488549220095179 -0.46928799564886758 0 0.21869819441077959 -0.46942240484408931 0 0.21488549220095179 -0.46928799564886758 0 0.20679611785594409 -0.50000000000000111 0 0.2221313606789552 -0.5 0 0.22334886553639521 -0.47699930378056371 0 0.19834836381251869 -0.48142218377744311 0 0.21712547985600891 -0.47346286187946518 0 0.20679611785594409 -0.50000000000000111 0 0.21712547985600891 -0.47346286187946518 0 0.20679611785594409 -0.50000000000000111 0 0.2221313606789552 -0.5 0 0.2374666035019663 -0.49999999999999839 0 0.22334886553639521 -0.47699930378056371 0 0.2374666035019663 -0.49999999999999839 0 0.2370793227358485 -0.4848016426769638 0 0.22334886553639521 -0.47699930378056371 0 0.2374666035019663 -0.49999999999999839 0 0.22334886553639521 -0.47699930378056371 0 0.25080977993530212 -0.49260398157336349 0 0.2374666035019663 -0.49999999999999839 0 0.2370793227358485 -0.4848016426769638 0 0.25080977993530212 -0.49260398157336349 0 0.25534876879287682 -0.5 0 0.2374666035019663 -0.49999999999999839 0 0.25080977993530212 -0.49260398157336349 0 0.2370793227358485 -0.4848016426769638 0 0.25080977993530212 -0.49260398157336349 0 0.2370793227358485 -0.4848016426769638 0 0.24901550066171091 -0.47977901970758141 0 0.25214910779759903 -0.46759124077863662 0 0.24901550066171091 -0.47977901970758141 0 0.23477250735875091 -0.47287863535658292 0 0.2370793227358485 -0.4848016426769638 0 0.24901550066171091 -0.47977901970758141 0 0.23477250735875091 -0.47287863535658292 0 0.21869819441077959 -0.46942240484408931 0 0.23477250735875091 -0.47287863535658292 0 0.22334886553639521 -0.47699930378056371 0 0.2370793227358485 -0.4848016426769638 0 0.23477250735875091 -0.47287863535658292 0 0.22334886553639521 -0.47699930378056371 0 0.2370793227358485 -0.4848016426769638 0 0.22334886553639521 -0.47699930378056371 0 0.21712547985600891 -0.47346286187946518 0 0.22334886553639521 -0.47699930378056371 0 0.21869819441077959 -0.46942240484408931 0 0.22334886553639521 -0.47699930378056371 0 0.21712547985600891 -0.47346286187946518 0 0.21869819441077959 -0.46942240484408931 0 0.22334886553639521 -0.47699930378056371 0 0.21869819441077959 -0.46942240484408931 0 0.22553225845387129 -0.45186502797657352 0 0.2120579810801746 -0.4586041328219021 0 0.21869819441077959 -0.46942240484408931 0 0.22553225845387129 -0.45186502797657352 0 0.21869819441077959 -0.46942240484408931 0 0.23477250735875091 -0.47287863535658292 0 0.24073249850407891 -0.46229761431447741 0 0.21869819441077959 -0.46942240484408931 0 0.24073249850407891 -0.46229761431447741 0 0.22553225845387129 -0.45186502797657352 0 0.21869819441077959 -0.46942240484408931 0 0.24073249850407891 -0.46229761431447741 0 0.25214910779759903 -0.46759124077863662 0 0.23477250735875091 -0.47287863535658292 0 0.24073249850407891 -0.46229761431447741 0 0.25106768037805421 -0.44343583832246442 0 0.24073249850407891 -0.46229761431447741 0 0.23571424375613989 -0.44101671144621613 0 0.25106768037805421 -0.44343583832246442 0 0.23571424375613989 -0.44101671144621613 0 0.24646454990772459 -0.42980635813593088 0 0.22553225845387129 -0.45186502797657352 0 0.21280882959211189 -0.44450142353968408 0 0.2220904084873071 -0.43531076795360202 0 0.24073249850407891 -0.46229761431447741 0 0.23571424375613989 -0.44101671144621613 0 0.22553225845387129 -0.45186502797657352 0 0.23571424375613989 -0.44101671144621613 0 0.22553225845387129 -0.45186502797657352 0 0.2220904084873071 -0.43531076795360202 0 0.21280882959211189 -0.44450142353968408 0 0.19798014833654329 -0.44630890251833272 0 0.20638335160266311 -0.43041828642801039 0 0.21280882959211189 -0.44450142353968408 0 0.2120579810801746 -0.4586041328219021 0 0.19798014833654329 -0.44630890251833272 0 0.22553225845387129 -0.45186502797657352 0 0.21280882959211189 -0.44450142353968408 0 0.2120579810801746 -0.4586041328219021 0 0.21712547985600891 -0.47346286187946518 0 0.19535748024548691 -0.46109318564867441 0 0.21488549220095179 -0.46928799564886758 0 0.2120579810801746 -0.4586041328219021 0 0.19535748024548691 -0.46109318564867441 0 0.21712547985600891 -0.47346286187946518 0 0.21488549220095179 -0.46928799564886758 0 0.19535748024548691 -0.46109318564867441 0 0.21869819441077959 -0.46942240484408931 0 0.21488549220095179 -0.46928799564886758 0 0.2120579810801746 -0.4586041328219021 0 0.21869819441077959 -0.46942240484408931 0 0.2120579810801746 -0.4586041328219021 0 0.2120579810801746 -0.4586041328219021 0 0.19535748024548691 -0.46109318564867441 0 0.19798014833654329 -0.44630890251833272 0 0.19535748024548691 -0.46109318564867441 0 0.19798014833654329 -0.44630890251833272 0 0.1735894806349656 -0.44872350941788258 0 0.19541227951081261 -0.41750126742319121 0 0.20638335160266311 -0.43041828642801039 0 0.1864547810054871 -0.43195403746144162 0 0.19798014833654329 -0.44630890251833272 0 0.20638335160266311 -0.43041828642801039 0 0.1864547810054871 -0.43195403746144162 0 0.19541227951081261 -0.41750126742319121 0 0.20750076328472439 -0.41396992625448531 0 0.20638335160266311 -0.43041828642801039 0 0.19541227951081261 -0.41750126742319121 0 0.2018915806491888 -0.40201991763068978 0 0.18150646548569491 -0.40712478401466662 0 0.19541227951081261 -0.41750126742319121 0 0.18150646548569491 -0.40712478401466662 0 0.1864547810054871 -0.43195403746144162 0 0.19541227951081261 -0.41750126742319121 0 0.20750076328472439 -0.41396992625448531 0 0.2018915806491888 -0.40201991763068978 0 0.20750076328472439 -0.41396992625448531 0 0.21887868734467411 -0.41919116210872209 0 0.2173906428058158 -0.40238264603719981 0 0.20750076328472439 -0.41396992625448531 0 0.20638335160266311 -0.43041828642801039 0 0.21887868734467411 -0.41919116210872209 0 0.21280882959211189 -0.44450142353968408 0 0.20638335160266311 -0.43041828642801039 0 0.2220904084873071 -0.43531076795360202 0 0.20638335160266311 -0.43041828642801039 0 0.2220904084873071 -0.43531076795360202 0 0.21887868734467411 -0.41919116210872209 0 0.2220904084873071 -0.43531076795360202 0 0.2338260887620634 -0.42266816501866439 0 0.21887868734467411 -0.41919116210872209 0 0.23571424375613989 -0.44101671144621613 0 0.2220904084873071 -0.43531076795360202 0 0.2338260887620634 -0.42266816501866439 0 0.2525028597698723 -0.41670180313412242 0 0.2338260887620634 -0.42266816501866439 0 0.24646454990772459 -0.42980635813593088 0 0.23571424375613989 -0.44101671144621613 0 0.2338260887620634 -0.42266816501866439 0 0.24646454990772459 -0.42980635813593088 0 0.2525028597698723 -0.41670180313412242 0 0.2338260887620634 -0.42266816501866439 0 0.2399584619521222 -0.40472902428314023 0 0.22715245684773899 -0.40985259681358172 0 0.21887868734467411 -0.41919116210872209 0 0.2173906428058158 -0.40238264603719981 0 0.2338260887620634 -0.42266816501866439 0 0.22715245684773899 -0.40985259681358172 0 0.2399584619521222 -0.40472902428314023 0 0.2338260887620634 -0.42266816501866439 0 0.22715245684773899 -0.40985259681358172 0 0.21887868734467411 -0.41919116210872209 0 0.22715245684773899 -0.40985259681358172 0 0.22906296824774111 -0.39679534322049648 0 0.2173906428058158 -0.40238264603719981 0 0.22906296824774111 -0.39679534322049648 0 0.2223399667072167 -0.3861663231786493 0 0.2173906428058158 -0.40238264603719981 0 0.22715245684773899 -0.40985259681358172 0 0.22906296824774111 -0.39679534322049648 0 0.2399584619521222 -0.40472902428314023 0 0.25721705867823869 -0.39719719175748069 0 0.2399584619521222 -0.40472902428314023 0 0.24120506155657701 -0.3843158002560545 0 0.22906296824774111 -0.39679534322049648 0 0.2399584619521222 -0.40472902428314023 0 0.24120506155657701 -0.3843158002560545 0 0.25721705867823869 -0.39719719175748069 0 0.2525028597698723 -0.41670180313412242 0 0.2399584619521222 -0.40472902428314023 0 0.218645245120585 -0.37145960520633858 0 0.24120506155657701 -0.3843158002560545 0 0.2223399667072167 -0.3861663231786493 0 0.22906296824774111 -0.39679534322049648 0 0.24120506155657701 -0.3843158002560545 0 0.2223399667072167 -0.3861663231786493 0 0.2223399667072167 -0.3861663231786493 0 0.2059158417812261 -0.37665234165420419 0 0.2173906428058158 -0.40238264603719981 0 0.218645245120585 -0.37145960520633858 0 0.2223399667072167 -0.3861663231786493 0 0.2059158417812261 -0.37665234165420419 0 0.2059158417812261 -0.37665234165420419 0 0.2173906428058158 -0.40238264603719981 0 0.2059158417812261 -0.37665234165420419 0 0.2173906428058158 -0.40238264603719981 0 0.2018915806491888 -0.40201991763068978 0 0.20750076328472439 -0.41396992625448531 0 0.2173906428058158 -0.40238264603719981 0 0.2018915806491888 -0.40201991763068978 0 0.2018915806491888 -0.40201991763068978 0 0.18113137624492931 -0.38926354873701968 0 0.18150646548569491 -0.40712478401466662 0 0.2018915806491888 -0.40201991763068978 0 0.19460862567135279 -0.37989517940644918 0 0.2059158417812261 -0.37665234165420419 0 0.2018915806491888 -0.40201991763068978 0 0.19460862567135279 -0.37989517940644918 0 0.2018915806491888 -0.40201991763068978 0 0.19460862567135279 -0.37989517940644918 0 0.18113137624492931 -0.38926354873701968 0 0.17446393105572469 -0.37426528981589902 0 0.18113137624492931 -0.38926354873701968 0 0.16221439980477359 -0.37985212508275468 0 0.1831089172716758 -0.37059190449821838 0 0.19460862567135279 -0.37989517940644918 0 0.18421921914873471 -0.37949443536802219 0 0.17446393105572469 -0.37426528981589902 0 0.18421921914873471 -0.37949443536802219 0 0.18113137624492931 -0.38926354873701968 0 0.19460862567135279 -0.37989517940644918 0 0.18421921914873471 -0.37949443536802219 0 0.18113137624492931 -0.38926354873701968 0 0.16514703284300641 -0.39299226996894399 0 0.18150646548569491 -0.40712478401466662 0 0.18113137624492931 -0.38926354873701968 0 0.16514703284300641 -0.39299226996894399 0 0.18150646548569491 -0.40712478401466662 0 0.16514703284300641 -0.39299226996894399 0 0.15237711571283449 -0.41415336401108171 0 0.16723637486914469 -0.41079272181212612 0 0.16514703284300641 -0.39299226996894399 0 0.16723637486914469 -0.41079272181212612 0 0.18150646548569491 -0.40712478401466662 0 0.16514703284300641 -0.39299226996894399 0 0.14878760020031781 -0.37885975592322158 0 0.16514703284300641 -0.39299226996894399 0 0.16221439980477359 -0.37985212508275468 0 0.14878760020031781 -0.37885975592322158 0 0.18113137624492931 -0.38926354873701968 0 0.16514703284300641 -0.39299226996894399 0 0.16221439980477359 -0.37985212508275468 0 0.14878760020031781 -0.37885975592322158 0 0.14001194482168011 -0.39534517702352179 0 0.16514703284300641 -0.39299226996894399 0 0.14878760020031781 -0.37885975592322158 0 0.14001194482168011 -0.39534517702352179 0 0.13694655457266849 -0.36863056599324001 0 0.14878760020031781 -0.37885975592322158 0 0.12817089919403771 -0.38511598709354078 0 0.14878760020031781 -0.37885975592322158 0 0.12817089919403771 -0.38511598709354078 0 0.14001194482168011 -0.39534517702352179 0 0.14001194482168011 -0.39534517702352179 0 0.13123628944304891 -0.41183059812382539 0 0.12817089919403771 -0.38511598709354078 0 0.14001194482168011 -0.39534517702352179 0 0.13123628944304891 -0.41183059812382539 0 0.12817089919403771 -0.38511598709354078 0 0.13123628944304891 -0.41183059812382539 0 0.16514703284300641 -0.39299226996894399 0 0.14001194482168011 -0.39534517702352179 0 0.15237711571283449 -0.41415336401108171 0 0.15237711571283449 -0.41415336401108171 0 0.13123628944304891 -0.41183059812382539 0 0.14234128991410369 -0.42528286851040831 0 0.14001194482168011 -0.39534517702352179 0 0.15237711571283449 -0.41415336401108171 0 0.13123628944304891 -0.41183059812382539 0 0.13123628944304891 -0.41183059812382539 0 0.14234128991410369 -0.42528286851040831 0 0.13460864654589411 -0.44122039874921598 0 0.13123628944304891 -0.41183059812382539 0 0.13460864654589411 -0.44122039874921598 0 0.11876290654998629 -0.43526234887806559 0 0.13123628944304891 -0.41183059812382539 0 0.13460864654589411 -0.44122039874921598 0 0.14234128991410369 -0.42528286851040831 0 0.15182148102444409 -0.4363538331870907 0 0.13460864654589411 -0.44122039874921598 0 0.15237711571283449 -0.41415336401108171 0 0.14234128991410369 -0.42528286851040831 0 0.15182148102444409 -0.4363538331870907 0 0.15237711571283449 -0.41415336401108171 0 0.15182148102444409 -0.4363538331870907 0 0.16819353825637129 -0.42647996316403147 0 0.15182148102444409 -0.4363538331870907 0 0.16819353825637129 -0.42647996316403147 0 0.1735894806349656 -0.44872350941788258 0 0.15237711571283449 -0.41415336401108171 0 0.16819353825637129 -0.42647996316403147 0 0.16723637486914469 -0.41079272181212612 0 0.16819353825637129 -0.42647996316403147 0 0.16723637486914469 -0.41079272181212612 0 0.18150646548569491 -0.40712478401466662 0 0.16819353825637129 -0.42647996316403147 0 0.18150646548569491 -0.40712478401466662 0 0.1864547810054871 -0.43195403746144162 0 0.16819353825637129 -0.42647996316403147 0 0.1864547810054871 -0.43195403746144162 0 0.1735894806349656 -0.44872350941788258 0 0.19798014833654329 -0.44630890251833272 0 0.1864547810054871 -0.43195403746144162 0 0.1735894806349656 -0.44872350941788258 0 0.1735894806349656 -0.44872350941788258 0 0.16971189244130189 -0.47671880931013683 0 0.18590788628421309 -0.47308378272221369 0 0.19535748024548691 -0.46109318564867441 0 0.1735894806349656 -0.44872350941788258 0 0.19535748024548691 -0.46109318564867441 0 0.1735894806349656 -0.44872350941788258 0 0.18590788628421309 -0.47308378272221369 0 0.1735894806349656 -0.44872350941788258 0 0.1537400628827974 -0.45922871806649301 0 0.16971189244130189 -0.47671880931013683 0 0.15182148102444409 -0.4363538331870907 0 0.1735894806349656 -0.44872350941788258 0 0.15182148102444409 -0.4363538331870907 0 0.1735894806349656 -0.44872350941788258 0 0.1537400628827974 -0.45922871806649301 0 0.15182148102444409 -0.4363538331870907 0 0.13460864654589411 -0.44122039874921598 0 0.1537400628827974 -0.45922871806649301 0 0.13460864654589411 -0.44122039874921598 0 0.1233635487653435 -0.45453178416290418 0 0.11876290654998629 -0.43526234887806559 0 0.13460864654589411 -0.44122039874921598 0 0.13798100364873439 -0.47061019937460707 0 0.1233635487653435 -0.45453178416290418 0 0.13798100364873439 -0.47061019937460707 0 0.11890327474422439 -0.46863885982900089 0 0.1233635487653435 -0.45453178416290418 0 0.13460864654589411 -0.44122039874921598 0 0.13798100364873439 -0.47061019937460707 0 0.13460864654589411 -0.44122039874921598 0 0.1537400628827974 -0.45922871806649301 0 0.13798100364873439 -0.47061019937460707 0 0.1537400628827974 -0.45922871806649301 0 0.15416771030733989 -0.48158739035354647 0 0.13798100364873439 -0.47061019937460707 0 0.15416771030733989 -0.48158739035354647 0 0.13798100364873439 -0.47061019937460707 0 0.14135336075157459 -0.49999999999999822 0 0.13798100364873439 -0.47061019937460707 0 0.1208517480969717 -0.48473169312607661 0 0.11890327474422439 -0.46863885982900089 0 0.13798100364873439 -0.47061019937460707 0 0.14135336075157459 -0.49999999999999822 0 0.1208517480969717 -0.48473169312607661 0 0.13798100364873439 -0.47061019937460707 0 0.14135336075157459 -0.49999999999999822 0 0.15416771030733989 -0.48158739035354647 0 0.14135336075157459 -0.49999999999999822 0 0.16316761311969771 -0.5 0 0.15416771030733989 -0.48158739035354647 0 0.16316761311969771 -0.5 0 0.16971189244130189 -0.47671880931013683 0 0.1537400628827974 -0.45922871806649301 0 0.15416771030733989 -0.48158739035354647 0 0.16971189244130189 -0.47671880931013683 0 0.16971189244130189 -0.47671880931013683 0 0.18590788628421309 -0.47308378272221369 0 0.18498186548782089 -0.5 0 0.16316761311969771 -0.5 0 0.16971189244130189 -0.47671880931013683 0 0.18498186548782089 -0.5 0 0.067564682029386286 -0.49069597887467231 0 0.081518120382286452 -0.5 0 0.051600500197642403 -0.5 0 0.067564682029386286 -0.49069597887467231 0 0.081056885696919975 -0.47913681278259912 0 0.081518120382286452 -0.5 0 0.067564682029386286 -0.49069597887467231 0 0.081056885696919975 -0.47913681278259912 0 0.056083221840696307 -0.48364710271609018 0 0.081056885696919975 -0.47913681278259912 0 0.056083221840696307 -0.48364710271609018 0 0.081056885696919975 -0.47913681278259912 0 0.074907353775575669 -0.46323589832028073 0 0.056083221840696307 -0.48364710271609018 0 0.081056885696919975 -0.47913681278259912 0 0.1060305495531437 -0.47462652284910778 0 0.091655141147906294 -0.46642454093443442 0 0.081056885696919975 -0.47913681278259912 0 0.091655141147906294 -0.46642454093443442 0 0.074907353775575669 -0.46323589832028073 0 0.081056885696919975 -0.47913681278259912 0 0.1060305495531437 -0.47462652284910778 0 0.081056885696919975 -0.47913681278259912 0 0.081518120382286452 -0.5 0 0.096922859119650831 -0.48884484036953713 0 0.081518120382286452 -0.5 0 0.096922859119650831 -0.48884484036953713 0 0.1114357405669304 -0.5 0 0.096922859119650831 -0.48884484036953713 0 0.1208517480969717 -0.48473169312607661 0 0.1114357405669304 -0.5 0 0.14135336075157459 -0.49999999999999822 0 0.1208517480969717 -0.48473169312607661 0 0.1114357405669304 -0.5 0 0.1208517480969717 -0.48473169312607661 0 0.1060305495531437 -0.47462652284910778 0 0.11890327474422439 -0.46863885982900089 0 0.081056885696919975 -0.47913681278259912 0 0.096922859119650831 -0.48884484036953713 0 0.1060305495531437 -0.47462652284910778 0 0.096922859119650831 -0.48884484036953713 0 0.1208517480969717 -0.48473169312607661 0 0.1060305495531437 -0.47462652284910778 0 0.1060305495531437 -0.47462652284910778 0 0.1062895236569289 -0.45869409963230873 0 0.091655141147906294 -0.46642454093443442 0 0.1062895236569289 -0.45869409963230873 0 0.093739758014164995 -0.45265361217282107 0 0.091655141147906294 -0.46642454093443442 0 0.1062895236569289 -0.45869409963230873 0 0.11890327474422439 -0.46863885982900089 0 0.1233635487653435 -0.45453178416290418 0 0.1060305495531437 -0.47462652284910778 0 0.1062895236569289 -0.45869409963230873 0 0.11890327474422439 -0.46863885982900089 0 0.1062895236569289 -0.45869409963230873 0 0.1233635487653435 -0.45453178416290418 0 0.11876290654998629 -0.43526234887806559 0 0.1062895236569289 -0.45869409963230873 0 0.11876290654998629 -0.43526234887806559 0 0.1062895236569289 -0.45869409963230873 0 0.098844036826588502 -0.43969481422542023 0 0.11876290654998629 -0.43526234887806559 0 0.1062895236569289 -0.45869409963230873 0 0.098844036826588502 -0.43969481422542023 0 0.093739758014164995 -0.45265361217282107 0 0.098844036826588502 -0.43969481422542023 0 0.079260748369872458 -0.44543092208129592 0 0.093739758014164995 -0.45265361217282107 0 0.093739758014164995 -0.45265361217282107 0 0.091655141147906294 -0.46642454093443442 0 0.074907353775575669 -0.46323589832028073 0 0.079260748369872458 -0.44543092208129592 0 0.093739758014164995 -0.45265361217282107 0 0.074907353775575669 -0.46323589832028073 0 0.079260748369872458 -0.44543092208129592 0 0.074907353775575669 -0.46323589832028073 0 0.057743517706048332 -0.45795161765389703 0 0.074907353775575669 -0.46323589832028073 0 0.057743517706048332 -0.45795161765389703 0 0.056083221840696307 -0.48364710271609018 0 0.079260748369872458 -0.44543092208129592 0 0.057974633752774313 -0.42830658897750151 0 0.057743517706048332 -0.45795161765389703 0 0.079260748369872458 -0.44543092208129592 0 0.087406526257417766 -0.41910813793420199 0 0.057974633752774313 -0.42830658897750151 0 0.069867120236837388 -0.40868027615824609 0 0.087406526257417766 -0.41910813793420199 0 0.057974633752774313 -0.42830658897750151 0 0.069867120236837388 -0.40868027615824609 0 0.087406526257417766 -0.41910813793420199 0 0.095552304144963088 -0.39278535378710822 0 0.079260748369872458 -0.44543092208129592 0 0.087406526257417766 -0.41910813793420199 0 0.098844036826588502 -0.43969481422542023 0 0.079260748369872458 -0.44543092208129592 0 0.087406526257417766 -0.41910813793420199 0 0.098844036826588502 -0.43969481422542023 0 0.087406526257417766 -0.41910813793420199 0 0.1083283066232311 -0.41641303875999519 0 0.098844036826588502 -0.43969481422542023 0 0.11876290654998629 -0.43526234887806559 0 0.1083283066232311 -0.41641303875999519 0 0.13123628944304891 -0.41183059812382539 0 0.11876290654998629 -0.43526234887806559 0 0.13123628944304891 -0.41183059812382539 0 0.1083283066232311 -0.41641303875999519 0 0.11548534271441339 -0.39733148620070469 0 0.13123628944304891 -0.41183059812382539 0 0.11876290654998629 -0.43526234887806559 0 0.1083283066232311 -0.41641303875999519 0 0.087406526257417766 -0.41910813793420199 0 0.1083283066232311 -0.41641303875999519 0 0.095552304144963088 -0.39278535378710822 0 0.1083283066232311 -0.41641303875999519 0 0.095552304144963088 -0.39278535378710822 0 0.11548534271441339 -0.39733148620070469 0 0.12817089919403771 -0.38511598709354078 0 0.13123628944304891 -0.41183059812382539 0 0.11548534271441339 -0.39733148620070469 0 0.12817089919403771 -0.38511598709354078 0 0.11548534271441339 -0.39733148620070469 0 0.1141389141667816 -0.38051245323905419 0 0.095552304144963088 -0.39278535378710822 0 0.11548534271441339 -0.39733148620070469 0 0.1141389141667816 -0.38051245323905419 0 0.095552304144963088 -0.39278535378710822 0 0.1141389141667816 -0.38051245323905419 0 0.1036980820325084 -0.36646256964001422 0 0.095552304144963088 -0.39278535378710822 0 0.1036980820325084 -0.36646256964001422 0 0.095552304144963088 -0.39278535378710822 0 0.1036980820325084 -0.36646256964001422 0 0.081271091900309178 -0.37033115997869731 0 0.095552304144963088 -0.39278535378710822 0 0.067670503668429374 -0.38832953636465922 0 0.081271091900309178 -0.37033115997869731 0 0.087406526257417766 -0.41910813793420199 0 0.095552304144963088 -0.39278535378710822 0 0.069867120236837388 -0.40868027615824609 0 0.095552304144963088 -0.39278535378710822 0 0.067670503668429374 -0.38832953636465922 0 0.067670503668429374 -0.38832953636465922 0 0.081271091900309178 -0.37033115997869731 0 0.060072796867743132 -0.37165953412545999 0 0.067670503668429374 -0.38832953636465922 0 0.047499142445862119 -0.38189160078722179 0 0.060072796867743132 -0.37165953412545999 0 0.069867120236837388 -0.40868027615824609 0 0.067670503668429374 -0.38832953636465922 0 0.048409530227586033 -0.40338205607440941 0 0.067670503668429374 -0.38832953636465922 0 0.047499142445862119 -0.38189160078722179 0 0.048409530227586033 -0.40338205607440941 0 0.047499142445862119 -0.38189160078722179 0 0.048409530227586033 -0.40338205607440941 0 0.034269690267723217 -0.39025688411632647 0 0.048409530227586033 -0.40338205607440941 0 0.034269690267723217 -0.39025688411632647 0 0.02724617942426024 -0.40396589625148022 0 0.047499142445862119 -0.38189160078722179 0 0.034269690267723217 -0.39025688411632647 0 0.027879369007210181 -0.37546230384174101 0 0.027879369007210181 -0.37546230384174101 0 0.01765992211249932 -0.37930784494817021 0 0.011970268759568369 -0.37096393804697431 0 0.034269690267723217 -0.39025688411632647 0 0.027879369007210181 -0.37546230384174101 0 0.019991097710223751 -0.38906103916125401 0 0.019991097710223751 -0.38906103916125401 0 0.01765992211249932 -0.37930784494817021 0 0.010798952972994959 -0.38174409874271181 0 0.027879369007210181 -0.37546230384174101 0 0.019991097710223751 -0.38906103916125401 0 0.01765992211249932 -0.37930784494817021 0 0.01765992211249932 -0.37930784494817021 0 0.010798952972994959 -0.38174409874271181 0 0.011970268759568369 -0.37096393804697431 0 0.010798952972994959 -0.38174409874271181 0 0.0028156023817716949 -0.37527393221209099 0 0.011970268759568369 -0.37096393804697431 0 0.019991097710223751 -0.38906103916125401 0 0.010798952972994959 -0.38174409874271181 0 0.0090156865826615026 -0.39111063395676982 0 0.00153955741265579 -0.38494663991977968 0 0.00099799187633770091 -0.39581748028721808 0 0.0090156865826615026 -0.39111063395676982 0 0.010798952972994959 -0.38174409874271181 0 0.00153955741265579 -0.38494663991977968 0 0.0090156865826615026 -0.39111063395676982 0 0.010798952972994959 -0.38174409874271181 0 0.00153955741265579 -0.38494663991977968 0 0.0028156023817716949 -0.37527393221209099 0 -0.0024605100744230458 -0.41122706381672358 0 0.00099799187633770091 -0.39581748028721808 0 0.011750832941095321 -0.40398391167288561 0 0.00099799187633770091 -0.39581748028721808 0 0.0090156865826615026 -0.39111063395676982 0 0.011750832941095321 -0.40398391167288561 0 0.019991097710223751 -0.38906103916125401 0 0.0090156865826615026 -0.39111063395676982 0 0.011750832941095321 -0.40398391167288561 0 0.019991097710223751 -0.38906103916125401 0 0.011750832941095321 -0.40398391167288561 0 0.02724617942426024 -0.40396589625148022 0 0.034269690267723217 -0.39025688411632647 0 0.019991097710223751 -0.38906103916125401 0 0.02724617942426024 -0.40396589625148022 0 0.02724617942426024 -0.40396589625148022 0 0.01938640207931365 -0.41371812603626001 0 0.029833722656645911 -0.42294583381332829 0 0.01938640207931365 -0.41371812603626001 0 0.009085303075653391 -0.42243466128078733 0 0.029833722656645911 -0.42294583381332829 0 0.011750832941095321 -0.40398391167288561 0 0.02724617942426024 -0.40396589625148022 0 0.01938640207931365 -0.41371812603626001 0 0.011750832941095321 -0.40398391167288561 0 0.01938640207931365 -0.41371812603626001 0 0.009085303075653391 -0.42243466128078733 0 -0.0024605100744230458 -0.41122706381672358 0 0.011750832941095321 -0.40398391167288561 0 0.009085303075653391 -0.42243466128078733 0 -0.0080283306003810992 -0.42294177797489702 0 0.009085303075653391 -0.42243466128078733 0 0.0097782444849433964 -0.43955268821716259 0 0.029833722656645911 -0.42294583381332829 0 0.034900327106200162 -0.44920046486788712 0 0.0097782444849433964 -0.43955268821716259 0 0.009085303075653391 -0.42243466128078733 0 0.029833722656645911 -0.42294583381332829 0 0.0097782444849433964 -0.43955268821716259 0 0.029833722656645911 -0.42294583381332829 0 0.057974633752774313 -0.42830658897750151 0 0.034900327106200162 -0.44920046486788712 0 0.048409530227586033 -0.40338205607440941 0 0.02724617942426024 -0.40396589625148022 0 0.029833722656645911 -0.42294583381332829 0 0.048409530227586033 -0.40338205607440941 0 0.029833722656645911 -0.42294583381332829 0 0.057974633752774313 -0.42830658897750151 0 0.069867120236837388 -0.40868027615824609 0 0.048409530227586033 -0.40338205607440941 0 0.057974633752774313 -0.42830658897750151 0 0.057974633752774313 -0.42830658897750151 0 0.057743517706048332 -0.45795161765389703 0 0.034900327106200162 -0.44920046486788712 0 0.057743517706048332 -0.45795161765389703 0 0.034900327106200162 -0.44920046486788712 0 0.040895382306664389 -0.47422850548497453 0 0.034900327106200162 -0.44920046486788712 0 0.02602045392087984 -0.46565564153837241 0 0.040895382306664389 -0.47422850548497453 0 0.034900327106200162 -0.44920046486788712 0 0.0097782444849433964 -0.43955268821716259 0 0.015472877419531111 -0.45667480823005552 0 -0.0011609385797494069 -0.46418156324156318 0 0.0097782444849433964 -0.43955268821716259 0 0.015472877419531111 -0.45667480823005552 0 -0.0011609385797494069 -0.46418156324156318 0 0.015472877419531111 -0.45667480823005552 0 0.01632790050188971 -0.46982161464802041 0 0.015472877419531111 -0.45667480823005552 0 0.02602045392087984 -0.46565564153837241 0 0.01632790050188971 -0.46982161464802041 0 0.034900327106200162 -0.44920046486788712 0 0.015472877419531111 -0.45667480823005552 0 0.02602045392087984 -0.46565564153837241 0 0.02602045392087984 -0.46565564153837241 0 0.025389514777611769 -0.47771340878371799 0 0.040895382306664389 -0.47422850548497453 0 0.025389514777611769 -0.47771340878371799 0 0.015917594971175269 -0.48488265144639298 0 0.03110955798447277 -0.48815739264958152 0 0.025389514777611769 -0.47771340878371799 0 0.01632790050188971 -0.46982161464802041 0 0.015917594971175269 -0.48488265144639298 0 0.02602045392087984 -0.46565564153837241 0 0.025389514777611769 -0.47771340878371799 0 0.01632790050188971 -0.46982161464802041 0 -0.0011609385797494069 -0.46418156324156318 0 0.01632790050188971 -0.46982161464802041 0 0.015917594971175269 -0.48488265144639298 0 -0.0011609385797494069 -0.46418156324156318 0 -0.0082424424520847334 -0.48178225059712759 0 0.015917594971175269 -0.48488265144639298 0 -0.0011609385797494069 -0.46418156324156318 0 0.015917594971175269 -0.48488265144639298 0 -0.0082347401716454383 -0.5 0 0.0061358941282492058 -0.4926676825830727 0 0.021682880012998559 -0.5 0 -0.0082424424520847334 -0.48178225059712759 0 0.0061358941282492058 -0.4926676825830727 0 0.015917594971175269 -0.48488265144639298 0 0.0061358941282492058 -0.4926676825830727 0 0.015917594971175269 -0.48488265144639298 0 0.03110955798447277 -0.48815739264958152 0 0.0061358941282492058 -0.4926676825830727 0 0.021682880012998559 -0.5 0 0.03110955798447277 -0.48815739264958152 0 0.0061358941282492058 -0.4926676825830727 0 0.03110955798447277 -0.48815739264958152 0 0.021682880012998559 -0.5 0 0.03110955798447277 -0.48815739264958152 0 0.051600500197642403 -0.5 0 0.03110955798447277 -0.48815739264958152 0 0.056083221840696307 -0.48364710271609018 0 0.03110955798447277 -0.48815739264958152 0 0.056083221840696307 -0.48364710271609018 0 0.051600500197642403 -0.5 0 0.03110955798447277 -0.48815739264958152 0 0.040895382306664389 -0.47422850548497453 0 0.056083221840696307 -0.48364710271609018 0 0.025389514777611769 -0.47771340878371799 0 0.03110955798447277 -0.48815739264958152 0 0.040895382306664389 -0.47422850548497453 0 0.057743517706048332 -0.45795161765389703 0 0.040895382306664389 -0.47422850548497453 0 0.056083221840696307 -0.48364710271609018 0 0.067564682029386286 -0.49069597887467231 0 0.056083221840696307 -0.48364710271609018 0 0.051600500197642403 -0.5 0 0.079762864207531953 -0.28524497149736361 0 0.088591400005204907 -0.29421216126077993 0 0.083074458742718876 -0.30106809180090299 0 0.079762864207531953 -0.28524497149736361 0 0.091338482179961558 -0.2839736372711591 0 0.088591400005204907 -0.29421216126077993 0 0.083074458742718876 -0.30106809180090299 0 0.076821752107595426 -0.31245557753943382 0 0.086564514739105466 -0.32104916514975201 0 0.088591400005204907 -0.29421216126077993 0 0.083074458742718876 -0.30106809180090299 0 0.10179851059119061 -0.3031438952782935 0 0.063409935669371767 -0.30336072055898539 0 0.076821752107595426 -0.31245557753943382 0 0.066304043803659049 -0.32008112563406099 0 0.083074458742718876 -0.30106809180090299 0 0.063409935669371767 -0.30336072055898539 0 0.076821752107595426 -0.31245557753943382 0 0.083074458742718876 -0.30106809180090299 0 0.059562693928526207 -0.28433585809798712 0 0.079762864207531953 -0.28524497149736361 0 0.083074458742718876 -0.30106809180090299 0 0.059562693928526207 -0.28433585809798712 0 0.083074458742718876 -0.30106809180090299 0 0.063409935669371767 -0.30336072055898539 0 0.059562693928526207 -0.28433585809798712 0 0.079762864207531953 -0.28524497149736361 0 0.070309903433934617 -0.27103436699048999 0 0.059562693928526207 -0.28433585809798712 0 0.070309903433934617 -0.27103436699048999 0 0.076673567655874922 -0.25988611565526343 0 0.084604037934658399 -0.27357388117880738 0 0.066551897650130892 -0.25864633322516151 0 0.059015157850923712 -0.25300291632765431 0 0.070870484017351673 -0.2489928668443421 0 0.070309903433934617 -0.27103436699048999 0 0.066551897650130892 -0.25864633322516151 0 0.054704359226885282 -0.26451904228835749 0 0.070309903433934617 -0.27103436699048999 0 0.066551897650130892 -0.25864633322516151 0 0.076673567655874922 -0.25988611565526343 0 0.076673567655874922 -0.25988611565526343 0 0.080990171284019918 -0.25126511902564908 0 0.070870484017351673 -0.2489928668443421 0 0.066551897650130892 -0.25864633322516151 0 0.076673567655874922 -0.25988611565526343 0 0.070870484017351673 -0.2489928668443421 0 0.089206437725910595 -0.26178059858984082 0 0.1026034715360198 -0.2678618362285895 0 0.087890624876912113 -0.24520442043703591 0 0.080990171284019918 -0.25126511902564908 0 0.089206437725910595 -0.26178059858984082 0 0.087890624876912113 -0.24520442043703591 0 0.076673567655874922 -0.25988611565526343 0 0.080990171284019918 -0.25126511902564908 0 0.089206437725910595 -0.26178059858984082 0 0.076673567655874922 -0.25988611565526343 0 0.089206437725910595 -0.26178059858984082 0 0.084604037934658399 -0.27357388117880738 0 0.079762864207531953 -0.28524497149736361 0 0.070309903433934617 -0.27103436699048999 0 0.084604037934658399 -0.27357388117880738 0 0.079762864207531953 -0.28524497149736361 0 0.091338482179961558 -0.2839736372711591 0 0.084604037934658399 -0.27357388117880738 0 0.089206437725910595 -0.26178059858984082 0 0.084604037934658399 -0.27357388117880738 0 0.094659034082419005 -0.27440599122128911 0 0.091338482179961558 -0.2839736372711591 0 0.084604037934658399 -0.27357388117880738 0 0.094659034082419005 -0.27440599122128911 0 0.091338482179961558 -0.2839736372711591 0 0.094659034082419005 -0.27440599122128911 0 0.1009188554844021 -0.28181651178087819 0 0.094659034082419005 -0.27440599122128911 0 0.1026034715360198 -0.2678618362285895 0 0.1009188554844021 -0.28181651178087819 0 0.1026034715360198 -0.2678618362285895 0 0.1173163181951252 -0.29051925202014472 0 0.1009188554844021 -0.28181651178087819 0 0.089206437725910595 -0.26178059858984082 0 0.094659034082419005 -0.27440599122128911 0 0.1026034715360198 -0.2678618362285895 0 0.1026034715360198 -0.2678618362285895 0 0.087890624876912113 -0.24520442043703591 0 0.1026034715360198 -0.2678618362285895 0 0.10149226002647729 -0.25247773010440011 0 0.087890624876912113 -0.24520442043703591 0 0.10149226002647729 -0.25247773010440011 0 0.1075444461856853 -0.25671511921487628 0 0.11161592938845739 -0.24084085634429531 0 0.1026034715360198 -0.2678618362285895 0 0.1075444461856853 -0.25671511921487628 0 0.1144661237917889 -0.26568005418222018 0 0.1026034715360198 -0.2678618362285895 0 0.10149226002647729 -0.25247773010440011 0 0.1075444461856853 -0.25671511921487628 0 0.1075444461856853 -0.25671511921487628 0 0.1144661237917889 -0.26568005418222018 0 0.11161592938845739 -0.24084085634429531 0 0.13957773932813719 -0.25051876570834603 0 0.1144661237917889 -0.26568005418222018 0 0.11161592938845739 -0.24084085634429531 0 0.1144661237917889 -0.26568005418222018 0 0.11161592938845739 -0.24084085634429531 0 0.1144661237917889 -0.26568005418222018 0 0.1173163181951252 -0.29051925202014472 0 0.13234471807836801 -0.27389201007093261 0 0.1144661237917889 -0.26568005418222018 0 0.1173163181951252 -0.29051925202014472 0 0.1026034715360198 -0.2678618362285895 0 0.1173163181951252 -0.29051925202014472 0 0.1026034715360198 -0.2678618362285895 0 0.1144661237917889 -0.26568005418222018 0 0.1173163181951252 -0.29051925202014472 0 0.12511169682859771 -0.29726525443351881 0 0.13234471807836801 -0.27389201007093261 0 0.1173163181951252 -0.29051925202014472 0 0.12511169682859771 -0.29726525443351881 0 0.1173163181951252 -0.29051925202014472 0 0.12150089235260041 -0.29696339153938311 0 0.1173163181951252 -0.29051925202014472 0 0.1180223879524341 -0.29667258891839599 0 0.1173163181951252 -0.29051925202014472 0 0.12150089235260041 -0.29696339153938311 0 0.1173163181951252 -0.29051925202014472 0 0.1180223879524341 -0.29667258891839599 0 0.12150089235260041 -0.29696339153938311 0 0.1180223879524341 -0.29667258891839599 0 0.12150089235260041 -0.29696339153938311 0 0.1173163181951252 -0.29051925202014472 0 0.1180223879524341 -0.29667258891839599 0 0.10323748876342489 -0.28943883025027167 0 0.088591400005204907 -0.29421216126077993 0 0.1180223879524341 -0.29667258891839599 0 0.1173163181951252 -0.29051925202014472 0 0.10323748876342489 -0.28943883025027167 0 0.1009188554844021 -0.28181651178087819 0 0.088591400005204907 -0.29421216126077993 0 0.1180223879524341 -0.29667258891839599 0 0.10323748876342489 -0.28943883025027167 0 0.091338482179961558 -0.2839736372711591 0 0.088591400005204907 -0.29421216126077993 0 0.10323748876342489 -0.28943883025027167 0 0.091338482179961558 -0.2839736372711591 0 0.10323748876342489 -0.28943883025027167 0 0.1009188554844021 -0.28181651178087819 0 0.083074458742718876 -0.30106809180090299 0 0.10658622355691159 -0.31780032550381898 0 0.083074458742718876 -0.30106809180090299 0 0.10179851059119061 -0.3031438952782935 0 0.10658622355691159 -0.31780032550381898 0 0.088591400005204907 -0.29421216126077993 0 0.1180223879524341 -0.29667258891839599 0 0.10179851059119061 -0.3031438952782935 0 0.10179851059119061 -0.3031438952782935 0 0.1115991899770339 -0.30785845276158369 0 0.10658622355691159 -0.31780032550381898 0 0.1180223879524341 -0.29667258891839599 0 0.1115991899770339 -0.30785845276158369 0 0.1199896378075995 -0.31381700134582652 0 0.1180223879524341 -0.29667258891839599 0 0.12400957937343191 -0.30082670679296919 0 0.1199896378075995 -0.31381700134582652 0 0.1180223879524341 -0.29667258891839599 0 0.10179851059119061 -0.3031438952782935 0 0.1115991899770339 -0.30785845276158369 0 0.1180223879524341 -0.29667258891839599 0 0.1199896378075995 -0.31381700134582652 0 0.1180223879524341 -0.29667258891839599 0 0.12400957937343191 -0.30082670679296919 0 0.12150089235260041 -0.29696339153938311 0 0.12400957937343191 -0.30082670679296919 0 0.12150089235260041 -0.29696339153938311 0 0.12511169682859771 -0.29726525443351881 0 0.12400957937343191 -0.30082670679296919 0 0.12511169682859771 -0.29726525443351881 0 0.12400957937343191 -0.30082670679296919 0 0.12150089235260041 -0.29696339153938311 0 0.12511169682859771 -0.29726525443351881 0 0.12150089235260041 -0.29696339153938311 0 0.12400957937343191 -0.30082670679296919 0 0.1199896378075995 -0.31381700134582652 0 0.129785196499868 -0.3256465370562297 0 0.1199896378075995 -0.31381700134582652 0 0.12254757337631091 -0.33610918870454148 0 0.1199896378075995 -0.31381700134582652 0 0.1118438599200538 -0.34013978549292012 0 0.1088683044192854 -0.32591371267568953 0 0.1199896378075995 -0.31381700134582652 0 0.12254757337631091 -0.33610918870454148 0 0.1199896378075995 -0.31381700134582652 0 0.1118438599200538 -0.34013978549292012 0 0.1115991899770339 -0.30785845276158369 0 0.1199896378075995 -0.31381700134582652 0 0.10658622355691159 -0.31780032550381898 0 0.1199896378075995 -0.31381700134582652 0 0.10658622355691159 -0.31780032550381898 0 0.1088683044192854 -0.32591371267568953 0 0.1199896378075995 -0.31381700134582652 0 0.12254757337631091 -0.33610918870454148 0 0.1118438599200538 -0.34013978549292012 0 0.12254757337631091 -0.33610918870454148 0 0.1118438599200538 -0.34013978549292012 0 0.1151614588891955 -0.34981095424639291 0 0.1118438599200538 -0.34013978549292012 0 0.097053496392576169 -0.33189773836019237 0 0.1088683044192854 -0.32591371267568953 0 0.1118438599200538 -0.34013978549292012 0 0.097053496392576169 -0.33189773836019237 0 0.091952977564546498 -0.34678143544974799 0 0.097053496392576169 -0.33189773836019237 0 0.10658622355691159 -0.31780032550381898 0 0.086564514739105466 -0.32104916514975201 0 0.097053496392576169 -0.33189773836019237 0 0.10658622355691159 -0.31780032550381898 0 0.1088683044192854 -0.32591371267568953 0 0.12510550894502029 -0.35840137606325689 0 0.12817089919403771 -0.38511598709354078 0 0.1141389141667816 -0.38051245323905419 0 0.12510550894502029 -0.35840137606325689 0 0.1141389141667816 -0.38051245323905419 0 0.1036980820325084 -0.36646256964001422 0 0.1118438599200538 -0.34013978549292012 0 0.1151614588891955 -0.34981095424639291 0 0.1036980820325084 -0.36646256964001422 0 0.12510550894502029 -0.35840137606325689 0 0.12254757337631091 -0.33610918870454148 0 0.12510550894502029 -0.35840137606325689 0 0.1151614588891955 -0.34981095424639291 0 0.1036980820325084 -0.36646256964001422 0 0.12510550894502029 -0.35840137606325689 0 0.12254757337631091 -0.33610918870454148 0 0.1151614588891955 -0.34981095424639291 0 0.12510550894502029 -0.35840137606325689 0 0.1151614588891955 -0.34981095424639291 0 0.1118438599200538 -0.34013978549292012 0 0.1036980820325084 -0.36646256964001422 0 0.1118438599200538 -0.34013978549292012 0 0.1036980820325084 -0.36646256964001422 0 0.091952977564546498 -0.34678143544974799 0 0.1036980820325084 -0.36646256964001422 0 0.081271091900309178 -0.37033115997869731 0 0.091952977564546498 -0.34678143544974799 0 0.091952977564546498 -0.34678143544974799 0 0.065292074629553901 -0.35484226964882343 0 0.081271091900309178 -0.37033115997869731 0 0.091952977564546498 -0.34678143544974799 0 0.065292074629553901 -0.35484226964882343 0 0.091952977564546498 -0.34678143544974799 0 0.065292074629553901 -0.35484226964882343 0 0.075660356646409327 -0.33676286934366029 0 0.081271091900309178 -0.37033115997869731 0 0.065292074629553901 -0.35484226964882343 0 0.060072796867743132 -0.37165953412545999 0 0.083074458742718876 -0.30106809180090299 0 0.10658622355691159 -0.31780032550381898 0 0.086564514739105466 -0.32104916514975201 0 0.097053496392576169 -0.33189773836019237 0 0.091952977564546498 -0.34678143544974799 0 0.075660356646409327 -0.33676286934366029 0 0.097053496392576169 -0.33189773836019237 0 0.086564514739105466 -0.32104916514975201 0 0.075660356646409327 -0.33676286934366029 0 0.075660356646409327 -0.33676286934366029 0 0.066304043803659049 -0.32008112563406099 0 0.045621301254314441 -0.33563606529943391 0 0.076821752107595426 -0.31245557753943382 0 0.086564514739105466 -0.32104916514975201 0 0.066304043803659049 -0.32008112563406099 0 0.086564514739105466 -0.32104916514975201 0 0.075660356646409327 -0.33676286934366029 0 0.066304043803659049 -0.32008112563406099 0 0.063409935669371767 -0.30336072055898539 0 0.066304043803659049 -0.32008112563406099 0 0.044459400706705322 -0.31772481028161959 0 0.066304043803659049 -0.32008112563406099 0 0.045621301254314441 -0.33563606529943391 0 0.066304043803659049 -0.32008112563406099 0 0.045621301254314441 -0.33563606529943391 0 0.044459400706705322 -0.31772481028161959 0 0.065292074629553901 -0.35484226964882343 0 0.075660356646409327 -0.33676286934366029 0 0.045621301254314441 -0.33563606529943391 0 0.045621301254314441 -0.33563606529943391 0 0.024938558704969829 -0.35119100496480671 0 0.045621301254314441 -0.33563606529943391 0 0.024938558704969829 -0.35119100496480671 0 0.031238898329279379 -0.33279503033182262 0 0.045621301254314441 -0.33563606529943391 0 0.044459400706705322 -0.31772481028161959 0 0.031238898329279379 -0.33279503033182262 0 0.044459400706705322 -0.31772481028161959 0 0.025313604543846169 -0.32000258188472852 0 0.035646233041347133 -0.30024804546795308 0 0.044459400706705322 -0.31772481028161959 0 0.025313604543846169 -0.32000258188472852 0 0.031238898329279379 -0.33279503033182262 0 0.065292074629553901 -0.35484226964882343 0 0.060072796867743132 -0.37165953412545999 0 0.038631171694561067 -0.36290310384789892 0 0.047499142445862119 -0.38189160078722179 0 0.060072796867743132 -0.37165953412545999 0 0.038631171694561067 -0.36290310384789892 0 0.065292074629553901 -0.35484226964882343 0 0.038631171694561067 -0.36290310384789892 0 0.065292074629553901 -0.35484226964882343 0 0.045621301254314441 -0.33563606529943391 0 0.038631171694561067 -0.36290310384789892 0 0.045621301254314441 -0.33563606529943391 0 0.038631171694561067 -0.36290310384789892 0 0.024938558704969829 -0.35119100496480671 0 0.047499142445862119 -0.38189160078722179 0 0.027879369007210181 -0.37546230384174101 0 0.038631171694561067 -0.36290310384789892 0 0.038631171694561067 -0.36290310384789892 0 0.011970268759568369 -0.37096393804697431 0 0.027879369007210181 -0.37546230384174101 0 0.038631171694561067 -0.36290310384789892 0 0.011970268759568369 -0.37096393804697431 0 0.038631171694561067 -0.36290310384789892 0 0.024938558704969829 -0.35119100496480671 0 0.011970268759568369 -0.37096393804697431 0 0.024938558704969829 -0.35119100496480671 0 0.01024591011997074 -0.35318276618618699 0 0.015861626436561131 -0.33942068922852409 0 0.024938558704969829 -0.35119100496480671 0 0.0042558161556252201 -0.36674594463017951 0 0.024938558704969829 -0.35119100496480671 0 0.01024591011997074 -0.35318276618618699 0 0.0042558161556252201 -0.36674594463017951 0 0.0039673412990155234 -0.34469365406948788 0 0.01024591011997074 -0.35318276618618699 0 0.015861626436561131 -0.33942068922852409 0 0.0039673412990155234 -0.34469365406948788 0 0.0019367105191192089 -0.35545760108654478 0 0.01024591011997074 -0.35318276618618699 0 -0.0044328014758989263 -0.35109076688156282 0 0.0039673412990155234 -0.34469365406948788 0 0.0019367105191192089 -0.35545760108654478 0 0.0019367105191192089 -0.35545760108654478 0 0.01024591011997074 -0.35318276618618699 0 0.0042558161556252201 -0.36674594463017951 0 0.024938558704969829 -0.35119100496480671 0 0.0042558161556252201 -0.36674594463017951 0 0.011970268759568369 -0.37096393804697431 0 -0.0043527135031165157 -0.36157487366530711 0 0.0019367105191192089 -0.35545760108654478 0 0.0042558161556252201 -0.36674594463017951 0 0.0028156023817716949 -0.37527393221209099 0 0.0042558161556252201 -0.36674594463017951 0 0.011970268759568369 -0.37096393804697431 0 -0.0036489443119300958 -0.36971777816109702 0 0.0028156023817716949 -0.37527393221209099 0 0.0042558161556252201 -0.36674594463017951 0 0.025313604543846169 -0.32000258188472852 0 0.015861626436561131 -0.33942068922852409 0 0.0093847369726817263 -0.32066471678034397 0 0.025313604543846169 -0.32000258188472852 0 0.0093847369726817263 -0.32066471678034397 0 0.018437067837212551 -0.30836154857921022 0 0.025313604543846169 -0.32000258188472852 0 0.031238898329279379 -0.33279503033182262 0 0.015861626436561131 -0.33942068922852409 0 0.024938558704969829 -0.35119100496480671 0 0.031238898329279379 -0.33279503033182262 0 0.015861626436561131 -0.33942068922852409 0 0.015861626436561131 -0.33942068922852409 0 0.0021746651842241222 -0.33271200960203462 0 0.0093847369726817263 -0.32066471678034397 0 0.0039673412990155234 -0.34469365406948788 0 0.015861626436561131 -0.33942068922852409 0 0.0021746651842241222 -0.33271200960203462 0 -0.0045912301602451886 -0.31996128635815002 0 0.0021746651842241222 -0.33271200960203462 0 0.0093847369726817263 -0.32066471678034397 0 -0.0045912301602451886 -0.31996128635815002 0 0.0093847369726817263 -0.32066471678034397 0 0.0044736946811961831 -0.30612601905659248 0 0.0044736946811961831 -0.30612601905659248 0 0.00100270429184503 -0.29012155845902521 0 0.017367069946991529 -0.29476637970643299 0 0.0044736946811961831 -0.30612601905659248 0 0.017367069946991529 -0.29476637970643299 0 0.018437067837212551 -0.30836154857921022 0 0.0093847369726817263 -0.32066471678034397 0 0.0044736946811961831 -0.30612601905659248 0 0.018437067837212551 -0.30836154857921022 0 0.00100270429184503 -0.29012155845902521 0 0.017367069946991529 -0.29476637970643299 0 0.012578613659212539 -0.27928209915426588 0 0.017367069946991529 -0.29476637970643299 0 0.031944820990439812 -0.28219248974880501 0 0.012578613659212539 -0.27928209915426588 0 0.017367069946991529 -0.29476637970643299 0 0.035646233041347133 -0.30024804546795308 0 0.031944820990439812 -0.28219248974880501 0 0.017367069946991529 -0.29476637970643299 0 0.018437067837212551 -0.30836154857921022 0 0.035646233041347133 -0.30024804546795308 0 0.025313604543846169 -0.32000258188472852 0 0.018437067837212551 -0.30836154857921022 0 0.035646233041347133 -0.30024804546795308 0 0.035646233041347133 -0.30024804546795308 0 0.031944820990439812 -0.28219248974880501 0 0.059562693928526207 -0.28433585809798712 0 0.063409935669371767 -0.30336072055898539 0 0.035646233041347133 -0.30024804546795308 0 0.059562693928526207 -0.28433585809798712 0 0.063409935669371767 -0.30336072055898539 0 0.044459400706705322 -0.31772481028161959 0 0.035646233041347133 -0.30024804546795308 0 0.04953045740236809 -0.25606759901861298 0 0.059015157850923712 -0.25300291632765431 0 0.054704359226885282 -0.26451904228835749 0 0.04953045740236809 -0.25606759901861298 0 0.054704359226885282 -0.26451904228835749 0 0.042439522026503231 -0.2602363634542057 0 0.04953045740236809 -0.25606759901861298 0 0.059015157850923712 -0.25300291632765431 0 0.049079175173759808 -0.24634855381593301 0 0.066551897650130892 -0.25864633322516151 0 0.059015157850923712 -0.25300291632765431 0 0.054704359226885282 -0.26451904228835749 0 0.070309903433934617 -0.27103436699048999 0 0.059562693928526207 -0.28433585809798712 0 0.054704359226885282 -0.26451904228835749 0 0.059562693928526207 -0.28433585809798712 0 0.054704359226885282 -0.26451904228835749 0 0.036050929114333552 -0.26760362439507113 0 0.059562693928526207 -0.28433585809798712 0 0.036050929114333552 -0.26760362439507113 0 0.031944820990439812 -0.28219248974880501 0 0.059562693928526207 -0.28433585809798712 0 0.036050929114333552 -0.26760362439507113 0 0.031944820990439812 -0.28219248974880501 0 0.036050929114333552 -0.26760362439507113 0 0.030236185407574969 -0.27214615690752419 0 0.036050929114333552 -0.26760362439507113 0 0.030236185407574969 -0.27214615690752419 0 0.030654542877418488 -0.26828214498823488 0 0.054704359226885282 -0.26451904228835749 0 0.036050929114333552 -0.26760362439507113 0 0.042439522026503231 -0.2602363634542057 0 0.036050929114333552 -0.26760362439507113 0 0.032382630708053133 -0.26071375593186968 0 0.030654542877418488 -0.26828214498823488 0 0.036050929114333552 -0.26760362439507113 0 0.032382630708053133 -0.26071375593186968 0 0.042439522026503231 -0.2602363634542057 0 0.04953045740236809 -0.25606759901861298 0 0.039529233680876123 -0.25227779563711739 0 0.049079175173759808 -0.24634855381593301 0 0.04953045740236809 -0.25606759901861298 0 0.042439522026503231 -0.2602363634542057 0 0.039529233680876123 -0.25227779563711739 0 0.032382630708053133 -0.26071375593186968 0 0.039529233680876123 -0.25227779563711739 0 0.027657627555059971 -0.2492790893445164 0 0.032382630708053133 -0.26071375593186968 0 0.042439522026503231 -0.2602363634542057 0 0.039529233680876123 -0.25227779563711739 0 0.032382630708053133 -0.26071375593186968 0 0.0090430047332160646 -0.26619432855661568 0 0.0061580371269623164 -0.25217897573375531 0 0.032382630708053133 -0.26071375593186968 0 0.0061580371269623164 -0.25217897573375531 0 0.027657627555059971 -0.2492790893445164 0 0.032382630708053133 -0.26071375593186968 0 0.0061580371269623164 -0.25217897573375531 0 0.031944820990439812 -0.28219248974880501 0 0.02229444864810803 -0.27050636849798593 0 0.012578613659212539 -0.27928209915426588 0 0.032382630708053133 -0.26071375593186968 0 0.02229444864810803 -0.27050636849798593 0 0.0090430047332160646 -0.26619432855661568 0 0.031944820990439812 -0.28219248974880501 0 0.030236185407574969 -0.27214615690752419 0 0.02229444864810803 -0.27050636849798593 0 0.032382630708053133 -0.26071375593186968 0 0.030654542877418488 -0.26828214498823488 0 0.02229444864810803 -0.27050636849798593 0 0.030236185407574969 -0.27214615690752419 0 0.030654542877418488 -0.26828214498823488 0 0.02229444864810803 -0.27050636849798593 0 -0.0049256651120513258 -0.26924560509015011 0 0.012578613659212539 -0.27928209915426588 0 0.0090430047332160646 -0.26619432855661568 0 -0.0049256651120513258 -0.26924560509015011 0 0.00100270429184503 -0.29012155845902521 0 0.012578613659212539 -0.27928209915426588 0 0.02229444864810803 -0.27050636849798593 0 0.012578613659212539 -0.27928209915426588 0 0.0090430047332160646 -0.26619432855661568 0 -0.0049256651120513258 -0.26924560509015011 0 0.0090430047332160646 -0.26619432855661568 0 0.0061580371269623164 -0.25217897573375531 0 0.0061580371269623164 -0.25217897573375531 0 0.01015861848124725 -0.23032516797085009 0 0.022897097576591141 -0.2391629199007787 0 -0.0092222590394638801 -0.23057724323260681 0 0.0061580371269623164 -0.25217897573375531 0 0.01015861848124725 -0.23032516797085009 0 0.01015861848124725 -0.23032516797085009 0 0.022897097576591141 -0.2391629199007787 0 0.031303553146949881 -0.22776989934319089 0 0.01015861848124725 -0.23032516797085009 0 0.018804674155463219 -0.20985726483532471 0 0.031303553146949881 -0.22776989934319089 0 0.0061580371269623164 -0.25217897573375531 0 0.027657627555059971 -0.2492790893445164 0 0.022897097576591141 -0.2391629199007787 0 0.022897097576591141 -0.2391629199007787 0 0.037321138682817147 -0.24206199951906079 0 0.031303553146949881 -0.22776989934319089 0 0.027657627555059971 -0.2492790893445164 0 0.022897097576591141 -0.2391629199007787 0 0.037321138682817147 -0.24206199951906079 0 0.0094234269130621072 -0.19532176053804401 0 0.0262104266264532 -0.18734681280403631 0 0.0083053002087310167 -0.1810215848489993 0 -0.0024065835568814978 -0.21088715889361889 0 -0.0045118657734242876 -0.19316788787933009 0 0.0094234269130621072 -0.19532176053804401 0 -0.0045118657734242876 -0.19316788787933009 0 0.0094234269130621072 -0.19532176053804401 0 0.0083053002087310167 -0.1810215848489993 0 -0.0024065835568814978 -0.21088715889361889 0 0.0094234269130621072 -0.19532176053804401 0 0.018804674155463219 -0.20985726483532471 0 -0.0024065835568814978 -0.21088715889361889 0 0.01015861848124725 -0.23032516797085009 0 0.018804674155463219 -0.20985726483532471 0 0.018804674155463219 -0.20985726483532471 0 0.038539898905871582 -0.20622649057980019 0 0.031303553146949881 -0.22776989934319089 0 0.0094234269130621072 -0.19532176053804401 0 0.018804674155463219 -0.20985726483532471 0 0.0262104266264532 -0.18734681280403631 0 0.018804674155463219 -0.20985726483532471 0 0.038539898905871582 -0.20622649057980019 0 0.0262104266264532 -0.18734681280403631 0 0.038539898905871582 -0.20622649057980019 0 0.04577624466479327 -0.18468308181640941 0 0.0262104266264532 -0.18734681280403631 0 0.038539898905871582 -0.20622649057980019 0 0.04577624466479327 -0.18468308181640941 0 0.038539898905871582 -0.20622649057980019 0 0.031303553146949881 -0.22776989934319089 0 0.038539898905871582 -0.20622649057980019 0 0.031303553146949881 -0.22776989934319089 0 0.04723256191262052 -0.219643534054868 0 0.059506378970656533 -0.20255553926650161 0 0.04723256191262052 -0.219643534054868 0 0.064275208833390024 -0.22351684724786619 0 0.038539898905871582 -0.20622649057980019 0 0.059506378970656533 -0.20255553926650161 0 0.04723256191262052 -0.219643534054868 0 0.038539898905871582 -0.20622649057980019 0 0.059506378970656533 -0.20255553926650161 0 0.04577624466479327 -0.18468308181640941 0 0.059506378970656533 -0.20255553926650161 0 0.063476588186120522 -0.1836743257603238 0 0.04577624466479327 -0.18468308181640941 0 0.037321138682817147 -0.24206199951906079 0 0.031303553146949881 -0.22776989934319089 0 0.049134694858047549 -0.2338561966711549 0 0.037321138682817147 -0.24206199951906079 0 0.049134694858047549 -0.2338561966711549 0 0.049079175173759808 -0.24634855381593301 0 0.039529233680876123 -0.25227779563711739 0 0.037321138682817147 -0.24206199951906079 0 0.049079175173759808 -0.24634855381593301 0 0.039529233680876123 -0.25227779563711739 0 0.027657627555059971 -0.2492790893445164 0 0.037321138682817147 -0.24206199951906079 0 0.031303553146949881 -0.22776989934319089 0 0.049134694858047549 -0.2338561966711549 0 0.04723256191262052 -0.219643534054868 0 0.049134694858047549 -0.2338561966711549 0 0.04723256191262052 -0.219643534054868 0 0.064275208833390024 -0.22351684724786619 0 0.049134694858047549 -0.2338561966711549 0 0.060572839903153798 -0.24014551623740549 0 0.064275208833390024 -0.22351684724786619 0 0.049134694858047549 -0.2338561966711549 0 0.060572839903153798 -0.24014551623740549 0 0.049079175173759808 -0.24634855381593301 0 0.059015157850923712 -0.25300291632765431 0 0.060572839903153798 -0.24014551623740549 0 0.049079175173759808 -0.24634855381593301 0 0.059015157850923712 -0.25300291632765431 0 0.060572839903153798 -0.24014551623740549 0 0.070870484017351673 -0.2489928668443421 0 0.060572839903153798 -0.24014551623740549 0 0.071062318685450029 -0.23515571651748279 0 0.070870484017351673 -0.2489928668443421 0 0.071062318685450029 -0.23515571651748279 0 0.070870484017351673 -0.2489928668443421 0 0.080309742144050206 -0.24046159360176311 0 0.080990171284019918 -0.25126511902564908 0 0.070870484017351673 -0.2489928668443421 0 0.080309742144050206 -0.24046159360176311 0 0.10149226002647729 -0.25247773010440011 0 0.087890624876912113 -0.24520442043703591 0 0.089242507004779481 -0.23309715325568151 0 0.080990171284019918 -0.25126511902564908 0 0.080309742144050206 -0.24046159360176311 0 0.087890624876912113 -0.24520442043703591 0 0.080309742144050206 -0.24046159360176311 0 0.087890624876912113 -0.24520442043703591 0 0.089242507004779481 -0.23309715325568151 0 0.089242507004779481 -0.23309715325568151 0 0.079469103189277523 -0.22683984654597089 0 0.091584748990221287 -0.21869007778242899 0 0.080309742144050206 -0.24046159360176311 0 0.089242507004779481 -0.23309715325568151 0 0.079469103189277523 -0.22683984654597089 0 0.060572839903153798 -0.24014551623740549 0 0.071062318685450029 -0.23515571651748279 0 0.064275208833390024 -0.22351684724786619 0 0.079469103189277523 -0.22683984654597089 0 0.064275208833390024 -0.22351684724786619 0 0.079001079581915309 -0.21043839675191911 0 0.071062318685450029 -0.23515571651748279 0 0.080309742144050206 -0.24046159360176311 0 0.079469103189277523 -0.22683984654597089 0 0.071062318685450029 -0.23515571651748279 0 0.079469103189277523 -0.22683984654597089 0 0.064275208833390024 -0.22351684724786619 0 0.059506378970656533 -0.20255553926650161 0 0.064275208833390024 -0.22351684724786619 0 0.079001079581915309 -0.21043839675191911 0 0.059506378970656533 -0.20255553926650161 0 0.080210616619008995 -0.19342811449533209 0 0.063476588186120522 -0.1836743257603238 0 0.059506378970656533 -0.20255553926650161 0 0.080210616619008995 -0.19342811449533209 0 0.079001079581915309 -0.21043839675191911 0 0.080210616619008995 -0.19342811449533209 0 0.079001079581915309 -0.21043839675191911 0 0.095525166315248322 -0.20420699236584511 0 0.080210616619008995 -0.19342811449533209 0 0.095525166315248322 -0.20420699236584511 0 0.10519411783627761 -0.18311558518553619 0 0.079469103189277523 -0.22683984654597089 0 0.079001079581915309 -0.21043839675191911 0 0.091584748990221287 -0.21869007778242899 0 0.079001079581915309 -0.21043839675191911 0 0.091584748990221287 -0.21869007778242899 0 0.095525166315248322 -0.20420699236584511 0 0.091584748990221287 -0.21869007778242899 0 0.095525166315248322 -0.20420699236584511 0 0.1046915805254328 -0.21590974353700759 0 0.095525166315248322 -0.20420699236584511 0 0.1046915805254328 -0.21590974353700759 0 0.11296120738558391 -0.2032669846321466 0 0.095525166315248322 -0.20420699236584511 0 0.11296120738558391 -0.2032669846321466 0 0.10519411783627761 -0.18311558518553619 0 0.11296120738558391 -0.2032669846321466 0 0.10519411783627761 -0.18311558518553619 0 0.13128488154256099 -0.19310354125178969 0 0.10519411783627761 -0.18311558518553619 0 0.13128488154256099 -0.19310354125178969 0 0.11296120738558391 -0.2032669846321466 0 0.12630495932849931 -0.21146793098576441 0 0.13128488154256099 -0.19310354125178969 0 0.1046915805254328 -0.21590974353700759 0 0.11540520077200531 -0.2143050086438443 0 0.11296120738558391 -0.2032669846321466 0 0.1046915805254328 -0.21590974353700759 0 0.11540520077200531 -0.2143050086438443 0 0.1100744974715787 -0.22465617293423659 0 0.11540520077200531 -0.2143050086438443 0 0.11296120738558391 -0.2032669846321466 0 0.12630495932849931 -0.21146793098576441 0 0.11540520077200531 -0.2143050086438443 0 0.11923476630019279 -0.22489690054723721 0 0.12630495932849931 -0.21146793098576441 0 0.11540520077200531 -0.2143050086438443 0 0.11923476630019279 -0.22489690054723721 0 0.1100744974715787 -0.22465617293423659 0 0.11923476630019279 -0.22489690054723721 0 0.11308054701285659 -0.2309402898494485 0 0.1183675467922871 -0.23388986725989699 0 0.11923476630019279 -0.22489690054723721 0 0.1100744974715787 -0.22465617293423659 0 0.11308054701285659 -0.2309402898494485 0 0.1100744974715787 -0.22465617293423659 0 0.11308054701285659 -0.2309402898494485 0 0.1064572485263121 -0.23344393565074481 0 0.11308054701285659 -0.2309402898494485 0 0.1112686759739122 -0.2378145728551268 0 0.1064572485263121 -0.23344393565074481 0 0.11308054701285659 -0.2309402898494485 0 0.1183675467922871 -0.23388986725989699 0 0.1112686759739122 -0.2378145728551268 0 0.11923476630019279 -0.22489690054723721 0 0.1183675467922871 -0.23388986725989699 0 0.12587327811618759 -0.2295162370299095 0 0.1183675467922871 -0.23388986725989699 0 0.12587327811618759 -0.2295162370299095 0 0.12775514045818109 -0.23745588446905039 0 0.1183675467922871 -0.23388986725989699 0 0.11161592938845739 -0.24084085634429531 0 0.12775514045818109 -0.23745588446905039 0 0.1183675467922871 -0.23388986725989699 0 0.11161592938845739 -0.24084085634429531 0 0.1112686759739122 -0.2378145728551268 0 0.11161592938845739 -0.24084085634429531 0 0.1112686759739122 -0.2378145728551268 0 0.11161592938845739 -0.24084085634429531 0 0.1112686759739122 -0.2378145728551268 0 0.1064572485263121 -0.23344393565074481 0 0.10149226002647729 -0.25247773010440011 0 0.089242507004779481 -0.23309715325568151 0 0.11161592938845739 -0.24084085634429531 0 0.089242507004779481 -0.23309715325568151 0 0.11161592938845739 -0.24084085634429531 0 0.1064572485263121 -0.23344393565074481 0 0.089242507004779481 -0.23309715325568151 0 0.11161592938845739 -0.24084085634429531 0 0.089242507004779481 -0.23309715325568151 0 0.10064245253744 -0.22631363002251911 0 0.1064572485263121 -0.23344393565074481 0 0.091584748990221287 -0.21869007778242899 0 0.1046915805254328 -0.21590974353700759 0 0.10064245253744 -0.22631363002251911 0 0.089242507004779481 -0.23309715325568151 0 0.091584748990221287 -0.21869007778242899 0 0.10064245253744 -0.22631363002251911 0 0.1046915805254328 -0.21590974353700759 0 0.1100744974715787 -0.22465617293423659 0 0.10064245253744 -0.22631363002251911 0 0.1100744974715787 -0.22465617293423659 0 0.10064245253744 -0.22631363002251911 0 0.1064572485263121 -0.23344393565074481 0 0.1171857949838841 -0.15406308581074679 0 0.098883748723243764 -0.16427037850139611 0 0.093328884983131813 -0.1427998421311123 0 0.11048221860660271 -0.13794142220252131 0 0.1171857949838841 -0.15406308581074679 0 0.093328884983131813 -0.1427998421311123 0 0.11048221860660271 -0.13794142220252131 0 0.093328884983131813 -0.1427998421311123 0 0.1050784265991325 -0.1213865612995757 0 0.093328884983131813 -0.1427998421311123 0 0.083543670731517056 -0.122982403443071 0 0.1050784265991325 -0.1213865612995757 0 0.11048221860660271 -0.13794142220252131 0 0.1050784265991325 -0.1213865612995757 0 0.1263357678602624 -0.1335161995686503 0 0.11048221860660271 -0.13794142220252131 0 0.1171857949838841 -0.15406308581074679 0 0.1263357678602624 -0.1335161995686503 0 0.1171857949838841 -0.15406308581074679 0 0.1218056531037775 -0.17879397698087951 0 0.098883748723243764 -0.16427037850139611 0 0.1218056531037775 -0.17879397698087951 0 0.10519411783627761 -0.18311558518553619 0 0.13128488154256099 -0.19310354125178969 0 0.10519411783627761 -0.18311558518553619 0 0.098883748723243764 -0.16427037850139611 0 0.079103354129995612 -0.1731276291192789 0 0.1218056531037775 -0.17879397698087951 0 0.10519411783627761 -0.18311558518553619 0 0.098883748723243764 -0.16427037850139611 0 0.098883748723243764 -0.16427037850139611 0 0.079103354129995612 -0.1731276291192789 0 0.076684687302395971 -0.15372215178082271 0 0.080210616619008995 -0.19342811449533209 0 0.10519411783627761 -0.18311558518553619 0 0.079103354129995612 -0.1731276291192789 0 0.10519411783627761 -0.18311558518553619 0 0.079103354129995612 -0.1731276291192789 0 0.079103354129995612 -0.1731276291192789 0 0.063476588186120522 -0.1836743257603238 0 0.053012590423714798 -0.1631396730530186 0 0.080210616619008995 -0.19342811449533209 0 0.079103354129995612 -0.1731276291192789 0 0.063476588186120522 -0.1836743257603238 0 0.079103354129995612 -0.1731276291192789 0 0.053012590423714798 -0.1631396730530186 0 0.079103354129995612 -0.1731276291192789 0 0.076684687302395971 -0.15372215178082271 0 0.053012590423714798 -0.1631396730530186 0 0.076684687302395971 -0.15372215178082271 0 0.059830547313889759 -0.14284185463615789 0 0.053012590423714798 -0.1631396730530186 0 0.076684687302395971 -0.15372215178082271 0 0.075733981855586052 -0.13691931129224111 0 0.059830547313889759 -0.14284185463615789 0 0.076684687302395971 -0.15372215178082271 0 0.093328884983131813 -0.1427998421311123 0 0.075733981855586052 -0.13691931129224111 0 0.098883748723243764 -0.16427037850139611 0 0.076684687302395971 -0.15372215178082271 0 0.093328884983131813 -0.1427998421311123 0 0.093328884983131813 -0.1427998421311123 0 0.075733981855586052 -0.13691931129224111 0 0.083543670731517056 -0.122982403443071 0 0.059830547313889759 -0.14284185463615789 0 0.06664850420406454 -0.1225440362192973 0 0.075733981855586052 -0.13691931129224111 0 0.059830547313889759 -0.14284185463615789 0 0.06664850420406454 -0.1225440362192973 0 0.075733981855586052 -0.13691931129224111 0 0.083543670731517056 -0.122982403443071 0 0.06664850420406454 -0.1225440362192973 0 0.056705258814393478 -0.13216963083269589 0 0.059830547313889759 -0.14284185463615789 0 0.06664850420406454 -0.1225440362192973 0 0.047947835391268047 -0.13875389773185079 0 0.048650061265458948 -0.1115174133025969 0 0.056705258814393478 -0.13216963083269589 0 0.052394148348351592 -0.12453873474347769 0 0.06664850420406454 -0.1225440362192973 0 0.056705258814393478 -0.13216963083269589 0 0.047947835391268047 -0.13875389773185079 0 0.052394148348351592 -0.12453873474347769 0 0.056705258814393478 -0.13216963083269589 0 0.047947835391268047 -0.13875389773185079 0 0.059830547313889759 -0.14284185463615789 0 0.059830547313889759 -0.14284185463615789 0 0.053012590423714798 -0.1631396730530186 0 0.059830547313889759 -0.14284185463615789 0 0.049099177007139089 -0.15064560609952951 0 0.053012590423714798 -0.1631396730530186 0 0.047947835391268047 -0.13875389773185079 0 0.059830547313889759 -0.14284185463615789 0 0.049099177007139089 -0.15064560609952951 0 0.047947835391268047 -0.13875389773185079 0 0.049099177007139089 -0.15064560609952951 0 0.03969229127199609 -0.1468452534754103 0 0.049099177007139089 -0.15064560609952951 0 0.03969229127199609 -0.1468452534754103 0 0.042842584959881018 -0.15924643447595779 0 0.03969229127199609 -0.1468452534754103 0 0.032433573575750732 -0.15222350338323881 0 0.042842584959881018 -0.15924643447595779 0 0.03969229127199609 -0.1468452534754103 0 0.032433573575750732 -0.15222350338323881 0 0.028686686124959389 -0.1433759686484945 0 0.03969229127199609 -0.1468452534754103 0 0.034786726324151911 -0.13406208743864931 0 0.028686686124959389 -0.1433759686484945 0 0.034786726324151911 -0.13406208743864931 0 0.03049563775912234 -0.12103041186215931 0 0.039835969410700778 -0.12358385626068361 0 0.047947835391268047 -0.13875389773185079 0 0.034786726324151911 -0.13406208743864931 0 0.039835969410700778 -0.12358385626068361 0 0.047947835391268047 -0.13875389773185079 0 0.03969229127199609 -0.1468452534754103 0 0.034786726324151911 -0.13406208743864931 0 0.053012590423714798 -0.1631396730530186 0 0.04577624466479327 -0.18468308181640941 0 0.063476588186120522 -0.1836743257603238 0 0.053012590423714798 -0.1631396730530186 0 0.04577624466479327 -0.18468308181640941 0 0.053012590423714798 -0.1631396730530186 0 0.042842584959881018 -0.15924643447595779 0 0.049099177007139089 -0.15064560609952951 0 0.053012590423714798 -0.1631396730530186 0 0.042842584959881018 -0.15924643447595779 0 0.053012590423714798 -0.1631396730530186 0 0.042842584959881018 -0.15924643447595779 0 0.035768526247941232 -0.17109840429033649 0 0.042842584959881018 -0.15924643447595779 0 0.035768526247941232 -0.17109840429033649 0 0.02803759610984384 -0.16087525022871399 0 0.032433573575750732 -0.15222350338323881 0 0.042842584959881018 -0.15924643447595779 0 0.02803759610984384 -0.16087525022871399 0 0.035768526247941232 -0.17109840429033649 0 0.04577624466479327 -0.18468308181640941 0 0.0262104266264532 -0.18734681280403631 0 0.053012590423714798 -0.1631396730530186 0 0.035768526247941232 -0.17109840429033649 0 0.04577624466479327 -0.18468308181640941 0 0.035768526247941232 -0.17109840429033649 0 0.0262104266264532 -0.18734681280403631 0 0.01873171470296129 -0.17129917336388309 0 0.0262104266264532 -0.18734681280403631 0 0.01873171470296129 -0.17129917336388309 0 0.0083053002087310167 -0.1810215848489993 0 0.01873171470296129 -0.17129917336388309 0 0.02803759610984384 -0.16087525022871399 0 0.012016934327038219 -0.15606433508547229 0 0.035768526247941232 -0.17109840429033649 0 0.01873171470296129 -0.17129917336388309 0 0.02803759610984384 -0.16087525022871399 0 0.01873171470296129 -0.17129917336388309 0 0.00051739558066551071 -0.16959198372737599 0 0.012016934327038219 -0.15606433508547229 0 -0.0082540668978505448 -0.15621517637297619 0 0.00051739558066551071 -0.16959198372737599 0 0.012016934327038219 -0.15606433508547229 0 0.01873171470296129 -0.17129917336388309 0 0.00051739558066551071 -0.16959198372737599 0 0.0083053002087310167 -0.1810215848489993 0 0.021254043140377481 -0.1288445094450997 0 0.028686686124959389 -0.1433759686484945 0 0.01591216370065953 -0.14165513422160469 0 0.034786726324151911 -0.13406208743864931 0 0.021254043140377481 -0.1288445094450997 0 0.03049563775912234 -0.12103041186215931 0 0.034786726324151911 -0.13406208743864931 0 0.021254043140377481 -0.1288445094450997 0 0.028686686124959389 -0.1433759686484945 0 0.02803759610984384 -0.16087525022871399 0 0.02290870941207326 -0.15077461008761719 0 0.012016934327038219 -0.15606433508547229 0 0.032433573575750732 -0.15222350338323881 0 0.028686686124959389 -0.1433759686484945 0 0.02290870941207326 -0.15077461008761719 0 0.032433573575750732 -0.15222350338323881 0 0.02803759610984384 -0.16087525022871399 0 0.02290870941207326 -0.15077461008761719 0 0.02290870941207326 -0.15077461008761719 0 0.01591216370065953 -0.14165513422160469 0 0.012016934327038219 -0.15606433508547229 0 0.028686686124959389 -0.1433759686484945 0 0.02290870941207326 -0.15077461008761719 0 0.01591216370065953 -0.14165513422160469 0 -0.001313448483517794 -0.14061658186307241 0 -0.0082540668978505448 -0.15621517637297619 0 0.012016934327038219 -0.15606433508547229 0 -0.001313448483517794 -0.14061658186307241 0 0.01591216370065953 -0.14165513422160469 0 0.012016934327038219 -0.15606433508547229 0 -0.001313448483517794 -0.14061658186307241 0 0.01591216370065953 -0.14165513422160469 0 0.0066263282709386221 -0.1243780805145081 0 0.021254043140377481 -0.1288445094450997 0 0.01591216370065953 -0.14165513422160469 0 0.0066263282709386221 -0.1243780805145081 0 -0.0036533751203966431 -0.1100663247657067 0 0.0066263282709386221 -0.1243780805145081 0 0.018862647834353399 -0.1112281639074174 0 0.021254043140377481 -0.1288445094450997 0 0.0066263282709386221 -0.1243780805145081 0 0.018862647834353399 -0.1112281639074174 0 0.018862647834353399 -0.1112281639074174 0 0.03049563775912234 -0.12103041186215931 0 0.034987119767436597 -0.111190264660896 0 0.021254043140377481 -0.1288445094450997 0 0.018862647834353399 -0.1112281639074174 0 0.03049563775912234 -0.12103041186215931 0 0.018862647834353399 -0.1112281639074174 0 0.027720241369217229 -0.1039345286466901 0 0.034987119767436597 -0.111190264660896 0 0.018862647834353399 -0.1112281639074174 0 0.021643769131901278 -0.095242240466862846 0 0.0072938313470748382 -0.097347981282853727 0 0.018862647834353399 -0.1112281639074174 0 0.027720241369217229 -0.1039345286466901 0 0.021643769131901278 -0.095242240466862846 0 0.027720241369217229 -0.1039345286466901 0 0.021643769131901278 -0.095242240466862846 0 0.035387428743177622 -0.09807744555158418 0 0.021643769131901278 -0.095242240466862846 0 0.032111722589330947 -0.088988058247599519 0 0.035387428743177622 -0.09807744555158418 0 -0.0036533751203966431 -0.1100663247657067 0 0.018862647834353399 -0.1112281639074174 0 0.0072938313470748382 -0.097347981282853727 0 0.0072938313470748382 -0.097347981282853727 0 0.0035349053293221109 -0.080547440569343112 0 0.015689925796183529 -0.084673656985849971 0 0.0035349053293221109 -0.080547440569343112 0 0.012351103467424379 -0.073772444038357046 0 0.015689925796183529 -0.084673656985849971 0 0.021643769131901278 -0.095242240466862846 0 0.0072938313470748382 -0.097347981282853727 0 0.015689925796183529 -0.084673656985849971 0 0.0035349053293221109 -0.080547440569343112 0 0.0045058291932612363 -0.064941181292892863 0 0.012351103467424379 -0.073772444038357046 0 0.0045058291932612363 -0.064941181292892863 0 0.012351103467424379 -0.073772444038357046 0 0.015155272141477249 -0.063679701784586554 0 0.015155272141477249 -0.063679701784586554 0 0.021572485424185651 -0.073546099183275385 0 0.025971426624614581 -0.063583681414541571 0 0.012351103467424379 -0.073772444038357046 0 0.021572485424185651 -0.073546099183275385 0 0.015689925796183529 -0.084673656985849971 0 0.012351103467424379 -0.073772444038357046 0 0.015155272141477249 -0.063679701784586554 0 0.021572485424185651 -0.073546099183275385 0 0.021572485424185651 -0.073546099183275385 0 0.026406474347453919 -0.08143991958040557 0 0.031303059987835953 -0.073654064278844689 0 0.021572485424185651 -0.073546099183275385 0 0.025971426624614581 -0.063583681414541571 0 0.031303059987835953 -0.073654064278844689 0 0.025971426624614581 -0.063583681414541571 0 0.03539046659246143 -0.066195053278924249 0 0.031784856960818737 -0.059435489042515 0 0.025971426624614581 -0.063583681414541571 0 0.03539046659246143 -0.066195053278924249 0 0.031303059987835953 -0.073654064278844689 0 0.021643769131901278 -0.095242240466862846 0 0.015689925796183529 -0.084673656985849971 0 0.026406474347453919 -0.08143991958040557 0 0.021572485424185651 -0.073546099183275385 0 0.015689925796183529 -0.084673656985849971 0 0.026406474347453919 -0.08143991958040557 0 0.021643769131901278 -0.095242240466862846 0 0.026406474347453919 -0.08143991958040557 0 0.032111722589330947 -0.088988058247599519 0 0.032111722589330947 -0.088988058247599519 0 0.039675058413910738 -0.089419283409270023 0 0.035387428743177622 -0.09807744555158418 0 0.032111722589330947 -0.088988058247599519 0 0.037445882310211197 -0.080761402229874935 0 0.039675058413910738 -0.089419283409270023 0 0.026406474347453919 -0.08143991958040557 0 0.032111722589330947 -0.088988058247599519 0 0.037445882310211197 -0.080761402229874935 0 0.026406474347453919 -0.08143991958040557 0 0.037445882310211197 -0.080761402229874935 0 0.031303059987835953 -0.073654064278844689 0 0.037445882310211197 -0.080761402229874935 0 0.043141472221133917 -0.08421751184175158 0 0.039675058413910738 -0.089419283409270023 0 0.037445882310211197 -0.080761402229874935 0 0.043432288778053843 -0.07849156449137773 0 0.043141472221133917 -0.08421751184175158 0 0.043432288778053843 -0.07849156449137773 0 0.043141472221133917 -0.08421751184175158 0 0.049352287139649863 -0.084280928873342986 0 0.043141472221133917 -0.08421751184175158 0 0.044240618795214827 -0.088618607478083325 0 0.049352287139649863 -0.084280928873342986 0 0.044240618795214827 -0.088618607478083325 0 0.039675058413910738 -0.089419283409270023 0 0.044793657406164811 -0.096556705787968725 0 0.044240618795214827 -0.088618607478083325 0 0.049352287139649863 -0.084280928873342986 0 0.044793657406164811 -0.096556705787968725 0 0.043141472221133917 -0.08421751184175158 0 0.044240618795214827 -0.088618607478083325 0 0.039675058413910738 -0.089419283409270023 0 0.03539046659246143 -0.066195053278924249 0 0.041209129452605103 -0.066296218050582972 0 0.040389237118444582 -0.058234697803207211 0 0.03539046659246143 -0.066195053278924249 0 0.039743686398858523 -0.073172062427571613 0 0.041209129452605103 -0.066296218050582972 0 0.03539046659246143 -0.066195053278924249 0 0.031303059987835953 -0.073654064278844689 0 0.039743686398858523 -0.073172062427571613 0 0.037445882310211197 -0.080761402229874935 0 0.031303059987835953 -0.073654064278844689 0 0.039743686398858523 -0.073172062427571613 0 0.043432288778053843 -0.07849156449137773 0 0.045967094561082951 -0.070555609229956268 0 0.049352287139649863 -0.084280928873342986 0 0.043432288778053843 -0.07849156449137773 0 0.045967094561082951 -0.070555609229956268 0 0.039743686398858523 -0.073172062427571613 0 0.037445882310211197 -0.080761402229874935 0 0.043432288778053843 -0.07849156449137773 0 0.039743686398858523 -0.073172062427571613 0 0.045967094561082951 -0.070555609229956268 0 0.044555162592178038 -0.063323667513255549 0 0.050072904943497552 -0.057044918634835427 0 0.044555162592178038 -0.063323667513255549 0 0.041209129452605103 -0.066296218050582972 0 0.040389237118444582 -0.058234697803207211 0 0.045967094561082951 -0.070555609229956268 0 0.039743686398858523 -0.073172062427571613 0 0.041209129452605103 -0.066296218050582972 0 0.045967094561082951 -0.070555609229956268 0 0.044555162592178038 -0.063323667513255549 0 0.041209129452605103 -0.066296218050582972 0 0.049352287139649863 -0.084280928873342986 0 0.050858998396544119 -0.07954243613804457 0 0.050072904943497552 -0.057044918634835427 0 0.056655884891971597 -0.065631471582094009 0 0.050858998396544119 -0.07954243613804457 0 0.050072904943497552 -0.057044918634835427 0 0.045967094561082951 -0.070555609229956268 0 0.049352287139649863 -0.084280928873342986 0 0.050072904943497552 -0.057044918634835427 0 0.049352287139649863 -0.084280928873342986 0 0.050072904943497552 -0.057044918634835427 0 0.050858998396544119 -0.07954243613804457 0 0.050072904943497552 -0.057044918634835427 0 0.058227794629670072 -0.075552242863680341 0 0.056655884891971597 -0.065631471582094009 0 0.050858998396544119 -0.07954243613804457 0 0.058227794629670072 -0.075552242863680341 0 0.063788710447062955 -0.080708250772785345 0 0.065234277786850481 -0.068966225863962463 0 0.058227794629670072 -0.075552242863680341 0 0.056655884891971597 -0.065631471582094009 0 0.065234277786850481 -0.068966225863962463 0 0.050858998396544119 -0.07954243613804457 0 0.056575614274129132 -0.090609569352016389 0 0.051626573372447859 -0.1020405854407611 0 0.049352287139649863 -0.084280928873342986 0 0.050858998396544119 -0.07954243613804457 0 0.051626573372447859 -0.1020405854407611 0 0.050858998396544119 -0.07954243613804457 0 0.051626573372447859 -0.1020405854407611 0 0.057362779436851558 -0.081603124781631647 0 0.056575614274129132 -0.090609569352016389 0 0.063788710447062955 -0.080708250772785345 0 0.050858998396544119 -0.07954243613804457 0 0.057362779436851558 -0.081603124781631647 0 0.056575614274129132 -0.090609569352016389 0 0.058227794629670072 -0.075552242863680341 0 0.050858998396544119 -0.07954243613804457 0 0.057362779436851558 -0.081603124781631647 0 0.058227794629670072 -0.075552242863680341 0 0.057362779436851558 -0.081603124781631647 0 0.063788710447062955 -0.080708250772785345 0 0.056575614274129132 -0.090609569352016389 0 0.061361789106099587 -0.099773370089875441 0 0.051626573372447859 -0.1020405854407611 0 0.049352287139649863 -0.084280928873342986 0 0.051626573372447859 -0.1020405854407611 0 0.048650061265458948 -0.1115174133025969 0 0.049352287139649863 -0.084280928873342986 0 0.048650061265458948 -0.1115174133025969 0 0.044793657406164811 -0.096556705787968725 0 0.049352287139649863 -0.084280928873342986 0 0.048650061265458948 -0.1115174133025969 0 0.056575614274129132 -0.090609569352016389 0 0.061361789106099587 -0.099773370089875441 0 0.069484996964695706 -0.09104209550189496 0 0.061361789106099587 -0.099773370089875441 0 0.051626573372447859 -0.1020405854407611 0 0.0605415592263846 -0.1110228705854006 0 0.051626573372447859 -0.1020405854407611 0 0.0605415592263846 -0.1110228705854006 0 0.052394148348351592 -0.12453873474347769 0 0.051626573372447859 -0.1020405854407611 0 0.052394148348351592 -0.12453873474347769 0 0.048650061265458948 -0.1115174133025969 0 0.047947835391268047 -0.13875389773185079 0 0.052394148348351592 -0.12453873474347769 0 0.048650061265458948 -0.1115174133025969 0 0.051626573372447859 -0.1020405854407611 0 0.052394148348351592 -0.12453873474347769 0 0.0605415592263846 -0.1110228705854006 0 0.052394148348351592 -0.12453873474347769 0 0.06664850420406454 -0.1225440362192973 0 0.047947835391268047 -0.13875389773185079 0 0.048650061265458948 -0.1115174133025969 0 0.039835969410700778 -0.12358385626068361 0 0.048650061265458948 -0.1115174133025969 0 0.039835969410700778 -0.12358385626068361 0 0.034987119767436597 -0.111190264660896 0 0.03049563775912234 -0.12103041186215931 0 0.039835969410700778 -0.12358385626068361 0 0.034987119767436597 -0.111190264660896 0 0.027720241369217229 -0.1039345286466901 0 0.034987119767436597 -0.111190264660896 0 0.035387428743177622 -0.09807744555158418 0 0.034987119767436597 -0.111190264660896 0 0.035387428743177622 -0.09807744555158418 0 0.040954566795559491 -0.1043354573257614 0 0.039675058413910738 -0.089419283409270023 0 0.035387428743177622 -0.09807744555158418 0 0.044793657406164811 -0.096556705787968725 0 0.035387428743177622 -0.09807744555158418 0 0.044793657406164811 -0.096556705787968725 0 0.040954566795559491 -0.1043354573257614 0 0.048650061265458948 -0.1115174133025969 0 0.034987119767436597 -0.111190264660896 0 0.040954566795559491 -0.1043354573257614 0 0.048650061265458948 -0.1115174133025969 0 0.044793657406164811 -0.096556705787968725 0 0.040954566795559491 -0.1043354573257614 0 0.023006483428125189 0.0039475711701640473 0 0.037372557332244337 0.002124070880223634 0 0.028277771465960461 -0.0095675024797592847 0 0.028277771465960461 -0.0095675024797592847 0 0.02843293485296897 -0.019985220756059071 0 0.033338670191427562 -0.016487883324690769 0 0.017123501874004441 -0.0083363191191112001 0 0.01450196027182483 -0.01525838473097379 0 0.021978277684722099 -0.01770661607682239 0 0.028277771465960461 -0.0095675024797592847 0 0.017123501874004441 -0.0083363191191112001 0 0.021978277684722099 -0.01770661607682239 0 0.0095598824793792538 0.001077391472713885 0 0.023006483428125189 0.0039475711701640473 0 0.017123501874004441 -0.0083363191191112001 0 0.023006483428125189 0.0039475711701640473 0 0.028277771465960461 -0.0095675024797592847 0 0.017123501874004441 -0.0083363191191112001 0 0.0095598824793792538 0.001077391472713885 0 0.017123501874004441 -0.0083363191191112001 0 0.0032291322023869518 -0.01041446047427772 0 -0.0092186649214118371 0.0037472223051285558 0 0.0095598824793792538 0.001077391472713885 0 0.0032291322023869518 -0.01041446047427772 0 0.017123501874004441 -0.0083363191191112001 0 0.0032291322023869518 -0.01041446047427772 0 0.01450196027182483 -0.01525838473097379 0 -0.0062981840802609386 -0.023318657505106841 0 0.0032291322023869518 -0.01041446047427772 0 0.015676929326185848 -0.02457614325368386 0 -0.0062981840802609386 -0.023318657505106841 0 0.021488441922905641 -0.028217502279606579 0 -0.0062981840802609386 -0.023318657505106841 0 0.021488441922905641 -0.028217502279606579 0 0.015676929326185848 -0.02457614325368386 0 0.0032291322023869518 -0.01041446047427772 0 0.01450196027182483 -0.01525838473097379 0 0.015676929326185848 -0.02457614325368386 0 0.0032291322023869518 -0.01041446047427772 0 0.015676929326185848 -0.02457614325368386 0 -0.0062981840802609386 -0.023318657505106841 0 0.021488441922905641 -0.028217502279606579 0 0.0063638206618580884 -0.032752155460221047 0 0.021488441922905641 -0.028217502279606579 0 0.015676929326185848 -0.02457614325368386 0 0.024025262515598039 -0.02316483296501454 0 0.015676929326185848 -0.02457614325368386 0 0.021978277684722099 -0.01770661607682239 0 0.024025262515598039 -0.02316483296501454 0 0.01450196027182483 -0.01525838473097379 0 0.015676929326185848 -0.02457614325368386 0 0.021978277684722099 -0.01770661607682239 0 0.021978277684722099 -0.01770661607682239 0 0.024025262515598039 -0.02316483296501454 0 0.02843293485296897 -0.019985220756059071 0 0.028277771465960461 -0.0095675024797592847 0 0.021978277684722099 -0.01770661607682239 0 0.02843293485296897 -0.019985220756059071 0 0.024025262515598039 -0.02316483296501454 0 0.02843293485296897 -0.019985220756059071 0 0.032549728791207613 -0.025338682458900769 0 0.021488441922905641 -0.028217502279606579 0 0.024025262515598039 -0.02316483296501454 0 0.032549728791207613 -0.025338682458900769 0 0.021488441922905641 -0.028217502279606579 0 0.026628874619647341 -0.038795903382737973 0 0.034814816877773241 -0.038067032090123513 0 0.026628874619647341 -0.038795903382737973 0 0.026422760363636829 -0.046291445465489071 0 0.034393716442279322 -0.04341611638489111 0 0.026628874619647341 -0.038795903382737973 0 0.026422760363636829 -0.046291445465489071 0 0.018278085102846509 -0.043113986890464813 0 0.018278085102846509 -0.043113986890464813 0 0.010593422021049939 -0.044413543157699693 0 0.01805987654660458 -0.051883041966013302 0 0.026628874619647341 -0.038795903382737973 0 0.018278085102846509 -0.043113986890464813 0 0.01671488354404211 -0.036292137974602942 0 0.021488441922905641 -0.028217502279606579 0 0.026628874619647341 -0.038795903382737973 0 0.01671488354404211 -0.036292137974602942 0 0.021488441922905641 -0.028217502279606579 0 0.01671488354404211 -0.036292137974602942 0 0.0063638206618580884 -0.032752155460221047 0 0.01671488354404211 -0.036292137974602942 0 0.0063638206618580884 -0.032752155460221047 0 0.010593422021049939 -0.044413543157699693 0 -0.004053705863558534 -0.048032022918954698 0 0.0063638206618580884 -0.032752155460221047 0 0.010593422021049939 -0.044413543157699693 0 0.018278085102846509 -0.043113986890464813 0 0.01671488354404211 -0.036292137974602942 0 0.010593422021049939 -0.044413543157699693 0 -0.004053705863558534 -0.048032022918954698 0 0.0045058291932612363 -0.064941181292892863 0 0.0081975721345068902 -0.05440791373594131 0 0.010593422021049939 -0.044413543157699693 0 0.0081975721345068902 -0.05440791373594131 0 0.01805987654660458 -0.051883041966013302 0 -0.004053705863558534 -0.048032022918954698 0 0.010593422021049939 -0.044413543157699693 0 0.0081975721345068902 -0.05440791373594131 0 0.015155272141477249 -0.063679701784586554 0 0.0081975721345068902 -0.05440791373594131 0 0.01805987654660458 -0.051883041966013302 0 0.0045058291932612363 -0.064941181292892863 0 0.015155272141477249 -0.063679701784586554 0 0.0081975721345068902 -0.05440791373594131 0 0.015155272141477249 -0.063679701784586554 0 0.025971426624614581 -0.063583681414541571 0 0.01805987654660458 -0.051883041966013302 0 0.026422760363636829 -0.046291445465489071 0 0.018278085102846509 -0.043113986890464813 0 0.01805987654660458 -0.051883041966013302 0 0.026422760363636829 -0.046291445465489071 0 0.01805987654660458 -0.051883041966013302 0 0.027449047601699549 -0.053915389176394622 0 0.026422760363636829 -0.046291445465489071 0 0.027449047601699549 -0.053915389176394622 0 0.034166571800279162 -0.050789533048236343 0 0.027449047601699549 -0.053915389176394622 0 0.031784856960818737 -0.059435489042515 0 0.034166571800279162 -0.050789533048236343 0 0.025971426624614581 -0.063583681414541571 0 0.027449047601699549 -0.053915389176394622 0 0.031784856960818737 -0.059435489042515 0 0.025971426624614581 -0.063583681414541571 0 0.01805987654660458 -0.051883041966013302 0 0.027449047601699549 -0.053915389176394622 0 0.031784856960818737 -0.059435489042515 0 0.034166571800279162 -0.050789533048236343 0 0.040389237118444582 -0.058234697803207211 0 0.03539046659246143 -0.066195053278924249 0 0.031784856960818737 -0.059435489042515 0 0.040389237118444582 -0.058234697803207211 0 0.034166571800279162 -0.050789533048236343 0 0.04228798347796163 -0.04678929134927555 0 0.034393716442279322 -0.04341611638489111 0 0.034166571800279162 -0.050789533048236343 0 0.040389237118444582 -0.058234697803207211 0 0.04228798347796163 -0.04678929134927555 0 0.040389237118444582 -0.058234697803207211 0 0.050072904943497552 -0.057044918634835427 0 0.04228798347796163 -0.04678929134927555 0 0.044555162592178038 -0.063323667513255549 0 0.040389237118444582 -0.058234697803207211 0 0.050072904943497552 -0.057044918634835427 0 0.040389237118444582 -0.058234697803207211 0 0.050072904943497552 -0.057044918634835427 0 0.050072904943497552 -0.057044918634835427 0 0.074053824008222857 -0.054098514601042633 0 0.050072904943497552 -0.057044918634835427 0 0.057675036203277408 -0.044965297231627392 0 0.074053824008222857 -0.054098514601042633 0 0.056655884891971597 -0.065631471582094009 0 0.050072904943497552 -0.057044918634835427 0 0.074053824008222857 -0.054098514601042633 0 0.050072904943497552 -0.057044918634835427 0 0.050665121733315582 -0.033361416672457941 0 0.04228798347796163 -0.04678929134927555 0 0.050072904943497552 -0.057044918634835427 0 0.057675036203277408 -0.044965297231627392 0 0.050665121733315582 -0.033361416672457941 0 0.050072904943497552 -0.057044918634835427 0 0.050665121733315582 -0.033361416672457941 0 0.050665121733315582 -0.033361416672457941 0 0.058822333954442627 -0.029427261887881469 0 0.064110237303728251 -0.03573182084269319 0 0.050665121733315582 -0.033361416672457941 0 0.064110237303728251 -0.03573182084269319 0 0.057675036203277408 -0.044965297231627392 0 0.050665121733315582 -0.033361416672457941 0 0.064110237303728251 -0.03573182084269319 0 0.050665121733315582 -0.033361416672457941 0 0.04228798347796163 -0.04678929134927555 0 0.034814816877773241 -0.038067032090123513 0 0.021488441922905641 -0.028217502279606579 0 0.050665121733315582 -0.033361416672457941 0 0.034814816877773241 -0.038067032090123513 0 0.04228798347796163 -0.04678929134927555 0 0.034393716442279322 -0.04341611638489111 0 0.034814816877773241 -0.038067032090123513 0 0.026422760363636829 -0.046291445465489071 0 0.034166571800279162 -0.050789533048236343 0 0.034393716442279322 -0.04341611638489111 0 0.026628874619647341 -0.038795903382737973 0 0.034393716442279322 -0.04341611638489111 0 0.034814816877773241 -0.038067032090123513 0 0.021488441922905641 -0.028217502279606579 0 0.050665121733315582 -0.033361416672457941 0 0.032549728791207613 -0.025338682458900769 0 0.050665121733315582 -0.033361416672457941 0 0.038965406004474581 -0.024444778268496 0 0.032549728791207613 -0.025338682458900769 0 0.021488441922905641 -0.028217502279606579 0 0.050665121733315582 -0.033361416672457941 0 0.038965406004474581 -0.024444778268496 0 0.032549728791207613 -0.025338682458900769 0 0.034103381955528249 -0.02119247587507329 0 0.02843293485296897 -0.019985220756059071 0 0.032549728791207613 -0.025338682458900769 0 0.034103381955528249 -0.02119247587507329 0 0.02843293485296897 -0.019985220756059071 0 0.034103381955528249 -0.02119247587507329 0 0.033338670191427562 -0.016487883324690769 0 0.034103381955528249 -0.02119247587507329 0 0.033338670191427562 -0.016487883324690769 0 0.037230169937562521 -0.019705814567219811 0 0.033338670191427562 -0.016487883324690769 0 0.038792230319828293 -0.01566173763952515 0 0.037230169937562521 -0.019705814567219811 0 0.038792230319828293 -0.01566173763952515 0 0.037230169937562521 -0.019705814567219811 0 0.040257936637198719 -0.018173209361718699 0 0.038965406004474581 -0.024444778268496 0 0.034103381955528249 -0.02119247587507329 0 0.037230169937562521 -0.019705814567219811 0 0.038965406004474581 -0.024444778268496 0 0.037230169937562521 -0.019705814567219811 0 0.04151348390909898 -0.020863912469354901 0 0.044942820609282848 -0.01950311792278887 0 0.044468041806456027 -0.024761008468244989 0 0.048688730903103661 -0.016480932960910681 0 0.037230169937562521 -0.019705814567219811 0 0.04151348390909898 -0.020863912469354901 0 0.040257936637198719 -0.018173209361718699 0 0.038965406004474581 -0.024444778268496 0 0.04151348390909898 -0.020863912469354901 0 0.044468041806456027 -0.024761008468244989 0 0.038792230319828293 -0.01566173763952515 0 0.040257936637198719 -0.018173209361718699 0 0.042324089068438993 -0.01614529428756387 0 0.04151348390909898 -0.020863912469354901 0 0.040257936637198719 -0.018173209361718699 0 0.042918934708099002 -0.018295049558642008 0 0.040257936637198719 -0.018173209361718699 0 0.042918934708099002 -0.018295049558642008 0 0.042324089068438993 -0.01614529428756387 0 0.042918934708099002 -0.018295049558642008 0 0.042324089068438993 -0.01614529428756387 0 0.044792889725298018 -0.016928502891327971 0 0.042918934708099002 -0.018295049558642008 0 0.044792889725298018 -0.016928502891327971 0 0.044942820609282848 -0.01950311792278887 0 0.044942820609282848 -0.01950311792278887 0 0.046541615011182091 -0.016817352924628871 0 0.048688730903103661 -0.016480932960910681 0 0.044792889725298018 -0.016928502891327971 0 0.044942820609282848 -0.01950311792278887 0 0.046541615011182091 -0.016817352924628871 0 0.04151348390909898 -0.020863912469354901 0 0.044942820609282848 -0.01950311792278887 0 0.044468041806456027 -0.024761008468244989 0 0.04151348390909898 -0.020863912469354901 0 0.042918934708099002 -0.018295049558642008 0 0.044942820609282848 -0.01950311792278887 0 0.050665121733315582 -0.033361416672457941 0 0.038965406004474581 -0.024444778268496 0 0.044468041806456027 -0.024761008468244989 0 0.050665121733315582 -0.033361416672457941 0 0.044468041806456027 -0.024761008468244989 0 0.048688730903103661 -0.016480932960910681 0 0.050665121733315582 -0.033361416672457941 0 0.048688730903103661 -0.016480932960910681 0 0.050665121733315582 -0.033361416672457941 0 0.050775963487298251 -0.029062316030715931 0 0.055096136433348049 -0.022419739599053599 0 0.048688730903103661 -0.016480932960910681 0 0.078025220046391119 -0.020946847849447621 0 0.050665121733315582 -0.033361416672457941 0 0.050775963487298251 -0.029062316030715931 0 0.048688730903103661 -0.016480932960910681 0 0.050775963487298251 -0.029062316030715931 0 0.054959645914386498 -0.02705712625717132 0 0.055096136433348049 -0.022419739599053599 0 0.050665121733315582 -0.033361416672457941 0 0.050775963487298251 -0.029062316030715931 0 0.054959645914386498 -0.02705712625717132 0 0.050665121733315582 -0.033361416672457941 0 0.054959645914386498 -0.02705712625717132 0 0.058822333954442627 -0.029427261887881469 0 0.058822333954442627 -0.029427261887881469 0 0.055096136433348049 -0.022419739599053599 0 0.067912110856133315 -0.028472966601760481 0 0.054959645914386498 -0.02705712625717132 0 0.058822333954442627 -0.029427261887881469 0 0.055096136433348049 -0.022419739599053599 0 0.050775963487298251 -0.029062316030715931 0 0.055096136433348049 -0.022419739599053599 0 0.048688730903103661 -0.016480932960910681 0 0.056878964523906728 0.0073704869807510124 0 0.048688730903103661 -0.016480932960910681 0 0.043696595010690051 -0.0059221524669507992 0 0.056878964523906728 0.0073704869807510124 0 0.048688730903103661 -0.016480932960910681 0 0.056878964523906728 0.0073704869807510124 0 0.048688730903103661 -0.016480932960910681 0 0.06663683758607758 -0.0079161396528262123 0 0.037372557332244337 0.002124070880223634 0 0.043696595010690051 -0.0059221524669507992 0 0.036691974898230631 -0.010528120132019239 0 0.048688730903103661 -0.016480932960910681 0 0.043696595010690051 -0.0059221524669507992 0 0.042910541186111387 -0.012930104163938491 0 0.046541615011182091 -0.016817352924628871 0 0.048688730903103661 -0.016480932960910681 0 0.042910541186111387 -0.012930104163938491 0 0.042324089068438993 -0.01614529428756387 0 0.044792889725298018 -0.016928502891327971 0 0.042910541186111387 -0.012930104163938491 0 0.044792889725298018 -0.016928502891327971 0 0.046541615011182091 -0.016817352924628871 0 0.042910541186111387 -0.012930104163938491 0 0.038792230319828293 -0.01566173763952515 0 0.042910541186111387 -0.012930104163938491 0 0.036691974898230631 -0.010528120132019239 0 0.038792230319828293 -0.01566173763952515 0 0.042324089068438993 -0.01614529428756387 0 0.042910541186111387 -0.012930104163938491 0 0.043696595010690051 -0.0059221524669507992 0 0.042910541186111387 -0.012930104163938491 0 0.036691974898230631 -0.010528120132019239 0 0.028277771465960461 -0.0095675024797592847 0 0.033338670191427562 -0.016487883324690769 0 0.036691974898230631 -0.010528120132019239 0 0.033338670191427562 -0.016487883324690769 0 0.038792230319828293 -0.01566173763952515 0 0.036691974898230631 -0.010528120132019239 0 0.037372557332244337 0.002124070880223634 0 0.028277771465960461 -0.0095675024797592847 0 0.036691974898230631 -0.010528120132019239 0 0.084362058361547171 0.00084332919282728948 0 0.078025220046391119 -0.020946847849447621 0 0.1051253797107045 -0.0040246487482388394 0 0.084362058361547171 0.00084332919282728948 0 0.06663683758607758 -0.0079161396528262123 0 0.078025220046391119 -0.020946847849447621 0 0.048688730903103661 -0.016480932960910681 0 0.06663683758607758 -0.0079161396528262123 0 0.078025220046391119 -0.020946847849447621 0 0.055096136433348049 -0.022419739599053599 0 0.078025220046391119 -0.020946847849447621 0 0.067912110856133315 -0.028472966601760481 0 0.078025220046391119 -0.020946847849447621 0 0.067912110856133315 -0.028472966601760481 0 0.081523226052123768 -0.038179600245390528 0 0.048688730903103661 -0.016480932960910681 0 0.078025220046391119 -0.020946847849447621 0 0.058822333954442627 -0.029427261887881469 0 0.067912110856133315 -0.028472966601760481 0 0.064110237303728251 -0.03573182084269319 0 0.078025220046391119 -0.020946847849447621 0 0.081523226052123768 -0.038179600245390528 0 0.1063348763415258 -0.025290927265919892 0 0.078025220046391119 -0.020946847849447621 0 0.1063348763415258 -0.025290927265919892 0 0.081523226052123768 -0.038179600245390528 0 0.064110237303728251 -0.03573182084269319 0 0.074053824008222857 -0.054098514601042633 0 0.067912110856133315 -0.028472966601760481 0 0.081523226052123768 -0.038179600245390528 0 0.064110237303728251 -0.03573182084269319 0 0.057675036203277408 -0.044965297231627392 0 0.064110237303728251 -0.03573182084269319 0 0.074053824008222857 -0.054098514601042633 0 0.074053824008222857 -0.054098514601042633 0 0.098034743072948322 -0.051152110567250567 0 0.074053824008222857 -0.054098514601042633 0 0.098034743072948322 -0.051152110567250567 0 0.085506424917303703 -0.077084877600382087 0 0.081523226052123768 -0.038179600245390528 0 0.074053824008222857 -0.054098514601042633 0 0.098034743072948322 -0.051152110567250567 0 0.098034743072948322 -0.051152110567250567 0 0.1220156621376737 -0.048205706533458528 0 0.1033774134320786 -0.069725842184335765 0 0.098034743072948322 -0.051152110567250567 0 0.1220156621376737 -0.048205706533458528 0 0.1220156621376737 -0.048205706533458528 0 0.1063348763415258 -0.025290927265919892 0 0.13464453263666051 -0.029635006682392169 0 0.081523226052123768 -0.038179600245390528 0 0.098034743072948322 -0.051152110567250567 0 0.1063348763415258 -0.025290927265919892 0 0.098034743072948322 -0.051152110567250567 0 0.1220156621376737 -0.048205706533458528 0 0.1063348763415258 -0.025290927265919892 0 0.078025220046391119 -0.020946847849447621 0 0.1063348763415258 -0.025290927265919892 0 0.1051253797107045 -0.0040246487482388394 0 0.1063348763415258 -0.025290927265919892 0 0.1221672461161345 -0.01254464219554653 0 0.13464453263666051 -0.029635006682392169 0 0.1063348763415258 -0.025290927265919892 0 0.13464453263666051 -0.029635006682392169 0 0.1063348763415258 -0.025290927265919892 0 0.1221672461161345 -0.01254464219554653 0 0.1051253797107045 -0.0040246487482388394 0 0.12387230286588991 0.0034426358120093889 0 0.1221672461161345 -0.01254464219554653 0 0.1051253797107045 -0.0040246487482388394 0 0.08924371422303877 -0.1074833862130594 0 0.084352419065097134 -0.093877985462730906 0 0.071228512524148635 -0.1067612835031405 0 0.08924371422303877 -0.1074833862130594 0 0.084352419065097134 -0.093877985462730906 0 0.10669643553578 -0.093887850823961477 0 0.08924371422303877 -0.1074833862130594 0 0.083543670731517056 -0.122982403443071 0 0.071228512524148635 -0.1067612835031405 0 0.08924371422303877 -0.1074833862130594 0 0.083543670731517056 -0.122982403443071 0 0.1050784265991325 -0.1213865612995757 0 0.083543670731517056 -0.122982403443071 0 0.06664850420406454 -0.1225440362192973 0 0.071228512524148635 -0.1067612835031405 0 0.0605415592263846 -0.1110228705854006 0 0.06664850420406454 -0.1225440362192973 0 0.071228512524148635 -0.1067612835031405 0 0.061361789106099587 -0.099773370089875441 0 0.071228512524148635 -0.1067612835031405 0 0.069484996964695706 -0.09104209550189496 0 0.084352419065097134 -0.093877985462730906 0 0.071228512524148635 -0.1067612835031405 0 0.069484996964695706 -0.09104209550189496 0 0.061361789106099587 -0.099773370089875441 0 0.0605415592263846 -0.1110228705854006 0 0.071228512524148635 -0.1067612835031405 0 0.069484996964695706 -0.09104209550189496 0 0.063788710447062955 -0.080708250772785345 0 0.085506424917303703 -0.077084877600382087 0 0.056575614274129132 -0.090609569352016389 0 0.069484996964695706 -0.09104209550189496 0 0.063788710447062955 -0.080708250772785345 0 0.074053824008222857 -0.054098514601042633 0 0.065234277786850481 -0.068966225863962463 0 0.085506424917303703 -0.077084877600382087 0 0.063788710447062955 -0.080708250772785345 0 0.065234277786850481 -0.068966225863962463 0 0.085506424917303703 -0.077084877600382087 0 0.056655884891971597 -0.065631471582094009 0 0.074053824008222857 -0.054098514601042633 0 0.065234277786850481 -0.068966225863962463 0 0.084352419065097134 -0.093877985462730906 0 0.085506424917303703 -0.077084877600382087 0 0.10669643553578 -0.093887850823961477 0 0.084352419065097134 -0.093877985462730906 0 0.069484996964695706 -0.09104209550189496 0 0.085506424917303703 -0.077084877600382087 0 0.085506424917303703 -0.077084877600382087 0 0.10669643553578 -0.093887850823961477 0 0.085506424917303703 -0.077084877600382087 0 0.1033774134320786 -0.069725842184335765 0 0.10669643553578 -0.093887850823961477 0 0.098034743072948322 -0.051152110567250567 0 0.085506424917303703 -0.077084877600382087 0 0.1033774134320786 -0.069725842184335765 0 0.1220156621376737 -0.048205706533458528 0 0.1033774134320786 -0.069725842184335765 0 0.1227038580011305 -0.06959866880189168 0 0.1033774134320786 -0.069725842184335765 0 0.1227038580011305 -0.06959866880189168 0 0.10669643553578 -0.093887850823961477 0 0.1227038580011305 -0.06959866880189168 0 0.10669643553578 -0.093887850823961477 0 0.1354596872699334 -0.086520891013284029 0 0.10669643553578 -0.093887850823961477 0 0.12788644615425629 -0.11069082404754101 0 0.1354596872699334 -0.086520891013284029 0 0.10669643553578 -0.093887850823961477 0 0.12788644615425629 -0.11069082404754101 0 0.10669643553578 -0.093887850823961477 0 0.1050784265991325 -0.1213865612995757 0 0.12788644615425629 -0.11069082404754101 0 0.08924371422303877 -0.1074833862130594 0 0.10669643553578 -0.093887850823961477 0 0.1050784265991325 -0.1213865612995757 0 0.1050784265991325 -0.1213865612995757 0 0.12788644615425629 -0.11069082404754101 0 0.1263357678602624 -0.1335161995686503 0 0.12788644615425629 -0.11069082404754101 0 0.1263357678602624 -0.1335161995686503 0 0.1490764567727357 -0.12749379727111659 0 0.12788644615425629 -0.11069082404754101 0 0.1490764567727357 -0.12749379727111659 0 0.12788644615425629 -0.11069082404754101 0 0.14377619110065759 -0.11075859027529519 0 0.1490764567727357 -0.12749379727111659 0 0.15473224919714171 -0.1097116160564592 0 0.15548273810761859 -0.103869442889229 0 0.1490764567727357 -0.12749379727111659 0 0.15548273810761859 -0.103869442889229 0 0.1490764567727357 -0.12749379727111659 0 0.14377619110065759 -0.11075859027529519 0 0.15548273810761859 -0.103869442889229 0 0.1490764567727357 -0.12749379727111659 0 0.15473224919714171 -0.1097116160564592 0 0.1631460212364127 -0.12233691893969439 0 0.1490764567727357 -0.12749379727111659 0 0.15548273810761859 -0.103869442889229 0 0.14265912336801989 -0.10098029689329401 0 0.14854087636038921 -0.08986166451539318 0 0.14377619110065759 -0.11075859027529519 0 0.15548273810761859 -0.103869442889229 0 0.14265912336801989 -0.10098029689329401 0 0.12788644615425629 -0.11069082404754101 0 0.14265912336801989 -0.10098029689329401 0 0.1354596872699334 -0.086520891013284029 0 0.12788644615425629 -0.11069082404754101 0 0.14377619110065759 -0.11075859027529519 0 0.14265912336801989 -0.10098029689329401 0 0.1227038580011305 -0.06959866880189168 0 0.13894996694940981 -0.068943370138825275 0 0.1363188281863103 -0.057696731124642082 0 0.1227038580011305 -0.06959866880189168 0 0.1354596872699334 -0.086520891013284029 0 0.13894996694940981 -0.068943370138825275 0 0.13894996694940981 -0.068943370138825275 0 0.1500039923299018 -0.074755220214960796 0 0.1519280726409383 -0.056476607649368432 0 0.1500039923299018 -0.074755220214960796 0 0.1519280726409383 -0.056476607649368432 0 0.16406258706378171 -0.060186605658640091 0 0.1354596872699334 -0.086520891013284029 0 0.13894996694940981 -0.068943370138825275 0 0.1500039923299018 -0.074755220214960796 0 0.15548273810761859 -0.103869442889229 0 0.14854087636038921 -0.08986166451539318 0 0.16188901944249959 -0.08024508850734087 0 0.14265912336801989 -0.10098029689329401 0 0.1354596872699334 -0.086520891013284029 0 0.14854087636038921 -0.08986166451539318 0 0.1354596872699334 -0.086520891013284029 0 0.1500039923299018 -0.074755220214960796 0 0.14854087636038921 -0.08986166451539318 0 0.1500039923299018 -0.074755220214960796 0 0.14854087636038921 -0.08986166451539318 0 0.16188901944249959 -0.08024508850734087 0 0.15548273810761859 -0.103869442889229 0 0.16188901944249959 -0.08024508850734087 0 0.15548273810761859 -0.103869442889229 0 0.16188901944249959 -0.08024508850734087 0 0.1652891437747171 -0.093778606210452309 0 0.16188901944249959 -0.08024508850734087 0 0.17796625153445789 -0.086690623974985989 0 0.1652891437747171 -0.093778606210452309 0 0.17796625153445789 -0.086690623974985989 0 0.16406258706378171 -0.060186605658640091 0 0.16188901944249959 -0.08024508850734087 0 0.17796625153445789 -0.086690623974985989 0 0.16406258706378171 -0.060186605658640091 0 0.1500039923299018 -0.074755220214960796 0 0.16188901944249959 -0.08024508850734087 0 0.16406258706378171 -0.060186605658640091 0 0.17905374430406329 -0.064264636107211934 0 0.17796625153445789 -0.086690623974985989 0 0.16406258706378171 -0.060186605658640091 0 0.17905374430406329 -0.064264636107211934 0 0.1887663130080231 -0.052719734000907563 0 0.18893241156452861 -0.071474768733260835 0 0.17905374430406329 -0.064264636107211934 0 0.17796625153445789 -0.086690623974985989 0 0.18893241156452861 -0.071474768733260835 0 0.17796625153445789 -0.086690623974985989 0 0.19186991600513381 -0.113194642291332 0 0.17796625153445789 -0.086690623974985989 0 0.17330108260113769 -0.1114531291738959 0 0.19186991600513381 -0.113194642291332 0 0.17796625153445789 -0.086690623974985989 0 0.17330108260113769 -0.1114531291738959 0 0.16569771195054861 -0.1034740482579333 0 0.17330108260113769 -0.1114531291738959 0 0.19186991600513381 -0.113194642291332 0 0.17926931117460079 -0.12821848103759609 0 0.17330108260113769 -0.1114531291738959 0 0.1631460212364127 -0.12233691893969439 0 0.17926931117460079 -0.12821848103759609 0 0.17330108260113769 -0.1114531291738959 0 0.19186991600513381 -0.113194642291332 0 0.15473224919714171 -0.1097116160564592 0 0.17330108260113769 -0.1114531291738959 0 0.15473224919714171 -0.1097116160564592 0 0.17330108260113769 -0.1114531291738959 0 0.1631460212364127 -0.12233691893969439 0 0.17796625153445789 -0.086690623974985989 0 0.1652891437747171 -0.093778606210452309 0 0.16569771195054861 -0.1034740482579333 0 0.15473224919714171 -0.1097116160564592 0 0.17330108260113769 -0.1114531291738959 0 0.16569771195054861 -0.1034740482579333 0 0.15473224919714171 -0.1097116160564592 0 0.15548273810761859 -0.103869442889229 0 0.16569771195054861 -0.1034740482579333 0 0.15548273810761859 -0.103869442889229 0 0.1652891437747171 -0.093778606210452309 0 0.16569771195054861 -0.1034740482579333 0 0.15171756862039351 0.0054834398268476872 0 0.14996095566938741 -0.0050642194497159546 0 0.16264587623393531 -0.0023496944628062428 0 0.14996095566938741 -0.0050642194497159546 0 0.14833344790499631 -0.01724577478810662 0 0.1600908668627038 -0.01335274504354691 0 0.14996095566938741 -0.0050642194497159546 0 0.13680472132810731 -0.0093418545195570919 0 0.14833344790499631 -0.01724577478810662 0 0.1410445007129334 0.0059461212386388452 0 0.14996095566938741 -0.0050642194497159546 0 0.13680472132810731 -0.0093418545195570919 0 0.12387230286588991 0.0034426358120093889 0 0.1221672461161345 -0.01254464219554653 0 0.13680472132810731 -0.0093418545195570919 0 0.13680472132810731 -0.0093418545195570919 0 0.13464453263666051 -0.029635006682392169 0 0.14833344790499631 -0.01724577478810662 0 0.1221672461161345 -0.01254464219554653 0 0.13680472132810731 -0.0093418545195570919 0 0.13464453263666051 -0.029635006682392169 0 0.13464453263666051 -0.029635006682392169 0 0.14833344790499631 -0.01724577478810662 0 0.1553671926023934 -0.02314443291517547 0 0.13464453263666051 -0.029635006682392169 0 0.1553671926023934 -0.02314443291517547 0 0.16295418893179511 -0.033979086098864443 0 0.14833344790499631 -0.01724577478810662 0 0.1553671926023934 -0.02314443291517547 0 0.1600908668627038 -0.01335274504354691 0 0.13464453263666051 -0.029635006682392169 0 0.15015892259310551 -0.033682587342294193 0 0.16295418893179511 -0.033979086098864443 0 0.13464453263666051 -0.029635006682392169 0 0.16295418893179511 -0.033979086098864443 0 0.15015892259310551 -0.033682587342294193 0 0.145996581202399 -0.04525930249966649 0 0.1519280726409383 -0.056476607649368432 0 0.13464453263666051 -0.029635006682392169 0 0.15015892259310551 -0.033682587342294193 0 0.145996581202399 -0.04525930249966649 0 0.1220156621376737 -0.048205706533458528 0 0.13464453263666051 -0.029635006682392169 0 0.145996581202399 -0.04525930249966649 0 0.1220156621376737 -0.048205706533458528 0 0.145996581202399 -0.04525930249966649 0 0.1220156621376737 -0.048205706533458528 0 0.145996581202399 -0.04525930249966649 0 0.1363188281863103 -0.057696731124642082 0 0.1220156621376737 -0.048205706533458528 0 0.1227038580011305 -0.06959866880189168 0 0.1363188281863103 -0.057696731124642082 0 0.15015892259310551 -0.033682587342294193 0 0.1519280726409383 -0.056476607649368432 0 0.16406258706378171 -0.060186605658640091 0 0.13894996694940981 -0.068943370138825275 0 0.1363188281863103 -0.057696731124642082 0 0.1519280726409383 -0.056476607649368432 0 0.145996581202399 -0.04525930249966649 0 0.1363188281863103 -0.057696731124642082 0 0.1519280726409383 -0.056476607649368432 0 0.15015892259310551 -0.033682587342294193 0 0.16406258706378171 -0.060186605658640091 0 0.16406258706378171 -0.060186605658640091 0 0.17554115834952491 -0.050251448168265163 0 0.16295418893179511 -0.033979086098864443 0 0.17905374430406329 -0.064264636107211934 0 0.16406258706378171 -0.060186605658640091 0 0.17554115834952491 -0.050251448168265163 0 0.17905374430406329 -0.064264636107211934 0 0.17554115834952491 -0.050251448168265163 0 0.1887663130080231 -0.052719734000907563 0 0.17554115834952491 -0.050251448168265163 0 0.17963137637906831 -0.043818358445843003 0 0.1887663130080231 -0.052719734000907563 0 0.16295418893179511 -0.033979086098864443 0 0.17769603862183961 -0.03112110124433299 0 0.1912638452269301 -0.038323165515334857 0 0.17963137637906831 -0.043818358445843003 0 0.16295418893179511 -0.033979086098864443 0 0.1912638452269301 -0.038323165515334857 0 0.16295418893179511 -0.033979086098864443 0 0.1912638452269301 -0.038323165515334857 0 0.17554115834952491 -0.050251448168265163 0 0.17963137637906831 -0.043818358445843003 0 0.16295418893179511 -0.033979086098864443 0 0.17963137637906831 -0.043818358445843003 0 0.1912638452269301 -0.038323165515334857 0 0.1887663130080231 -0.052719734000907563 0 0.17769603862183961 -0.03112110124433299 0 0.19030834730948329 -0.036590169250625582 0 0.1912638452269301 -0.038323165515334857 0 0.17769603862183961 -0.03112110124433299 0 0.18489204539858561 -0.03086322152374605 0 0.19030834730948329 -0.036590169250625582 0 0.15015892259310551 -0.033682587342294193 0 0.16406258706378171 -0.060186605658640091 0 0.16295418893179511 -0.033979086098864443 0 0.1553671926023934 -0.02314443291517547 0 0.16295418893179511 -0.033979086098864443 0 0.1708129266758113 -0.021509551962967222 0 0.1553671926023934 -0.02314443291517547 0 0.1708129266758113 -0.021509551962967222 0 0.1600908668627038 -0.01335274504354691 0 0.16295418893179511 -0.033979086098864443 0 0.1708129266758113 -0.021509551962967222 0 0.17769603862183961 -0.03112110124433299 0 0.1708129266758113 -0.021509551962967222 0 0.17769603862183961 -0.03112110124433299 0 0.1806394642436718 -0.024303609456335279 0 0.17769603862183961 -0.03112110124433299 0 0.1806394642436718 -0.024303609456335279 0 0.18489204539858561 -0.03086322152374605 0 0.1806394642436718 -0.024303609456335279 0 0.18489204539858561 -0.03086322152374605 0 0.18974977804672741 -0.024655428826210041 0 0.1806394642436718 -0.024303609456335279 0 0.18143563129140489 -0.016177613138939371 0 0.18974977804672741 -0.024655428826210041 0 0.18143563129140489 -0.016177613138939371 0 0.1913058565083619 -0.01363792165473115 0 0.18974977804672741 -0.024655428826210041 0 0.1708129266758113 -0.021509551962967222 0 0.1806394642436718 -0.024303609456335279 0 0.18143563129140489 -0.016177613138939371 0 0.19052583982056931 0.003497189241160663 0 0.1735793250003613 0.0025068229842663439 0 0.18192332884335419 -0.0065226241819290546 0 0.18143563129140489 -0.016177613138939371 0 0.17276999159607351 -0.0088015983414017514 0 0.18192332884335419 -0.0065226241819290546 0 0.1708129266758113 -0.021509551962967222 0 0.18143563129140489 -0.016177613138939371 0 0.17276999159607351 -0.0088015983414017514 0 0.18143563129140489 -0.016177613138939371 0 0.18192332884335419 -0.0065226241819290546 0 0.1913058565083619 -0.01363792165473115 0 0.1735793250003613 0.0025068229842663439 0 0.17276999159607351 -0.0088015983414017514 0 0.18192332884335419 -0.0065226241819290546 0 0.1735793250003613 0.0025068229842663439 0 0.17276999159607351 -0.0088015983414017514 0 0.16264587623393531 -0.0023496944628062428 0 0.1708129266758113 -0.021509551962967222 0 0.17276999159607351 -0.0088015983414017514 0 0.1600908668627038 -0.01335274504354691 0 0.17276999159607351 -0.0088015983414017514 0 0.1600908668627038 -0.01335274504354691 0 0.16264587623393531 -0.0023496944628062428 0 0.14996095566938741 -0.0050642194497159546 0 0.1600908668627038 -0.01335274504354691 0 0.16264587623393531 -0.0023496944628062428 0 0.223056485775536 0.00037021497681655121 0 0.20838758240138319 0.001843435483734093 0 0.2099041614397916 -0.0099031658503137832 0 0.2099041614397916 -0.0099031658503137832 0 0.20308663815687669 -0.014708084325349041 0 0.21240031115237121 -0.022220773560274559 0 0.19052583982056931 0.003497189241160663 0 0.2099041614397916 -0.0099031658503137832 0 0.19052583982056931 0.003497189241160663 0 0.18192332884335419 -0.0065226241819290546 0 0.1913058565083619 -0.01363792165473115 0 0.19052583982056931 0.003497189241160663 0 0.20308663815687669 -0.014708084325349041 0 0.19052583982056931 0.003497189241160663 0 0.2099041614397916 -0.0099031658503137832 0 0.20308663815687669 -0.014708084325349041 0 0.20838758240138319 0.001843435483734093 0 0.19052583982056931 0.003497189241160663 0 0.2099041614397916 -0.0099031658503137832 0 0.19052583982056931 0.003497189241160663 0 0.1913058565083619 -0.01363792165473115 0 0.20308663815687669 -0.014708084325349041 0 0.1913058565083619 -0.01363792165473115 0 0.20308663815687669 -0.014708084325349041 0 0.19972680895148751 -0.02218211224869291 0 0.1913058565083619 -0.01363792165473115 0 0.19972680895148751 -0.02218211224869291 0 0.18974977804672741 -0.024655428826210041 0 0.18489204539858561 -0.03086322152374605 0 0.18974977804672741 -0.024655428826210041 0 0.19206209683307671 -0.03052764905201534 0 0.18974977804672741 -0.024655428826210041 0 0.19206209683307671 -0.03052764905201534 0 0.19709027740562279 -0.028190175055739581 0 0.19972680895148751 -0.02218211224869291 0 0.18974977804672741 -0.024655428826210041 0 0.19709027740562279 -0.028190175055739581 0 0.19206209683307671 -0.03052764905201534 0 0.19709027740562279 -0.028190175055739581 0 0.19925361833289629 -0.033867720327272068 0 0.19972680895148751 -0.02218211224869291 0 0.19709027740562279 -0.028190175055739581 0 0.20465908486392601 -0.029717964824507549 0 0.19709027740562279 -0.028190175055739581 0 0.20465908486392601 -0.029717964824507549 0 0.19925361833289629 -0.033867720327272068 0 0.2099041614397916 -0.0099031658503137832 0 0.21240031115237121 -0.022220773560274559 0 0.22928248305901369 -0.023303520941788499 0 0.19972680895148751 -0.02218211224869291 0 0.20465908486392601 -0.029717964824507549 0 0.21240031115237121 -0.022220773560274559 0 0.20308663815687669 -0.014708084325349041 0 0.19972680895148751 -0.02218211224869291 0 0.21240031115237121 -0.022220773560274559 0 0.21685560558377359 -0.042250187385134613 0 0.1912638452269301 -0.038323165515334857 0 0.20465908486392601 -0.029717964824507549 0 0.21685560558377359 -0.042250187385134613 0 0.19925361833289629 -0.033867720327272068 0 0.21685560558377359 -0.042250187385134613 0 0.1912638452269301 -0.038323165515334857 0 0.2022737182617442 -0.058291883914182642 0 0.20465908486392601 -0.029717964824507549 0 0.21240031115237121 -0.022220773560274559 0 0.21685560558377359 -0.042250187385134613 0 0.21685560558377359 -0.042250187385134613 0 0.19925361833289629 -0.033867720327272068 0 0.1912638452269301 -0.038323165515334857 0 0.19925361833289629 -0.033867720327272068 0 0.19320193226343929 -0.034283713707686958 0 0.1912638452269301 -0.038323165515334857 0 0.19206209683307671 -0.03052764905201534 0 0.19925361833289629 -0.033867720327272068 0 0.19320193226343929 -0.034283713707686958 0 0.19206209683307671 -0.03052764905201534 0 0.19320193226343929 -0.034283713707686958 0 0.19011610545114621 -0.033066188383518477 0 0.19320193226343929 -0.034283713707686958 0 0.19030834730948329 -0.036590169250625582 0 0.1912638452269301 -0.038323165515334857 0 0.19030834730948329 -0.036590169250625582 0 0.1912638452269301 -0.038323165515334857 0 0.18489204539858561 -0.03086322152374605 0 0.19030834730948329 -0.036590169250625582 0 0.19011610545114621 -0.033066188383518477 0 0.18489204539858561 -0.03086322152374605 0 0.19206209683307671 -0.03052764905201534 0 0.19011610545114621 -0.033066188383518477 0 0.19320193226343929 -0.034283713707686958 0 0.19030834730948329 -0.036590169250625582 0 0.19011610545114621 -0.033066188383518477 0 0.2022737182617442 -0.058291883914182642 0 0.1887663130080231 -0.052719734000907563 0 0.18893241156452861 -0.071474768733260835 0 0.1912638452269301 -0.038323165515334857 0 0.2022737182617442 -0.058291883914182642 0 0.1912638452269301 -0.038323165515334857 0 0.2022737182617442 -0.058291883914182642 0 0.1887663130080231 -0.052719734000907563 0 0.21685560558377359 -0.042250187385134613 0 0.2022737182617442 -0.058291883914182642 0 0.21877462931794761 -0.062213546392261287 0 0.21685560558377359 -0.042250187385134613 0 0.22852023408835079 -0.052344867363728592 0 0.2424473659406173 -0.046177209254932523 0 0.21685560558377359 -0.042250187385134613 0 0.21877462931794761 -0.062213546392261287 0 0.22852023408835079 -0.052344867363728592 0 0.21877462931794761 -0.062213546392261287 0 0.22852023408835079 -0.052344867363728592 0 0.23280336883732849 -0.062260832995707012 0 0.22852023408835079 -0.052344867363728592 0 0.23280336883732849 -0.062260832995707012 0 0.24293911328240669 -0.057702831409904357 0 0.2521054653009599 -0.066677124806146265 0 0.25409995514052292 -0.056048758880425611 0 0.24293911328240669 -0.057702831409904357 0 0.25409995514052292 -0.056048758880425611 0 0.24293911328240669 -0.057702831409904357 0 0.2424473659406173 -0.046177209254932523 0 0.22852023408835079 -0.052344867363728592 0 0.24293911328240669 -0.057702831409904357 0 0.2424473659406173 -0.046177209254932523 0 0.2424473659406173 -0.046177209254932523 0 0.2486608046782359 -0.036703876033263291 0 0.22928248305901369 -0.023303520941788499 0 0.21685560558377359 -0.042250187385134613 0 0.2424473659406173 -0.046177209254932523 0 0.22928248305901369 -0.023303520941788499 0 0.21685560558377359 -0.042250187385134613 0 0.2424473659406173 -0.046177209254932523 0 0.21240031115237121 -0.022220773560274559 0 0.21685560558377359 -0.042250187385134613 0 0.22928248305901369 -0.023303520941788499 0 0.2099041614397916 -0.0099031658503137832 0 0.22928248305901369 -0.023303520941788499 0 0.25029908842709009 -0.020265960344412019 0 0.2486608046782359 -0.036703876033263291 0 0.22928248305901369 -0.023303520941788499 0 0.2486608046782359 -0.036703876033263291 0 0.22928248305901369 -0.023303520941788499 0 0.25029908842709009 -0.020265960344412019 0 0.22928248305901369 -0.023303520941788499 0 0.23889339056157119 -0.0071219943706285751 0 0.25029908842709009 -0.020265960344412019 0 0.25452241286566479 -0.0019804021957848931 0 0.23889339056157119 -0.0071219943706285751 0 0.223056485775536 0.00037021497681655121 0 0.22928248305901369 -0.023303520941788499 0 0.23889339056157119 -0.0071219943706285751 0 0.223056485775536 0.00037021497681655121 0 0.2099041614397916 -0.0099031658503137832 0 0.22928248305901369 -0.023303520941788499 0 0.2074528858155342 -0.097207567238643239 0 0.21653724723871509 -0.1039202890856578 0 0.20967566951648561 -0.114864588519575 0 0.2074528858155342 -0.097207567238643239 0 0.21653724723871509 -0.1039202890856578 0 0.21932113828701971 -0.094992029182842358 0 0.21653724723871509 -0.1039202890856578 0 0.20967566951648561 -0.114864588519575 0 0.2215925659154929 -0.10881586257328819 0 0.20967566951648561 -0.114864588519575 0 0.22748142302783719 -0.1165345347478183 0 0.20967566951648561 -0.114864588519575 0 0.22748142302783719 -0.1165345347478183 0 0.2162514085923572 -0.1270745174613386 0 0.20967566951648561 -0.114864588519575 0 0.19186991600513381 -0.113194642291332 0 0.19186991600513381 -0.113194642291332 0 0.20409807608990979 -0.13650471134151959 0 0.20967566951648561 -0.114864588519575 0 0.19186991600513381 -0.113194642291332 0 0.20409807608990979 -0.13650471134151959 0 0.2074528858155342 -0.097207567238643239 0 0.20967566951648561 -0.114864588519575 0 0.19186991600513381 -0.113194642291332 0 0.2074528858155342 -0.097207567238643239 0 0.19186991600513381 -0.113194642291332 0 0.19453439889451851 -0.094230363819769805 0 0.17796625153445789 -0.086690623974985989 0 0.19186991600513381 -0.113194642291332 0 0.19453439889451851 -0.094230363819769805 0 0.17796625153445789 -0.086690623974985989 0 0.19916394208715199 -0.079990056354293487 0 0.18893241156452861 -0.071474768733260835 0 0.2074528858155342 -0.097207567238643239 0 0.19453439889451851 -0.094230363819769805 0 0.19916394208715199 -0.079990056354293487 0 0.17796625153445789 -0.086690623974985989 0 0.19453439889451851 -0.094230363819769805 0 0.19916394208715199 -0.079990056354293487 0 0.2022737182617442 -0.058291883914182642 0 0.19916394208715199 -0.079990056354293487 0 0.18893241156452861 -0.071474768733260835 0 0.2022737182617442 -0.058291883914182642 0 0.19916394208715199 -0.079990056354293487 0 0.21328359129655561 -0.078260602313031849 0 0.2022737182617442 -0.058291883914182642 0 0.21328359129655561 -0.078260602313031849 0 0.2022737182617442 -0.058291883914182642 0 0.21877462931794761 -0.062213546392261287 0 0.21328359129655561 -0.078260602313031849 0 0.2074528858155342 -0.097207567238643239 0 0.19916394208715199 -0.079990056354293487 0 0.21328359129655561 -0.078260602313031849 0 0.2074528858155342 -0.097207567238643239 0 0.21328359129655561 -0.078260602313031849 0 0.21932113828701971 -0.094992029182842358 0 0.21328359129655561 -0.078260602313031849 0 0.21932113828701971 -0.094992029182842358 0 0.22429346433136729 -0.098229320711880896 0 0.21328359129655561 -0.078260602313031849 0 0.22429346433136729 -0.098229320711880896 0 0.21328359129655561 -0.078260602313031849 0 0.22687526612186801 -0.084463924238916716 0 0.22429346433136729 -0.098229320711880896 0 0.21328359129655561 -0.078260602313031849 0 0.22687526612186801 -0.084463924238916716 0 0.22765452824423371 -0.072225557323488954 0 0.22687526612186801 -0.084463924238916716 0 0.2386106458177962 -0.092117435600437503 0 0.23464879507498629 -0.079500307731764308 0 0.22687526612186801 -0.084463924238916716 0 0.22765452824423371 -0.072225557323488954 0 0.23464879507498629 -0.079500307731764308 0 0.22687526612186801 -0.084463924238916716 0 0.2386106458177962 -0.092117435600437503 0 0.22429346433136729 -0.098229320711880896 0 0.21877462931794761 -0.062213546392261287 0 0.21328359129655561 -0.078260602313031849 0 0.22765452824423371 -0.072225557323488954 0 0.21877462931794761 -0.062213546392261287 0 0.23280336883732849 -0.062260832995707012 0 0.22765452824423371 -0.072225557323488954 0 0.22765452824423371 -0.072225557323488954 0 0.23981163332173941 -0.069998560118584102 0 0.23464879507498629 -0.079500307731764308 0 0.23280336883732849 -0.062260832995707012 0 0.22765452824423371 -0.072225557323488954 0 0.23981163332173941 -0.069998560118584102 0 0.23280336883732849 -0.062260832995707012 0 0.24293911328240669 -0.057702831409904357 0 0.23981163332173941 -0.069998560118584102 0 0.23981163332173941 -0.069998560118584102 0 0.23464879507498629 -0.079500307731764308 0 0.24715639295033159 -0.078810959271446018 0 0.2521054653009599 -0.066677124806146265 0 0.23981163332173941 -0.069998560118584102 0 0.24715639295033159 -0.078810959271446018 0 0.2521054653009599 -0.066677124806146265 0 0.24293911328240669 -0.057702831409904357 0 0.23981163332173941 -0.069998560118584102 0 0.2386106458177962 -0.092117435600437503 0 0.23464879507498629 -0.079500307731764308 0 0.24715639295033159 -0.078810959271446018 0 0.2386106458177962 -0.092117435600437503 0 0.24715639295033159 -0.078810959271446018 0 0.24874299097860589 -0.090617112372454497 0 0.2386106458177962 -0.092117435600437503 0 0.240449068193612 -0.10874761719189439 0 0.22429346433136729 -0.098229320711880896 0 0.25096500491655088 -0.1025810790785824 0 0.2386106458177962 -0.092117435600437503 0 0.24874299097860589 -0.090617112372454497 0 0.25096500491655088 -0.1025810790785824 0 0.2386106458177962 -0.092117435600437503 0 0.240449068193612 -0.10874761719189439 0 0.240449068193612 -0.10874761719189439 0 0.22429346433136729 -0.098229320711880896 0 0.240449068193612 -0.10874761719189439 0 0.2290070083290873 -0.1067783232710787 0 0.22429346433136729 -0.098229320711880896 0 0.2290070083290873 -0.1067783232710787 0 0.22429346433136729 -0.098229320711880896 0 0.21653724723871509 -0.1039202890856578 0 0.2215925659154929 -0.10881586257328819 0 0.22429346433136729 -0.098229320711880896 0 0.2290070083290873 -0.1067783232710787 0 0.2215925659154929 -0.10881586257328819 0 0.22429346433136729 -0.098229320711880896 0 0.21653724723871509 -0.1039202890856578 0 0.21932113828701971 -0.094992029182842358 0 0.22429346433136729 -0.098229320711880896 0 0.21932113828701971 -0.094992029182842358 0 0.22429346433136729 -0.098229320711880896 0 0.20967566951648561 -0.114864588519575 0 0.2215925659154929 -0.10881586257328819 0 0.22748142302783719 -0.1165345347478183 0 0.2290070083290873 -0.1067783232710787 0 0.2215925659154929 -0.10881586257328819 0 0.22748142302783719 -0.1165345347478183 0 0.2290070083290873 -0.1067783232710787 0 0.23476266710733851 -0.1172174199781308 0 0.2290070083290873 -0.1067783232710787 0 0.22748142302783719 -0.1165345347478183 0 0.2290070083290873 -0.1067783232710787 0 0.22748142302783719 -0.1165345347478183 0 0.23476266710733851 -0.1172174199781308 0 0.22748142302783719 -0.1165345347478183 0 0.23476266710733851 -0.1172174199781308 0 0.22748142302783719 -0.1165345347478183 0 0.23476266710733851 -0.1172174199781308 0 0.23394247398779919 -0.13204258054736601 0 0.25660467205585602 -0.1192659136719091 0 0.240449068193612 -0.10874761719189439 0 0.23476266710733851 -0.1172174199781308 0 0.25660467205585602 -0.1192659136719091 0 0.23476266710733851 -0.1172174199781308 0 0.24694544084397221 -0.1234400746602491 0 0.25660467205585602 -0.1192659136719091 0 0.240449068193612 -0.10874761719189439 0 0.25660467205585602 -0.1192659136719091 0 0.23476266710733851 -0.1172174199781308 0 0.25096500491655088 -0.1025810790785824 0 0.25660467205585602 -0.1192659136719091 0 0.240449068193612 -0.10874761719189439 0 0.240449068193612 -0.10874761719189439 0 0.2290070083290873 -0.1067783232710787 0 0.23476266710733851 -0.1172174199781308 0 0.23476266710733851 -0.1172174199781308 0 0.24694544084397221 -0.1234400746602491 0 0.24792257942031951 -0.12986867328604559 0 0.23476266710733851 -0.1172174199781308 0 0.24798520103963889 -0.1411992638902734 0 0.23394247398779919 -0.13204258054736601 0 0.23476266710733851 -0.1172174199781308 0 0.24792257942031951 -0.12986867328604559 0 0.24798520103963889 -0.1411992638902734 0 0.23476266710733851 -0.1172174199781308 0 0.24798520103963889 -0.1411992638902734 0 0.25195024941704952 -0.12597208579303881 0 0.24694544084397221 -0.1234400746602491 0 0.24792257942031951 -0.12986867328604559 0 0.24798520103963889 -0.1411992638902734 0 0.2349934632221779 -0.14834752008075849 0 0.23394247398779919 -0.13204258054736601 0 0.25130992210280118 -0.13689782982029669 0 0.24792257942031951 -0.12986867328604559 0 0.24798520103963889 -0.1411992638902734 0 0.24605233270990531 -0.15398389375486729 0 0.24798520103963889 -0.1411992638902734 0 0.2349934632221779 -0.14834752008075849 0 0.24605233270990531 -0.15398389375486729 0 0.2349934632221779 -0.14834752008075849 0 0.24002293160586469 -0.161207683246022 0 0.2349934632221779 -0.14834752008075849 0 0.2237504657351963 -0.14039423523644159 0 0.22001950844255541 -0.16425393572506489 0 0.2237504657351963 -0.14039423523644159 0 0.22001950844255541 -0.16425393572506489 0 0.2349934632221779 -0.14834752008075849 0 0.2237504657351963 -0.14039423523644159 0 0.23394247398779919 -0.13204258054736601 0 0.22748142302783719 -0.1165345347478183 0 0.2237504657351963 -0.14039423523644159 0 0.22748142302783719 -0.1165345347478183 0 0.2237504657351963 -0.14039423523644159 0 0.2162514085923572 -0.1270745174613386 0 0.22748142302783719 -0.1165345347478183 0 0.2237504657351963 -0.14039423523644159 0 0.23394247398779919 -0.13204258054736601 0 0.20967566951648561 -0.114864588519575 0 0.2162514085923572 -0.1270745174613386 0 0.20409807608990979 -0.13650471134151959 0 0.2237504657351963 -0.14039423523644159 0 0.2162514085923572 -0.1270745174613386 0 0.20409807608990979 -0.13650471134151959 0 0.2237504657351963 -0.14039423523644159 0 0.2023166638790358 -0.15596898023661671 0 0.22001950844255541 -0.16425393572506489 0 0.2237504657351963 -0.14039423523644159 0 0.20409807608990979 -0.13650471134151959 0 0.2023166638790358 -0.15596898023661671 0 0.20409807608990979 -0.13650471134151959 0 0.2023166638790358 -0.15596898023661671 0 0.1818121800556379 -0.14730470881776461 0 0.2023166638790358 -0.15596898023661671 0 0.1818121800556379 -0.14730470881776461 0 0.18415846746150269 -0.1632016212444363 0 0.19186991600513381 -0.113194642291332 0 0.20409807608990979 -0.13650471134151959 0 0.17926931117460079 -0.12821848103759609 0 0.20409807608990979 -0.13650471134151959 0 0.17926931117460079 -0.12821848103759609 0 0.1818121800556379 -0.14730470881776461 0 0.1922875894733658 -0.18366844581576711 0 0.20478736979083639 -0.17205524348200529 0 0.18415846746150269 -0.1632016212444363 0 0.2023166638790358 -0.15596898023661671 0 0.20478736979083639 -0.17205524348200529 0 0.18415846746150269 -0.1632016212444363 0 0.2023166638790358 -0.15596898023661671 0 0.20478736979083639 -0.17205524348200529 0 0.22001950844255541 -0.16425393572506489 0 0.20478736979083639 -0.17205524348200529 0 0.22001950844255541 -0.16425393572506489 0 0.21628855114991441 -0.1881136362136881 0 0.1922875894733658 -0.18366844581576711 0 0.20478736979083639 -0.17205524348200529 0 0.21628855114991441 -0.1881136362136881 0 0.22001950844255541 -0.16425393572506489 0 0.21628855114991441 -0.1881136362136881 0 0.22001950844255541 -0.16425393572506489 0 0.23934400996232061 -0.18025686477495381 0 0.21628855114991441 -0.1881136362136881 0 0.22001950844255541 -0.16425393572506489 0 0.24002293160586469 -0.161207683246022 0 0.23934400996232061 -0.18025686477495381 0 0.2349934632221779 -0.14834752008075849 0 0.22001950844255541 -0.16425393572506489 0 0.24002293160586469 -0.161207683246022 0 0.26120773497194 -0.16518110780241549 0 0.24605233270990531 -0.15398389375486729 0 0.24002293160586469 -0.161207683246022 0 0.26120773497194 -0.16518110780241549 0 0.24002293160586469 -0.161207683246022 0 0.23934400996232061 -0.18025686477495381 0 0.25893570388820603 -0.18713921783848619 0 0.23934400996232061 -0.18025686477495381 0 0.24663828593967249 -0.19119020945945539 0 0.25498763715555078 -0.19954335839653109 0 0.23794770136467869 -0.1987961100607297 0 0.24780163132278371 -0.209693480380823 0 0.25498763715555078 -0.19954335839653109 0 0.24663828593967249 -0.19119020945945539 0 0.23794770136467869 -0.1987961100607297 0 0.23934400996232061 -0.18025686477495381 0 0.24663828593967249 -0.19119020945945539 0 0.23794770136467869 -0.1987961100607297 0 0.23794770136467869 -0.1987961100607297 0 0.24780163132278371 -0.209693480380823 0 0.23484509152833349 -0.2162916622484469 0 0.24780163132278371 -0.209693480380823 0 0.23484509152833349 -0.2162916622484469 0 0.24802633208289551 -0.22480320887852731 0 0.23484509152833349 -0.2162916622484469 0 0.2247908130605574 -0.20591865738277251 0 0.21853925606174909 -0.22105152971709571 0 0.23794770136467869 -0.1987961100607297 0 0.23484509152833349 -0.2162916622484469 0 0.2247908130605574 -0.20591865738277251 0 0.23934400996232061 -0.18025686477495381 0 0.23794770136467869 -0.1987961100607297 0 0.21628855114991441 -0.1881136362136881 0 0.23794770136467869 -0.1987961100607297 0 0.2247908130605574 -0.20591865738277251 0 0.21628855114991441 -0.1881136362136881 0 0.24954558159322551 -0.24675869842961379 0 0.24703015147305241 -0.2357666449011277 0 0.232851269683329 -0.2405733554371729 0 0.24802633208289551 -0.22480320887852731 0 0.232851269683329 -0.2405733554371729 0 0.24703015147305241 -0.2357666449011277 0 0.24802633208289551 -0.22480320887852731 0 0.232851269683329 -0.2405733554371729 0 0.2358612970135823 -0.22793635601523449 0 0.24802633208289551 -0.22480320887852731 0 0.232851269683329 -0.2405733554371729 0 0.23484509152833349 -0.2162916622484469 0 0.2358612970135823 -0.22793635601523449 0 0.24802633208289551 -0.22480320887852731 0 0.23484509152833349 -0.2162916622484469 0 0.22772249475977141 -0.2300771974967909 0 0.21853925606174909 -0.22105152971709571 0 0.23484509152833349 -0.2162916622484469 0 0.2358612970135823 -0.22793635601523449 0 0.22772249475977141 -0.2300771974967909 0 0.22772249475977141 -0.2300771974967909 0 0.21401421420884581 -0.23558610350572981 0 0.21853925606174909 -0.22105152971709571 0 0.2358612970135823 -0.22793635601523449 0 0.22772249475977141 -0.2300771974967909 0 0.232851269683329 -0.2405733554371729 0 0.22127153243417949 -0.25260718757054251 0 0.22376116741474411 -0.23944006041655949 0 0.21401421420884581 -0.23558610350572981 0 0.22772249475977141 -0.2300771974967909 0 0.232851269683329 -0.2405733554371729 0 0.22772249475977141 -0.2300771974967909 0 0.232851269683329 -0.2405733554371729 0 0.22376116741474411 -0.23944006041655949 0 0.22772249475977141 -0.2300771974967909 0 0.22376116741474411 -0.23944006041655949 0 0.21401421420884581 -0.23558610350572981 0 0.22127153243417949 -0.25260718757054251 0 0.232851269683329 -0.2405733554371729 0 0.22376116741474411 -0.23944006041655949 0 0.22127153243417949 -0.25260718757054251 0 0.232851269683329 -0.2405733554371729 0 0.21401421420884581 -0.23558610350572981 0 0.20223016749375439 -0.22300819316802731 0 0.193499078652628 -0.2454054517925742 0 0.2096917951850277 -0.26464101970390969 0 0.21401421420884581 -0.23558610350572981 0 0.193499078652628 -0.2454054517925742 0 0.21401421420884581 -0.23558610350572981 0 0.21853925606174909 -0.22105152971709571 0 0.20223016749375439 -0.22300819316802731 0 0.193499078652628 -0.2454054517925742 0 0.18324335364116259 -0.2200000755511419 0 0.20223016749375439 -0.22300819316802731 0 0.193499078652628 -0.2454054517925742 0 0.18324335364116259 -0.2200000755511419 0 0.2247908130605574 -0.20591865738277251 0 0.21628855114991441 -0.1881136362136881 0 0.21115215933634121 -0.20982237380546681 0 0.21628855114991441 -0.1881136362136881 0 0.21115215933634121 -0.20982237380546681 0 0.19439936140226219 -0.2038482118464304 0 0.21853925606174909 -0.22105152971709571 0 0.20223016749375439 -0.22300819316802731 0 0.21115215933634121 -0.20982237380546681 0 0.2247908130605574 -0.20591865738277251 0 0.21853925606174909 -0.22105152971709571 0 0.21115215933634121 -0.20982237380546681 0 0.20223016749375439 -0.22300819316802731 0 0.21115215933634121 -0.20982237380546681 0 0.19439936140226219 -0.2038482118464304 0 0.20223016749375439 -0.22300819316802731 0 0.19439936140226219 -0.2038482118464304 0 0.18324335364116259 -0.2200000755511419 0 0.1922875894733658 -0.18366844581576711 0 0.21628855114991441 -0.1881136362136881 0 0.19439936140226219 -0.2038482118464304 0 0.1922875894733658 -0.18366844581576711 0 0.19439936140226219 -0.2038482118464304 0 0.1729876286296971 -0.1945946993097093 0 0.1729876286296971 -0.1945946993097093 0 0.18324335364116259 -0.2200000755511419 0 0.19439936140226219 -0.2038482118464304 0 0.1729876286296971 -0.1945946993097093 0 0.18324335364116259 -0.2200000755511419 0 0.1729876286296971 -0.1945946993097093 0 0.18324335364116259 -0.2200000755511419 0 0.16076112401222781 -0.21958943324934879 0 0.1729876286296971 -0.1945946993097093 0 0.16076112401222781 -0.21958943324934879 0 0.1511356484037274 -0.20070272805685879 0 0.1729876286296971 -0.1945946993097093 0 0.1511356484037274 -0.20070272805685879 0 0.15085580826868189 -0.18650256932346099 0 0.193499078652628 -0.2454054517925742 0 0.1726895580221042 -0.24243588361856941 0 0.18324335364116259 -0.2200000755511419 0 0.18619304383383589 -0.25827966306913802 0 0.193499078652628 -0.2454054517925742 0 0.1726895580221042 -0.24243588361856941 0 0.1726895580221042 -0.24243588361856941 0 0.18324335364116259 -0.2200000755511419 0 0.16076112401222781 -0.21958943324934879 0 0.1726895580221042 -0.24243588361856941 0 0.16076112401222781 -0.21958943324934879 0 0.1559572020280221 -0.24043265720479079 0 0.15664417591421889 -0.25642565896038561 0 0.1726895580221042 -0.24243588361856941 0 0.1559572020280221 -0.24043265720479079 0 0.13957773932813719 -0.25051876570834603 0 0.15664417591421889 -0.25642565896038561 0 0.1559572020280221 -0.24043265720479079 0 0.13957773932813719 -0.25051876570834603 0 0.1559572020280221 -0.24043265720479079 0 0.14415476150044651 -0.23572828549375061 0 0.13957773932813719 -0.25051876570834603 0 0.14415476150044651 -0.23572828549375061 0 0.16076112401222781 -0.21958943324934879 0 0.1559572020280221 -0.24043265720479079 0 0.14706722893592419 -0.22377229210457519 0 0.1559572020280221 -0.24043265720479079 0 0.14415476150044651 -0.23572828549375061 0 0.14706722893592419 -0.22377229210457519 0 0.14415476150044651 -0.23572828549375061 0 0.14706722893592419 -0.22377229210457519 0 0.1331145022849686 -0.22469875534540731 0 0.14415476150044651 -0.23572828549375061 0 0.1331145022849686 -0.22469875534540731 0 0.12775514045818109 -0.23745588446905039 0 0.14706722893592419 -0.22377229210457519 0 0.1331145022849686 -0.22469875534540731 0 0.1409409377389795 -0.21120737595287489 0 0.11923476630019279 -0.22489690054723721 0 0.1331145022849686 -0.22469875534540731 0 0.12587327811618759 -0.2295162370299095 0 0.11923476630019279 -0.22489690054723721 0 0.1331145022849686 -0.22469875534540731 0 0.12630495932849931 -0.21146793098576441 0 0.1331145022849686 -0.22469875534540731 0 0.12587327811618759 -0.2295162370299095 0 0.12775514045818109 -0.23745588446905039 0 0.13957773932813719 -0.25051876570834603 0 0.11161592938845739 -0.24084085634429531 0 0.12775514045818109 -0.23745588446905039 0 0.13957773932813719 -0.25051876570834603 0 0.14415476150044651 -0.23572828549375061 0 0.12775514045818109 -0.23745588446905039 0 0.13957773932813719 -0.25051876570834603 0 0.11161592938845739 -0.24084085634429531 0 0.1511356484037274 -0.20070272805685879 0 0.1409409377389795 -0.21120737595287489 0 0.13128488154256099 -0.19310354125178969 0 0.1511356484037274 -0.20070272805685879 0 0.13128488154256099 -0.19310354125178969 0 0.1511356484037274 -0.20070272805685879 0 0.13128488154256099 -0.19310354125178969 0 0.15085580826868189 -0.18650256932346099 0 0.16076112401222781 -0.21958943324934879 0 0.14706722893592419 -0.22377229210457519 0 0.1409409377389795 -0.21120737595287489 0 0.16076112401222781 -0.21958943324934879 0 0.1511356484037274 -0.20070272805685879 0 0.1409409377389795 -0.21120737595287489 0 0.1409409377389795 -0.21120737595287489 0 0.12630495932849931 -0.21146793098576441 0 0.13128488154256099 -0.19310354125178969 0 0.1331145022849686 -0.22469875534540731 0 0.1409409377389795 -0.21120737595287489 0 0.12630495932849931 -0.21146793098576441 0 0.12630495932849931 -0.21146793098576441 0 0.13128488154256099 -0.19310354125178969 0 0.13128488154256099 -0.19310354125178969 0 0.15085580826868189 -0.18650256932346099 0 0.1372154066192868 -0.1712336265915656 0 0.1218056531037775 -0.17879397698087951 0 0.13128488154256099 -0.19310354125178969 0 0.1372154066192868 -0.1712336265915656 0 0.13128488154256099 -0.19310354125178969 0 0.1372154066192868 -0.1712336265915656 0 0.15085580826868189 -0.18650256932346099 0 0.1372154066192868 -0.1712336265915656 0 0.16165547614813711 -0.17287825140738181 0 0.1372154066192868 -0.1712336265915656 0 0.1431459316960122 -0.14936371193134129 0 0.16165547614813711 -0.17287825140738181 0 0.1171857949838841 -0.15406308581074679 0 0.1218056531037775 -0.17879397698087951 0 0.1372154066192868 -0.1712336265915656 0 0.1372154066192868 -0.1712336265915656 0 0.1431459316960122 -0.14936371193134129 0 0.1171857949838841 -0.15406308581074679 0 0.1372154066192868 -0.1712336265915656 0 0.1431459316960122 -0.14936371193134129 0 0.1171857949838841 -0.15406308581074679 0 0.1263357678602624 -0.1335161995686503 0 0.1431459316960122 -0.14936371193134129 0 0.1263357678602624 -0.1335161995686503 0 0.1490764567727357 -0.12749379727111659 0 0.1431459316960122 -0.14936371193134129 0 0.1490764567727357 -0.12749379727111659 0 0.1431459316960122 -0.14936371193134129 0 0.16234338013178751 -0.13801402597582449 0 0.1490764567727357 -0.12749379727111659 0 0.1431459316960122 -0.14936371193134129 0 0.1490764567727357 -0.12749379727111659 0 0.16234338013178751 -0.13801402597582449 0 0.16647425166160079 -0.15429814971922151 0 0.16234338013178751 -0.13801402597582449 0 0.1818121800556379 -0.14730470881776461 0 0.1431459316960122 -0.14936371193134129 0 0.16647425166160079 -0.15429814971922151 0 0.16234338013178751 -0.13801402597582449 0 0.1631460212364127 -0.12233691893969439 0 0.16234338013178751 -0.13801402597582449 0 0.17926931117460079 -0.12821848103759609 0 0.1631460212364127 -0.12233691893969439 0 0.1490764567727357 -0.12749379727111659 0 0.16234338013178751 -0.13801402597582449 0 0.16234338013178751 -0.13801402597582449 0 0.17926931117460079 -0.12821848103759609 0 0.1818121800556379 -0.14730470881776461 0 0.16647425166160079 -0.15429814971922151 0 0.1818121800556379 -0.14730470881776461 0 0.18415846746150269 -0.1632016212444363 0 0.18415846746150269 -0.1632016212444363 0 0.17739607946097941 -0.17847935055279041 0 0.16165547614813711 -0.17287825140738181 0 0.1922875894733658 -0.18366844581576711 0 0.1729876286296971 -0.1945946993097093 0 0.17739607946097941 -0.17847935055279041 0 0.1922875894733658 -0.18366844581576711 0 0.18415846746150269 -0.1632016212444363 0 0.17739607946097941 -0.17847935055279041 0 0.1729876286296971 -0.1945946993097093 0 0.15085580826868189 -0.18650256932346099 0 0.16165547614813711 -0.17287825140738181 0 0.1729876286296971 -0.1945946993097093 0 0.17739607946097941 -0.17847935055279041 0 0.16165547614813711 -0.17287825140738181 0 0.1431459316960122 -0.14936371193134129 0 0.16647425166160079 -0.15429814971922151 0 0.16165547614813711 -0.17287825140738181 0 0.16647425166160079 -0.15429814971922151 0 0.18415846746150269 -0.1632016212444363 0 0.16165547614813711 -0.17287825140738181 0 
</DataArray>
</Points>
<Cells>
<DataArray type="UInt32" Name="connectivity" format="ascii">
0 1 2 3 4 5 6 7 8 9 10 11 12 13 14 15 16 17 18 19 20 21 22 23 24 25 26 27 28 29 30 31 32 33 34 35 36 37 38 39 40 41 42 43 44 45 46 47 48 49 50 51 52 53 54 55 56 57 58 59 60 61 62 63 64 65 66 67 68 69 70 71 72 73 74 75 76 77 78 79 80 81 82 83 84 85 86 87 88 89 90 91 92 93 94 95 96 97 98 99 100 101 102 103 104 105 106 107 108 109 110 111 112 113 114 115 116 117 118 119 120 121 122 123 124 125 126 127 128 129 130 131 132 133 134 135 136 137 138 139 140 141 142 143 144 145 146 147 148 149 150 151 152 153 154 155 156 157 158 159 160 161 162 163 164 165 166 167 168 169 170 171 172 173 174 175 176 177 178 179 180 181 182 183 184 185 186 187 188 189 190 191 192 193 194 195 196 197 198 199 200 201 202 203 204 205 206 207 208 209 210 211 212 213 214 215 216 217 218 219 220 221 222 223 224 225 226 227 228 229 230 231 232 233 234 235 236 237 238 239 240 241 242 243 244 245 246 247 248 249 250 251 252 253 254 255 256 257 258 259 260 261 262 263 264 265 266 267 268 269 270 271 272 273 274 275 276 277 278 279 280 281 282 283 284 285 286 287 288 289 290 291 292 293 294 295 296 297 298 299 300 301 302 303 304 305 306 307 308 309 310 311 312 313 314 315 316 317 318 319 320 321 322 323 324 325 326 327 328 329 330 331 332 333 334 335 336 337 338 339 340 341 342 343 344 345 346 347 348 349 350 351 352 353 354 355 356 357 358 359 360 361 362 363 364 365 366 367 368 369 370 371 372 373 374 375 376 377 378 379 380 381 382 383 384 385 386 387 388 389 390 391 392 393 394 395 396 397 398 399 400 401 402 403 404 405 406 407 408 409 410 411 412 413 414 415 416 417 418 419 420 421 422 423 424 425 426 427 428 429 430 431 432 433 434 435 436 437 438 439 440 441 442 443 444 445 446 447 448 449 450 451 452 453 454 455 456 457 458 459 460 461 462 463 464 465 466 467 468 469 470 471 472 473 474 475 476 477 478 479 480 481 482 483 484 485 486 487 488 489 490 491 492 493 494 495 496 497 498 499 500 501 502 503 504 505 506 507 508 509 510 511 512 513 514 515 516 517 518 519 520 521 522 523 524 525 526 527 528 529 530 531 532 533 534 535 536 537 538 539 540 541 542 543 544 545 546 547 548 549 550 551 552 553 554 555 556 557 558 559 560 561 562 563 564 565 566 567 568 569 570 571 572 573 574 575 576 577 578 579 580 581 582 583 584 585 586 587 588 589 590 591 592 593 594 595 596 597 598 599 600 601 602 603 604 605 606 607 608 609 610 611 612 613 614 615 616 617 618 619 620 621 622 623 624 625 626 627 628 629 630 631 632 633 634 635 636 637 638 639 640 641 642 643 644 645 646 647 648 649 650 651 652 653 654 655 656 657 658 659 660 661 662 663 664 665 666 667 668 669 670 671 672 673 674 675 676 677 678 679 680 681 682 683 684 685 686 687 688 689 690 691 692 693 694 695 696 697 698 699 700 701 702 703 704 705 706 707 708 709 710 711 712 713 714 715 716 717 718 719 720 721 722 723 724 725 726 727 728 729 730 731 732 733 734 735 736 737 738 739 740 741 742 743 744 745 746 747 748 749 750 751 752 753 754 755 756 757 758 759 760 761 762 763 764 765 766 767 768 769 770 771 772 773 774 775 776 777 778 779 780 781 782 783 784 785 786 787 788 789 790 791 792 793 794 795 796 797 798 799 800 801 802 803 804 805 806 807 808 809 810 811 812 813 814 815 816 817 818 819 820 821 822 823 824 825 826 827 828 829 830 831 832 833 834 835 836 837 838 839 840 841 842 843 844 845 846 847 848 849 850 851 852 853 854 855 856 857 858 859 860 861 862 863 864 865 866 867 868 869 870 871 872 873 874 875 876 877 878 879 880 881 882 883 884 885 886 887 888 889 890 891 892 893 894 895 896 897 898 899 900 901 902 903 904 905 906 907 908 909 910 911 912 913 914 915 916 917 918 919 920 921 922 923 924 925 926 927 928 929 930 931 932 933 934 935 936 937 938 939 940 941 942 943 944 945 946 947 948 949 950 951 952 953 954 955 956 957 958 959 960 961 962 963 964 965 966 967 968 969 970 971 972 973 974 975 976 977 978 979 980 981 982 983 984 985 986 987 988 989 990 991 992 993 994 995 996 997 998 999 1000 1001 1002 1003 1004 1005 1006 1007 1008 1009 1010 1011 1012 1013 1014 1015 1016 1017 1018 1019 1020 1021 1022 1023 1024 1025 1026 1027 1028 1029 1030 1031 1032 1033 1034 1035 1036 1037 1038 1039 1040 1041 1042 1043 1044 1045 1046 1047 1048 1049 1050 1051 1052 1053 1054 1055 1056 1057 1058 1059 1060 1061 1062 1063 1064 1065 1066 1067 1068 1069 1070 1071 1072 1073 1074 1075 1076 1077 1078 1079 1080 1081 1082 1083 1084 1085 1086 1087 1088 1089 1090 1091 1092 1093 1094 1095 1096 1097 1098 1099 1100 1101 1102 1103 1104 1105 1106 1107 1108 1109 1110 1111 1112 1113 1114 1115 1116 1117 1118 1119 1120 1121 1122 1123 1124 1125 1126 1127 1128 1129 1130 1131 1132 1133 1134 1135 1136 1137 1138 1139 1140 1141 1142 1143 1144 1145 1146 1147 1148 1149 1150 1151 1152 1153 1154 1155 1156 1157 1158 1159 1160 1161 1162 1163 1164 1165 1166 1167 1168 1169 1170 1171 1172 1173 1174 1175 1176 1177 1178 1179 1180 1181 1182 1183 1184 1185 1186 1187 1188 1189 1190 1191 1192 1193 1194 1195 1196 1197 1198 1199 1200 1201 1202 1203 1204 1205 1206 1207 1208 1209 1210 1211 1212 1213 1214 1215 1216 1217 1218 1219 1220 1221 1222 1223 1224 1225 1226 1227 1228 1229 1230 1231 1232 1233 1234 1235 1236 1237 1238 1239 1240 1241 1242 1243 1244 1245 1246 1247 1248 1249 1250 1251 1252 1253 1254 1255 1256 1257 1258 1259 1260 1261 1262 1263 1264 1265 1266 1267 1268 1269 1270 1271 1272 1273 1274 1275 1276 1277 1278 1279 1280 1281 1282 1283 1284 1285 1286 1287 1288 1289 1290 1291 1292 1293 1294 1295 1296 1297 1298 1299 1300 1301 1302 1303 1304 1305 1306 1307 1308 1309 1310 1311 1312 1313 1314 1315 1316 1317 1318 1319 1320 1321 1322 1323 1324 1325 1326 1327 1328 1329 1330 1331 1332 1333 1334 1335 1336 1337 1338 1339 1340 1341 1342 1343 1344 1345 1346 1347 1348 1349 1350 1351 1352 1353 1354 1355 1356 1357 1358 1359 1360 1361 1362 1363 1364 1365 1366 1367 1368 1369 1370 1371 1372 1373 1374 1375 1376 1377 1378 1379 1380 1381 1382 1383 1384 1385 1386 1387 1388 1389 1390 1391 1392 1393 1394 1395 1396 1397 1398 1399 1400 1401 1402 1403 1404 1405 1406 1407 1408 1409 1410 1411 1412 1413 1414 1415 1416 1417 1418 1419 1420 1421 1422 1423 1424 1425 1426 1427 1428 1429 1430 1431 1432 1433 1434 1435 1436 1437 1438 1439 1440 1441 1442 1443 1444 1445 1446 1447 1448 1449 1450 1451 1452 1453 1454 1455 1456 1457 1458 1459 1460 1461 1462 1463 1464 1465 1466 1467 1468 1469 1470 1471 1472 1473 1474 1475 1476 1477 1478 1479 1480 1481 1482 1483 1484 1485 1486 1487 1488 1489 1490 1491 1492 1493 1494 1495 1496 1497 1498 1499 1500 1501 1502 1503 1504 1505 1506 1507 1508 1509 1510 1511 1512 1513 1514 1515 1516 1517 1518 1519 1520 1521 1522 1523 1524 1525 1526 1527 1528 1529 1530 1531 1532 1533 1534 1535 1536 1537 1538 1539 1540 1541 1542 1543 1544 1545 1546 1547 1548 1549 1550 1551 1552 1553 1554 1555 1556 1557 1558 1559 1560 1561 1562 1563 1564 1565 1566 1567 1568 1569 1570 1571 1572 1573 1574 1575 1576 1577 1578 1579 1580 1581 1582 1583 1584 1585 1586 1587 1588 1589 1590 1591 1592 1593 1594 1595 1596 1597 1598 1599 1600 1601 1602 1603 1604 1605 1606 1607 1608 1609 1610 1611 1612 1613 1614 1615 1616 1617 1618 1619 1620 1621 1622 1623 1624 1625 1626 1627 1628 1629 1630 1631 1632 1633 1634 1635 1636 1637 1638 1639 1640 1641 1642 1643 1644 1645 1646 1647 1648 1649 1650 1651 1652 1653 1654 1655 1656 1657 1658 1659 1660 1661 1662 1663 1664 1665 1666 1667 1668 1669 1670 1671 1672 1673 1674 1675 1676 1677 1678 1679 1680 1681 1682 1683 1684 1685 1686 1687 1688 1689 1690 1691 1692 1693 1694 1695 1696 1697 1698 1699 1700 1701 1702 1703 1704 1705 1706 1707 1708 1709 1710 1711 1712 1713 1714 1715 1716 1717 1718 1719 1720 1721 1722 1723 1724 1725 1726 1727 1728 1729 1730 1731 1732 1733 1734 1735 1736 1737 1738 1739 1740 1741 1742 1743 1744 1745 1746 1747 1748 1749 1750 1751 1752 1753 1754 1755 1756 1757 1758 1759 1760 1761 1762 1763 1764 1765 1766 1767 1768 1769 1770 1771 1772 1773 1774 1775 1776 1777 1778 1779 1780 1781 1782 1783 1784 1785 1786 1787 1788 1789 1790 1791 1792 1793 1794 1795 1796 1797 1798 1799 1800 1801 1802 1803 1804 1805 1806 1807 1808 1809 1810 1811 1812 1813 1814 1815 1816 1817 1818 1819 1820 1821 1822 1823 1824 1825 1826 1827 1828 1829 1830 1831 1832 1833 1834 1835 1836 1837 1838 1839 1840 1841 1842 1843 1844 1845 1846 1847 1848 1849 1850 1851 1852 1853 1854 1855 1856 1857 1858 1859 1860 1861 1862 1863 1864 1865 1866 1867 1868 1869 1870 1871 1872 1873 1874 1875 1876 1877 1878 1879 1880 1881 1882 1883 1884 1885 1886 1887 1888 1889 1890 1891 1892 1893 1894 1895 1896 1897 1898 1899 1900 1901 1902 1903 1904 1905 1906 1907 1908 1909 1910 1911 1912 1913 1914 1915 1916 1917 1918 1919 1920 1921 1922 1923 1924 1925 1926 1927 1928 1929 1930 1931 1932 1933 1934 1935 1936 1937 1938 1939 1940 1941 1942 1943 1944 1945 1946 1947 1948 1949 1950 1951 1952 1953 1954 1955 1956 1957 1958 1959 1960 1961 1962 1963 1964 1965 1966 1967 1968 1969 1970 1971 1972 1973 1974 1975 1976 1977 1978 1979 1980 1981 1982 1983 1984 1985 1986 1987 1988 1989 1990 1991 1992 1993 1994 1995 1996 1997 1998 1999 2000 2001 2002 2003 2004 2005 2006 2007 2008 2009 2010 2011 2012 2013 2014 2015 2016 2017 2018 2019 2020 2021 2022 2023 2024 2025 2026 2027 2028 2029 2030 2031 2032 2033 2034 2035 2036 2037 2038 2039 2040 2041 2042 2043 2044 2045 2046 2047 2048 2049 2050 2051 2052 2053 2054 2055 2056 2057 2058 2059 2060 2061 2062 2063 2064 2065 2066 2067 2068 2069 2070 2071 2072 2073 2074 2075 2076 2077 2078 2079 2080 2081 2082 2083 2084 2085 2086 2087 2088 2089 2090 2091 2092 2093 2094 2095 2096 2097 2098 2099 2100 2101 2102 2103 2104 2105 2106 2107 2108 2109 2110 2111 2112 2113 2114 2115 2116 2117 2118 2119 2120 2121 2122 2123 2124 2125 2126 2127 2128 2129 2130 2131 2132 2133 2134 2135 2136 2137 2138 2139 2140 2141 2142 2143 2144 2145 2146 2147 2148 2149 2150 2151 2152 2153 2154 2155 2156 2157 2158 2159 2160 2161 2162 2163 2164 2165 2166 2167 2168 2169 2170 2171 2172 2173 2174 2175 2176 2177 2178 2179 2180 2181 2182 2183 2184 2185 2186 2187 2188 2189 2190 2191 2192 2193 2194 2195 2196 2197 2198 2199 2200 2201 2202 2203 2204 2205 2206 2207 2208 2209 2210 2211 2212 2213 2214 2215 2216 2217 2218 2219 2220 2221 2222 2223 2224 2225 2226 2227 2228 2229 2230 2231 2232 2233 2234 2235 2236 2237 2238 2239 2240 2241 2242 2243 2244 2245 2246 2247 2248 2249 2250 2251 2252 2253 2254 2255 2256 2257 2258 2259 2260 2261 2262 2263 2264 2265 2266 2267 2268 2269 2270 2271 2272 2273 2274 2275 2276 2277 2278 2279 2280 2281 2282 2283 2284 2285 2286 2287 2288 2289 2290 2291 2292 2293 2294 2295 2296 2297 2298 2299 2300 2301 2302 2303 2304 2305 2306 2307 2308 2309 2310 2311 2312 2313 2314 2315 2316 2317 2318 2319 2320 2321 2322 2323 2324 2325 2326 2327 2328 2329 2330 2331 2332 2333 2334 2335 2336 2337 2338 2339 2340 2341 2342 2343 2344 2345 2346 2347 2348 2349 2350 2351 2352 2353 2354 2355 2356 2357 2358 2359 2360 2361 2362 2363 2364 2365 2366 2367 2368 2369 2370 2371 2372 2373 2374 2375 2376 2377 2378 2379 2380 2381 2382 2383 2384 2385 2386 2387 2388 2389 2390 2391 2392 2393 2394 2395 2396 2397 2398 2399 2400 2401 2402 2403 2404 2405 2406 2407 2408 2409 2410 2411 2412 2413 2414 2415 2416 2417 2418 2419 2420 2421 2422 2423 2424 2425 2426 2427 2428 2429 2430 2431 2432 2433 2434 2435 2436 2437 2438 2439 2440 2441 2442 2443 2444 2445 2446 2447 2448 2449 2450 2451 2452 2453 2454 2455 2456 2457 2458 2459 2460 2461 2462 2463 2464 2465 2466 2467 2468 2469 2470 2471 2472 2473 2474 2475 2476 2477 2478 2479 2480 2481 2482 2483 2484 2485 2486 2487 2488 2489 2490 2491 2492 2493 2494 2495 2496 2497 2498 2499 2500 2501 2502 2503 2504 2505 2506 2507 2508 2509 2510 2511 2512 2513 2514 2515 2516 2517 2518 2519 2520 2521 2522 2523 2524 2525 2526 2527 2528 2529 2530 2531 2532 2533 2534 2535 2536 2537 2538 2539 2540 2541 2542 2543 2544 2545 2546 2547 2548 2549 2550 2551 2552 2553 2554 2555 2556 2557 2558 2559 2560 2561 2562 2563 2564 2565 2566 2567 2568 2569 2570 2571 2572 2573 2574 2575 2576 2577 2578 2579 2580 2581 2582 2583 2584 2585 2586 2587 2588 2589 2590 2591 2592 2593 2594 2595 2596 2597 2598 2599 2600 2601 2602 2603 2604 2605 2606 2607 2608 2609 2610 2611 2612 2613 2614 2615 2616 2617 2618 2619 2620 2621 2622 2623 2624 2625 2626 2627 2628 2629 2630 2631 2632 2633 2634 2635 2636 2637 2638 2639 2640 2641 2642 2643 2644 2645 2646 2647 2648 2649 2650 2651 2652 2653 2654 2655 2656 2657 2658 2659 2660 2661 2662 2663 2664 2665 2666 2667 2668 2669 2670 2671 2672 2673 2674 2675 2676 2677 2678 2679 2680 2681 2682 2683 2684 2685 2686 2687 2688 2689 2690 2691 2692 2693 2694 2695 2696 2697 2698 2699 2700 2701 2702 2703 2704 2705 2706 2707 2708 2709 2710 2711 2712 2713 2714 2715 2716 2717 2718 2719 2720 2721 2722 2723 2724 2725 2726 2727 2728 2729 2730 2731 2732 2733 2734 2735 2736 2737 2738 2739 2740 2741 2742 2743 2744 2745 2746 2747 2748 2749 2750 2751 2752 2753 2754 2755 2756 2757 2758 2759 2760 2761 2762 2763 2764 2765 2766 2767 2768 2769 2770 2771 2772 2773 2774 2775 2776 2777 2778 2779 2780 2781 2782 2783 2784 2785 2786 2787 2788 2789 2790 2791 2792 2793 2794 2795 2796 2797 2798 2799 2800 2801 2802 2803 2804 2805 2806 2807 2808 2809 2810 2811 2812 2813 2814 2815 2816 2817 2818 2819 2820 2821 2822 2823 2824 2825 2826 2827 2828 2829 2830 2831 2832 2833 2834 2835 2836 2837 2838 2839 2840 2841 2842 2843 2844 2845 2846 2847 2848 2849 2850 2851 2852 2853 2854 2855 2856 2857 2858 2859 2860 2861 2862 2863 2864 2865 2866 2867 2868 2869 2870 2871 2872 2873 2874 2875 2876 2877 2878 2879 2880 2881 2882 2883 2884 2885 2886 2887 2888 2889 2890 2891 2892 2893 2894 2895 2896 2897 2898 2899 2900 2901 2902 2903 2904 2905 2906 2907 2908 2909 2910 2911 2912 2913 2914 2915 2916 2917 2918 2919 2920 2921 2922 2923 2924 2925 2926 2927 2928 2929 2930 2931 2932 2933 2934 2935 2936 2937 2938 2939 2940 2941 2942 2943 2944 2945 2946 2947 2948 2949 2950 2951 2952 2953 2954 2955 2956 2957 2958 2959 2960 2961 2962 2963 2964 2965 2966 2967 2968 2969 2970 2971 2972 2973 2974 2975 2976 2977 2978 2979 2980 2981 2982 2983 2984 2985 2986 2987 2988 2989 2990 2991 2992 2993 2994 2995 2996 2997 2998 2999 3000 3001 3002 3003 3004 3005 3006 3007 3008 3009 3010 3011 3012 3013 3014 3015 3016 3017 3018 3019 3020 3021 3022 3023 3024 3025 3026 3027 3028 3029 3030 3031 3032 3033 3034 3035 3036 3037 3038 3039 3040 3041 3042 3043 3044 3045 3046 3047 3048 3049 3050 3051 3052 3053 3054 3055 3056 3057 3058 3059 3060 3061 3062 3063 3064 3065 3066 3067 3068 3069 3070 3071 3072 3073 3074 3075 3076 3077 3078 3079 3080 3081 3082 3083 3084 3085 3086 3087 3088 3089 3090 3091 3092 3093 3094 3095 3096 3097 3098 3099 3100 3101 3102 3103 3104 3105 3106 3107 3108 3109 3110 3111 3112 3113 3114 3115 3116 3117 3118 3119 3120 3121 3122 3123 3124 3125 3126 3127 3128 3129 3130 3131 3132 3133 3134 3135 3136 3137 3138 3139 3140 3141 3142 3143 3144 3145 3146 3147 3148 3149 3150 3151 3152 3153 3154 3155 3156 3157 3158 3159 3160 3161 3162 3163 3164 3165 3166 3167 3168 3169 3170 3171 3172 3173 3174 3175 3176 3177 3178 3179 3180 3181 3182 3183 3184 3185 3186 3187 3188 3189 3190 3191 3192 3193 3194 3195 3196 3197 3198 3199 3200 3201 3202 3203 3204 3205 3206 3207 3208 3209 3210 3211 3212 3213 3214 3215 3216 3217 3218 3219 3220 3221 3222 3223 3224 3225 3226 3227 3228 3229 3230 3231 3232 3233 3234 3235 3236 3237 3238 3239 3240 3241 3242 3243 3244 3245 3246 3247 3248 3249 3250 3251 3252 3253 3254 3255 3256 3257 3258 3259 3260 3261 3262 3263 3264 3265 3266 3267 3268 3269 3270 3271 3272 3273 3274 3275 3276 3277 3278 3279 3280 3281 3282 3283 3284 3285 3286 3287 3288 3289 3290 3291 3292 3293 3294 3295 3296 3297 3298 3299 3300 3301 3302 3303 3304 3305 3306 3307 3308 3309 3310 3311 3312 3313 3314 3315 3316 3317 3318 3319 3320 3321 3322 3323 3324 3325 3326 3327 3328 3329 3330 3331 3332 3333 3334 3335 3336 3337 3338 3339 3340 3341 3342 3343 3344 3345 3346 3347 3348 3349 3350 3351 3352 3353 3354 3355 3356 3357 3358 3359 3360 3361 3362 3363 3364 3365 3366 3367 3368 3369 3370 3371 3372 3373 3374 3375 3376 3377 3378 3379 3380 3381 3382 3383 3384 3385 3386 3387 3388 3389 3390 3391 3392 3393 3394 3395 3396 3397 3398 3399 3400 3401 3402 3403 3404 3405 3406 3407 3408 3409 3410 3411 3412 3413 3414 3415 3416 3417 3418 3419 3420 3421 3422 3423 3424 3425 3426 3427 3428 3429 3430 3431 3432 3433 3434 3435 3436 3437 3438 3439 3440 3441 3442 3443 3444 3445 3446 3447 3448 3449 3450 3451 3452 3453 3454 3455 3456 3457 3458 3459 3460 3461 3462 3463 3464 3465 3466 3467 3468 3469 3470 3471 3472 3473 3474 3475 3476 3477 3478 3479 3480 3481 3482 3483 3484 3485 3486 3487 3488 3489 3490 3491 3492 3493 3494 3495 3496 3497 3498 3499 3500 3501 3502 3503 3504 3505 3506 3507 3508 3509 3510 3511 3512 3513 3514 3515 3516 3517 3518 3519 3520 3521 3522 3523 3524 3525 3526 3527 3528 3529 3530 3531 3532 3533 3534 3535 3536 3537 3538 3539 3540 3541 3542 3543 3544 3545 3546 3547 3548 3549 3550 3551 3552 3553 3554 3555 3556 3557 3558 3559 3560 3561 3562 3563 3564 3565 3566 3567 3568 3569 3570 3571 3572 3573 3574 3575 3576 3577 3578 3579 3580 3581 3582 3583 3584 3585 3586 3587 3588 3589 3590 3591 3592 3593 3594 3595 3596 3597 3598 3599 3600 3601 3602 3603 3604 3605 3606 3607 3608 3609 3610 3611 3612 3613 3614 3615 3616 3617 3618 3619 3620 3621 3622 3623 3624 3625 3626 3627 3628 3629 3630 3631 3632 3633 3634 3635 3636 3637 3638 3639 3640 3641 3642 3643 3644 3645 3646 3647 3648 3649 3650 3651 3652 3653 3654 3655 3656 3657 3658 3659 3660 3661 3662 3663 3664 3665 3666 3667 3668 3669 3670 3671 3672 3673 3674 3675 3676 3677 3678 3679 3680 3681 3682 3683 3684 3685 3686 3687 3688 3689 3690 3691 3692 3693 3694 3695 3696 3697 3698 3699 3700 3701 3702 3703 3704 3705 3706 3707 3708 3709 3710 3711 3712 3713 3714 3715 3716 3717 3718 3719 3720 3721 3722 3723 3724 3725 3726 3727 3728 3729 3730 3731 3732 3733 3734 3735 3736 3737 3738 3739 3740 3741 3742 3743 3744 3745 3746 3747 3748 3749 3750 3751 3752 3753 3754 3755 3756 3757 3758 3759 3760 3761 3762 3763 3764 3765 3766 3767 3768 3769 3770 3771 3772 3773 3774 3775 3776 3777 3778 3779 3780 3781 3782 3783 3784 3785 3786 3787 3788 3789 3790 3791 3792 3793 3794 3795 3796 3797 3798 3799 3800 3801 3802 3803 3804 3805 3806 3807 3808 3809 3810 3811 3812 3813 3814 3815 3816 3817 3818 3819 3820 3821 3822 3823 3824 3825 3826 3827 3828 3829 3830 3831 3832 3833 3834 3835 3836 3837 3838 3839 3840 3841 3842 3843 3844 3845 3846 3847 3848 3849 3850 3851 3852 3853 3854 3855 3856 3857 3858 3859 3860 3861 3862 3863 3864 3865 3866 3867 3868 3869 3870 3871 3872 3873 3874 3875 3876 3877 3878 3879 3880 3881 3882 3883 3884 3885 3886 3887 3888 3889 3890 3891 3892 3893 3894 3895 3896 3897 3898 3899 3900 3901 3902 3903 3904 3905 3906 3907 3908 3909 3910 3911 3912 3913 3914 3915 3916 3917 3918 3919 3920 3921 3922 3923 3924 3925 3926 3927 3928 3929 3930 3931 3932 3933 3934 3935 3936 3937 3938 3939 3940 3941 3942 3943 3944 3945 3946 3947 3948 3949 3950 3951 3952 3953 3954 3955 3956 3957 3958 3959 3960 3961 3962 3963 3964 3965 3966 3967 3968 3969 3970 3971 3972 3973 3974 3975 3976 3977 3978 3979 3980 3981 3982 3983 3984 3985 3986 3987 3988 3989 3990 3991 3992 3993 3994 3995 3996 3997 3998 3999 4000 4001 4002 4003 4004 4005 4006 4007 4008 4009 4010 4011 4012 4013 4014 4015 4016 4017 4018 4019 4020 4021 4022 4023 4024 4025 4026 4027 4028 4029 4030 4031 4032 4033 4034 4035 4036 4037 4038 4039 4040 4041 4042 4043 4044 4045 4046 4047 4048 4049 4050 4051 4052 4053 4054 4055 4056 4057 4058 4059 4060 4061 4062 4063 4064 4065 4066 4067 4068 4069 4070 4071 4072 4073 4074 4075 4076 4077 4078 4079 4080 4081 4082 4083 4084 4085 4086 4087 4088 4089 4090 4091 4092 4093 4094 4095 4096 4097 4098 4099 4100 4101 4102 4103 4104 4105 4106 4107 4108 4109 4110 4111 4112 4113 4114 4115 4116 4117 4118 4119 4120 4121 4122 4123 4124 4125 4126 4127 4128 4129 4130 4131 4132 4133 4134 4135 4136 4137 4138 4139 4140 4141 4142 4143 4144 4145 4146 4147 4148 4149 4150 4151 4152 4153 4154 4155 4156 4157 4158 4159 4160 4161 4162 4163 4164 4165 4166 4167 4168 4169 4170 4171 4172 4173 4174 4175 4176 4177 4178 4179 4180 4181 4182 4183 4184 4185 4186 4187 4188 4189 4190 4191 4192 4193 4194 4195 4196 4197 4198 4199 4200 4201 4202 4203 4204 4205 4206 4207 4208 4209 4210 4211 4212 4213 4214 4215 4216 4217 4218 4219 4220 4221 4222 4223 4224 4225 4226 4227 4228 4229 4230 4231 4232 4233 4234 4235 4236 4237 4238 4239 4240 4241 4242 4243 4244 4245 4246 4247 4248 4249 4250 4251 4252 4253 4254 4255 4256 4257 4258 4259 4260 4261 4262 4263 4264 4265 4266 4267 4268 4269 4270 4271 4272 4273 4274 4275 4276 4277 4278 4279 4280 4281 4282 4283 4284 4285 4286 4287 4288 4289 4290 4291 4292 4293 4294 4295 4296 4297 4298 4299 4300 4301 4302 4303 4304 4305 4306 4307 4308 4309 4310 4311 4312 4313 4314 4315 4316 4317 4318 4319 4320 4321 4322 4323 4324 4325 4326 4327 4328 4329 4330 4331 4332 4333 4334 4335 4336 4337 4338 4339 4340 4341 4342 4343 4344 4345 4346 4347 4348 4349 4350 4351 4352 4353 4354 4355 4356 4357 4358 4359 4360 4361 4362 4363 4364 4365 4366 4367 4368 4369 4370 4371 4372 4373 4374 4375 4376 4377 4378 4379 4380 4381 4382 4383 4384 4385 4386 4387 4388 4389 4390 4391 4392 4393 4394 4395 4396 4397 4398 4399 4400 4401 4402 4403 4404 4405 4406 4407 4408 4409 4410 4411 4412 4413 4414 4415 4416 4417 4418 4419 4420 4421 4422 4423 4424 4425 4426 4427 4428 4429 4430 4431 4432 4433 4434 4435 4436 4437 4438 4439 4440 4441 4442 4443 4444 4445 4446 4447 4448 4449 4450 4451 4452 4453 4454 4455 4456 4457 4458 4459 4460 4461 4462 4463 4464 4465 4466 4467 4468 4469 4470 4471 4472 4473 4474 4475 4476 4477 4478 4479 4480 4481 4482 4483 4484 4485 4486 4487 4488 4489 4490 4491 4492 4493 4494 4495 4496 4497 4498 4499 4500 4501 4502 4503 4504 4505 4506 4507 4508 4509 4510 4511 4512 4513 4514 4515 4516 4517 4518 4519 4520 4521 4522 4523 4524 4525 4526 4527 4528 4529 4530 4531 4532 4533 4534 4535 4536 4537 4538 4539 4540 4541 4542 4543 4544 4545 4546 4547 4548 4549 4550 4551 4552 4553 4554 4555 4556 4557 4558 4559 4560 4561 4562 4563 4564 4565 4566 4567 4568 4569 4570 4571 4572 4573 4574 4575 4576 4577 4578 4579 4580 4581 4582 4583 4584 4585 4586 4587 4588 4589 4590 4591 4592 4593 4594 4595 4596 4597 4598 4599 4600 4601 4602 4603 4604 4605 4606 4607 4608 4609 4610 4611 4612 4613 4614 4615 4616 4617 4618 4619 4620 4621 4622 4623 4624 4625 4626 4627 4628 4629 4630 4631 4632 4633 4634 4635 4636 4637 4638 4639 4640 4641 4642 4643 4644 4645 4646 4647 4648 4649 4650 4651 4652 4653 4654 4655 4656 4657 4658 4659 4660 4661 4662 4663 4664 4665 4666 4667 4668 4669 4670 4671 4672 4673 4674 4675 4676 4677 4678 4679 4680 4681 4682 4683 4684 4685 4686 4687 4688 4689 4690 4691 4692 4693 4694 4695 4696 4697 4698 4699 4700 4701 4702 4703 4704 4705 4706 4707 4708 4709 4710 4711 4712 4713 4714 4715 4716 4717 4718 4719 4720 4721 4722 4723 4724 4725 4726 4727 4728 4729 4730 4731 4732 4733 4734 4735 4736 4737 4738 4739 4740 4741 4742 4743 4744 4745 4746 4747 4748 4749 4750 4751 4752 4753 4754 4755 4756 4757 4758 4759 4760 4761 4762 4763 4764 4765 4766 4767 4768 4769 4770 4771 4772 4773 4774 4775 4776 4777 4778 4779 4780 4781 4782 4783 4784 4785 4786 4787 4788 4789 4790 4791 4792 4793 4794 4795 4796 4797 4798 4799 4800 4801 4802 4803 4804 4805 4806 4807 4808 4809 4810 4811 4812 4813 4814 4815 4816 4817 4818 4819 4820 4821 4822 4823 4824 4825 4826 4827 4828 4829 4830 4831 4832 4833 4834 4835 4836 4837 4838 4839 4840 4841 4842 4843 4844 4845 4846 4847 4848 4849 4850 4851 4852 4853 4854 4855 4856 4857 4858 4859 4860 4861 4862 4863 4864 4865 4866 4867 4868 4869 4870 4871 4872 4873 4874 4875 4876 4877 4878 4879 4880 4881 4882 4883 4884 4885 4886 4887 4888 4889 4890 4891 4892 4893 4894 4895 4896 4897 4898 4899 4900 4901 4902 4903 4904 4905 4906 4907 4908 4909 4910 4911 4912 4913 4914 4915 4916 4917 4918 4919 4920 4921 4922 4923 4924 4925 4926 4927 4928 4929 4930 4931 4932 4933 4934 4935 4936 4937 4938 4939 4940 4941 4942 4943 4944 4945 4946 4947 4948 4949 4950 4951 4952 4953 4954 4955 4956 4957 4958 4959 4960 4961 4962 4963 4964 4965 4966 4967 4968 4969 4970 4971 4972 4973 4974 4975 4976 4977 4978 4979 4980 4981 4982 4983 4984 4985 4986 4987 4988 4989 4990 4991 4992 4993 4994 4995 4996 4997 4998 4999 5000 5001 5002 5003 5004 5005 5006 5007 5008 5009 5010 5011 5012 5013 5014 5015 5016 5017 5018 5019 5020 5021 5022 5023 5024 5025 5026 5027 5028 5029 5030 5031 5032 5033 5034 5035 5036 5037 5038 5039 5040 5041 5042 5043 5044 5045 5046 5047 5048 5049 5050 5051 5052 5053 5054 5055 5056 5057 5058 5059 5060 5061 5062 5063 5064 5065 5066 5067 5068 5069 5070 5071 5072 5073 5074 5075 5076 5077 5078 5079 5080 5081 5082 5083 5084 5085 5086 5087 5088 5089 5090 5091 5092 5093 5094 5095 5096 5097 5098 5099 5100 5101 5102 5103 5104 5105 5106 5107 5108 5109 5110 5111 5112 5113 5114 5115 5116 5117 5118 5119 5120 5121 5122 5123 5124 5125 5126 5127 5128 5129 5130 5131 5132 5133 5134 5135 5136 5137 5138 5139 5140 5141 5142 5143 5144 5145 5146 5147 5148 5149 5150 5151 5152 5153 5154 5155 5156 5157 5158 5159 5160 5161 5162 5163 5164 5165 5166 5167 5168 5169 5170 5171 5172 5173 5174 5175 5176 5177 5178 5179 5180 5181 5182 5183 5184 5185 5186 5187 5188 5189 5190 5191 5192 5193 5194 5195 5196 5197 5198 5199 5200 5201 5202 5203 5204 5205 5206 5207 5208 5209 5210 5211 5212 5213 5214 5215 5216 5217 5218 5219 5220 5221 5222 5223 5224 5225 5226 5227 5228 5229 5230 5231 5232 5233 5234 5235 5236 5237 5238 5239 5240 5241 5242 5243 5244 5245 5246 5247 5248 5249 5250 5251 5252 5253 5254 5255 5256 5257 5258 5259 5260 5261 5262 5263 5264 5265 5266 5267 5268 5269 5270 5271 5272 5273 5274 5275 5276 5277 5278 5279 5280 5281 5282 5283 5284 5285 5286 5287 5288 5289 5290 5291 5292 5293 5294 5295 5296 5297 5298 5299 5300 5301 5302 5303 5304 5305 5306 5307 5308 5309 5310 5311 5312 5313 5314 5315 5316 5317 5318 5319 5320 5321 5322 5323 5324 5325 5326 5327 5328 5329 5330 5331 5332 5333 5334 5335 5336 5337 5338 5339 5340 5341 5342 5343 5344 5345 5346 5347 5348 5349 5350 5351 5352 5353 5354 5355 5356 5357 5358 5359 5360 5361 5362 5363 5364 5365 5366 5367 5368 5369 5370 5371 5372 5373 5374 5375 5376 5377 5378 5379 5380 5381 5382 5383 5384 5385 5386 5387 5388 5389 5390 5391 5392 5393 5394 5395 5396 5397 5398 5399 5400 5401 5402 5403 5404 5405 5406 5407 5408 5409 5410 5411 5412 5413 5414 5415 5416 5417 5418 5419 5420 5421 5422 5423 5424 5425 5426 5427 5428 5429 5430 5431 5432 5433 5434 5435 5436 5437 5438 5439 5440 5441 5442 5443 5444 5445 5446 5447 5448 5449 5450 5451 5452 5453 5454 5455 5456 5457 5458 5459 5460 5461 5462 5463 5464 5465 5466 5467 5468 5469 5470 5471 5472 5473 5474 5475 5476 5477 5478 5479 5480 5481 5482 5483 5484 5485 5486 5487 5488 5489 5490 5491 5492 5493 5494 5495 5496 5497 5498 5499 5500 5501 5502 5503 5504 5505 5506 5507 5508 5509 5510 5511 5512 5513 5514 5515 5516 5517 5518 5519 5520 5521 5522 5523 5524 5525 5526 5527 5528 5529 5530 5531 5532 5533 5534 5535 5536 5537 5538 5539 5540 5541 5542 5543 5544 5545 5546 5547 5548 5549 5550 5551 5552 5553 5554 5555 5556 5557 5558 5559 5560 5561 5562 5563 5564 5565 5566 5567 5568 5569 5570 5571 5572 5573 5574 5575 5576 5577 5578 5579 5580 5581 5582 5583 5584 5585 5586 5587 5588 5589 5590 5591 5592 5593 5594 5595 5596 5597 5598 5599 5600 5601 5602 5603 5604 5605 5606 5607 5608 5609 5610 5611 5612 5613 5614 5615 5616 5617 5618 5619 5620 5621 5622 5623 5624 5625 5626 5627 5628 5629 5630 5631 5632 5633 5634 5635 5636 5637 5638 5639 5640 5641 5642 5643 5644 5645 5646 5647 5648 5649 5650 5651 5652 5653 5654 5655 5656 5657 5658 5659 5660 5661 5662 5663 5664 5665 5666 5667 5668 5669 5670 5671 5672 5673 5674 5675 5676 5677 5678 5679 5680 5681 5682 5683 5684 5685 5686 5687 5688 5689 5690 5691 5692 5693 5694 5695 5696 5697 5698 5699 5700 5701 5702 5703 5704 5705 5706 5707 5708 5709 5710 5711 5712 5713 5714 5715 5716 5717 5718 5719 5720 5721 5722 5723 5724 5725 5726 5727 5728 5729 5730 5731 5732 5733 5734 5735 5736 5737 5738 5739 5740 5741 5742 5743 5744 5745 5746 5747 5748 5749 5750 5751 5752 5753 5754 5755 5756 5757 5758 5759 5760 5761 5762 5763 5764 5765 5766 5767 5768 5769 5770 5771 5772 5773 5774 5775 5776 5777 5778 5779 5780 5781 5782 5783 5784 5785 5786 5787 5788 5789 5790 5791 5792 5793 5794 5795 5796 5797 5798 5799 5800 5801 5802 5803 5804 5805 5806 5807 5808 5809 5810 5811 5812 5813 5814 5815 5816 5817 5818 5819 5820 5821 5822 5823 5824 5825 5826 5827 5828 5829 5830 5831 5832 5833 5834 5835 5836 5837 5838 5839 5840 5841 5842 5843 5844 5845 5846 5847 5848 5849 5850 5851 5852 5853 5854 5855 5856 5857 5858 5859 5860 5861 5862 5863 5864 5865 5866 5867 5868 5869 5870 5871 5872 5873 5874 5875 5876 5877 5878 5879 5880 5881 5882 5883 5884 5885 5886 5887 5888 5889 5890 5891 5892 5893 5894 5895 5896 5897 5898 5899 5900 5901 5902 5903 5904 5905 5906 5907 5908 5909 5910 5911 5912 5913 5914 5915 5916 5917 5918 5919 5920 5921 5922 5923 5924 5925 5926 5927 5928 5929 5930 5931 5932 5933 5934 5935 5936 5937 5938 5939 5940 5941 5942 5943 5944 5945 5946 5947 5948 5949 5950 5951 5952 5953 5954 5955 5956 5957 5958 5959 5960 5961 5962 5963 5964 5965 5966 5967 5968 5969 5970 5971 5972 5973 5974 5975 5976 5977 5978 5979 5980 5981 5982 5983 5984 5985 5986 5987 5988 5989 5990 5991 5992 5993 5994 5995 5996 5997 5998 5999 6000 6001 6002 6003 6004 6005 6006 6007 6008 6009 6010 6011 6012 6013 6014 6015 6016 6017 6018 6019 6020 6021 6022 6023 6024 6025 6026 6027 6028 6029 6030 6031 6032 6033 6034 6035 6036 6037 6038 6039 6040 6041 6042 6043 6044 6045 6046 6047 6048 6049 6050 6051 6052 6053 6054 6055 6056 6057 6058 6059 6060 6061 6062 6063 6064 6065 6066 6067 6068 6069 6070 6071 6072 6073 6074 6075 6076 6077 6078 6079 6080 6081 6082 6083 6084 6085 6086 6087 6088 6089 6090 6091 6092 6093 6094 6095 6096 6097 6098 6099 6100 6101 6102 6103 6104 6105 6106 6107 6108 6109 6110 6111 6112 6113 6114 6115 6116 6117 6118 6119 6120 6121 6122 6123 6124 6125 6126 6127 6128 6129 6130 6131 6132 6133 6134 6135 6136 6137 6138 6139 6140 6141 6142 6143 6144 6145 6146 6147 6148 6149 6150 6151 6152 6153 6154 6155 6156 6157 6158 6159 6160 6161 6162 6163 6164 6165 6166 6167 6168 6169 6170 6171 6172 6173 6174 6175 6176 6177 6178 6179 6180 6181 6182 6183 6184 6185 6186 6187 6188 6189 6190 6191 6192 6193 6194 6195 6196 6197 6198 6199 6200 6201 6202 6203 6204 6205 6206 6207 6208 6209 6210 6211 6212 6213 6214 6215 6216 6217 6218 6219 6220 6221 6222 6223 6224 6225 6226 6227 6228 6229 6230 6231 6232 6233 6234 6235 6236 6237 6238 6239 6240 6241 6242 6243 6244 6245 6246 6247 6248 6249 6250 6251 6252 6253 6254 6255 6256 6257 6258 6259 6260 6261 6262 6263 6264 6265 6266 6267 6268 6269 6270 6271 6272 6273 6274 6275 6276 6277 6278 6279 6280 6281 6282 6283 6284 6285 6286 6287 6288 6289 6290 6291 6292 6293 6294 6295 6296 6297 6298 6299 6300 6301 6302 6303 6304 6305 6306 6307 6308 6309 6310 6311 6312 6313 6314 6315 6316 6317 6318 6319 6320 6321 6322 6323 6324 6325 6326 6327 6328 6329 6330 6331 6332 6333 6334 6335 6336 6337 6338 6339 6340 6341 6342 6343 6344 6345 6346 6347 6348 6349 6350 6351 6352 6353 6354 6355 6356 6357 6358 6359 6360 6361 6362 6363 6364 6365 6366 6367 6368 6369 6370 6371 6372 6373 6374 6375 6376 6377 6378 6379 6380 6381 6382 6383 6384 6385 6386 6387 6388 6389 6390 6391 6392 6393 6394 6395 6396 6397 6398 6399 6400 6401 6402 6403 6404 6405 6406 6407 6408 6409 6410 6411 6412 6413 6414 6415 6416 6417 6418 6419 6420 6421 6422 6423 6424 6425 6426 6427 6428 6429 6430 6431 6432 6433 6434 6435 6436 6437 6438 6439 6440 6441 6442 6443 6444 6445 6446 6447 6448 6449 6450 6451 6452 6453 6454 6455 6456 6457 6458 6459 6460 6461 6462 6463 6464 6465 6466 6467 6468 6469 6470 6471 6472 6473 6474 6475 6476 6477 6478 6479 6480 6481 6482 6483 6484 6485 6486 6487 6488 6489 6490 6491 6492 6493 6494 6495 6496 6497 6498 6499 6500 6501 6502 6503 6504 6505 6506 6507 6508 6509 6510 6511 6512 6513 6514 6515 6516 6517 6518 6519 6520 6521 6522 6523 6524 6525 6526 6527 6528 6529 6530 6531 6532 6533 6534 6535 6536 6537 6538 6539 6540 6541 6542 6543 6544 6545 6546 6547 6548 6549 6550 6551 6552 6553 6554 6555 6556 6557 6558 6559 6560 6561 6562 6563 6564 6565 6566 6567 6568 6569 6570 6571 6572 6573 6574 6575 6576 6577 6578 6579 6580 6581 6582 6583 6584 6585 6586 6587 6588 6589 6590 6591 6592 6593 6594 6595 6596 6597 6598 6599 6600 6601 6602 6603 6604 6605 6606 6607 6608 6609 6610 6611 6612 6613 6614 6615 6616 6617 6618 6619 6620 6621 6622 6623 6624 6625 6626 6627 6628 6629 6630 6631 6632 6633 6634 6635 6636 6637 6638 6639 6640 6641 6642 6643 6644 6645 6646 6647 6648 6649 6650 6651 6652 6653 6654 6655 6656 6657 6658 6659 6660 6661 6662 6663 6664 6665 6666 6667 6668 6669 6670 6671 6672 6673 6674 6675 6676 6677 6678 6679 6680 6681 6682 6683 6684 6685 6686 6687 6688 6689 6690 6691 6692 6693 6694 6695 6696 6697 6698 6699 6700 6701 6702 6703 6704 6705 6706 6707 6708 6709 6710 6711 6712 6713 6714 6715 6716 6717 6718 6719 6720 6721 6722 6723 6724 6725 6726 6727 6728 6729 6730 6731 6732 6733 6734 6735 6736 6737 6738 6739 6740 6741 6742 6743 6744 6745 6746 6747 6748 6749 6750 6751 6752 6753 6754 6755 6756 6757 6758 6759 6760 6761 6762 6763 6764 6765 6766 6767 6768 6769 6770 6771 6772 6773 6774 6775 6776 6777 6778 6779 6780 6781 6782 6783 6784 6785 6786 6787 6788 6789 6790 6791 6792 6793 6794 6795 6796 6797 6798 6799 6800 6801 6802 6803 6804 6805 6806 6807 6808 6809 6810 6811 6812 6813 6814 6815 6816 6817 6818 6819 6820 6821 6822 6823 6824 6825 6826 6827 6828 6829 6830 6831 6832 6833 6834 6835 6836 6837 6838 6839 6840 6841 6842 6843 6844 6845 6846 6847 6848 6849 6850 6851 6852 6853 6854 6855 6856 6857 6858 6859 6860 6861 6862 6863 6864 6865 6866 6867 6868 6869 6870 6871 6872 6873 6874 6875 6876 6877 6878 6879 6880 6881 6882 6883 6884 6885 6886 6887 6888 6889 6890 6891 6892 6893 6894 6895 6896 6897 6898 6899 6900 6901 6902 6903 6904 6905 6906 6907 6908 6909 6910 6911 6912 6913 6914 6915 6916 6917 6918 6919 6920 6921 6922 6923 6924 6925 6926 6927 6928 6929 6930 6931 6932 6933 6934 6935 6936 6937 6938 6939 6940 6941 6942 6943 6944 6945 6946 6947 6948 6949 6950 6951 6952 6953 6954 6955 6956 6957 6958 6959 6960 6961 6962 6963 6964 6965 6966 6967 6968 6969 6970 6971 6972 6973 6974 6975 6976 6977 6978 6979 6980 6981 6982 6983 6984 6985 6986 6987 6988 6989 6990 6991 6992 6993 6994 6995 6996 6997 6998 6999 7000 7001 7002 7003 7004 7005 7006 7007 7008 7009 7010 7011 7012 7013 7014 7015 7016 7017 7018 7019 7020 7021 7022 7023 7024 7025 7026 7027 7028 7029 7030 7031 7032 7033 7034 7035 7036 7037 7038 7039 7040 7041 7042 7043 7044 7045 7046 7047 7048 7049 7050 7051 7052 7053 7054 7055 7056 7057 7058 7059 7060 7061 7062 7063 7064 7065 7066 7067 7068 7069 7070 7071 7072 7073 7074 7075 7076 7077 7078 7079 7080 7081 7082 7083 7084 7085 7086 7087 7088 7089 7090 7091 7092 7093 7094 7095 7096 7097 7098 7099 7100 7101 7102 7103 7104 7105 7106 7107 7108 7109 7110 7111 7112 7113 7114 7115 7116 7117 7118 7119 7120 7121 7122 7123 7124 7125 7126 7127 7128 7129 7130 7131 7132 7133 7134 7135 7136 7137 7138 7139 7140 7141 7142 7143 7144 7145 7146 7147 7148 7149 7150 7151 7152 7153 7154 7155 7156 7157 7158 7159 7160 7161 7162 7163 7164 7165 7166 7167 7168 7169 7170 7171 7172 7173 7174 7175 7176 7177 7178 7179 7180 7181 7182 7183 7184 7185 7186 7187 7188 7189 7190 7191 7192 7193 7194 7195 7196 7197 7198 7199 7200 7201 7202 7203 7204 7205 7206 7207 7208 7209 7210 7211 7212 7213 7214 7215 7216 7217 7218 7219 7220 7221 7222 7223 7224 7225 7226 7227 7228 7229 7230 7231 7232 7233 7234 7235 7236 7237 7238 7239 7240 7241 7242 7243 7244 7245 7246 7247 7248 7249 7250 7251 7252 7253 7254 7255 7256 7257 7258 7259 7260 7261 7262 7263 7264 7265 7266 7267 7268 7269 7270 7271 7272 7273 7274 7275 7276 7277 7278 7279 7280 7281 7282 7283 7284 7285 7286 7287 7288 7289 7290 7291 7292 7293 7294 7295 7296 7297 7298 7299 7300 7301 7302 7303 7304 7305 7306 7307 7308 7309 7310 7311 7312 7313 7314 7315 7316 7317 7318 7319 7320 7321 7322 7323 7324 7325 7326 7327 7328 7329 7330 7331 7332 7333 7334 7335 7336 7337 7338 7339 7340 7341 7342 7343 7344 7345 7346 7347 7348 7349 7350 7351 7352 7353 7354 7355 7356 7357 7358 7359 7360 7361 7362 7363 7364 7365 7366 7367 7368 7369 7370 7371 7372 7373 7374 7375 7376 7377 7378 7379 7380 7381 7382 7383 7384 7385 7386 7387 7388 7389 7390 7391 7392 7393 7394 7395 7396 7397 7398 7399 7400 7401 7402 7403 7404 7405 7406 7407 7408 7409 7410 7411 7412 7413 7414 7415 7416 7417 7418 7419 7420 7421 7422 7423 7424 7425 7426 7427 7428 7429 7430 7431 7432 7433 7434 7435 7436 7437 7438 7439 7440 7441 7442 7443 7444 7445 7446 7447 7448 7449 7450 7451 7452 7453 7454 7455 7456 7457 7458 7459 7460 7461 7462 7463 7464 7465 7466 7467 7468 7469 7470 7471 7472 7473 7474 7475 7476 7477 7478 7479 7480 7481 7482 7483 7484 7485 7486 7487 7488 7489 7490 7491 7492 7493 7494 7495 7496 7497 7498 7499 7500 7501 7502 7503 7504 7505 7506 7507 7508 7509 7510 7511 7512 7513 7514 7515 7516 7517 7518 7519 7520 7521 7522 7523 7524 7525 7526 7527 7528 7529 7530 7531 7532 7533 7534 7535 7536 7537 7538 7539 7540 7541 7542 7543 7544 7545 7546 7547 7548 7549 7550 7551 7552 7553 7554 7555 7556 7557 7558 7559 7560 7561 7562 7563 7564 7565 7566 7567 7568 7569 7570 7571 7572 7573 7574 7575 7576 7577 7578 7579 7580 7581 7582 7583 7584 7585 7586 7587 7588 7589 7590 7591 7592 7593 7594 7595 7596 7597 7598 7599 7600 7601 7602 7603 7604 7605 7606 7607 7608 7609 7610 7611 7612 7613 7614 7615 7616 7617 7618 7619 7620 7621 7622 7623 7624 7625 7626 7627 7628 7629 7630 7631 7632 7633 7634 7635 7636 7637 7638 7639 7640 7641 7642 7643 7644 7645 7646 7647 7648 7649 7650 7651 7652 7653 7654 7655 7656 7657 7658 7659 7660 7661 7662 7663 7664 7665 7666 7667 7668 7669 7670 7671 7672 7673 7674 7675 7676 7677 7678 7679 7680 7681 7682 7683 7684 7685 7686 7687 7688 7689 7690 7691 7692 7693 7694 7695 7696 7697 7698 7699 7700 7701 7702 7703 7704 7705 7706 7707 7708 7709 7710 7711 7712 7713 7714 7715 7716 7717 7718 7719 7720 7721 7722 7723 7724 7725 7726 7727 7728 7729 7730 7731 7732 7733 7734 7735 7736 7737 7738 7739 7740 7741 7742 7743 7744 7745 7746 7747 7748 7749 7750 7751 7752 7753 7754 7755 7756 7757 7758 7759 7760 7761 7762 7763 7764 7765 7766 7767 7768 7769 7770 7771 7772 7773 7774 7775 7776 7777 7778 7779 7780 7781 7782 7783 7784 7785 7786 7787 7788 7789 7790 7791 7792 7793 7794 7795 7796 7797 7798 7799 7800 7801 7802 7803 7804 7805 7806 7807 7808 7809 7810 7811 7812 7813 7814 7815 7816 7817 7818 7819 7820 7821 7822 7823 7824 7825 7826 7827 7828 7829 7830 7831 7832 7833 7834 7835 7836 7837 7838 7839 7840 7841 7842 7843 7844 7845 7846 7847 7848 7849 7850 7851 7852 7853 7854 7855 7856 7857 7858 7859 7860 7861 7862 7863 7864 7865 7866 7867 7868 7869 7870 7871 7872 7873 7874 7875 7876 7877 7878 7879 7880 7881 7882 7883 7884 7885 7886 7887 7888 7889 7890 7891 7892 7893 7894 7895 7896 7897 7898 7899 7900 7901 7902 7903 7904 7905 7906 7907 7908 7909 7910 7911 7912 7913 7914 7915 7916 7917 7918 7919 7920 7921 7922 7923 7924 7925 7926 7927 7928 7929 7930 7931 7932 7933 7934 7935 7936 7937 7938 7939 7940 7941 7942 7943 7944 7945 7946 7947 7948 7949 7950 7951 7952 7953 7954 7955 7956 7957 7958 7959 7960 7961 7962 7963 7964 7965 7966 7967 7968 7969 7970 7971 7972 7973 7974 7975 7976 7977 7978 7979 7980 7981 7982 7983 7984 7985 7986 7987 7988 7989 7990 7991 7992 7993 7994 7995 7996 7997 7998 7999 8000 8001 8002 8003 8004 8005 8006 8007 8008 8009 8010 8011 8012 8013 8014 8015 8016 8017 8018 8019 8020 8021 8022 8023 8024 8025 8026 8027 8028 8029 8030 8031 8032 8033 8034 8035 8036 8037 8038 8039 8040 8041 8042 8043 8044 8045 8046 8047 8048 8049 8050 8051 8052 8053 8054 8055 8056 8057 8058 8059 8060 8061 8062 8063 8064 8065 8066 8067 8068 8069 8070 8071 8072 8073 8074 8075 8076 8077 8078 8079 8080 8081 8082 8083 8084 8085 8086 8087 8088 8089 8090 8091 8092 8093 8094 8095 8096 8097 8098 8099 8100 8101 8102 8103 8104 8105 8106 8107 8108 8109 8110 8111 8112 8113 8114 8115 8116 8117 8118 8119 8120 8121 8122 8123 8124 8125 8126 8127 8128 8129 8130 8131 8132 8133 8134 8135 8136 8137 8138 8139 8140 8141 8142 8143 8144 8145 8146 8147 8148 8149 8150 8151 8152 8153 8154 8155 8156 8157 8158 8159 8160 8161 8162 8163 8164 8165 8166 8167 8168 8169 8170 8171 8172 8173 8174 8175 8176 8177 8178 8179 8180 8181 8182 8183 8184 8185 8186 8187 8188 8189 8190 8191 8192 8193 8194 8195 8196 8197 8198 8199 8200 8201 8202 8203 8204 8205 8206 8207 8208 8209 8210 8211 8212 8213 8214 8215 8216 8217 8218 8219 8220 8221 8222 8223 8224 8225 8226 8227 8228 8229 8230 8231 8232 8233 8234 8235 8236 8237 8238 8239 8240 8241 8242 8243 8244 8245 8246 8247 8248 8249 8250 8251 8252 8253 8254 8255 8256 8257 8258 8259 8260 8261 8262 8263 8264 8265 8266 8267 8268 8269 8270 8271 8272 8273 8274 8275 8276 8277 8278 8279 8280 8281 8282 8283 8284 8285 8286 8287 8288 8289 8290 8291 8292 8293 8294 8295 8296 8297 8298 8299 8300 8301 8302 8303 8304 8305 8306 8307 8308 8309 8310 8311 8312 8313 8314 8315 8316 8317 8318 8319 8320 8321 8322 8323 8324 8325 8326 8327 8328 8329 8330 8331 8332 8333 8334 8335 8336 8337 8338 8339 8340 8341 8342 8343 8344 8345 8346 8347 8348 8349 8350 8351 8352 8353 8354 8355 8356 8357 8358 8359 8360 8361 8362 8363 8364 8365 8366 8367 8368 8369 8370 8371 8372 8373 8374 8375 8376 8377 8378 8379 8380 8381 8382 8383 8384 8385 8386 8387 8388 8389 8390 8391 8392 8393 8394 8395 8396 8397 8398 8399 8400 8401 8402 8403 8404 8405 8406 8407 8408 8409 8410 8411 8412 8413 8414 8415 8416 8417 8418 8419 8420 8421 8422 8423 8424 8425 8426 8427 8428 8429 8430 8431 8432 8433 8434 8435 8436 8437 8438 8439 8440 8441 8442 8443 8444 8445 8446 8447 8448 8449 8450 8451 8452 8453 8454 8455 8456 8457 8458 8459 8460 8461 8462 8463 8464 8465 8466 8467 8468 8469 8470 8471 8472 8473 8474 8475 8476 8477 8478 8479 8480 8481 8482 8483 8484 8485 8486 8487 8488 8489 8490 8491 8492 8493 8494 8495 8496 8497 8498 8499 8500 8501 8502 8503 8504 8505 8506 8507 8508 8509 8510 8511 8512 8513 8514 8515 8516 8517 8518 8519 8520 8521 8522 8523 8524 8525 8526 8527 8528 8529 8530 8531 8532 8533 8534 8535 8536 8537 8538 8539 8540 8541 8542 8543 8544 8545 8546 8547 8548 8549 8550 8551 8552 8553 8554 8555 8556 8557 8558 8559 8560 8561 8562 8563 8564 8565 8566 8567 8568 8569 8570 8571 8572 8573 8574 8575 8576 8577 8578 8579 8580 8581 8582 8583 8584 8585 8586 8587 8588 8589 8590 8591 8592 8593 8594 8595 8596 8597 8598 8599 8600 8601 8602 8603 8604 8605 8606 8607 8608 8609 8610 8611 8612 8613 8614 8615 8616 8617 8618 8619 8620 8621 8622 8623 8624 8625 8626 8627 8628 8629 8630 8631 8632 8633 8634 8635 8636 8637 8638 8639 8640 8641 8642 8643 8644 8645 8646 8647 8648 8649 8650 8651 8652 8653 8654 8655 8656 8657 8658 8659 8660 8661 8662 8663 8664 8665 8666 8667 8668 8669 8670 8671 8672 8673 8674 8675 8676 8677 8678 8679 8680 8681 8682 8683 8684 8685 8686 8687 8688 8689 8690 8691 8692 8693 8694 8695 8696 8697 8698 8699 8700 8701 8702 8703 8704 8705 8706 8707 8708 8709 8710 8711 8712 8713 8714 8715 8716 8717 8718 8719 8720 8721 8722 8723 8724 8725 8726 8727 8728 8729 8730 8731 8732 8733 8734 8735 8736 8737 8738 8739 8740 8741 8742 8743 8744 8745 8746 8747 8748 8749 8750 8751 8752 8753 8754 8755 8756 8757 8758 8759 8760 8761 8762 8763 8764 8765 8766 8767 8768 8769 8770 8771 8772 8773 8774 8775 8776 8777 8778 8779 8780 8781 8782 8783 8784 8785 8786 8787 8788 8789 8790 8791 8792 8793 8794 8795 8796 8797 8798 8799 8800 8801 8802 8803 8804 8805 8806 8807 8808 8809 8810 8811 8812 8813 8814 8815 8816 8817 8818 8819 8820 8821 8822 8823 8824 8825 8826 8827 8828 8829 8830 8831 8832 8833 8834 8835 8836 8837 8838 8839 8840 8841 8842 8843 8844 8845 8846 8847 8848 8849 8850 8851 8852 8853 8854 8855 8856 8857 8858 8859 8860 8861 8862 8863 8864 8865 8866 8867 8868 8869 8870 8871 8872 8873 8874 8875 8876 8877 8878 8879 8880 8881 8882 8883 8884 8885 8886 8887 8888 8889 8890 8891 8892 8893 8894 8895 8896 8897 8898 8899 8900 8901 8902 8903 8904 8905 8906 8907 8908 8909 8910 8911 8912 8913 8914 8915 8916 8917 8918 8919 8920 8921 8922 8923 8924 8925 8926 8927 8928 8929 8930 8931 8932 8933 8934 8935 8936 8937 8938 8939 8940 8941 8942 8943 8944 8945 8946 8947 8948 8949 8950 8951 8952 8953 8954 8955 8956 8957 8958 8959 8960 8961 8962 8963 8964 8965 8966 8967 8968 8969 8970 8971 8972 8973 8974 8975 8976 8977 8978 8979 8980 8981 8982 8983 8984 8985 8986 8987 8988 8989 8990 8991 8992 8993 8994 8995 8996 8997 8998 8999 9000 9001 9002 9003 9004 9005 9006 9007 9008 9009 9010 9011 9012 9013 9014 9015 9016 9017 9018 9019 9020 9021 9022 9023 9024 9025 9026 9027 9028 9029 9030 9031 9032 9033 9034 9035 9036 9037 9038 9039 9040 9041 9042 9043 9044 9045 9046 9047 9048 9049 9050 9051 9052 9053 9054 9055 9056 9057 9058 9059 9060 9061 9062 9063 9064 9065 9066 9067 9068 9069 9070 9071 9072 9073 9074 9075 9076 9077 9078 9079 9080 9081 9082 9083 9084 9085 9086 9087 9088 9089 9090 9091 9092 9093 9094 9095 9096 9097 9098 9099 9100 9101 9102 9103 9104 9105 9106 9107 9108 9109 9110 9111 9112 9113 9114 9115 9116 9117 9118 9119 9120 9121 9122 9123 9124 9125 9126 9127 9128 9129 9130 9131 9132 9133 9134 9135 9136 9137 9138 9139 9140 9141 9142 9143 9144 9145 9146 9147 9148 9149 9150 9151 9152 9153 9154 9155 9156 9157 9158 9159 9160 9161 9162 9163 9164 9165 9166 9167 9168 9169 9170 9171 9172 9173 9174 9175 9176 9177 9178 9179 9180 9181 9182 9183 9184 9185 9186 9187 9188 9189 9190 9191 9192 9193 9194 9195 9196 9197 9198 9199 9200 9201 9202 9203 9204 9205 9206 9207 9208 9209 9210 9211 9212 9213 9214 9215 9216 9217 9218 9219 9220 9221 9222 9223 9224 9225 9226 9227 9228 9229 9230 9231 9232 9233 9234 9235 9236 9237 9238 9239 9240 9241 9242 9243 9244 9245 9246 9247 9248 9249 9250 9251 9252 9253 9254 9255 9256 9257 9258 9259 9260 9261 9262 9263 9264 9265 9266 9267 9268 9269 9270 9271 9272 9273 9274 9275 9276 9277 9278 9279 9280 9281 9282 9283 9284 9285 9286 9287 9288 9289 9290 9291 9292 9293 9294 9295 9296 9297 9298 9299 9300 9301 9302 9303 9304 9305 9306 9307 9308 9309 9310 9311 9312 9313 9314 9315 9316 9317 9318 9319 9320 9321 9322 9323 9324 9325 9326 9327 9328 9329 9330 9331 9332 9333 9334 9335 9336 9337 9338 9339 9340 9341 9342 9343 9344 9345 9346 9347 9348 9349 9350 9351 9352 9353 9354 9355 9356 9357 9358 9359 9360 9361 9362 9363 9364 9365 9366 9367 9368 9369 9370 9371 9372 9373 9374 9375 9376 9377 9378 9379 9380 9381 9382 9383 9384 9385 9386 9387 9388 9389 9390 9391 9392 9393 9394 9395 9396 9397 9398 9399 9400 9401 9402 9403 9404 9405 9406 9407 9408 9409 9410 9411 9412 9413 9414 9415 9416 9417 9418 9419 9420 9421 9422 9423 9424 9425 9426 9427 9428 9429 9430 9431 9432 9433 9434 9435 9436 9437 9438 9439 9440 9441 9442 9443 9444 9445 9446 9447 9448 9449 9450 9451 9452 9453 9454 9455 9456 9457 9458 9459 9460 9461 9462 9463 9464 9465 9466 9467 9468 9469 9470 9471 9472 9473 9474 9475 9476 9477 9478 9479 9480 9481 9482 9483 9484 9485 9486 9487 9488 9489 9490 9491 9492 9493 9494 9495 9496 9497 9498 9499 9500 9501 9502 9503 9504 9505 9506 9507 9508 9509 9510 9511 9512 9513 9514 9515 9516 9517 9518 9519 9520 9521 9522 9523 9524 9525 9526 9527 9528 9529 9530 9531 9532 9533 9534 9535 9536 9537 9538 9539 9540 9541 9542 9543 9544 9545 9546 9547 9548 9549 9550 9551 9552 9553 9554 9555 9556 9557 9558 9559 9560 9561 9562 9563 9564 9565 9566 9567 9568 9569 9570 9571 9572 9573 9574 9575 9576 9577 9578 9579 9580 9581 9582 9583 9584 9585 9586 9587 9588 9589 9590 9591 9592 9593 9594 9595 9596 9597 9598 9599 9600 9601 9602 9603 9604 9605 9606 9607 9608 9609 9610 9611 9612 9613 9614 9615 9616 9617 9618 9619 9620 9621 9622 9623 9624 9625 9626 9627 9628 9629 9630 9631 9632 9633 9634 9635 9636 9637 9638 9639 9640 9641 9642 9643 9644 9645 9646 9647 9648 9649 9650 9651 9652 9653 9654 9655 9656 9657 9658 9659 9660 9661 9662 9663 9664 9665 9666 9667 9668 9669 9670 9671 9672 9673 9674 9675 9676 9677 9678 9679 9680 9681 9682 9683 9684 9685 9686 9687 9688 9689 9690 9691 9692 9693 9694 9695 9696 9697 9698 9699 9700 9701 9702 9703 9704 9705 9706 9707 9708 9709 9710 9711 9712 9713 9714 9715 9716 9717 9718 9719 9720 9721 9722 9723 9724 9725 9726 9727 9728 9729 9730 9731 9732 9733 9734 9735 9736 9737 9738 9739 9740 9741 9742 9743 9744 9745 9746 9747 9748 9749 9750 9751 9752 9753 9754 9755 9756 9757 9758 9759 9760 9761 9762 9763 9764 9765 9766 9767 9768 9769 9770 9771 9772 9773 9774 9775 9776 9777 9778 9779 9780 9781 9782 9783 9784 9785 9786 9787 9788 9789 9790 9791 9792 9793 9794 9795 9796 9797 9798 9799 9800 9801 9802 9803 9804 9805 9806 9807 9808 9809 9810 9811 9812 9813 9814 9815 9816 9817 9818 9819 9820 9821 9822 9823 9824 9825 9826 9827 9828 9829 9830 9831 9832 9833 9834 9835 9836 9837 9838 9839 9840 9841 9842 9843 9844 9845 9846 9847 9848 9849 9850 9851 9852 9853 9854 9855 9856 9857 9858 9859 9860 9861 9862 9863 9864 9865 9866 9867 9868 9869 9870 9871 9872 9873 9874 9875 9876 9877 9878 9879 9880 9881 9882 9883 9884 9885 9886 9887 9888 9889 9890 9891 9892 9893 9894 9895 9896 9897 9898 9899 9900 9901 9902 9903 9904 9905 9906 9907 9908 9909 9910 9911 9912 9913 9914 9915 9916 9917 9918 9919 9920 9921 9922 9923 9924 9925 9926 9927 9928 9929 9930 9931 9932 9933 9934 9935 9936 9937 9938 9939 9940 9941 9942 9943 9944 9945 9946 9947 9948 9949 9950 9951 9952 9953 9954 9955 9956 9957 9958 9959 9960 9961 9962 9963 9964 9965 9966 9967 9968 9969 9970 9971 9972 9973 9974 9975 9976 9977 9978 9979 9980 9981 9982 9983 9984 9985 9986 9987 9988 9989 9990 9991 9992 9993 9994 9995 9996 9997 9998 9999 10000 10001 10002 10003 10004 10005 10006 10007 10008 10009 10010 10011 10012 10013 10014 10015 10016 10017 10018 10019 10020 10021 10022 10023 10024 10025 10026 10027 10028 10029 10030 10031 10032 10033 10034 10035 10036 10037 10038 10039 10040 10041 10042 10043 10044 10045 10046 10047 10048 10049 10050 10051 10052 10053 10054 10055 10056 10057 10058 10059 10060 10061 10062 10063 10064 10065 10066 10067 10068 10069 10070 10071 10072 10073 10074 10075 10076 10077 10078 10079 10080 10081 10082 10083 10084 10085 10086 10087 10088 10089 10090 10091 10092 10093 10094 10095 10096 10097 10098 10099 10100 10101 10102 10103 10104 10105 10106 10107 10108 10109 10110 10111 10112 10113 10114 10115 10116 10117 10118 10119 10120 10121 10122 10123 10124 10125 10126 10127 10128 10129 10130 10131 10132 10133 10134 10135 10136 10137 10138 10139 10140 10141 10142 10143 10144 10145 10146 10147 10148 10149 10150 10151 10152 10153 10154 10155 10156 10157 10158 10159 10160 10161 10162 10163 10164 10165 10166 10167 10168 10169 10170 10171 10172 10173 10174 10175 10176 10177 10178 10179 10180 10181 10182 10183 10184 10185 10186 10187 10188 10189 10190 10191 10192 10193 10194 10195 10196 10197 10198 10199 10200 10201 10202 10203 10204 10205 10206 10207 10208 10209 10210 10211 10212 10213 10214 10215 10216 10217 10218 10219 10220 10221 10222 10223 10224 10225 10226 10227 10228 10229 10230 10231 10232 10233 10234 10235 10236 10237 10238 10239 10240 10241 10242 10243 10244 10245 10246 10247 10248 10249 10250 10251 10252 10253 10254 10255 10256 10257 10258 10259 10260 10261 10262 10263 10264 10265 10266 10267 10268 10269 10270 10271 10272 10273 10274 10275 10276 10277 10278 10279 10280 10281 10282 10283 10284 10285 10286 10287 10288 10289 10290 10291 10292 10293 10294 10295 10296 10297 10298 10299 10300 10301 10302 10303 10304 10305 10306 10307 10308 10309 10310 10311 10312 10313 10314 10315 10316 10317 10318 10319 10320 10321 10322 10323 10324 10325 10326 10327 10328 10329 10330 10331 10332 10333 10334 10335 10336 10337 10338 10339 10340 10341 10342 10343 10344 10345 10346 10347 10348 10349 10350 10351 10352 10353 10354 10355 10356 10357 10358 10359 10360 10361 10362 10363 10364 10365 10366 10367 10368 10369 10370 10371 10372 10373 10374 10375 10376 10377 10378 10379 10380 10381 10382 10383 10384 10385 10386 10387 10388 10389 10390 10391 10392 10393 10394 10395 10396 10397 10398 10399 10400 10401 10402 10403 10404 10405 10406 10407 10408 10409 10410 10411 10412 10413 10414 10415 10416 10417 10418 10419 10420 10421 10422 10423 10424 10425 10426 10427 10428 10429 10430 10431 10432 10433 10434 10435 10436 10437 10438 10439 10440 10441 10442 10443 10444 10445 10446 10447 10448 10449 10450 10451 10452 10453 10454 10455 10456 10457 10458 10459 10460 10461 10462 10463 10464 10465 10466 10467 10468 10469 10470 10471 10472 10473 10474 10475 10476 10477 10478 10479 10480 10481 10482 10483 10484 10485 10486 10487 10488 10489 10490 10491 10492 10493 10494 10495 10496 10497 10498 10499 10500 10501 10502 10503 10504 10505 10506 10507 10508 10509 10510 10511 10512 10513 10514 10515 10516 10517 10518 10519 10520 10521 10522 10523 10524 10525 10526 10527 10528 10529 10530 10531 10532 10533 10534 10535 10536 10537 10538 10539 10540 10541 10542 10543 10544 10545 10546 10547 10548 10549 10550 10551 10552 10553 10554 10555 10556 10557 10558 10559 10560 10561 10562 10563 10564 10565 10566 10567 10568 10569 10570 10571 10572 10573 10574 10575 10576 10577 10578 10579 10580 10581 10582 10583 10584 10585 10586 10587 10588 10589 10590 10591 10592 10593 10594 10595 10596 10597 10598 10599 10600 10601 10602 10603 10604 10605 10606 10607 10608 10609 10610 10611 10612 10613 10614 10615 10616 10617 10618 10619 10620 10621 10622 10623 10624 10625 10626 10627 10628 10629 10630 10631 10632 10633 10634 10635 10636 10637 10638 10639 10640 10641 10642 10643 10644 10645 10646 10647 10648 10649 10650 10651 10652 10653 10654 10655 10656 10657 10658 10659 10660 10661 10662 10663 10664 10665 10666 10667 10668 10669 10670 10671 10672 10673 10674 10675 10676 10677 10678 10679 10680 10681 10682 10683 10684 10685 10686 10687 10688 10689 10690 10691 10692 10693 10694 10695 10696 10697 10698 10699 10700 10701 10702 10703 10704 10705 10706 10707 10708 10709 10710 10711 10712 10713 10714 10715 10716 10717 10718 10719 10720 10721 10722 10723 10724 10725 10726 10727 10728 10729 10730 10731 10732 10733 10734 10735 10736 10737 10738 10739 10740 10741 10742 10743 10744 10745 10746 10747 10748 10749 10750 10751 10752 10753 10754 10755 10756 10757 10758 10759 10760 10761 10762 10763 10764 10765 10766 10767 10768 10769 10770 10771 10772 10773 10774 10775 10776 10777 10778 10779 10780 10781 10782 10783 10784 10785 10786 10787 10788 10789 10790 10791 10792 10793 10794 10795 10796 10797 10798 10799 10800 10801 10802 10803 10804 10805 10806 10807 10808 10809 10810 10811 10812 10813 10814 10815 10816 10817 10818 10819 10820 10821 10822 10823 10824 10825 10826 10827 10828 10829 10830 10831 10832 10833 10834 10835 10836 10837 10838 10839 10840 10841 10842 10843 10844 10845 10846 10847 10848 10849 10850 10851 10852 10853 10854 10855 10856 10857 10858 10859 10860 10861 10862 10863 10864 10865 10866 10867 10868 10869 10870 10871 10872 10873 10874 10875 10876 10877 10878 10879 10880 10881 10882 10883 10884 10885 10886 10887 10888 10889 10890 10891 10892 10893 10894 10895 10896 10897 10898 10899 10900 10901 10902 10903 10904 10905 10906 10907 10908 10909 10910 10911 10912 10913 10914 10915 10916 10917 10918 10919 10920 10921 10922 10923 10924 10925 10926 10927 10928 10929 10930 10931 10932 10933 10934 10935 10936 10937 10938 10939 10940 10941 10942 10943 10944 10945 10946 10947 10948 10949 10950 10951 10952 10953 10954 10955 10956 10957 10958 10959 10960 10961 10962 10963 10964 10965 10966 10967 10968 10969 10970 10971 10972 10973 10974 10975 10976 10977 10978 10979 10980 10981 10982 10983 10984 10985 10986 10987 10988 10989 10990 10991 10992 10993 10994 10995 10996 10997 10998 10999 11000 11001 11002 11003 11004 11005 11006 11007 11008 11009 11010 11011 11012 11013 11014 11015 11016 11017 11018 11019 11020 11021 11022 11023 11024 11025 11026 11027 11028 11029 11030 11031 11032 11033 11034 11035 11036 11037 11038 11039 11040 11041 11042 11043 11044 11045 11046 11047 11048 11049 11050 11051 11052 11053 11054 11055 11056 11057 11058 11059 11060 11061 11062 11063 11064 11065 11066 11067 11068 11069 11070 11071 11072 11073 11074 11075 11076 11077 11078 11079 11080 11081 11082 11083 11084 11085 11086 11087 11088 11089 11090 11091 11092 11093 11094 11095 11096 11097 11098 11099 11100 11101 11102 11103 11104 11105 11106 11107 11108 11109 11110 11111 11112 11113 11114 11115 11116 11117 11118 11119 11120 11121 11122 11123 11124 11125 11126 11127 11128 11129 11130 11131 11132 11133 11134 11135 11136 11137 11138 11139 11140 11141 11142 11143 11144 11145 11146 11147 11148 11149 11150 11151 11152 11153 11154 11155 11156 11157 11158 11159 11160 11161 11162 11163 11164 11165 11166 11167 11168 11169 11170 11171 11172 11173 11174 11175 11176 11177 11178 11179 11180 11181 11182 11183 11184 11185 11186 11187 11188 11189 11190 11191 11192 11193 11194 11195 11196 11197 11198 11199 11200 11201 11202 11203 11204 11205 11206 11207 11208 11209 11210 11211 11212 11213 11214 11215 11216 11217 11218 11219 11220 11221 11222 11223 11224 11225 11226 11227 11228 11229 11230 11231 11232 11233 11234 11235 11236 11237 11238 11239 11240 11241 11242 11243 11244 11245 11246 11247 11248 11249 11250 11251 11252 11253 11254 11255 11256 11257 11258 11259 11260 11261 11262 11263 11264 11265 11266 11267 11268 11269 11270 11271 11272 11273 11274 11275 11276 11277 11278 11279 11280 11281 11282 11283 11284 11285 11286 11287 11288 11289 11290 11291 11292 11293 11294 11295 11296 11297 11298 11299 11300 11301 11302 11303 11304 11305 11306 11307 11308 11309 11310 11311 11312 11313 11314 11315 11316 11317 11318 11319 11320 11321 11322 11323 11324 11325 11326 11327 11328 11329 11330 11331 11332 11333 11334 11335 11336 11337 11338 11339 11340 11341 11342 11343 11344 11345 11346 11347 11348 11349 11350 11351 11352 11353 11354 11355 11356 11357 11358 11359 11360 11361 11362 11363 11364 11365 11366 11367 11368 11369 11370 11371 11372 11373 11374 11375 11376 11377 11378 11379 11380 11381 11382 11383 11384 11385 11386 11387 11388 11389 11390 11391 11392 11393 11394 11395 11396 11397 11398 11399 11400 11401 11402 11403 11404 11405 11406 11407 11408 11409 11410 11411 11412 11413 11414 11415 11416 11417 11418 11419 11420 11421 11422 11423 11424 11425 11426 11427 11428 11429 11430 11431 11432 11433 11434 11435 11436 11437 11438 11439 11440 11441 11442 11443 11444 11445 11446 11447 11448 11449 11450 11451 11452 11453 11454 11455 11456 11457 11458 11459 11460 11461 11462 11463 11464 11465 11466 11467 11468 11469 11470 11471 11472 11473 11474 11475 11476 11477 11478 11479 11480 11481 11482 11483 11484 11485 11486 11487 11488 11489 11490 11491 11492 11493 11494 11495 11496 11497 11498 11499 11500 11501 11502 11503 11504 11505 11506 11507 11508 11509 11510 11511 11512 11513 11514 11515 11516 11517 11518 11519 11520 11521 11522 11523 11524 11525 11526 11527 11528 11529 11530 11531 11532 11533 11534 11535 11536 11537 11538 11539 11540 11541 11542 11543 11544 11545 11546 11547 11548 11549 11550 11551 11552 11553 11554 11555 11556 11557 11558 11559 11560 11561 11562 11563 11564 11565 11566 11567 11568 11569 11570 11571 11572 11573 11574 11575 11576 11577 11578 11579 11580 11581 11582 11583 11584 11585 11586 11587 11588 11589 11590 11591 11592 11593 11594 11595 11596 11597 11598 11599 11600 11601 11602 11603 11604 11605 11606 11607 11608 11609 11610 11611 11612 11613 11614 11615 11616 11617 11618 11619 11620 11621 11622 11623 11624 11625 11626 11627 11628 11629 11630 11631 11632 11633 11634 11635 11636 11637 11638 11639 11640 11641 11642 11643 11644 11645 11646 11647 11648 11649 11650 11651 11652 11653 11654 11655 11656 11657 11658 11659 11660 11661 11662 11663 11664 11665 11666 11667 11668 11669 11670 11671 11672 11673 11674 11675 11676 11677 11678 11679 11680 11681 11682 11683 11684 11685 11686 11687 11688 11689 11690 11691 11692 11693 11694 11695 11696 11697 11698 11699 11700 11701 11702 11703 11704 11705 11706 11707 11708 11709 11710 11711 11712 11713 11714 11715 11716 11717 11718 11719 11720 11721 11722 11723 11724 11725 11726 11727 11728 11729 11730 11731 11732 11733 11734 11735 11736 11737 11738 11739 11740 11741 11742 11743 11744 11745 11746 11747 11748 11749 11750 11751 11752 11753 11754 11755 11756 11757 11758 11759 11760 11761 11762 11763 11764 11765 11766 11767 11768 11769 11770 11771 11772 11773 11774 11775 11776 11777 11778 11779 11780 11781 11782 11783 11784 11785 11786 11787 11788 11789 11790 11791 11792 11793 11794 11795 11796 11797 11798 11799 11800 11801 11802 11803 11804 11805 11806 11807 11808 11809 11810 11811 11812 11813 11814 11815 11816 11817 11818 11819 11820 11821 11822 11823 11824 11825 11826 11827 11828 11829 11830 11831 11832 11833 11834 11835 11836 11837 11838 11839 11840 11841 11842 11843 11844 11845 11846 11847 11848 11849 11850 11851 11852 11853 11854 11855 11856 11857 11858 11859 11860 11861 11862 11863 11864 11865 11866 11867 11868 11869 11870 11871 11872 11873 11874 11875 11876 11877 11878 11879 11880 11881 11882 11883 11884 11885 11886 11887 11888 11889 11890 11891 11892 11893 11894 11895 11896 11897 11898 11899 11900 11901 11902 11903 11904 11905 11906 11907 11908 11909 11910 11911 11912 11913 11914 11915 11916 11917 11918 11919 11920 11921 11922 11923 11924 11925 11926 11927 11928 11929 11930 11931 11932 11933 11934 11935 11936 11937 11938 11939 11940 11941 11942 11943 11944 11945 11946 11947 11948 11949 11950 11951 11952 11953 11954 11955 11956 11957 11958 11959 11960 11961 11962 11963 11964 11965 11966 11967 11968 11969 11970 11971 11972 11973 11974 11975 11976 11977 11978 11979 11980 11981 11982 11983 11984 11985 11986 11987 11988 11989 11990 11991 11992 11993 11994 11995 11996 11997 11998 11999 12000 12001 12002 12003 12004 12005 12006 12007 12008 12009 12010 12011 12012 12013 12014 12015 12016 12017 12018 12019 12020 12021 12022 12023 12024 12025 12026 12027 12028 12029 12030 12031 12032 12033 12034 12035 12036 12037 12038 12039 12040 12041 12042 12043 12044 12045 12046 12047 12048 12049 12050 12051 12052 12053 12054 12055 12056 12057 12058 12059 12060 12061 12062 12063 12064 12065 12066 12067 12068 12069 12070 12071 12072 12073 12074 12075 12076 12077 12078 12079 12080 12081 12082 12083 12084 12085 12086 12087 12088 12089 12090 12091 12092 12093 12094 12095 12096 12097 12098 12099 12100 12101 12102 12103 12104 12105 12106 12107 12108 12109 12110 12111 12112 12113 12114 12115 12116 12117 12118 12119 12120 12121 12122 12123 12124 12125 12126 12127 12128 12129 12130 12131 12132 12133 12134 12135 12136 12137 12138 12139 12140 12141 12142 12143 12144 12145 12146 12147 12148 12149 12150 12151 12152 12153 12154 12155 12156 12157 12158 12159 12160 12161 12162 12163 12164 12165 12166 12167 12168 12169 12170 12171 12172 12173 12174 12175 12176 12177 12178 12179 12180 12181 12182 12183 12184 12185 12186 12187 12188 12189 12190 12191 12192 12193 12194 12195 12196 12197 12198 12199 12200 12201 12202 12203 12204 12205 12206 12207 12208 12209 12210 12211 12212 12213 12214 12215 12216 12217 12218 12219 12220 12221 12222 12223 12224 12225 12226 12227 12228 12229 12230 12231 12232 12233 12234 12235 12236 12237 12238 12239 12240 12241 12242 12243 12244 12245 12246 12247 12248 12249 12250 12251 12252 12253 12254 12255 12256 12257 12258 12259 12260 12261 12262 12263 12264 12265 12266 12267 12268 12269 12270 12271 12272 12273 12274 12275 12276 12277 12278 12279 12280 12281 12282 12283 12284 12285 12286 12287 12288 12289 12290 12291 12292 12293 12294 12295 12296 12297 12298 12299 12300 12301 12302 12303 12304 12305 12306 12307 12308 12309 12310 12311 12312 12313 12314 12315 12316 12317 12318 12319 12320 12321 12322 12323 12324 12325 12326 12327 12328 12329 12330 12331 12332 12333 12334 12335 12336 12337 12338 12339 12340 12341 12342 12343 12344 12345 12346 12347 12348 12349 12350 12351 12352 12353 12354 12355 12356 12357 12358 12359 12360 12361 12362 12363 12364 12365 12366 12367 12368 12369 12370 12371 12372 12373 12374 12375 12376 12377 12378 12379 12380 12381 12382 12383 12384 12385 12386 12387 12388 12389 12390 12391 12392 12393 12394 12395 12396 12397 12398 12399 12400 12401 12402 12403 12404 12405 12406 12407 12408 12409 12410 12411 12412 12413 12414 12415 12416 12417 12418 12419 12420 12421 12422 12423 12424 12425 12426 12427 12428 12429 12430 12431 12432 12433 12434 12435 12436 12437 12438 12439 12440 12441 12442 12443 12444 12445 12446 12447 12448 12449 12450 12451 12452 12453 12454 12455 12456 12457 12458 12459 12460 12461 12462 12463 12464 12465 12466 12467 12468 12469 12470 12471 12472 12473 12474 12475 12476 12477 12478 12479 12480 12481 12482 12483 12484 12485 12486 12487 12488 12489 12490 12491 12492 12493 12494 12495 12496 12497 12498 12499 12500 12501 12502 12503 12504 12505 12506 12507 12508 12509 12510 12511 12512 12513 12514 12515 12516 12517 12518 12519 12520 12521 12522 12523 12524 12525 12526 12527 12528 12529 12530 12531 12532 12533 12534 12535 12536 12537 12538 12539 12540 12541 12542 12543 12544 12545 12546 12547 12548 12549 12550 12551 12552 12553 12554 12555 12556 12557 12558 12559 12560 12561 12562 12563 12564 12565 12566 12567 12568 12569 12570 12571 12572 12573 12574 12575 12576 12577 12578 12579 12580 12581 12582 12583 12584 12585 12586 12587 12588 12589 12590 12591 12592 12593 12594 12595 12596 12597 12598 12599 12600 12601 12602 12603 12604 12605 12606 12607 12608 12609 12610 12611 12612 12613 12614 12615 12616 12617 12618 12619 12620 12621 12622 12623 12624 12625 12626 12627 12628 12629 12630 12631 12632 12633 12634 12635 12636 12637 12638 12639 12640 12641 12642 12643 12644 12645 12646 12647 12648 12649 12650 12651 12652 12653 12654 12655 12656 12657 12658 12659 12660 12661 12662 12663 12664 12665 12666 12667 12668 12669 12670 12671 12672 12673 12674 12675 12676 12677 12678 12679 12680 12681 12682 12683 12684 12685 12686 12687 12688 12689 12690 12691 12692 12693 12694 12695 12696 12697 12698 12699 12700 12701 12702 12703 12704 12705 12706 12707 12708 12709 12710 12711 12712 12713 12714 12715 12716 12717 12718 12719 12720 12721 12722 12723 12724 12725 12726 12727 12728 12729 12730 12731 12732 12733 12734 12735 12736 12737 12738 12739 12740 12741 12742 12743 12744 12745 12746 12747 12748 12749 12750 12751 12752 12753 12754 12755 12756 12757 12758 12759 12760 12761 12762 12763 12764 12765 12766 12767 12768 12769 12770 12771 12772 12773 12774 12775 12776 12777 12778 12779 12780 12781 12782 12783 12784 12785 12786 12787 12788 12789 12790 12791 12792 12793 12794 12795 12796 12797 12798 12799 12800 12801 12802 12803 12804 12805 12806 12807 12808 12809 12810 12811 12812 12813 12814 12815 12816 12817 12818 12819 12820 12821 12822 12823 12824 12825 12826 12827 12828 12829 12830 12831 12832 12833 12834 12835 12836 12837 12838 12839 12840 12841 12842 12843 12844 12845 12846 12847 12848 12849 12850 12851 12852 12853 12854 12855 12856 12857 12858 12859 12860 12861 12862 12863 12864 12865 12866 12867 12868 12869 12870 12871 12872 12873 12874 12875 12876 12877 12878 12879 12880 12881 12882 12883 12884 12885 12886 12887 12888 12889 12890 12891 12892 12893 12894 12895 12896 12897 12898 12899 12900 12901 12902 12903 12904 12905 12906 12907 12908 12909 12910 12911 12912 12913 12914 12915 12916 12917 12918 12919 12920 12921 12922 12923 12924 12925 12926 12927 12928 12929 12930 12931 12932 12933 12934 12935 12936 12937 12938 12939 12940 12941 12942 12943 12944 12945 12946 12947 12948 12949 12950 12951 12952 12953 12954 12955 12956 12957 12958 12959 12960 12961 12962 12963 12964 12965 12966 12967 12968 12969 12970 12971 12972 12973 12974 12975 12976 12977 12978 12979 12980 12981 12982 12983 12984 12985 12986 12987 12988 12989 12990 12991 12992 12993 12994 12995 12996 12997 12998 12999 13000 13001 13002 13003 13004 13005 13006 13007 13008 13009 13010 13011 13012 13013 13014 13015 13016 13017 13018 13019 13020 13021 13022 13023 13024 13025 13026 13027 13028 13029 13030 13031 13032 13033 13034 13035 13036 13037 13038 13039 13040 13041 13042 13043 13044 13045 13046 13047 13048 13049 13050 13051 13052 13053 13054 13055 13056 13057 13058 13059 13060 13061 13062 13063 13064 13065 13066 13067 13068 13069 13070 13071 13072 13073 13074 13075 13076 13077 13078 13079 13080 13081 13082 13083 13084 13085 13086 13087 13088 13089 13090 13091 13092 13093 13094 13095 13096 13097 13098 13099 13100 13101 13102 13103 13104 13105 13106 13107 13108 13109 13110 13111 13112 13113 13114 13115 13116 13117 13118 13119 13120 13121 13122 13123 13124 13125 13126 13127 13128 13129 13130 13131 13132 13133 13134 13135 13136 13137 13138 13139 13140 13141 13142 13143 13144 13145 13146 13147 13148 13149 13150 13151 13152 13153 13154 13155 13156 13157 13158 13159 13160 13161 13162 13163 13164 13165 13166 13167 13168 13169 13170 13171 13172 13173 13174 13175 13176 13177 13178 13179 13180 13181 13182 13183 13184 13185 13186 13187 13188 13189 13190 13191 13192 13193 13194 13195 13196 13197 13198 13199 13200 13201 13202 13203 13204 13205 13206 13207 13208 13209 13210 13211 13212 13213 13214 13215 13216 13217 13218 13219 13220 13221 13222 13223 13224 13225 13226 13227 13228 13229 13230 13231 13232 13233 13234 13235 13236 13237 13238 13239 13240 13241 13242 13243 13244 13245 13246 13247 13248 13249 13250 13251 13252 13253 13254 13255 13256 13257 13258 13259 13260 13261 13262 13263 13264 13265 13266 13267 13268 13269 13270 13271 13272 13273 13274 13275 13276 13277 13278 13279 13280 13281 13282 13283 13284 13285 13286 13287 13288 13289 13290 13291 13292 13293 13294 13295 13296 13297 13298 13299 13300 13301 13302 13303 13304 13305 13306 13307 13308 13309 13310 13311 13312 13313 13314 13315 13316 13317 13318 13319 13320 13321 13322 13323 13324 13325 13326 13327 13328 13329 13330 13331 13332 13333 13334 13335 13336 13337 13338 13339 13340 13341 13342 13343 13344 13345 13346 13347 13348 13349 13350 13351 13352 13353 13354 13355 13356 13357 13358 13359 13360 13361 13362 13363 13364 13365 13366 13367 13368 13369 13370 13371 13372 13373 13374 13375 13376 13377 13378 13379 13380 13381 13382 13383 13384 13385 13386 13387 13388 13389 13390 13391 13392 13393 13394 13395 13396 13397 13398 13399 13400 13401 13402 13403 13404 13405 13406 13407 13408 13409 13410 13411 13412 13413 13414 13415 13416 13417 13418 13419 13420 13421 13422 13423 13424 13425 13426 13427 13428 13429 13430 13431 13432 13433 13434 13435 13436 13437 13438 13439 13440 13441 13442 13443 13444 13445 13446 13447 13448 13449 13450 13451 13452 13453 13454 13455 13456 13457 13458 13459 13460 13461 13462 13463 13464 13465 13466 13467 13468 13469 13470 13471 13472 13473 13474 13475 13476 13477 13478 13479 13480 13481 13482 13483 13484 13485 13486 13487 13488 13489 13490 13491 13492 13493 13494 13495 13496 13497 13498 13499 13500 13501 13502 13503 13504 13505 13506 13507 13508 13509 13510 13511 13512 13513 13514 13515 13516 13517 13518 13519 13520 13521 13522 13523 13524 13525 13526 13527 13528 13529 13530 13531 13532 13533 13534 13535 13536 13537 13538 13539 13540 13541 13542 13543 13544 13545 13546 13547 13548 13549 13550 13551 13552 13553 13554 13555 13556 13557 13558 13559 13560 13561 13562 13563 13564 13565 13566 13567 13568 13569 13570 13571 13572 13573 13574 13575 13576 13577 13578 13579 13580 13581 13582 13583 13584 13585 13586 13587 13588 13589 13590 13591 13592 13593 13594 13595 13596 13597 13598 13599 13600 13601 13602 13603 13604 13605 13606 13607 13608 13609 13610 13611 13612 13613 13614 13615 13616 13617 13618 13619 13620 13621 13622 13623 13624 13625 13626 13627 13628 13629 13630 13631 13632 13633 13634 13635 13636 13637 13638 13639 13640 13641 13642 13643 13644 13645 13646 13647 13648 13649 13650 13651 13652 13653 13654 13655 13656 13657 13658 13659 13660 13661 13662 13663 13664 13665 13666 13667 13668 13669 13670 13671 13672 13673 13674 13675 13676 13677 13678 13679 13680 13681 13682 13683 13684 13685 13686 13687 13688 13689 13690 13691 13692 13693 13694 13695 13696 13697 13698 13699 13700 13701 13702 13703 13704 13705 13706 13707 13708 13709 13710 13711 13712 13713 13714 13715 13716 13717 13718 13719 13720 13721 13722 13723 13724 13725 13726 13727 13728 13729 13730 13731 13732 13733 13734 13735 13736 13737 13738 13739 13740 13741 13742 13743 13744 13745 13746 13747 13748 13749 13750 13751 13752 13753 13754 13755 13756 13757 13758 13759 13760 13761 13762 13763 13764 13765 13766 13767 13768 13769 13770 13771 13772 13773 13774 13775 13776 13777 13778 13779 13780 13781 13782 13783 13784 13785 13786 13787 13788 13789 13790 13791 13792 13793 13794 13795 13796 13797 13798 13799 13800 13801 13802 13803 13804 13805 13806 13807 13808 13809 13810 13811 13812 13813 13814 13815 13816 13817 13818 13819 13820 13821 13822 13823 13824 13825 13826 13827 13828 13829 13830 13831 13832 13833 13834 13835 13836 13837 13838 13839 13840 13841 13842 13843 13844 13845 13846 13847 13848 13849 13850 13851 13852 13853 13854 13855 13856 13857 13858 13859 13860 13861 13862 13863 13864 13865 13866 13867 13868 13869 13870 13871 13872 13873 13874 13875 13876 13877 13878 13879 13880 13881 13882 13883 13884 13885 13886 13887 13888 13889 13890 13891 13892 13893 13894 13895 13896 13897 13898 13899 13900 13901 13902 13903 13904 13905 13906 13907 13908 13909 13910 13911 13912 13913 13914 13915 13916 13917 13918 13919 13920 13921 13922 13923 13924 13925 13926 13927 13928 13929 13930 13931 13932 13933 13934 13935 13936 13937 13938 13939 13940 13941 13942 13943 13944 13945 13946 13947 13948 13949 13950 13951 13952 13953 13954 13955 13956 13957 13958 13959 13960 13961 13962 13963 13964 13965 13966 13967 13968 13969 13970 13971 13972 13973 13974 13975 13976 13977 13978 13979 13980 13981 13982 13983 13984 13985 13986 13987 13988 13989 13990 13991 13992 13993 13994 13995 13996 13997 13998 13999 14000 14001 14002 14003 14004 14005 14006 14007 14008 14009 14010 14011 14012 14013 14014 14015 14016 14017 14018 14019 14020 14021 14022 14023 14024 14025 14026 14027 14028 14029 14030 14031 14032 14033 14034 14035 14036 14037 14038 14039 14040 14041 14042 14043 14044 14045 14046 14047 14048 14049 14050 14051 14052 14053 14054 14055 14056 14057 14058 14059 14060 14061 14062 14063 14064 14065 14066 14067 14068 14069 14070 14071 14072 14073 14074 14075 14076 14077 14078 14079 14080 14081 14082 14083 14084 14085 14086 14087 14088 14089 14090 14091 14092 14093 14094 14095 14096 14097 14098 14099 14100 14101 14102 14103 14104 14105 14106 14107 14108 14109 14110 14111 14112 14113 14114 14115 14116 14117 14118 14119 14120 14121 14122 14123 14124 14125 14126 14127 14128 14129 14130 14131 14132 14133 14134 14135 14136 14137 14138 14139 14140 14141 14142 14143 14144 14145 14146 14147 14148 14149 14150 14151 14152 14153 14154 14155 14156 14157 14158 14159 14160 14161 14162 14163 14164 14165 14166 14167 14168 14169 14170 14171 14172 14173 14174 14175 14176 14177 14178 14179 14180 14181 14182 14183 14184 14185 14186 14187 14188 14189 14190 14191 14192 14193 14194 14195 14196 14197 14198 14199 14200 14201 14202 14203 14204 14205 14206 14207 14208 14209 14210 14211 14212 14213 14214 14215 14216 14217 14218 14219 14220 14221 14222 14223 14224 14225 14226 14227 14228 14229 14230 14231 14232 14233 14234 14235 14236 14237 14238 14239 14240 14241 14242 14243 14244 14245 14246 14247 14248 14249 14250 14251 14252 14253 14254 14255 14256 14257 14258 14259 14260 14261 14262 14263 14264 14265 14266 14267 14268 14269 14270 14271 14272 14273 14274 14275 14276 14277 14278 14279 14280 14281 14282 14283 14284 14285 14286 14287 14288 14289 14290 14291 14292 14293 14294 14295 14296 14297 14298 14299 14300 14301 14302 14303 14304 14305 14306 14307 14308 14309 14310 14311 14312 14313 14314 14315 14316 14317 14318 14319 14320 14321 14322 14323 14324 14325 14326 14327 14328 14329 14330 14331 14332 14333 14334 14335 14336 14337 14338 14339 14340 14341 14342 14343 14344 14345 14346 14347 14348 14349 14350 14351 14352 14353 14354 14355 14356 14357 14358 14359 14360 14361 14362 14363 14364 14365 14366 14367 14368 14369 14370 14371 14372 14373 14374 14375 14376 14377 14378 14379 14380 14381 14382 14383 14384 14385 14386 14387 14388 14389 14390 14391 14392 14393 14394 14395 14396 14397 14398 14399 14400 14401 14402 14403 14404 14405 14406 14407 14408 14409 14410 14411 14412 14413 14414 14415 14416 14417 14418 14419 14420 14421 14422 14423 14424 14425 14426 14427 14428 14429 14430 14431 14432 14433 14434 14435 14436 14437 14438 14439 14440 14441 14442 14443 14444 14445 14446 14447 14448 14449 14450 14451 14452 14453 14454 14455 14456 14457 14458 14459 14460 14461 14462 14463 14464 14465 14466 14467 14468 14469 14470 14471 14472 14473 14474 14475 14476 14477 14478 14479 14480 14481 14482 14483 14484 14485 14486 14487 14488 14489 14490 14491 14492 14493 14494 14495 14496 14497 14498 14499 14500 14501 14502 14503 14504 14505 14506 14507 14508 14509 14510 14511 14512 14513 14514 14515 14516 14517 14518 14519 14520 14521 14522 14523 14524 14525 14526 14527 14528 14529 14530 14531 14532 14533 14534 14535 14536 14537 14538 14539 14540 14541 14542 14543 14544 14545 14546 14547 14548 14549 14550 14551 14552 14553 14554 14555 14556 14557 14558 14559 14560 14561 14562 14563 14564 14565 14566 14567 14568 14569 14570 14571 14572 14573 14574 14575 14576 14577 14578 14579 14580 14581 14582 14583 14584 14585 14586 14587 14588 14589 14590 14591 14592 14593 14594 14595 14596 14597 14598 14599 14600 14601 14602 14603 14604 14605 14606 14607 14608 14609 14610 14611 14612 14613 14614 14615 14616 14617 14618 14619 14620 14621 14622 14623 14624 14625 14626 14627 14628 14629 14630 14631 14632 14633 14634 14635 14636 14637 14638 14639 14640 14641 14642 14643 14644 14645 14646 14647 14648 14649 14650 14651 14652 14653 14654 14655 14656 14657 14658 14659 14660 14661 14662 14663 14664 14665 14666 14667 14668 14669 14670 14671 14672 14673 14674 14675 14676 14677 14678 14679 14680 14681 14682 14683 14684 14685 14686 14687 14688 14689 14690 14691 14692 14693 14694 14695 14696 14697 14698 14699 14700 14701 14702 14703 14704 14705 14706 14707 14708 14709 14710 14711 14712 14713 14714 14715 14716 14717 14718 14719 14720 14721 14722 14723 14724 14725 14726 14727 14728 14729 14730 14731 14732 14733 14734 14735 14736 14737 14738 14739 14740 14741 14742 14743 14744 14745 14746 14747 14748 14749 14750 14751 14752 14753 14754 14755 14756 14757 14758 14759 14760 14761 14762 14763 14764 14765 14766 14767 14768 14769 14770 14771 14772 14773 14774 14775 14776 14777 14778 14779 14780 14781 14782 14783 14784 14785 14786 14787 14788 14789 14790 14791 14792 14793 14794 14795 14796 14797 14798 14799 14800 14801 14802 14803 14804 14805 14806 14807 14808 14809 14810 14811 14812 14813 14814 14815 14816 14817 14818 14819 14820 14821 14822 14823 14824 14825 14826 14827 14828 14829 14830 14831 14832 14833 14834 14835 14836 14837 14838 14839 14840 14841 14842 14843 14844 14845 14846 14847 14848 14849 14850 14851 14852 14853 14854 14855 14856 14857 14858 14859 14860 14861 14862 14863 14864 14865 14866 14867 14868 14869 14870 14871 14872 14873 14874 14875 14876 14877 14878 14879 14880 14881 14882 14883 14884 14885 14886 14887 14888 14889 14890 14891 14892 14893 14894 14895 14896 14897 14898 14899 14900 14901 14902 14903 14904 14905 14906 14907 14908 14909 14910 14911 14912 14913 14914 14915 14916 14917 14918 14919 14920 14921 14922 14923 14924 14925 14926 14927 14928 14929 14930 14931 14932 14933 14934 14935 14936 14937 14938 14939 14940 14941 14942 14943 14944 14945 14946 14947 14948 14949 14950 14951 14952 14953 14954 14955 14956 14957 14958 14959 14960 14961 14962 14963 14964 14965 14966 14967 14968 14969 14970 14971 14972 14973 14974 14975 14976 14977 14978 14979 14980 14981 14982 14983 14984 14985 14986 14987 14988 14989 14990 14991 14992 14993 14994 14995 14996 14997 14998 14999 15000 15001 15002 15003 15004 15005 15006 15007 15008 15009 15010 15011 15012 15013 15014 15015 15016 15017 15018 15019 15020 15021 15022 15023 15024 15025 15026 15027 15028 15029 15030 15031 15032 15033 15034 15035 15036 15037 15038 15039 15040 15041 15042 15043 15044 15045 15046 15047 15048 15049 15050 15051 15052 15053 15054 15055 15056 15057 15058 15059 15060 15061 15062 15063 15064 15065 15066 15067 15068 15069 15070 15071 15072 15073 15074 15075 15076 15077 15078 15079 15080 15081 15082 15083 15084 15085 15086 15087 15088 15089 15090 15091 15092 15093 15094 15095 15096 15097 15098 15099 15100 15101 15102 15103 15104 15105 15106 15107 15108 15109 15110 15111 15112 15113 15114 15115 15116 15117 15118 15119 15120 15121 15122 15123 15124 15125 15126 15127 15128 15129 15130 15131 15132 15133 15134 15135 15136 15137 15138 15139 15140 15141 15142 15143 15144 15145 15146 15147 15148 15149 15150 15151 15152 15153 15154 15155 15156 15157 15158 15159 15160 15161 15162 15163 15164 15165 15166 15167 15168 15169 15170 15171 15172 15173 15174 15175 15176 15177 15178 15179 15180 15181 15182 15183 15184 15185 15186 15187 15188 15189 15190 15191 15192 15193 15194 15195 15196 15197 15198 15199 15200 15201 15202 15203 15204 15205 15206 15207 15208 15209 15210 15211 15212 15213 15214 15215 15216 15217 15218 15219 15220 15221 15222 15223 15224 15225 15226 15227 15228 15229 15230 15231 15232 15233 15234 15235 15236 15237 15238 15239 15240 15241 15242 15243 15244 15245 15246 15247 15248 15249 15250 15251 15252 15253 15254 15255 15256 15257 15258 15259 15260 15261 15262 15263 15264 15265 15266 15267 15268 15269 15270 15271 15272 15273 15274 15275 15276 15277 15278 15279 15280 15281 15282 15283 15284 15285 15286 15287 15288 15289 15290 15291 15292 15293 15294 15295 15296 15297 15298 15299 15300 15301 15302 15303 15304 15305 15306 15307 15308 15309 15310 15311 15312 15313 15314 15315 15316 15317 15318 15319 15320 15321 15322 15323 15324 15325 15326 15327 15328 15329 15330 15331 15332 15333 15334 15335 15336 15337 15338 15339 15340 15341 15342 15343 15344 15345 15346 15347 15348 15349 15350 15351 15352 15353 15354 15355 15356 15357 15358 15359 15360 15361 15362 15363 15364 15365 15366 15367 15368 15369 15370 15371 15372 15373 15374 15375 15376 15377 15378 15379 15380 15381 15382 15383 15384 15385 15386 15387 15388 15389 15390 15391 15392 15393 15394 15395 15396 15397 15398 15399 15400 15401 15402 15403 15404 15405 15406 15407 15408 15409 15410 15411 15412 15413 15414 15415 15416 15417 15418 15419 15420 15421 15422 15423 15424 15425 15426 15427 15428 15429 15430 15431 15432 15433 15434 15435 15436 15437 15438 15439 15440 15441 15442 15443 15444 15445 15446 15447 15448 15449 15450 15451 15452 15453 15454 15455 15456 15457 15458 15459 15460 15461 15462 15463 15464 15465 15466 15467 15468 15469 15470 15471 15472 15473 15474 15475 15476 15477 15478 15479 15480 15481 15482 15483 15484 15485 15486 15487 15488 15489 15490 15491 15492 15493 15494 15495 15496 15497 15498 15499 15500 15501 15502 15503 15504 15505 15506 15507 15508 15509 15510 15511 15512 15513 15514 15515 15516 15517 15518 15519 15520 15521 15522 15523 15524 15525 15526 15527 15528 15529 15530 15531 15532 15533 15534 15535 15536 15537 15538 15539 15540 15541 15542 15543 15544 15545 15546 15547 15548 15549 15550 15551 15552 15553 15554 15555 15556 15557 15558 15559 15560 15561 15562 15563 15564 15565 15566 15567 15568 15569 15570 15571 15572 15573 15574 15575 15576 15577 15578 15579 15580 15581 15582 15583 15584 15585 15586 15587 15588 15589 15590 15591 15592 15593 15594 15595 15596 15597 15598 15599 15600 15601 15602 15603 15604 15605 15606 15607 15608 15609 15610 15611 15612 15613 15614 15615 15616 15617 15618 15619 15620 15621 15622 15623 15624 15625 15626 15627 15628 15629 15630 15631 15632 15633 15634 15635 15636 15637 15638 15639 15640 15641 15642 15643 15644 15645 15646 15647 15648 15649 15650 15651 15652 15653 15654 15655 15656 15657 15658 15659 15660 15661 15662 15663 15664 15665 15666 15667 15668 15669 15670 15671 15672 15673 15674 15675 15676 15677 15678 15679 15680 15681 15682 15683 15684 15685 15686 15687 15688 15689 15690 15691 15692 15693 15694 15695 15696 15697 15698 15699 15700 15701 15702 15703 15704 15705 15706 15707 15708 15709 15710 15711 15712 15713 15714 15715 15716 15717 15718 15719 15720 15721 15722 15723 15724 15725 15726 15727 15728 15729 15730 15731 15732 15733 15734 15735 15736 15737 15738 15739 15740 15741 15742 15743 15744 15745 15746 15747 15748 15749 15750 15751 15752 15753 15754 15755 15756 15757 15758 15759 15760 15761 15762 15763 15764 15765 15766 15767 15768 15769 15770 15771 15772 15773 15774 15775 15776 15777 15778 15779 15780 15781 15782 15783 15784 15785 15786 15787 15788 15789 15790 15791 15792 15793 15794 15795 15796 15797 15798 15799 15800 15801 15802 15803 15804 15805 15806 15807 15808 15809 15810 15811 15812 15813 15814 15815 15816 15817 15818 15819 15820 15821 15822 15823 15824 15825 15826 15827 15828 15829 15830 15831 15832 15833 15834 15835 15836 15837 15838 15839 15840 15841 15842 15843 15844 15845 15846 15847 15848 15849 15850 15851 15852 15853 15854 15855 15856 15857 15858 15859 15860 15861 15862 15863 15864 15865 15866 15867 15868 15869 15870 15871 15872 15873 15874 15875 15876 15877 15878 15879 15880 15881 15882 15883 15884 15885 15886 15887 15888 15889 15890 15891 15892 15893 15894 15895 15896 15897 15898 15899 15900 15901 15902 15903 15904 15905 15906 15907 15908 15909 15910 15911 15912 15913 15914 15915 15916 15917 15918 15919 15920 15921 15922 15923 15924 15925 15926 15927 15928 15929 15930 15931 15932 15933 15934 15935 15936 15937 15938 15939 15940 15941 15942 15943 15944 15945 15946 15947 15948 15949 15950 15951 15952 15953 15954 15955 15956 15957 15958 15959 15960 15961 15962 15963 15964 15965 15966 15967 15968 15969 15970 15971 15972 15973 15974 15975 15976 15977 15978 15979 15980 15981 15982 15983 15984 15985 15986 15987 15988 15989 15990 15991 15992 15993 15994 15995 15996 15997 15998 15999 16000 16001 16002 16003 16004 16005 16006 16007 16008 16009 16010 16011 16012 16013 16014 16015 16016 16017 16018 16019 16020 16021 16022 16023 16024 16025 16026 16027 16028 16029 16030 16031 16032 16033 16034 16035 16036 16037 16038 16039 16040 16041 16042 16043 16044 16045 16046 16047 16048 16049 16050 16051 16052 16053 16054 16055 16056 16057 16058 16059 16060 16061 16062 16063 16064 16065 16066 16067 16068 16069 16070 16071 16072 16073 16074 16075 16076 16077 16078 16079 16080 16081 16082 16083 16084 16085 16086 16087 16088 16089 16090 16091 16092 16093 16094 16095 16096 16097 16098 16099 16100 16101 16102 16103 16104 16105 16106 16107 16108 16109 16110 16111 16112 16113 16114 16115 16116 16117 16118 16119 16120 16121 16122 16123 16124 16125 16126 16127 16128 16129 16130 16131 16132 16133 16134 16135 16136 16137 16138 16139 16140 16141 16142 16143 16144 16145 16146 16147 16148 16149 16150 16151 16152 16153 16154 16155 16156 16157 16158 16159 16160 16161 16162 16163 16164 16165 16166 16167 16168 16169 16170 16171 16172 16173 16174 16175 16176 16177 16178 16179 16180 16181 16182 16183 16184 16185 16186 16187 16188 16189 16190 16191 16192 16193 16194 16195 16196 16197 16198 16199 16200 16201 16202 16203 16204 16205 16206 16207 16208 16209 16210 16211 16212 16213 16214 16215 16216 16217 16218 16219 16220 16221 16222 16223 16224 16225 16226 16227 16228 16229 16230 16231 16232 16233 16234 16235 16236 16237 16238 16239 16240 16241 16242 16243 16244 16245 16246 16247 16248 16249 16250 16251 16252 16253 16254 16255 16256 16257 16258 16259 16260 16261 16262 16263 16264 16265 16266 16267 16268 16269 16270 16271 16272 16273 16274 16275 16276 16277 16278 16279 16280 16281 16282 16283 16284 16285 16286 16287 16288 16289 16290 16291 16292 16293 16294 16295 16296 16297 16298 16299 16300 16301 16302 16303 16304 16305 16306 16307 16308 16309 16310 16311 16312 16313 16314 16315 16316 16317 16318 16319 16320 16321 16322 16323 16324 16325 16326 16327 16328 16329 16330 16331 16332 16333 16334 16335 16336 16337 16338 16339 16340 16341 16342 16343 16344 16345 16346 16347 16348 16349 16350 16351 16352 16353 16354 16355 16356 16357 16358 16359 16360 16361 16362 16363 16364 16365 16366 16367 16368 16369 16370 16371 16372 16373 16374 16375 16376 16377 16378 16379 16380 16381 16382 16383 16384 16385 16386 16387 16388 16389 16390 16391 16392 16393 16394 16395 16396 16397 16398 16399 16400 16401 16402 16403 16404 16405 16406 16407 16408 16409 16410 16411 16412 16413 16414 16415 16416 16417 16418 16419 16420 16421 16422 16423 16424 16425 16426 16427 16428 16429 16430 16431 16432 16433 16434 16435 16436 16437 16438 16439 16440 16441 16442 16443 16444 16445 16446 16447 16448 16449 16450 16451 16452 16453 16454 16455 16456 16457 16458 16459 16460 16461 16462 16463 16464 16465 16466 16467 16468 16469 16470 16471 16472 16473 16474 16475 16476 16477 16478 16479 16480 16481 16482 16483 16484 16485 16486 16487 16488 16489 16490 16491 16492 16493 16494 16495 16496 16497 16498 16499 16500 16501 16502 16503 16504 16505 16506 16507 16508 16509 16510 16511 16512 16513 16514 16515 16516 16517 16518 16519 16520 16521 16522 16523 16524 16525 16526 16527 16528 16529 16530 16531 16532 16533 16534 16535 16536 16537 16538 16539 16540 16541 16542 16543 16544 16545 16546 16547 16548 16549 16550 16551 16552 16553 16554 16555 16556 16557 16558 16559 16560 16561 16562 16563 16564 16565 16566 16567 16568 16569 16570 16571 16572 16573 16574 16575 16576 16577 16578 16579 16580 16581 16582 16583 16584 16585 16586 16587 16588 16589 16590 16591 16592 16593 16594 16595 16596 16597 16598 16599 16600 16601 16602 16603 16604 16605 16606 16607 16608 16609 16610 16611 16612 16613 16614 16615 16616 16617 16618 16619 16620 16621 16622 16623 16624 16625 16626 16627 16628 16629 16630 16631 16632 16633 16634 16635 16636 16637 16638 16639 16640 16641 16642 16643 16644 16645 16646 16647 16648 16649 16650 16651 16652 16653 16654 16655 16656 16657 16658 16659 16660 16661 16662 16663 16664 16665 16666 16667 16668 16669 16670 16671 16672 16673 16674 16675 16676 16677 16678 16679 16680 16681 16682 16683 16684 16685 16686 16687 16688 16689 16690 16691 16692 16693 16694 16695 16696 16697 16698 16699 16700 16701 16702 16703 16704 16705 16706 16707 16708 16709 16710 16711 16712 16713 16714 16715 16716 16717 16718 16719 16720 16721 16722 16723 16724 16725 16726 16727 16728 16729 16730 16731 16732 16733 16734 16735 16736 16737 16738 16739 16740 16741 16742 16743 16744 16745 16746 16747 16748 16749 16750 16751 16752 16753 16754 16755 16756 16757 16758 16759 16760 16761 16762 16763 16764 16765 16766 16767 16768 16769 16770 16771 16772 16773 16774 16775 16776 16777 16778 16779 16780 16781 16782 16783 16784 16785 16786 16787 16788 16789 16790 16791 16792 16793 16794 16795 16796 16797 16798 16799 16800 16801 16802 16803 16804 16805 16806 16807 16808 16809 16810 16811 16812 16813 16814 16815 16816 16817 16818 16819 16820 16821 16822 16823 16824 16825 16826 16827 16828 16829 16830 16831 16832 16833 16834 16835 16836 16837 16838 16839 16840 16841 16842 16843 16844 16845 16846 16847 16848 16849 16850 16851 16852 16853 16854 16855 16856 16857 16858 16859 16860 16861 16862 16863 16864 16865 16866 16867 16868 16869 16870 16871 16872 16873 16874 16875 16876 16877 16878 16879 16880 16881 16882 16883 16884 16885 16886 16887 16888 16889 16890 16891 16892 16893 16894 16895 16896 16897 16898 16899 16900 16901 16902 16903 16904 16905 16906 16907 16908 16909 16910 16911 16912 16913 16914 16915 16916 16917 16918 16919 16920 16921 16922 16923 16924 16925 16926 16927 16928 16929 16930 16931 16932 16933 16934 16935 16936 16937 16938 16939 16940 16941 16942 16943 16944 16945 16946 16947 16948 16949 16950 16951 16952 16953 16954 16955 16956 16957 16958 16959 16960 16961 16962 16963 16964 16965 16966 16967 16968 16969 16970 16971 16972 16973 16974 16975 16976 16977 16978 16979 16980 16981 16982 16983 16984 16985 16986 16987 16988 16989 16990 16991 16992 16993 16994 16995 16996 16997 16998 16999 17000 17001 17002 17003 17004 17005 17006 17007 17008 17009 17010 17011 17012 17013 17014 17015 17016 17017 17018 17019 17020 17021 17022 17023 17024 17025 17026 17027 17028 17029 17030 17031 17032 17033 17034 17035 17036 17037 17038 17039 17040 17041 17042 17043 17044 17045 17046 17047 17048 17049 17050 17051 17052 17053 17054 17055 17056 17057 17058 17059 17060 17061 17062 17063 17064 17065 17066 17067 17068 17069 17070 17071 17072 17073 17074 17075 17076 17077 17078 17079 17080 17081 17082 17083 17084 17085 17086 17087 17088 17089 17090 17091 17092 17093 17094 17095 17096 17097 17098 17099 17100 17101 17102 17103 17104 17105 17106 17107 17108 17109 17110 17111 17112 17113 17114 17115 17116 17117 17118 17119 17120 17121 17122 17123 17124 17125 17126 17127 17128 17129 17130 17131 17132 17133 17134 17135 17136 17137 17138 17139 17140 17141 17142 17143 17144 17145 17146 17147 17148 17149 17150 17151 17152 17153 17154 17155 17156 17157 17158 17159 17160 17161 17162 17163 17164 17165 17166 17167 17168 17169 17170 17171 17172 17173 17174 17175 17176 17177 17178 17179 17180 17181 17182 17183 17184 17185 17186 17187 17188 17189 17190 17191 17192 17193 17194 17195 17196 17197 17198 17199 17200 17201 17202 17203 17204 17205 17206 17207 17208 17209 17210 17211 17212 17213 17214 17215 17216 17217 17218 17219 17220 17221 17222 17223 17224 17225 17226 17227 17228 17229 17230 17231 17232 17233 17234 17235 17236 17237 17238 17239 17240 17241 17242 17243 17244 17245 17246 17247 17248 17249 17250 17251 17252 17253 17254 17255 17256 17257 17258 17259 17260 17261 17262 17263 17264 17265 17266 17267 17268 17269 17270 17271 17272 17273 17274 17275 17276 17277 17278 17279 17280 17281 17282 17283 17284 17285 17286 17287 17288 17289 17290 17291 17292 17293 17294 17295 17296 17297 17298 17299 17300 17301 17302 17303 17304 17305 17306 17307 17308 17309 17310 17311 17312 17313 17314 17315 17316 17317 17318 17319 17320 17321 17322 17323 17324 17325 17326 17327 17328 17329 17330 17331 17332 17333 17334 17335 17336 17337 17338 17339 17340 17341 17342 17343 17344 17345 17346 17347 17348 17349 17350 17351 17352 17353 17354 17355 17356 17357 17358 17359 17360 17361 17362 17363 17364 17365 17366 17367 17368 17369 17370 17371 17372 17373 17374 17375 17376 17377 17378 17379 17380 17381 17382 17383 17384 17385 17386 17387 17388 17389 17390 17391 17392 17393 17394 17395 17396 17397 17398 17399 17400 17401 17402 17403 17404 17405 17406 17407 17408 17409 17410 17411 17412 17413 17414 17415 17416 17417 17418 17419 17420 17421 17422 17423 17424 17425 17426 17427 17428 17429 17430 17431 17432 17433 17434 17435 17436 17437 17438 17439 17440 17441 17442 17443 17444 17445 17446 17447 17448 17449 17450 17451 17452 17453 17454 17455 17456 17457 17458 17459 17460 17461 17462 17463 17464 17465 17466 17467 17468 17469 17470 17471 17472 17473 17474 17475 17476 17477 17478 17479 17480 17481 17482 17483 17484 17485 17486 17487 17488 17489 17490 17491 17492 17493 17494 17495 17496 17497 17498 17499 17500 17501 17502 17503 17504 17505 17506 17507 17508 17509 17510 17511 17512 17513 17514 17515 17516 17517 17518 17519 17520 17521 17522 17523 17524 17525 17526 17527 17528 17529 17530 17531 17532 17533 17534 17535 17536 17537 17538 17539 17540 17541 17542 17543 17544 17545 17546 17547 17548 17549 17550 17551 17552 17553 17554 17555 17556 17557 17558 17559 17560 17561 17562 17563 17564 17565 17566 17567 17568 17569 17570 17571 17572 17573 17574 17575 17576 17577 17578 17579 17580 17581 17582 17583 17584 17585 17586 17587 17588 17589 17590 17591 17592 17593 17594 17595 17596 17597 17598 17599 17600 17601 17602 17603 17604 17605 17606 17607 17608 17609 17610 17611 17612 17613 17614 17615 17616 17617 17618 17619 17620 17621 17622 17623 17624 17625 17626 17627 17628 17629 17630 17631 17632 17633 17634 17635 17636 17637 17638 17639 17640 17641 17642 17643 17644 17645 17646 17647 17648 17649 17650 17651 17652 17653 17654 17655 17656 17657 17658 17659 17660 17661 17662 17663 17664 17665 17666 17667 17668 17669 17670 17671 17672 17673 17674 17675 17676 17677 17678 17679 17680 17681 17682 17683 17684 17685 17686 17687 17688 17689 17690 17691 17692 17693 17694 17695 17696 17697 17698 17699 17700 17701 17702 17703 17704 17705 17706 17707 17708 17709 17710 17711 17712 17713 17714 17715 17716 17717 17718 17719 17720 17721 17722 17723 17724 17725 17726 17727 17728 17729 17730 17731 17732 17733 17734 17735 17736 17737 17738 17739 17740 17741 17742 17743 17744 17745 17746 17747 17748 17749 17750 17751 17752 17753 17754 17755 17756 17757 17758 17759 17760 17761 17762 17763 17764 17765 17766 17767 17768 17769 17770 17771 17772 17773 17774 17775 17776 17777 17778 17779 17780 17781 17782 17783 17784 17785 17786 17787 17788 17789 17790 17791 17792 17793 17794 17795 17796 17797 17798 17799 17800 17801 17802 17803 17804 17805 17806 17807 17808 17809 17810 17811 17812 17813 17814 17815 17816 17817 17818 17819 17820 17821 17822 17823 17824 17825 17826 17827 17828 17829 17830 17831 17832 17833 17834 17835 17836 17837 17838 17839 17840 17841 17842 17843 17844 17845 17846 17847 17848 17849 17850 17851 17852 17853 17854 17855 17856 17857 17858 17859 17860 17861 17862 17863 17864 17865 17866 17867 17868 17869 17870 17871 17872 17873 17874 17875 17876 17877 17878 17879 17880 17881 17882 17883 17884 17885 17886 17887 17888 17889 17890 17891 17892 17893 17894 17895 17896 17897 17898 17899 17900 17901 17902 17903 17904 17905 17906 17907 17908 17909 17910 17911 17912 17913 17914 17915 17916 17917 17918 17919 17920 17921 17922 17923 17924 17925 17926 17927 17928 17929 17930 17931 17932 17933 17934 17935 17936 17937 17938 17939 17940 17941 17942 17943 17944 17945 17946 17947 17948 17949 17950 17951 17952 17953 17954 17955 17956 17957 17958 17959 17960 17961 17962 17963 17964 17965 17966 17967 17968 17969 17970 17971 17972 17973 17974 17975 17976 17977 17978 17979 17980 17981 17982 17983 17984 17985 17986 17987 17988 17989 17990 17991 17992 17993 17994 17995 17996 17997 17998 17999 18000 18001 18002 18003 18004 18005 18006 18007 18008 18009 18010 18011 18012 18013 18014 18015 18016 18017 18018 18019 18020 18021 18022 18023 18024 18025 18026 18027 18028 18029 18030 18031 18032 18033 18034 18035 18036 18037 18038 18039 18040 18041 18042 18043 18044 18045 18046 18047 18048 18049 18050 18051 18052 18053 18054 18055 18056 18057 18058 18059 18060 18061 18062 18063 18064 18065 18066 18067 18068 18069 18070 18071 18072 18073 18074 18075 18076 18077 18078 18079 18080 18081 18082 18083 18084 18085 18086 18087 18088 18089 18090 18091 18092 18093 18094 18095 18096 18097 18098 18099 18100 18101 18102 18103 18104 18105 18106 18107 18108 18109 18110 18111 18112 18113 18114 18115 18116 18117 18118 18119 18120 18121 18122 18123 18124 18125 18126 18127 18128 18129 18130 18131 18132 18133 18134 18135 18136 18137 18138 18139 18140 18141 18142 18143 18144 18145 18146 18147 18148 18149 18150 18151 18152 18153 18154 18155 18156 18157 18158 18159 18160 18161 18162 18163 18164 18165 18166 18167 18168 18169 18170 18171 18172 18173 18174 18175 18176 18177 18178 18179 18180 18181 18182 18183 18184 18185 18186 18187 18188 18189 18190 18191 18192 18193 18194 18195 18196 18197 18198 18199 18200 18201 18202 18203 18204 18205 18206 18207 18208 18209 18210 18211 18212 18213 18214 18215 18216 18217 18218 18219 18220 18221 18222 18223 18224 18225 18226 18227 18228 18229 18230 18231 18232 18233 18234 18235 18236 18237 18238 18239 18240 18241 18242 18243 18244 18245 18246 18247 18248 18249 18250 18251 18252 18253 18254 18255 18256 18257 18258 18259 18260 18261 18262 18263 18264 18265 18266 18267 18268 18269 18270 18271 18272 18273 18274 18275 18276 18277 18278 18279 18280 18281 18282 18283 18284 18285 18286 18287 18288 18289 18290 18291 18292 18293 18294 18295 18296 18297 18298 18299 18300 18301 18302 18303 18304 18305 18306 18307 18308 18309 18310 18311 18312 18313 18314 18315 18316 18317 18318 18319 18320 18321 18322 18323 18324 18325 18326 18327 18328 18329 18330 18331 18332 18333 18334 18335 18336 18337 18338 18339 18340 18341 18342 18343 18344 18345 18346 18347 18348 18349 18350 18351 18352 18353 18354 18355 18356 18357 18358 18359 18360 18361 18362 18363 18364 18365 18366 18367 18368 18369 18370 18371 18372 18373 18374 18375 18376 18377 18378 18379 18380 18381 18382 18383 18384 18385 18386 18387 18388 18389 18390 18391 18392 18393 18394 18395 18396 18397 18398 18399 18400 18401 18402 18403 18404 18405 18406 18407 18408 18409 18410 18411 18412 18413 18414 18415 18416 18417 18418 18419 18420 18421 18422 18423 18424 18425 18426 18427 18428 18429 18430 18431 18432 18433 18434 18435 18436 18437 18438 18439 18440 18441 18442 18443 18444 18445 18446 18447 18448 18449 18450 18451 18452 18453 18454 18455 18456 18457 18458 18459 18460 18461 18462 18463 18464 18465 18466 18467 18468 18469 18470 18471 18472 18473 18474 18475 18476 18477 18478 18479 18480 18481 18482 18483 18484 18485 18486 18487 18488 18489 18490 18491 18492 18493 18494 18495 18496 18497 18498 18499 18500 18501 18502 18503 18504 18505 18506 18507 18508 18509 18510 18511 18512 18513 18514 18515 18516 18517 18518 18519 18520 18521 18522 18523 18524 18525 18526 18527 18528 18529 18530 18531 18532 18533 18534 18535 18536 18537 18538 18539 18540 18541 18542 18543 18544 18545 18546 18547 18548 18549 18550 18551 18552 18553 18554 18555 18556 18557 18558 18559 18560 18561 18562 18563 18564 18565 18566 18567 18568 18569 18570 18571 18572 18573 18574 18575 18576 18577 18578 18579 18580 18581 18582 18583 18584 18585 18586 18587 18588 18589 18590 18591 18592 18593 18594 18595 18596 18597 18598 18599 18600 18601 18602 18603 18604 18605 18606 18607 18608 18609 18610 18611 18612 18613 18614 18615 18616 18617 18618 18619 18620 18621 18622 18623 18624 18625 18626 18627 18628 18629 18630 18631 18632 18633 18634 18635 18636 18637 18638 18639 18640 18641 18642 18643 18644 18645 18646 18647 18648 18649 18650 18651 18652 18653 18654 18655 18656 18657 18658 18659 18660 18661 18662 18663 18664 18665 18666 18667 18668 18669 18670 18671 18672 18673 18674 18675 18676 18677 18678 18679 18680 18681 18682 18683 18684 18685 18686 18687 18688 18689 18690 18691 18692 18693 18694 18695 18696 18697 18698 18699 18700 18701 18702 18703 18704 18705 18706 18707 18708 18709 18710 18711 18712 18713 18714 18715 18716 18717 18718 18719 18720 18721 18722 18723 18724 18725 18726 18727 18728 18729 18730 18731 18732 18733 18734 18735 18736 18737 18738 18739 18740 18741 18742 18743 18744 18745 18746 18747 18748 18749 18750 18751 18752 18753 18754 18755 18756 18757 18758 18759 18760 18761 18762 18763 18764 18765 18766 18767 18768 18769 18770 18771 18772 18773 18774 18775 18776 18777 18778 18779 18780 18781 18782 18783 18784 18785 18786 18787 18788 18789 18790 18791 18792 18793 18794 18795 18796 18797 18798 18799 18800 18801 18802 18803 18804 18805 18806 18807 18808 18809 18810 18811 18812 18813 18814 18815 18816 18817 18818 18819 18820 18821 18822 18823 18824 18825 18826 18827 18828 18829 18830 18831 18832 18833 18834 18835 18836 18837 18838 18839 18840 18841 18842 18843 18844 18845 18846 18847 18848 18849 18850 18851 18852 18853 18854 18855 18856 18857 18858 18859 18860 18861 18862 18863 18864 18865 18866 18867 18868 18869 18870 18871 18872 18873 18874 18875 18876 18877 18878 18879 18880 18881 18882 18883 18884 18885 18886 18887 18888 18889 18890 18891 18892 18893 18894 18895 18896 18897 18898 18899 18900 18901 18902 18903 18904 18905 18906 18907 18908 18909 18910 18911 18912 18913 18914 18915 18916 18917 18918 18919 18920 18921 18922 18923 18924 18925 18926 18927 18928 18929 18930 18931 18932 18933 18934 18935 18936 18937 18938 18939 18940 18941 18942 18943 18944 18945 18946 18947 18948 18949 18950 18951 18952 18953 18954 18955 18956 18957 18958 18959 18960 18961 18962 18963 18964 18965 18966 18967 18968 18969 18970 18971 18972 18973 18974 18975 18976 18977 18978 18979 18980 18981 18982 18983 18984 18985 18986 18987 18988 18989 18990 18991 18992 18993 18994 18995 18996 18997 18998 18999 19000 19001 19002 19003 19004 19005 19006 19007 19008 19009 19010 19011 19012 19013 19014 19015 19016 19017 19018 19019 19020 19021 19022 19023 19024 19025 19026 19027 19028 19029 19030 19031 19032 19033 19034 19035 19036 19037 19038 19039 19040 19041 19042 19043 19044 19045 19046 19047 19048 19049 19050 19051 19052 19053 19054 19055 19056 19057 19058 19059 19060 19061 19062 19063 19064 19065 19066 19067 19068 19069 19070 19071 19072 19073 19074 19075 19076 19077 19078 19079 19080 19081 19082 19083 19084 19085 19086 19087 19088 19089 19090 19091 19092 19093 19094 19095 19096 19097 19098 19099 19100 19101 19102 19103 19104 19105 19106 19107 19108 19109 19110 19111 19112 19113 19114 19115 19116 19117 19118 19119 19120 19121 19122 19123 19124 19125 19126 19127 19128 19129 19130 19131 19132 19133 19134 19135 19136 19137 19138 19139 19140 19141 19142 19143 19144 19145 19146 19147 19148 19149 19150 19151 19152 19153 19154 19155 19156 19157 19158 19159 19160 19161 19162 19163 19164 19165 19166 19167 19168 19169 19170 19171 19172 19173 19174 19175 19176 19177 19178 19179 19180 19181 19182 19183 19184 19185 19186 19187 19188 19189 19190 19191 19192 19193 19194 19195 19196 19197 19198 19199 19200 19201 19202 19203 19204 19205 19206 19207 19208 19209 19210 19211 19212 19213 19214 19215 19216 19217 19218 19219 19220 19221 19222 19223 19224 19225 19226 19227 19228 19229 19230 19231 19232 19233 19234 19235 19236 19237 19238 19239 19240 19241 19242 19243 19244 19245 19246 19247 19248 19249 19250 19251 19252 19253 19254 19255 19256 19257 19258 19259 19260 19261 19262 19263 19264 19265 19266 19267 19268 19269 19270 19271 19272 19273 19274 19275 19276 19277 19278 19279 19280 19281 19282 19283 19284 19285 19286 19287 19288 19289 19290 19291 19292 19293 19294 19295 19296 19297 19298 19299 19300 19301 19302 19303 19304 19305 19306 19307 19308 19309 19310 19311 19312 19313 19314 19315 19316 19317 19318 19319 19320 19321 19322 19323 19324 19325 19326 19327 19328 19329 19330 19331 19332 19333 19334 19335 19336 19337 19338 19339 19340 19341 19342 19343 19344 19345 19346 19347 19348 19349 19350 19351 19352 19353 19354 19355 19356 19357 19358 19359 19360 19361 19362 19363 19364 19365 19366 19367 19368 19369 19370 19371 19372 19373 19374 19375 19376 19377 19378 19379 19380 19381 19382 19383 19384 19385 19386 19387 19388 19389 19390 19391 19392 19393 19394 19395 19396 19397 19398 19399 19400 19401 19402 19403 19404 19405 19406 19407 19408 19409 19410 19411 19412 19413 19414 19415 19416 19417 19418 19419 19420 19421 19422 19423 19424 19425 19426 19427 19428 19429 19430 19431 19432 19433 19434 19435 19436 19437 19438 19439 19440 19441 19442 19443 19444 19445 19446 19447 19448 19449 19450 19451 19452 19453 19454 19455 19456 19457 19458 19459 19460 19461 19462 19463 19464 19465 19466 19467 19468 19469 19470 19471 19472 19473 19474 19475 19476 19477 19478 19479 19480 19481 19482 19483 19484 19485 19486 19487 19488 19489 19490 19491 19492 19493 19494 19495 19496 19497 19498 19499 19500 19501 19502 19503 19504 19505 19506 19507 19508 19509 19510 19511 19512 19513 19514 19515 19516 19517 19518 19519 19520 19521 19522 19523 19524 19525 19526 19527 19528 19529 19530 19531 19532 19533 19534 19535 19536 19537 19538 19539 19540 19541 19542 19543 19544 19545 19546 19547 19548 19549 19550 19551 19552 19553 19554 19555 19556 19557 19558 19559 19560 19561 19562 19563 19564 19565 19566 19567 19568 19569 19570 19571 19572 19573 19574 19575 19576 19577 19578 19579 19580 19581 19582 19583 19584 19585 19586 19587 19588 19589 19590 19591 19592 19593 19594 19595 19596 19597 19598 19599 19600 19601 19602 19603 19604 19605 19606 19607 19608 19609 19610 19611 19612 19613 19614 19615 19616 19617 19618 19619 19620 19621 19622 19623 19624 19625 19626 19627 19628 19629 19630 19631 19632 19633 19634 19635 19636 19637 19638 19639 19640 19641 19642 19643 19644 19645 19646 19647 19648 19649 19650 19651 19652 19653 19654 19655 19656 19657 19658 19659 19660 19661 19662 19663 19664 19665 19666 19667 19668 19669 19670 19671 19672 19673 19674 19675 19676 19677 19678 19679 19680 19681 19682 19683 19684 19685 19686 19687 19688 19689 19690 19691 19692 19693 19694 19695 19696 19697 19698 19699 19700 19701 19702 19703 19704 19705 19706 19707 19708 19709 19710 19711 19712 19713 19714 19715 19716 19717 19718 19719 19720 19721 19722 19723 19724 19725 19726 19727 19728 19729 19730 19731 19732 19733 19734 19735 19736 19737 19738 19739 19740 19741 19742 19743 19744 19745 19746 19747 19748 19749 19750 19751 19752 19753 19754 19755 19756 19757 19758 19759 19760 19761 19762 19763 19764 19765 19766 19767 19768 19769 19770 19771 19772 19773 19774 19775 19776 19777 19778 19779 19780 19781 19782 19783 19784 19785 19786 19787 19788 19789 19790 19791 19792 19793 19794 19795 19796 19797 19798 19799 19800 19801 19802 19803 19804 19805 19806 19807 19808 19809 19810 19811 19812 19813 19814 19815 19816 19817 19818 19819 19820 19821 19822 19823 19824 19825 19826 19827 19828 19829 19830 19831 19832 19833 19834 19835 19836 19837 19838 19839 19840 19841 19842 19843 19844 19845 19846 19847 19848 19849 19850 19851 19852 19853 19854 19855 19856 19857 19858 19859 19860 19861 19862 19863 19864 19865 19866 19867 19868 19869 19870 19871 19872 19873 19874 19875 19876 19877 19878 19879 19880 19881 19882 19883 19884 19885 19886 19887 19888 19889 19890 19891 19892 19893 19894 19895 19896 19897 19898 19899 19900 19901 19902 19903 19904 19905 19906 19907 19908 19909 19910 19911 19912 19913 19914 19915 19916 19917 19918 19919 19920 19921 19922 19923 19924 19925 19926 19927 19928 19929 19930 19931 19932 19933 19934 19935 19936 19937 19938 19939 19940 19941 19942 19943 19944 19945 19946 19947 19948 19949 19950 19951 19952 19953 19954 19955 19956 19957 19958 19959 19960 19961 19962 19963 19964 19965 19966 19967 19968 19969 19970 19971 19972 19973 19974 19975 19976 19977 19978 19979 19980 19981 19982 19983 19984 19985 19986 19987 19988 19989 19990 19991 19992 19993 19994 19995 19996 19997 19998 19999 20000 20001 20002 20003 20004 20005 20006 20007 20008 20009 20010 20011 20012 20013 20014 20015 20016 20017 20018 20019 20020 20021 20022 20023 20024 20025 20026 20027 20028 20029 20030 20031 20032 20033 20034 20035 20036 20037 20038 20039 20040 20041 20042 20043 20044 20045 20046 20047 20048 20049 20050 20051 20052 20053 20054 20055 20056 20057 20058 20059 20060 20061 20062 20063 20064 20065 20066 20067 20068 20069 20070 20071 20072 20073 20074 20075 20076 20077 20078 20079 20080 20081 20082 20083 20084 20085 20086 20087 20088 20089 20090 20091 20092 20093 20094 20095 20096 20097 20098 20099 20100 20101 20102 20103 20104 20105 20106 20107 20108 20109 20110 20111 20112 20113 20114 20115 20116 20117 20118 20119 20120 20121 20122 20123 20124 20125 20126 20127 20128 20129 20130 20131 20132 20133 20134 20135 20136 20137 20138 20139 20140 20141 20142 20143 20144 20145 20146 20147 20148 20149 20150 20151 20152 20153 20154 20155 20156 20157 20158 20159 20160 20161 20162 20163 20164 20165 20166 20167 20168 20169 20170 20171 20172 20173 20174 20175 20176 20177 20178 20179 20180 20181 20182 20183 20184 20185 20186 20187 20188 20189 20190 20191 20192 20193 20194 20195 20196 20197 20198 20199 20200 20201 20202 20203 20204 20205 20206 20207 20208 20209 20210 20211 20212 20213 20214 20215 20216 20217 20218 20219 20220 20221 20222 20223 20224 20225 20226 20227 20228 20229 20230 20231 20232 20233 20234 20235 20236 20237 20238 20239 20240 20241 20242 20243 20244 20245 20246 20247 20248 20249 20250 20251 20252 20253 20254 20255 20256 20257 20258 20259 20260 20261 20262 20263 20264 20265 20266 20267 20268 20269 20270 20271 20272 20273 20274 20275 20276 20277 20278 20279 20280 20281 20282 20283 20284 20285 20286 20287 20288 20289 20290 20291 20292 20293 20294 20295 20296 20297 20298 20299 20300 20301 20302 20303 20304 20305 20306 20307 20308 20309 20310 20311 20312 20313 20314 20315 20316 20317 20318 20319 20320 20321 20322 20323 20324 20325 20326 20327 20328 20329 20330 20331 20332 20333 20334 20335 20336 20337 20338 20339 20340 20341 20342 20343 20344 20345 20346 20347 20348 20349 20350 20351 20352 20353 20354 20355 20356 20357 20358 20359 20360 20361 20362 20363 20364 20365 20366 20367 20368 20369 20370 20371 20372 20373 20374 20375 20376 20377 20378 20379 20380 20381 20382 20383 20384 20385 20386 20387 20388 20389 20390 20391 20392 20393 20394 20395 20396 20397 20398 20399 20400 20401 20402 20403 20404 20405 20406 20407 20408 20409 20410 20411 20412 20413 20414 20415 20416 20417 20418 20419 20420 20421 20422 20423 20424 20425 20426 20427 20428 20429 20430 20431 20432 20433 20434 20435 20436 20437 20438 20439 20440 20441 20442 20443 20444 20445 20446 20447 20448 20449 20450 20451 20452 20453 20454 20455 20456 20457 20458 20459 20460 20461 20462 20463 20464 20465 20466 20467 20468 20469 20470 20471 20472 20473 20474 20475 20476 20477 20478 20479 20480 20481 20482 20483 20484 20485 20486 20487 20488 20489 20490 20491 20492 20493 20494 20495 20496 20497 20498 20499 20500 20501 20502 20503 20504 20505 20506 20507 20508 20509 20510 20511 20512 20513 20514 20515 20516 20517 20518 20519 20520 20521 20522 20523 20524 20525 20526 20527 20528 20529 20530 20531 20532 20533 20534 20535 20536 20537 20538 20539 20540 20541 20542 20543 20544 20545 20546 20547 20548 20549 20550 20551 20552 20553 20554 20555 20556 20557 20558 20559 20560 20561 20562 20563 20564 20565 20566 20567 20568 20569 20570 20571 20572 20573 20574 20575 20576 20577 20578 20579 20580 20581 20582 20583 20584 20585 20586 20587 20588 20589 20590 20591 20592 20593 20594 20595 20596 20597 20598 20599 20600 20601 20602 20603 20604 20605 20606 20607 20608 20609 20610 20611 20612 20613 20614 20615 20616 20617 20618 20619 20620 20621 20622 20623 20624 20625 20626 20627 20628 20629 20630 20631 20632 20633 20634 20635 20636 20637 20638 20639 20640 20641 20642 20643 20644 20645 20646 20647 20648 20649 20650 20651 20652 20653 20654 20655 20656 20657 20658 20659 20660 20661 20662 20663 20664 20665 20666 20667 20668 20669 20670 20671 20672 20673 20674 20675 20676 20677 20678 20679 20680 20681 20682 20683 20684 20685 20686 20687 20688 20689 20690 20691 20692 20693 20694 20695 20696 20697 20698 20699 20700 20701 20702 20703 20704 20705 20706 20707 20708 20709 20710 20711 20712 20713 20714 20715 20716 20717 20718 20719 20720 20721 20722 20723 20724 20725 20726 20727 20728 20729 20730 20731 20732 20733 20734 20735 20736 20737 20738 20739 20740 20741 20742 20743 20744 20745 20746 20747 20748 20749 20750 20751 20752 20753 20754 20755 20756 20757 20758 20759 20760 20761 20762 20763 20764 20765 20766 20767 20768 20769 20770 20771 20772 20773 20774 20775 20776 20777 20778 20779 20780 20781 20782 20783 20784 20785 20786 20787 20788 20789 20790 20791 20792 20793 20794 20795 20796 20797 20798 20799 20800 20801 20802 20803 20804 20805 20806 20807 20808 20809 20810 20811 20812 20813 20814 20815 20816 20817 20818 20819 20820 20821 20822 20823 20824 20825 20826 20827 20828 20829 20830 20831 20832 20833 20834 20835 20836 20837 20838 20839 20840 20841 20842 20843 20844 20845 20846 20847 20848 20849 20850 20851 20852 20853 20854 20855 20856 20857 20858 20859 20860 20861 20862 20863 20864 20865 20866 20867 20868 20869 20870 20871 20872 20873 20874 20875 20876 20877 20878 20879 20880 20881 20882 20883 20884 20885 20886 20887 20888 20889 20890 20891 20892 20893 20894 20895 20896 20897 20898 20899 20900 20901 20902 20903 20904 20905 20906 20907 20908 20909 20910 20911 20912 20913 20914 20915 20916 20917 20918 20919 20920 20921 20922 20923 20924 20925 20926 20927 20928 20929 20930 20931 20932 20933 20934 20935 20936 20937 20938 20939 20940 20941 20942 20943 20944 20945 20946 20947 20948 20949 20950 20951 20952 20953 20954 20955 20956 20957 20958 20959 20960 20961 20962 20963 20964 20965 20966 20967 20968 20969 20970 20971 20972 20973 20974 20975 20976 20977 20978 20979 20980 20981 20982 20983 20984 20985 20986 20987 20988 20989 20990 20991 20992 20993 20994 20995 20996 20997 20998 20999 21000 21001 21002 21003 21004 21005 21006 21007 21008 21009 21010 21011 21012 21013 21014 21015 21016 21017 21018 21019 21020 21021 21022 21023 21024 21025 21026 21027 21028 21029 21030 21031 21032 21033 21034 21035 21036 21037 21038 21039 21040 21041 21042 21043 21044 21045 21046 21047 21048 21049 21050 21051 21052 21053 21054 21055 21056 21057 21058 21059 21060 21061 21062 21063 21064 21065 21066 21067 21068 21069 21070 21071 21072 21073 21074 21075 21076 21077 21078 21079 21080 21081 21082 21083 21084 21085 21086 21087 21088 21089 21090 21091 21092 21093 21094 21095 21096 21097 21098 21099 21100 21101 21102 21103 21104 21105 21106 21107 21108 21109 21110 21111 21112 21113 21114 21115 21116 21117 21118 21119 21120 21121 21122 21123 21124 21125 21126 21127 21128 21129 21130 21131 21132 21133 21134 21135 21136 21137 21138 21139 21140 21141 21142 21143 21144 21145 21146 21147 21148 21149 21150 21151 21152 21153 21154 21155 21156 21157 21158 21159 21160 21161 21162 21163 21164 21165 21166 21167 21168 21169 21170 21171 21172 21173 21174 21175 21176 21177 21178 21179 21180 21181 21182 21183 21184 21185 21186 21187 21188 21189 21190 21191 21192 21193 21194 21195 21196 21197 21198 21199 21200 21201 21202 21203 21204 21205 21206 21207 21208 21209 21210 21211 21212 21213 21214 21215 21216 21217 21218 21219 21220 21221 21222 21223 21224 21225 21226 21227 21228 21229 21230 21231 21232 21233 21234 21235 21236 21237 21238 21239 21240 21241 21242 21243 21244 21245 21246 21247 21248 21249 21250 21251 21252 21253 21254 21255 21256 21257 21258 21259 21260 21261 21262 21263 21264 21265 21266 21267 21268 21269 21270 21271 21272 21273 21274 21275 21276 21277 21278 21279 21280 21281 21282 21283 21284 21285 21286 21287 21288 21289 21290 21291 21292 21293 21294 21295 21296 21297 21298 21299 21300 21301 21302 21303 21304 21305 21306 21307 21308 21309 21310 21311 21312 21313 21314 21315 21316 21317 21318 21319 21320 21321 21322 21323 21324 21325 21326 21327 21328 21329 21330 21331 21332 21333 21334 21335 21336 21337 21338 21339 21340 21341 21342 21343 21344 21345 21346 21347 21348 21349 21350 21351 21352 21353 21354 21355 21356 21357 21358 21359 21360 21361 21362 21363 21364 21365 21366 21367 21368 21369 21370 21371 21372 21373 21374 21375 21376 21377 21378 21379 21380 21381 21382 21383 21384 21385 21386 21387 21388 21389 21390 21391 21392 21393 21394 21395 21396 21397 21398 21399 21400 21401 21402 21403 21404 21405 21406 21407 21408 21409 21410 21411 21412 21413 21414 21415 21416 21417 21418 21419 21420 21421 21422 21423 21424 21425 21426 21427 21428 21429 21430 21431 21432 21433 21434 21435 21436 21437 21438 21439 21440 21441 21442 21443 21444 21445 21446 21447 21448 21449 21450 21451 21452 21453 21454 21455 21456 21457 21458 21459 21460 21461 21462 21463 21464 21465 21466 21467 21468 21469 21470 21471 21472 21473 21474 21475 21476 21477 21478 21479 21480 21481 21482 21483 21484 21485 21486 21487 21488 21489 21490 21491 21492 21493 21494 21495 21496 21497 21498 21499 21500 21501 21502 21503 21504 21505 21506 21507 21508 21509 21510 21511 21512 21513 21514 21515 21516 21517 21518 21519 21520 21521 21522 21523 21524 21525 21526 21527 21528 21529 21530 21531 21532 21533 21534 21535 21536 21537 21538 21539 21540 21541 21542 21543 21544 21545 21546 21547 21548 21549 21550 21551 21552 21553 21554 21555 21556 21557 21558 21559 21560 21561 21562 21563 21564 21565 21566 21567 21568 21569 21570 21571 21572 21573 21574 21575 21576 21577 21578 21579 21580 21581 21582 21583 21584 21585 21586 21587 21588 21589 21590 21591 21592 21593 21594 21595 21596 21597 21598 21599 21600 21601 21602 21603 21604 21605 21606 21607 21608 21609 21610 21611 21612 21613 21614 21615 21616 21617 21618 21619 21620 21621 21622 21623 21624 21625 21626 21627 21628 21629 21630 21631 21632 21633 21634 21635 21636 21637 21638 21639 21640 21641 21642 21643 21644 21645 21646 21647 21648 21649 21650 21651 21652 21653 21654 21655 21656 21657 21658 21659 21660 21661 21662 21663 21664 21665 21666 21667 21668 21669 21670 21671 21672 21673 21674 21675 21676 21677 21678 21679 21680 21681 21682 21683 21684 21685 21686 21687 21688 21689 21690 21691 21692 21693 21694 21695 21696 21697 21698 21699 21700 21701 21702 21703 21704 21705 21706 21707 21708 21709 21710 21711 21712 21713 21714 21715 21716 21717 21718 21719 21720 21721 21722 21723 21724 21725 21726 21727 21728 21729 21730 21731 21732 21733 21734 21735 21736 21737 21738 21739 21740 21741 21742 21743 21744 21745 21746 21747 21748 21749 21750 21751 21752 21753 21754 21755 21756 21757 21758 21759 21760 21761 21762 21763 21764 21765 21766 21767 21768 21769 21770 21771 21772 21773 21774 21775 21776 21777 21778 21779 21780 21781 21782 21783 21784 21785 21786 21787 21788 21789 21790 21791 21792 21793 21794 21795 21796 21797 21798 21799 21800 21801 21802 21803 21804 21805 21806 21807 21808 21809 21810 21811 21812 21813 21814 21815 21816 21817 21818 21819 21820 21821 21822 21823 21824 21825 21826 21827 21828 21829 21830 21831 21832 21833 21834 21835 21836 21837 21838 21839 21840 21841 21842 21843 21844 21845 21846 21847 21848 21849 21850 21851 21852 21853 21854 21855 21856 21857 21858 21859 21860 21861 21862 21863 21864 21865 21866 21867 21868 21869 21870 21871 21872 21873 21874 21875 21876 21877 21878 21879 21880 21881 21882 21883 21884 21885 21886 21887 21888 21889 21890 21891 21892 21893 21894 21895 21896 21897 21898 21899 21900 21901 21902 21903 21904 21905 21906 21907 21908 21909 21910 21911 21912 21913 21914 21915 21916 21917 21918 21919 21920 21921 21922 21923 21924 21925 21926 21927 21928 21929 21930 21931 21932 21933 21934 21935 21936 21937 21938 21939 21940 21941 21942 21943 21944 21945 21946 21947 21948 21949 21950 21951 21952 21953 21954 21955 21956 21957 21958 21959 21960 21961 21962 21963 21964 21965 21966 21967 21968 21969 21970 21971 21972 21973 21974 21975 21976 21977 21978 21979 21980 21981 21982 21983 21984 21985 21986 21987 21988 21989 21990 21991 21992 21993 21994 21995 21996 21997 21998 21999 22000 22001 22002 22003 22004 22005 22006 22007 22008 22009 22010 22011 22012 22013 22014 22015 22016 22017 22018 22019 22020 22021 22022 22023 22024 22025 22026 22027 22028 22029 22030 22031 22032 22033 22034 22035 22036 22037 22038 22039 22040 22041 22042 22043 22044 22045 22046 22047 22048 22049 22050 22051 22052 22053 22054 22055 22056 22057 22058 22059 22060 22061 22062 22063 22064 22065 22066 22067 22068 22069 22070 22071 22072 22073 22074 22075 22076 22077 22078 22079 22080 22081 22082 22083 22084 22085 22086 22087 22088 22089 22090 22091 22092 22093 22094 22095 22096 22097 22098 22099 22100 22101 22102 22103 22104 22105 22106 22107 22108 22109 22110 22111 22112 22113 22114 22115 22116 22117 22118 22119 22120 22121 22122 22123 22124 22125 22126 22127 22128 22129 22130 22131 22132 22133 22134 22135 22136 22137 22138 22139 22140 22141 22142 22143 22144 22145 22146 22147 22148 22149 22150 22151 22152 22153 22154 22155 22156 22157 22158 22159 22160 22161 22162 22163 22164 22165 22166 22167 22168 22169 22170 22171 22172 22173 22174 22175 22176 22177 22178 22179 22180 22181 22182 22183 22184 22185 22186 22187 22188 22189 22190 22191 22192 22193 22194 22195 22196 22197 22198 22199 22200 22201 22202 22203 22204 22205 22206 22207 22208 22209 22210 22211 22212 22213 22214 22215 22216 22217 22218 22219 22220 22221 22222 22223 22224 22225 22226 22227 22228 22229 22230 22231 22232 22233 22234 22235 22236 22237 22238 22239 22240 22241 22242 22243 22244 22245 22246 22247 22248 22249 22250 22251 22252 22253 22254 22255 22256 22257 22258 22259 22260 22261 22262 22263 22264 22265 22266 22267 22268 22269 22270 22271 22272 22273 22274 22275 22276 22277 22278 22279 22280 22281 22282 22283 22284 22285 22286 22287 22288 22289 22290 22291 22292 22293 22294 22295 22296 22297 22298 22299 22300 22301 22302 22303 22304 22305 22306 22307 22308 22309 22310 22311 22312 22313 22314 22315 22316 22317 22318 22319 22320 22321 22322 22323 22324 22325 22326 22327 22328 22329 22330 22331 22332 22333 22334 22335 22336 22337 22338 22339 22340 22341 22342 22343 22344 22345 22346 22347 22348 22349 22350 22351 22352 22353 22354 22355 22356 22357 22358 22359 22360 22361 22362 22363 22364 22365 22366 22367 22368 22369 22370 22371 22372 22373 22374 22375 22376 22377 22378 22379 22380 22381 22382 22383 22384 22385 22386 22387 22388 22389 22390 22391 22392 22393 22394 22395 22396 22397 22398 22399 22400 22401 22402 22403 22404 22405 22406 22407 22408 22409 22410 22411 22412 22413 22414 22415 22416 22417 22418 22419 22420 22421 22422 22423 22424 22425 22426 22427 22428 22429 22430 22431 22432 22433 22434 22435 22436 22437 22438 22439 22440 22441 22442 22443 22444 22445 22446 22447 22448 22449 22450 22451 22452 22453 22454 22455 22456 22457 22458 22459 22460 22461 22462 22463 22464 22465 22466 22467 22468 22469 22470 22471 22472 22473 22474 22475 22476 22477 22478 22479 22480 22481 22482 22483 22484 22485 22486 22487 22488 22489 22490 22491 22492 22493 22494 22495 22496 22497 22498 22499 22500 22501 22502 22503 22504 22505 22506 22507 22508 22509 22510 22511 22512 22513 22514 22515 22516 22517 22518 22519 22520 22521 22522 22523 22524 22525 22526 22527 22528 22529 22530 22531 22532 22533 22534 22535 22536 22537 22538 22539 22540 22541 22542 22543 22544 22545 22546 22547 22548 22549 22550 22551 22552 22553 22554 22555 22556 22557 22558 22559 22560 22561 22562 22563 22564 22565 22566 22567 22568 22569 22570 22571 22572 22573 22574 22575 22576 22577 22578 22579 22580 22581 22582 22583 22584 22585 22586 22587 22588 22589 22590 22591 22592 22593 22594 22595 22596 22597 22598 22599 22600 22601 22602 22603 22604 22605 22606 22607 22608 22609 22610 22611 22612 22613 22614 22615 22616 22617 22618 22619 22620 22621 22622 22623 22624 22625 22626 22627 22628 22629 22630 22631 22632 22633 22634 22635 22636 22637 22638 22639 22640 22641 22642 22643 22644 22645 22646 22647 22648 22649 22650 22651 22652 22653 22654 22655 22656 22657 22658 22659 22660 22661 22662 22663 22664 22665 22666 22667 22668 22669 22670 22671 22672 22673 22674 22675 22676 22677 22678 22679 22680 22681 22682 22683 22684 22685 22686 22687 22688 22689 22690 22691 22692 22693 22694 22695 22696 22697 22698 22699 22700 22701 22702 22703 22704 22705 22706 22707 22708 22709 22710 22711 22712 22713 22714 22715 22716 22717 22718 22719 22720 22721 22722 22723 22724 22725 22726 22727 22728 22729 22730 22731 22732 22733 22734 22735 22736 22737 22738 22739 22740 22741 22742 22743 22744 22745 22746 22747 22748 22749 22750 22751 22752 22753 22754 22755 22756 22757 22758 22759 22760 22761 22762 22763 22764 22765 22766 22767 22768 22769 22770 22771 22772 22773 22774 22775 22776 22777 22778 22779 22780 22781 22782 22783 22784 22785 22786 22787 22788 22789 22790 22791 22792 22793 22794 22795 22796 22797 22798 22799 22800 22801 22802 22803 22804 22805 22806 22807 22808 22809 22810 22811 22812 22813 22814 22815 22816 22817 22818 22819 22820 22821 22822 22823 22824 22825 22826 22827 22828 22829 22830 22831 22832 22833 22834 22835 22836 22837 22838 22839 22840 22841 22842 22843 22844 22845 22846 22847 22848 22849 22850 22851 22852 22853 22854 22855 22856 22857 22858 22859 22860 22861 22862 22863 22864 22865 22866 22867 22868 22869 22870 22871 22872 22873 22874 22875 22876 22877 22878 22879 22880 22881 22882 22883 22884 22885 22886 22887 22888 22889 22890 22891 22892 22893 22894 22895 22896 22897 22898 22899 22900 22901 22902 22903 22904 22905 22906 22907 22908 22909 22910 22911 22912 22913 22914 22915 22916 22917 22918 22919 22920 22921 22922 22923 22924 22925 22926 22927 22928 22929 22930 22931 22932 22933 22934 22935 22936 22937 22938 22939 22940 22941 22942 22943 22944 22945 22946 22947 22948 22949 22950 22951 22952 22953 22954 22955 22956 22957 22958 22959 22960 22961 22962 22963 22964 22965 22966 22967 22968 22969 22970 22971 22972 22973 22974 22975 22976 22977 22978 22979 22980 22981 22982 22983 22984 22985 22986 22987 22988 22989 22990 22991 22992 22993 22994 22995 22996 22997 22998 22999 23000 23001 23002 23003 23004 23005 23006 23007 23008 23009 23010 23011 23012 23013 23014 23015 23016 23017 23018 23019 23020 23021 23022 23023 23024 23025 23026 23027 23028 23029 23030 23031 23032 23033 23034 23035 23036 23037 23038 23039 23040 23041 23042 23043 23044 23045 23046 23047 23048 23049 23050 23051 23052 23053 23054 23055 23056 23057 23058 23059 23060 23061 23062 23063 23064 23065 23066 23067 23068 23069 23070 23071 23072 23073 23074 23075 23076 23077 23078 23079 23080 23081 23082 23083 23084 23085 23086 23087 23088 23089 23090 23091 23092 23093 23094 23095 23096 23097 23098 23099 23100 23101 23102 23103 23104 23105 23106 23107 23108 23109 23110 23111 23112 23113 23114 23115 23116 23117 23118 23119 23120 23121 23122 23123 23124 23125 23126 23127 23128 23129 23130 23131 23132 23133 23134 23135 23136 23137 23138 23139 23140 23141 23142 23143 23144 23145 23146 23147 23148 23149 23150 23151 23152 23153 23154 23155 23156 23157 23158 23159 23160 23161 23162 23163 23164 23165 23166 23167 23168 23169 23170 23171 23172 23173 23174 23175 23176 23177 23178 23179 23180 23181 23182 23183 23184 23185 23186 23187 23188 23189 23190 23191 23192 23193 23194 23195 23196 23197 23198 23199 23200 23201 23202 23203 23204 23205 23206 23207 23208 23209 23210 23211 23212 23213 23214 23215 23216 23217 23218 23219 23220 23221 23222 23223 23224 23225 23226 23227 23228 23229 23230 23231 23232 23233 23234 23235 23236 23237 23238 23239 23240 23241 23242 23243 23244 23245 23246 23247 23248 23249 23250 23251 23252 23253 23254 23255 23256 23257 23258 23259 23260 23261 23262 23263 23264 23265 23266 23267 23268 23269 23270 23271 23272 23273 23274 23275 23276 23277 23278 23279 23280 23281 23282 23283 23284 23285 23286 23287 23288 23289 23290 23291 23292 23293 23294 23295 23296 23297 23298 23299 23300 23301 23302 23303 23304 23305 23306 23307 23308 23309 23310 23311 23312 23313 23314 23315 23316 23317 23318 23319 23320 23321 23322 23323 23324 23325 23326 23327 23328 23329 23330 23331 23332 23333 23334 23335 23336 23337 23338 23339 23340 23341 23342 23343 23344 23345 23346 23347 23348 23349 23350 23351 23352 23353 23354 23355 23356 23357 23358 23359 23360 23361 23362 23363 23364 23365 23366 23367 23368 23369 23370 23371 23372 23373 23374 23375 23376 23377 23378 23379 23380 23381 23382 23383 23384 23385 23386 23387 23388 23389 23390 23391 23392 23393 23394 23395 23396 23397 23398 23399 23400 23401 23402 23403 23404 23405 23406 23407 23408 23409 23410 23411 23412 23413 23414 23415 23416 23417 23418 23419 23420 23421 23422 23423 23424 23425 23426 23427 23428 23429 23430 23431 23432 23433 23434 23435 23436 23437 23438 23439 23440 23441 23442 23443 23444 23445 23446 23447 23448 23449 23450 23451 23452 23453 23454 23455 23456 23457 23458 23459 23460 23461 23462 23463 23464 23465 23466 23467 23468 23469 23470 23471 23472 23473 23474 23475 23476 23477 23478 23479 23480 23481 23482 23483 23484 23485 23486 23487 23488 23489 23490 23491 23492 23493 23494 23495 23496 23497 23498 23499 23500 23501 23502 23503 23504 23505 23506 23507 23508 23509 23510 23511 23512 23513 23514 23515 23516 23517 23518 23519 23520 23521 23522 23523 23524 23525 23526 23527 23528 23529 23530 23531 23532 23533 23534 23535 23536 23537 23538 23539 23540 23541 23542 23543 23544 23545 23546 23547 23548 23549 23550 23551 23552 23553 23554 23555 23556 23557 23558 23559 23560 23561 23562 23563 23564 23565 23566 23567 23568 23569 23570 23571 23572 23573 23574 23575 23576 23577 23578 23579 23580 23581 23582 23583 23584 23585 23586 23587 23588 23589 23590 23591 23592 23593 23594 23595 23596 23597 23598 23599 23600 23601 23602 23603 23604 23605 23606 23607 23608 23609 23610 23611 23612 23613 23614 23615 23616 23617 23618 23619 23620 23621 23622 23623 23624 23625 23626 23627 23628 23629 23630 23631 23632 23633 23634 23635 23636 23637 23638 23639 23640 23641 23642 23643 23644 23645 23646 23647 23648 23649 23650 23651 23652 23653 23654 23655 23656 23657 23658 23659 23660 23661 23662 23663 23664 23665 23666 23667 23668 23669 23670 23671 23672 23673 23674 23675 23676 23677 23678 23679 23680 23681 23682 23683 23684 23685 23686 23687 23688 23689 23690 23691 23692 23693 23694 23695 23696 23697 23698 23699 23700 23701 23702 23703 23704 23705 23706 23707 23708 23709 23710 23711 23712 23713 23714 23715 23716 23717 23718 23719 23720 23721 23722 23723 23724 23725 23726 23727 23728 23729 23730 23731 23732 23733 23734 23735 23736 23737 23738 23739 23740 23741 23742 23743 23744 23745 23746 23747 23748 23749 23750 23751 23752 23753 23754 23755 23756 23757 23758 23759 23760 23761 23762 23763 23764 23765 23766 23767 23768 23769 23770 23771 23772 23773 23774 23775 23776 23777 23778 23779 23780 23781 23782 23783 23784 23785 23786 23787 23788 23789 23790 23791 23792 23793 23794 23795 23796 23797 23798 23799 23800 23801 23802 23803 23804 23805 23806 23807 23808 23809 23810 23811 23812 23813 23814 23815 23816 23817 23818 23819 23820 23821 23822 23823 23824 23825 23826 23827 23828 23829 23830 23831 23832 23833 23834 23835 23836 23837 23838 23839 23840 23841 23842 23843 23844 23845 23846 23847 23848 23849 23850 23851 23852 23853 23854 23855 23856 23857 23858 23859 23860 23861 23862 23863 23864 23865 23866 23867 23868 23869 23870 23871 23872 23873 23874 23875 23876 23877 23878 23879 23880 23881 23882 23883 23884 23885 23886 23887 23888 23889 23890 23891 23892 23893 23894 23895 23896 23897 23898 23899 23900 23901 23902 23903 23904 23905 23906 23907 23908 23909 23910 23911 23912 23913 23914 23915 23916 23917 23918 23919 23920 23921 23922 23923 23924 23925 23926 23927 23928 23929 23930 23931 23932 23933 23934 23935 23936 23937 23938 23939 23940 23941 23942 23943 23944 23945 23946 23947 23948 23949 23950 23951 23952 23953 23954 23955 23956 23957 23958 23959 23960 23961 23962 23963 23964 23965 23966 23967 23968 23969 23970 23971 23972 23973 23974 23975 23976 23977 23978 23979 23980 23981 23982 23983 23984 23985 23986 23987 23988 23989 23990 23991 23992 23993 23994 23995 23996 23997 23998 23999 24000 24001 24002 24003 24004 24005 24006 24007 24008 24009 24010 24011 24012 24013 24014 24015 24016 24017 24018 24019 24020 24021 24022 24023 24024 24025 24026 24027 24028 24029 24030 24031 24032 24033 24034 24035 24036 24037 24038 24039 24040 24041 24042 24043 24044 24045 24046 24047 24048 24049 24050 24051 24052 24053 24054 24055 24056 24057 24058 24059 24060 24061 24062 24063 24064 24065 24066 24067 24068 24069 24070 24071 24072 24073 24074 24075 24076 24077 24078 24079 24080 24081 24082 24083 24084 24085 24086 24087 24088 24089 24090 24091 24092 24093 24094 24095 24096 24097 24098 24099 24100 24101 24102 24103 24104 24105 24106 24107 24108 24109 24110 24111 24112 24113 24114 24115 24116 24117 24118 24119 24120 24121 24122 24123 24124 24125 24126 24127 24128 24129 24130 24131 24132 24133 24134 24135 24136 24137 24138 24139 24140 24141 24142 24143 24144 24145 24146 24147 24148 24149 24150 24151 24152 24153 24154 24155 24156 24157 24158 24159 24160 24161 24162 24163 24164 24165 24166 24167 24168 24169 24170 24171 24172 24173 24174 24175 24176 24177 24178 24179 24180 24181 24182 24183 24184 24185 24186 24187 24188 24189 24190 24191 24192 24193 24194 24195 24196 24197 24198 24199 24200 24201 24202 24203 24204 24205 24206 24207 24208 24209 24210 24211 24212 24213 24214 24215 24216 24217 24218 24219 24220 24221 24222 24223 24224 24225 24226 24227 24228 24229 24230 24231 24232 24233 24234 24235 24236 24237 24238 24239 24240 24241 24242 24243 24244 24245 24246 24247 24248 24249 24250 24251 24252 24253 24254 24255 24256 24257 24258 24259 24260 24261 24262 24263 24264 24265 24266 24267 24268 24269 24270 24271 24272 24273 24274 24275 24276 24277 24278 24279 24280 24281 24282 24283 24284 24285 24286 24287 24288 24289 24290 24291 24292 24293 24294 24295 24296 24297 24298 24299 24300 24301 24302 24303 24304 24305 24306 24307 24308 24309 24310 24311 24312 24313 24314 24315 24316 24317 24318 24319 24320 24321 24322 24323 24324 24325 24326 24327 24328 24329 24330 24331 24332 24333 24334 24335 24336 24337 24338 24339 24340 24341 24342 24343 24344 24345 24346 24347 24348 24349 24350 24351 24352 24353 24354 24355 24356 24357 24358 24359 24360 24361 24362 24363 24364 24365 24366 24367 24368 24369 24370 24371 24372 24373 24374 24375 24376 24377 24378 24379 24380 24381 24382 24383 24384 24385 24386 24387 24388 24389 24390 24391 24392 24393 24394 24395 24396 24397 24398 24399 24400 24401 24402 24403 24404 24405 24406 24407 24408 24409 24410 24411 24412 24413 24414 24415 24416 24417 24418 24419 24420 24421 24422 24423 24424 24425 24426 24427 24428 24429 24430 24431 24432 24433 24434 24435 24436 24437 24438 24439 24440 24441 24442 24443 24444 24445 24446 24447 24448 24449 24450 24451 24452 24453 24454 24455 24456 24457 24458 24459 24460 24461 24462 24463 24464 24465 24466 24467 24468 24469 24470 24471 24472 24473 24474 24475 24476 24477 24478 24479 24480 24481 24482 24483 24484 24485 24486 24487 24488 24489 24490 24491 24492 24493 24494 24495 24496 24497 24498 24499 24500 24501 24502 24503 24504 24505 24506 24507 24508 24509 24510 24511 24512 24513 24514 24515 24516 24517 24518 24519 24520 24521 24522 24523 24524 24525 24526 24527 24528 24529 24530 24531 24532 24533 24534 24535 24536 24537 24538 24539 24540 24541 24542 24543 24544 24545 24546 24547 24548 24549 24550 24551 24552 24553 24554 24555 24556 24557 24558 24559 24560 24561 24562 24563 24564 24565 24566 24567 24568 24569 24570 24571 24572 24573 24574 24575 24576 24577 24578 24579 24580 24581 24582 24583 24584 24585 24586 24587 24588 24589 24590 24591 24592 24593 24594 24595 24596 24597 24598 24599 24600 24601 24602 24603 24604 24605 24606 24607 24608 24609 24610 24611 24612 24613 24614 24615 24616 24617 24618 24619 24620 24621 24622 24623 24624 24625 24626 24627 24628 24629 24630 24631 24632 24633 24634 24635 24636 24637 24638 24639 24640 24641 24642 24643 24644 24645 24646 24647 24648 24649 24650 24651 24652 24653 24654 24655 24656 24657 24658 24659 24660 24661 24662 24663 24664 24665 24666 24667 24668 24669 24670 24671 24672 24673 24674 24675 24676 24677 24678 24679 24680 24681 24682 24683 24684 24685 24686 24687 24688 24689 24690 24691 24692 24693 24694 24695 24696 24697 24698 24699 24700 24701 24702 24703 24704 24705 24706 24707 24708 24709 24710 24711 24712 24713 24714 24715 24716 24717 24718 24719 24720 24721 24722 24723 24724 24725 24726 24727 24728 24729 24730 24731 24732 24733 24734 24735 24736 24737 24738 24739 24740 24741 24742 24743 24744 24745 24746 24747 24748 24749 24750 24751 24752 24753 24754 24755 24756 24757 24758 24759 24760 24761 24762 24763 24764 24765 24766 24767 24768 24769 24770 24771 24772 24773 24774 24775 24776 24777 24778 24779 24780 24781 24782 24783 24784 24785 24786 24787 24788 24789 24790 24791 24792 24793 24794 24795 24796 24797 24798 24799 24800 24801 24802 24803 24804 24805 24806 24807 24808 24809 24810 24811 24812 24813 24814 24815 24816 24817 24818 24819 24820 24821 24822 24823 24824 24825 24826 24827 24828 24829 24830 24831 24832 24833 24834 24835 24836 24837 24838 24839 24840 24841 24842 24843 24844 24845 24846 24847 24848 24849 24850 24851 24852 24853 24854 24855 24856 24857 24858 24859 24860 24861 24862 24863 24864 24865 24866 24867 24868 24869 24870 24871 24872 24873 24874 24875 24876 24877 24878 24879 24880 24881 24882 24883 24884 24885 24886 24887 24888 24889 24890 24891 24892 24893 24894 24895 24896 24897 24898 24899 24900 24901 24902 24903 24904 24905 24906 24907 24908 24909 24910 24911 24912 24913 24914 24915 24916 24917 24918 24919 24920 24921 24922 24923 24924 24925 24926 24927 24928 24929 24930 24931 24932 24933 24934 24935 24936 24937 24938 24939 24940 24941 24942 24943 24944 24945 24946 24947 24948 24949 24950 24951 24952 24953 24954 24955 24956 24957 24958 24959 24960 24961 24962 24963 24964 24965 24966 24967 24968 24969 24970 24971 24972 24973 24974 24975 24976 24977 24978 24979 24980 24981 24982 24983 24984 24985 24986 24987 24988 24989 24990 24991 24992 24993 24994 24995 24996 24997 24998 24999 25000 25001 25002 25003 25004 25005 25006 25007 25008 25009 25010 25011 25012 25013 25014 25015 25016 25017 25018 25019 25020 25021 25022 25023 25024 25025 25026 25027 25028 25029 25030 25031 25032 25033 25034 25035 25036 25037 25038 25039 25040 25041 25042 25043 25044 25045 25046 25047 25048 25049 25050 25051 25052 25053 25054 25055 25056 25057 25058 25059 25060 25061 25062 25063 25064 25065 25066 25067 25068 25069 25070 25071 25072 25073 25074 25075 25076 25077 25078 25079 25080 25081 25082 25083 25084 25085 25086 25087 25088 25089 25090 25091 25092 25093 25094 25095 25096 25097 25098 25099 25100 25101 25102 25103 25104 25105 25106 25107 25108 25109 25110 25111 25112 25113 25114 25115 25116 25117 25118 25119 25120 25121 25122 25123 25124 25125 25126 25127 25128 25129 25130 25131 25132 25133 25134 25135 25136 25137 25138 25139 25140 25141 25142 25143 25144 25145 25146 25147 25148 25149 25150 25151 25152 25153 25154 25155 25156 25157 25158 25159 25160 25161 25162 25163 25164 25165 25166 25167 25168 25169 25170 25171 25172 25173 25174 25175 25176 25177 25178 25179 25180 25181 25182 25183 25184 25185 25186 25187 25188 25189 25190 25191 25192 25193 25194 25195 25196 25197 25198 25199 25200 25201 25202 25203 25204 25205 25206 25207 25208 25209 25210 25211 25212 25213 25214 25215 25216 25217 25218 25219 25220 25221 25222 25223 25224 25225 25226 25227 25228 25229 25230 25231 25232 25233 25234 25235 25236 25237 25238 25239 25240 25241 25242 25243 25244 25245 25246 25247 25248 25249 25250 25251 25252 25253 25254 25255 25256 25257 25258 25259 25260 25261 25262 25263 25264 25265 25266 25267 25268 25269 25270 25271 25272 25273 25274 25275 25276 25277 25278 25279 25280 25281 25282 25283 25284 25285 25286 25287 25288 25289 25290 25291 25292 25293 25294 25295 25296 25297 25298 25299 25300 25301 25302 25303 25304 25305 25306 25307 25308 25309 25310 25311 25312 25313 25314 25315 25316 25317 25318 25319 25320 25321 25322 25323 25324 25325 25326 25327 25328 25329 25330 25331 25332 25333 25334 25335 25336 25337 25338 25339 25340 25341 25342 25343 25344 25345 25346 25347 25348 25349 25350 25351 25352 25353 25354 25355 25356 25357 25358 25359 25360 25361 25362 25363 25364 25365 25366 25367 25368 25369 25370 25371 25372 25373 25374 25375 25376 25377 25378 25379 25380 25381 25382 25383 25384 25385 25386 25387 25388 25389 25390 25391 25392 25393 25394 25395 25396 25397 25398 25399 25400 25401 25402 25403 25404 25405 25406 25407 25408 25409 25410 25411 25412 25413 25414 25415 25416 25417 25418 25419 25420 25421 25422 25423 25424 25425 25426 25427 25428 25429 25430 25431 25432 25433 25434 25435 25436 25437 25438 25439 25440 25441 25442 25443 25444 25445 25446 25447 25448 25449 25450 25451 25452 25453 25454 25455 25456 25457 25458 25459 25460 25461 25462 25463 25464 25465 25466 25467 25468 25469 25470 25471 25472 25473 25474 25475 25476 25477 25478 25479 25480 25481 25482 25483 25484 25485 25486 25487 25488 25489 25490 25491 25492 25493 25494 25495 25496 25497 25498 25499 25500 25501 25502 25503 25504 25505 25506 25507 25508 25509 25510 25511 25512 25513 25514 25515 25516 25517 25518 25519 25520 25521 25522 25523 25524 25525 25526 25527 25528 25529 25530 25531 25532 25533 25534 25535 25536 25537 25538 25539 25540 25541 25542 25543 25544 25545 25546 25547 25548 25549 25550 25551 25552 25553 25554 25555 25556 25557 25558 25559 25560 25561 25562 25563 25564 25565 25566 25567 25568 25569 25570 25571 25572 25573 25574 25575 25576 25577 25578 25579 25580 25581 25582 25583 25584 25585 25586 25587 25588 25589 25590 25591 25592 25593 25594 25595 25596 25597 25598 25599 25600 25601 25602 25603 25604 25605 25606 25607 25608 25609 25610 25611 25612 25613 25614 25615 25616 25617 25618 25619 25620 25621 25622 25623 25624 25625 25626 25627 25628 25629 25630 25631 25632 25633 25634 25635 25636 25637 25638 25639 25640 25641 25642 25643 25644 25645 25646 25647 25648 25649 25650 25651 25652 25653 25654 25655 25656 25657 25658 25659 25660 25661 25662 25663 25664 25665 25666 25667 25668 25669 25670 25671 25672 25673 25674 25675 25676 25677 25678 25679 25680 25681 25682 25683 25684 25685 25686 25687 25688 25689 25690 25691 25692 25693 25694 25695 25696 25697 25698 25699 25700 25701 25702 25703 25704 25705 25706 25707 25708 25709 25710 25711 25712 25713 25714 25715 25716 25717 25718 25719 25720 25721 25722 25723 25724 25725 25726 25727 25728 25729 25730 25731 25732 25733 25734 25735 25736 25737 25738 25739 25740 25741 25742 25743 25744 25745 25746 25747 25748 25749 25750 25751 25752 25753 25754 25755 25756 25757 25758 25759 25760 25761 25762 25763 25764 25765 25766 25767 25768 25769 25770 25771 25772 25773 25774 25775 25776 25777 25778 25779 25780 25781 25782 25783 25784 25785 25786 25787 25788 25789 25790 25791 25792 25793 25794 25795 25796 25797 25798 25799 25800 25801 25802 25803 25804 25805 25806 25807 25808 25809 25810 25811 25812 25813 25814 25815 25816 25817 25818 25819 25820 25821 25822 25823 25824 25825 25826 25827 25828 25829 25830 25831 25832 25833 25834 25835 25836 25837 25838 25839 25840 25841 25842 25843 25844 25845 25846 25847 25848 25849 25850 25851 25852 25853 25854 25855 25856 25857 25858 25859 25860 25861 25862 25863 25864 25865 25866 25867 25868 25869 25870 25871 25872 25873 25874 25875 25876 25877 25878 25879 25880 25881 25882 25883 25884 25885 25886 25887 25888 25889 25890 25891 25892 25893 25894 25895 25896 25897 25898 25899 25900 25901 25902 25903 25904 25905 25906 25907 25908 25909 25910 25911 25912 25913 25914 25915 25916 25917 25918 25919 25920 25921 25922 25923 25924 25925 25926 25927 25928 25929 25930 25931 25932 25933 25934 25935 25936 25937 25938 25939 25940 25941 25942 25943 25944 25945 25946 25947 25948 25949 25950 25951 25952 25953 25954 25955 25956 25957 25958 25959 25960 25961 25962 25963 25964 25965 25966 25967 25968 25969 25970 25971 25972 25973 25974 25975 25976 25977 25978 25979 25980 25981 25982 25983 25984 25985 25986 25987 25988 25989 25990 25991 25992 25993 25994 25995 25996 25997 25998 25999 26000 26001 26002 26003 26004 26005 26006 26007 26008 26009 26010 26011 26012 26013 26014 26015 26016 26017 26018 26019 26020 26021 26022 26023 26024 26025 26026 26027 26028 26029 26030 26031 26032 26033 26034 26035 26036 26037 26038 26039 26040 26041 26042 26043 26044 26045 26046 26047 26048 26049 26050 26051 26052 26053 26054 26055 26056 26057 26058 26059 26060 26061 26062 26063 26064 26065 26066 26067 26068 26069 26070 26071 26072 26073 26074 26075 26076 26077 26078 26079 26080 26081 26082 26083 26084 26085 26086 26087 26088 26089 26090 26091 26092 26093 26094 26095 26096 26097 26098 26099 26100 26101 26102 26103 26104 26105 26106 26107 26108 26109 26110 26111 26112 26113 26114 26115 26116 26117 26118 26119 26120 26121 26122 26123 26124 26125 26126 26127 26128 26129 26130 26131 26132 26133 26134 26135 26136 26137 26138 26139 26140 26141 26142 26143 26144 26145 26146 26147 26148 26149 26150 26151 26152 26153 26154 26155 26156 26157 26158 26159 26160 26161 26162 26163 26164 26165 26166 26167 26168 26169 26170 26171 26172 26173 26174 26175 26176 26177 26178 26179 26180 26181 26182 26183 26184 26185 26186 26187 26188 26189 26190 26191 26192 26193 26194 26195 26196 26197 26198 26199 26200 26201 26202 26203 26204 26205 26206 26207 26208 26209 26210 26211 26212 26213 26214 26215 26216 26217 26218 26219 26220 26221 26222 26223 26224 26225 26226 26227 26228 26229 26230 26231 26232 26233 26234 26235 26236 26237 26238 26239 26240 26241 26242 26243 26244 26245 26246 26247 26248 26249 26250 26251 26252 26253 26254 26255 26256 26257 26258 26259 26260 26261 26262 26263 26264 26265 26266 26267 26268 26269 26270 26271 26272 26273 26274 26275 26276 26277 26278 26279 26280 26281 26282 26283 26284 26285 26286 26287 26288 26289 26290 26291 26292 26293 26294 26295 26296 26297 26298 26299 26300 26301 26302 26303 26304 26305 26306 26307 26308 26309 26310 26311 26312 26313 26314 26315 26316 26317 26318 26319 26320 26321 26322 26323 26324 26325 26326 26327 26328 26329 26330 26331 26332 26333 26334 26335 26336 26337 26338 26339 26340 26341 26342 26343 26344 26345 26346 26347 26348 26349 26350 26351 26352 26353 26354 26355 26356 26357 26358 26359 26360 26361 26362 26363 26364 26365 26366 26367 26368 26369 26370 26371 26372 26373 26374 26375 26376 26377 26378 26379 26380 26381 26382 26383 26384 26385 26386 26387 26388 26389 26390 26391 26392 26393 26394 26395 26396 26397 26398 26399 26400 26401 26402 26403 26404 26405 26406 26407 26408 26409 26410 26411 26412 26413 26414 26415 26416 26417 26418 26419 26420 26421 26422 26423 26424 26425 26426 26427 26428 26429 26430 26431 26432 26433 26434 26435 26436 26437 26438 26439 26440 26441 26442 26443 26444 26445 26446 26447 26448 26449 26450 26451 26452 26453 26454 26455 26456 26457 26458 26459 26460 26461 26462 26463 26464 26465 26466 26467 26468 26469 26470 26471 26472 26473 26474 26475 26476 26477 26478 26479 26480 26481 26482 26483 26484 26485 26486 26487 26488 26489 26490 26491 26492 26493 26494 26495 26496 26497 26498 26499 26500 26501 26502 26503 26504 26505 26506 26507 26508 26509 26510 26511 26512 26513 26514 26515 26516 26517 26518 26519 26520 26521 26522 26523 26524 26525 26526 26527 26528 26529 26530 26531 26532 26533 26534 26535 26536 26537 26538 26539 26540 26541 26542 26543 26544 26545 26546 26547 26548 26549 26550 26551 26552 26553 26554 26555 26556 26557 26558 26559 26560 26561 26562 26563 26564 26565 26566 26567 26568 26569 26570 26571 26572 26573 26574 26575 26576 26577 26578 26579 26580 26581 26582 26583 26584 26585 26586 26587 26588 26589 26590 26591 26592 26593 26594 26595 26596 26597 26598 26599 26600 26601 26602 26603 26604 26605 26606 26607 26608 26609 26610 26611 26612 26613 26614 26615 26616 26617 26618 26619 26620 26621 26622 26623 26624 26625 26626 26627 26628 26629 26630 26631 26632 26633 26634 26635 26636 26637 26638 26639 26640 26641 26642 26643 26644 26645 26646 26647 26648 26649 26650 26651 26652 26653 26654 26655 26656 26657 26658 26659 26660 26661 26662 26663 26664 26665 26666 26667 26668 26669 26670 26671 26672 26673 26674 26675 26676 26677 26678 26679 26680 26681 26682 26683 26684 26685 26686 26687 26688 26689 26690 26691 26692 26693 26694 26695 26696 26697 26698 26699 26700 26701 26702 26703 26704 26705 26706 26707 26708 26709 26710 26711 26712 26713 26714 26715 26716 26717 26718 26719 26720 26721 26722 26723 26724 26725 26726 26727 26728 26729 26730 26731 26732 26733 26734 26735 26736 26737 26738 26739 26740 26741 26742 26743 26744 26745 26746 26747 26748 26749 26750 26751 26752 26753 26754 26755 26756 26757 26758 26759 26760 26761 26762 26763 26764 26765 26766 26767 26768 26769 26770 26771 26772 26773 26774 26775 26776 26777 26778 26779 26780 26781 26782 26783 26784 26785 26786 26787 26788 26789 26790 26791 26792 26793 26794 26795 26796 26797 26798 26799 26800 26801 26802 26803 26804 26805 26806 26807 26808 26809 26810 26811 26812 26813 26814 26815 26816 26817 26818 26819 26820 26821 26822 26823 26824 26825 26826 26827 26828 26829 26830 26831 26832 26833 26834 26835 26836 26837 26838 26839 26840 26841 26842 26843 26844 26845 26846 26847 26848 26849 26850 26851 26852 26853 26854 26855 26856 26857 26858 26859 26860 26861 26862 26863 26864 26865 26866 26867 26868 26869 26870 26871 26872 26873 26874 26875 26876 26877 26878 26879 26880 26881 26882 26883 26884 26885 26886 26887 26888 26889 26890 26891 26892 26893 26894 26895 26896 26897 26898 26899 26900 26901 26902 26903 26904 26905 26906 26907 26908 26909 26910 26911 26912 26913 26914 26915 26916 26917 26918 26919 26920 26921 26922 26923 26924 26925 26926 26927 26928 26929 26930 26931 26932 26933 26934 26935 26936 26937 26938 26939 26940 26941 26942 26943 26944 26945 26946 26947 26948 26949 26950 26951 26952 26953 26954 26955 26956 26957 26958 26959 26960 26961 26962 26963 26964 26965 26966 26967 26968 26969 26970 26971 26972 26973 26974 26975 26976 26977 26978 26979 26980 26981 26982 26983 26984 26985 26986 26987 26988 26989 26990 26991 26992 26993 26994 26995 26996 26997 26998 26999 27000 27001 27002 27003 27004 27005 27006 27007 27008 27009 27010 27011 27012 27013 27014 27015 27016 27017 27018 27019 27020 27021 27022 27023 27024 27025 27026 27027 27028 27029 27030 27031 27032 27033 27034 27035 27036 27037 27038 27039 27040 27041 27042 27043 27044 27045 27046 27047 27048 27049 27050 27051 27052 27053 27054 27055 27056 27057 27058 27059 27060 27061 27062 27063 27064 27065 27066 27067 27068 27069 27070 27071 27072 27073 27074 27075 27076 27077 27078 27079 27080 27081 27082 27083 27084 27085 27086 27087 27088 27089 27090 27091 27092 27093 27094 27095 27096 27097 27098 27099 27100 27101 27102 27103 27104 27105 27106 27107 27108 27109 27110 27111 27112 27113 27114 27115 27116 27117 27118 27119 27120 27121 27122 27123 27124 27125 27126 27127 27128 27129 27130 27131 27132 27133 27134 27135 27136 27137 27138 27139 27140 27141 27142 27143 27144 27145 27146 27147 27148 27149 27150 27151 27152 27153 27154 27155 27156 27157 27158 27159 27160 27161 27162 27163 27164 27165 27166 27167 27168 27169 27170 27171 27172 27173 27174 27175 27176 27177 27178 27179 27180 27181 27182 27183 27184 27185 27186 27187 27188 27189 27190 27191 27192 27193 27194 27195 27196 27197 27198 27199 27200 27201 27202 27203 27204 27205 27206 27207 27208 27209 27210 27211 27212 27213 27214 27215 27216 27217 27218 27219 27220 27221 27222 27223 27224 27225 27226 27227 27228 27229 27230 27231 27232 27233 27234 27235 27236 27237 27238 27239 27240 27241 27242 27243 27244 27245 27246 27247 27248 27249 27250 27251 27252 27253 27254 27255 27256 27257 27258 27259 27260 27261 27262 27263 27264 27265 27266 27267 27268 27269 27270 27271 27272 27273 27274 27275 27276 27277 27278 27279 27280 27281 27282 27283 27284 27285 27286 27287 27288 27289 27290 27291 27292 27293 27294 27295 27296 27297 27298 27299 27300 27301 27302 27303 27304 27305 27306 27307 27308 27309 27310 27311 27312 27313 27314 27315 27316 27317 27318 27319 27320 27321 27322 27323 27324 27325 27326 27327 27328 27329 27330 27331 27332 27333 27334 27335 27336 27337 27338 27339 27340 27341 27342 27343 27344 27345 27346 27347 27348 27349 27350 27351 27352 27353 27354 27355 27356 27357 27358 27359 27360 27361 27362 27363 27364 27365 27366 27367 27368 27369 27370 27371 27372 27373 27374 27375 27376 27377 27378 27379 27380 27381 27382 27383 27384 27385 27386 27387 27388 27389 27390 27391 27392 27393 27394 27395 27396 27397 27398 27399 27400 27401 27402 27403 27404 27405 27406 27407 27408 27409 27410 27411 27412 27413 27414 27415 27416 27417 27418 27419 27420 27421 27422 27423 27424 27425 27426 27427 27428 27429 27430 27431 27432 27433 27434 27435 27436 27437 27438 27439 27440 27441 27442 27443 27444 27445 27446 27447 27448 27449 27450 27451 27452 27453 27454 27455 27456 27457 27458 27459 27460 27461 27462 27463 27464 27465 27466 27467 27468 27469 27470 27471 27472 27473 27474 27475 27476 27477 27478 27479 27480 27481 27482 27483 27484 27485 27486 27487 27488 27489 27490 27491 27492 27493 27494 27495 27496 27497 27498 27499 27500 27501 27502 27503 27504 27505 27506 27507 27508 27509 27510 27511 27512 27513 27514 27515 27516 27517 27518 27519 27520 27521 27522 27523 27524 27525 27526 27527 27528 27529 27530 27531 27532 27533 27534 27535 27536 27537 27538 27539 27540 27541 27542 27543 27544 27545 27546 27547 27548 27549 27550 27551 27552 27553 27554 27555 27556 27557 27558 27559 27560 27561 27562 27563 27564 27565 27566 27567 27568 27569 27570 27571 27572 27573 27574 27575 27576 27577 27578 27579 27580 27581 27582 27583 27584 27585 27586 27587 27588 27589 27590 27591 27592 27593 27594 27595 27596 27597 27598 27599 27600 27601 27602 27603 27604 27605 27606 27607 27608 27609 27610 27611 27612 27613 27614 27615 27616 27617 27618 27619 27620 27621 27622 27623 27624 27625 27626 27627 27628 27629 27630 27631 27632 27633 27634 27635 27636 27637 27638 27639 27640 27641 27642 27643 27644 27645 27646 27647 27648 27649 27650 27651 27652 27653 27654 27655 27656 27657 27658 27659 27660 27661 27662 27663 27664 27665 27666 27667 27668 27669 27670 27671 27672 27673 27674 27675 27676 27677 27678 27679 27680 27681 27682 27683 27684 27685 27686 27687 27688 27689 27690 27691 27692 27693 27694 27695 27696 27697 27698 27699 27700 27701 27702 27703 27704 27705 27706 27707 27708 27709 27710 27711 27712 27713 27714 27715 27716 27717 27718 27719 27720 27721 27722 27723 27724 27725 27726 27727 27728 27729 27730 27731 27732 27733 27734 27735 27736 27737 27738 27739 27740 27741 27742 27743 27744 27745 27746 27747 27748 27749 27750 27751 27752 27753 27754 27755 27756 27757 27758 27759 27760 27761 27762 27763 27764 27765 27766 27767 27768 27769 27770 27771 27772 27773 27774 27775 27776 27777 27778 27779 27780 27781 27782 27783 27784 27785 27786 27787 27788 27789 27790 27791 27792 27793 27794 27795 27796 27797 27798 27799 27800 27801 27802 27803 27804 27805 27806 27807 27808 27809 27810 27811 27812 27813 27814 27815 27816 27817 27818 27819 27820 27821 27822 27823 27824 27825 27826 27827 27828 27829 27830 27831 27832 27833 27834 27835 27836 27837 27838 27839 27840 27841 27842 27843 27844 27845 27846 27847 27848 27849 27850 27851 27852 27853 27854 27855 27856 27857 27858 27859 27860 27861 27862 27863 27864 27865 27866 27867 27868 27869 27870 27871 27872 27873 27874 27875 27876 27877 27878 27879 27880 27881 27882 27883 27884 27885 27886 27887 27888 27889 27890 27891 27892 27893 27894 27895 27896 27897 27898 27899 27900 27901 27902 27903 27904 27905 27906 27907 27908 27909 27910 27911 27912 27913 27914 27915 27916 27917 27918 27919 27920 27921 27922 27923 27924 27925 27926 27927 27928 27929 27930 27931 27932 27933 27934 27935 27936 27937 27938 27939 27940 27941 27942 27943 27944 27945 27946 27947 27948 27949 27950 27951 27952 27953 27954 27955 27956 27957 27958 27959 27960 27961 27962 27963 27964 27965 27966 27967 27968 27969 27970 27971 27972 27973 27974 27975 27976 27977 27978 27979 27980 27981 27982 27983 27984 27985 27986 27987 27988 27989 27990 27991 27992 27993 27994 27995 27996 27997 27998 27999 28000 28001 28002 28003 28004 28005 28006 28007 28008 28009 28010 28011 28012 28013 28014 28015 28016 28017 28018 28019 28020 28021 28022 28023 28024 28025 28026 28027 28028 28029 28030 28031 28032 28033 28034 28035 28036 28037 28038 28039 28040 28041 28042 28043 28044 28045 28046 28047 28048 28049 28050 28051 28052 28053 28054 28055 28056 28057 28058 28059 28060 28061 28062 28063 28064 28065 28066 28067 28068 28069 28070 28071 28072 28073 28074 28075 28076 28077 28078 28079 28080 28081 28082 28083 28084 28085 28086 28087 28088 28089 28090 28091 28092 28093 28094 28095 28096 28097 28098 28099 28100 28101 28102 28103 28104 28105 28106 28107 28108 28109 28110 28111 28112 28113 28114 28115 28116 28117 28118 28119 28120 28121 28122 28123 28124 28125 28126 28127 28128 28129 28130 28131 28132 28133 28134 28135 28136 28137 28138 28139 28140 28141 28142 28143 28144 28145 28146 28147 28148 28149 28150 28151 28152 28153 28154 28155 28156 28157 28158 28159 28160 28161 28162 28163 28164 28165 28166 28167 28168 28169 28170 28171 28172 28173 28174 28175 28176 28177 28178 28179 28180 28181 28182 28183 28184 28185 28186 28187 28188 28189 28190 28191 28192 28193 28194 28195 28196 28197 28198 28199 28200 28201 28202 28203 28204 28205 28206 28207 28208 28209 28210 28211 28212 28213 28214 28215 28216 28217 28218 28219 28220 28221 28222 28223 28224 28225 28226 28227 28228 28229 28230 28231 28232 28233 28234 28235 28236 28237 28238 28239 28240 28241 28242 28243 28244 28245 28246 28247 28248 28249 28250 28251 28252 28253 28254 28255 28256 28257 28258 28259 28260 28261 28262 28263 28264 28265 28266 28267 28268 28269 28270 28271 28272 28273 28274 28275 28276 28277 28278 28279 28280 28281 28282 28283 28284 28285 28286 28287 28288 28289 28290 28291 28292 28293 28294 28295 28296 28297 28298 28299 28300 28301 28302 28303 28304 28305 28306 28307 28308 28309 28310 28311 28312 28313 28314 28315 28316 28317 28318 28319 28320 28321 28322 28323 28324 28325 28326 28327 28328 28329 28330 28331 28332 28333 28334 28335 28336 28337 28338 28339 28340 28341 28342 28343 28344 28345 28346 28347 28348 28349 28350 28351 28352 28353 28354 28355 28356 28357 28358 28359 28360 28361 28362 28363 28364 28365 28366 28367 28368 28369 28370 28371 28372 28373 28374 28375 28376 28377 28378 28379 28380 28381 28382 28383 28384 28385 28386 28387 28388 28389 28390 28391 28392 28393 28394 28395 28396 28397 28398 28399 28400 28401 28402 28403 28404 28405 28406 28407 28408 28409 28410 28411 28412 28413 28414 28415 28416 28417 28418 28419 28420 28421 28422 28423 28424 28425 28426 28427 28428 28429 28430 28431 28432 28433 28434 28435 28436 28437 28438 28439 28440 28441 28442 28443 28444 28445 28446 28447 28448 28449 28450 28451 28452 28453 28454 28455 28456 28457 28458 28459 28460 28461 28462 28463 28464 28465 28466 28467 28468 28469 28470 28471 28472 28473 28474 28475 28476 28477 28478 28479 28480 28481 28482 28483 28484 28485 28486 28487 28488 28489 28490 28491 28492 28493 28494 28495 28496 28497 28498 28499 28500 28501 28502 28503 28504 28505 28506 28507 28508 28509 28510 28511 28512 28513 28514 28515 28516 28517 28518 28519 28520 28521 28522 28523 28524 28525 28526 28527 28528 28529 28530 28531 28532 28533 28534 28535 28536 28537 28538 28539 28540 28541 28542 28543 28544 28545 28546 28547 28548 28549 28550 28551 28552 28553 28554 28555 28556 28557 28558 28559 28560 28561 28562 28563 28564 28565 28566 28567 28568 28569 28570 28571 28572 28573 28574 28575 28576 28577 28578 28579 28580 28581 28582 28583 28584 28585 28586 28587 28588 28589 28590 28591 28592 28593 28594 28595 28596 28597 28598 28599 28600 28601 28602 28603 28604 28605 28606 28607 28608 28609 28610 28611 28612 28613 28614 28615 28616 28617 28618 28619 28620 28621 28622 28623 28624 28625 28626 28627 28628 28629 28630 28631 28632 28633 28634 28635 28636 28637 28638 28639 28640 28641 28642 28643 28644 28645 28646 28647 28648 28649 28650 28651 28652 28653 28654 28655 28656 28657 28658 28659 28660 28661 28662 28663 28664 28665 28666 28667 28668 28669 28670 28671 28672 28673 28674 28675 28676 28677 28678 28679 28680 28681 28682 28683 28684 28685 28686 28687 28688 28689 28690 28691 28692 28693 28694 28695 28696 28697 28698 28699 28700 28701 28702 28703 28704 28705 28706 28707 28708 28709 28710 28711 28712 28713 28714 28715 28716 28717 28718 28719 28720 28721 28722 28723 28724 28725 28726 28727 28728 28729 28730 28731 28732 28733 28734 28735 28736 28737 28738 28739 28740 28741 28742 28743 28744 28745 28746 28747 28748 28749 28750 28751 28752 28753 28754 28755 28756 28757 28758 28759 28760 28761 28762 28763 28764 28765 28766 28767 28768 28769 28770 28771 28772 28773 28774 28775 28776 28777 28778 28779 28780 28781 28782 28783 28784 28785 28786 28787 28788 28789 28790 28791 28792 28793 28794 28795 28796 28797 28798 28799 28800 28801 28802 28803 28804 28805 28806 28807 28808 28809 28810 28811 28812 28813 28814 28815 28816 28817 28818 28819 28820 28821 28822 28823 28824 28825 28826 28827 28828 28829 28830 28831 28832 28833 28834 28835 28836 28837 28838 28839 28840 28841 28842 28843 28844 28845 28846 28847 28848 28849 28850 28851 28852 28853 28854 28855 28856 28857 28858 28859 28860 28861 28862 28863 28864 28865 28866 28867 28868 28869 28870 28871 28872 28873 28874 28875 28876 28877 28878 28879 28880 28881 28882 28883 28884 28885 28886 28887 28888 28889 28890 28891 28892 28893 28894 28895 28896 28897 28898 28899 28900 28901 28902 28903 28904 28905 28906 28907 28908 28909 28910 28911 28912 28913 28914 28915 28916 28917 28918 28919 28920 28921 28922 28923 28924 28925 28926 28927 28928 28929 28930 28931 28932 28933 28934 28935 28936 28937 28938 28939 28940 28941 28942 28943 28944 28945 28946 28947 28948 28949 28950 28951 28952 28953 28954 28955 28956 28957 28958 28959 28960 28961 28962 28963 28964 28965 28966 28967 28968 28969 28970 28971 28972 28973 28974 28975 28976 28977 28978 28979 28980 28981 28982 28983 28984 28985 28986 28987 28988 28989 28990 28991 28992 28993 28994 28995 28996 28997 28998 28999 29000 29001 29002 29003 29004 29005 29006 29007 29008 29009 29010 29011 29012 29013 29014 29015 29016 29017 29018 29019 29020 29021 29022 29023 29024 29025 29026 29027 29028 29029 29030 29031 29032 29033 29034 29035 29036 29037 29038 29039 29040 29041 29042 29043 29044 29045 29046 29047 29048 29049 29050 29051 29052 29053 29054 29055 29056 29057 29058 29059 29060 29061 29062 29063 29064 29065 29066 29067 29068 29069 29070 29071 29072 29073 29074 29075 29076 29077 29078 29079 29080 29081 29082 29083 29084 29085 29086 29087 29088 29089 29090 29091 29092 29093 29094 29095 29096 29097 29098 29099 29100 29101 29102 29103 29104 29105 29106 29107 29108 29109 29110 29111 29112 29113 29114 29115 29116 29117 29118 29119 29120 29121 29122 29123 29124 29125 29126 29127 29128 29129 29130 29131 29132 29133 29134 29135 29136 29137 29138 29139 29140 29141 29142 29143 29144 29145 29146 29147 29148 29149 29150 29151 29152 29153 29154 29155 29156 29157 29158 29159 29160 29161 29162 29163 29164 29165 29166 29167 29168 29169 29170 29171 29172 29173 29174 29175 29176 29177 29178 29179 29180 29181 29182 29183 29184 29185 29186 29187 29188 29189 29190 29191 29192 29193 29194 29195 29196 29197 29198 29199 29200 29201 29202 29203 29204 29205 29206 29207 29208 29209 29210 29211 29212 29213 29214 29215 29216 29217 29218 29219 29220 29221 29222 29223 29224 29225 29226 29227 29228 29229 29230 29231 29232 29233 29234 29235 29236 29237 29238 29239 29240 29241 29242 29243 29244 29245 29246 29247 29248 29249 29250 29251 29252 29253 29254 29255 29256 29257 29258 29259 29260 29261 29262 29263 29264 29265 29266 29267 29268 29269 29270 29271 29272 29273 29274 29275 29276 29277 29278 29279 29280 29281 29282 29283 29284 29285 29286 29287 29288 29289 29290 29291 29292 29293 29294 29295 29296 29297 29298 29299 29300 29301 29302 29303 29304 29305 29306 29307 29308 29309 29310 29311 29312 29313 29314 29315 29316 29317 29318 29319 29320 29321 29322 29323 29324 29325 29326 29327 29328 29329 29330 29331 29332 29333 29334 29335 29336 29337 29338 29339 29340 29341 29342 29343 29344 29345 29346 29347 29348 29349 29350 29351 29352 29353 29354 29355 29356 29357 29358 29359 29360 29361 29362 29363 29364 29365 29366 29367 29368 29369 29370 29371 29372 29373 29374 29375 29376 29377 29378 29379 29380 29381 29382 29383 29384 29385 29386 29387 29388 29389 29390 29391 29392 29393 29394 29395 29396 29397 29398 29399 29400 29401 29402 29403 29404 29405 29406 29407 29408 29409 29410 29411 29412 29413 29414 29415 29416 29417 29418 29419 29420 29421 29422 29423 29424 29425 29426 29427 29428 29429 29430 29431 29432 29433 29434 29435 29436 29437 29438 29439 29440 29441 29442 29443 29444 29445 29446 29447 29448 29449 29450 29451 29452 29453 29454 29455 29456 29457 29458 29459 29460 29461 29462 29463 29464 29465 29466 29467 29468 29469 29470 29471 29472 29473 29474 29475 29476 29477 29478 29479 29480 29481 29482 29483 29484 29485 29486 29487 29488 29489 29490 29491 29492 29493 29494 29495 29496 29497 29498 29499 29500 29501 29502 29503 29504 29505 29506 29507 29508 29509 29510 29511 29512 29513 29514 29515 29516 29517 29518 29519 29520 29521 29522 29523 29524 29525 29526 29527 29528 29529 29530 29531 29532 29533 29534 29535 29536 29537 29538 29539 29540 29541 29542 29543 29544 29545 29546 29547 29548 29549 29550 29551 29552 29553 29554 29555 29556 29557 29558 29559 29560 29561 29562 29563 29564 29565 29566 29567 29568 29569 29570 29571 29572 29573 29574 29575 29576 29577 29578 29579 29580 29581 29582 29583 29584 29585 29586 29587 29588 29589 29590 29591 29592 29593 29594 29595 29596 29597 29598 29599 29600 29601 29602 29603 29604 29605 29606 29607 29608 29609 29610 29611 29612 29613 29614 29615 29616 29617 29618 29619 29620 29621 29622 29623 29624 29625 29626 29627 29628 29629 29630 29631 29632 29633 29634 29635 29636 29637 29638 29639 29640 29641 29642 29643 29644 29645 29646 29647 29648 29649 29650 29651 29652 29653 29654 29655 29656 29657 29658 29659 29660 29661 29662 29663 29664 29665 29666 29667 29668 29669 29670 29671 29672 29673 29674 29675 29676 29677 29678 29679 29680 29681 29682 29683 29684 29685 29686 29687 29688 29689 29690 29691 29692 29693 29694 29695 29696 29697 29698 29699 29700 29701 29702 29703 29704 29705 29706 29707 29708 29709 29710 29711 29712 29713 29714 29715 29716 29717 29718 29719 29720 29721 29722 29723 29724 29725 29726 29727 29728 29729 29730 29731 29732 29733 29734 29735 29736 29737 29738 29739 29740 29741 29742 29743 29744 29745 29746 29747 29748 29749 29750 29751 29752 29753 29754 29755 29756 29757 29758 29759 29760 29761 29762 29763 29764 29765 29766 29767 29768 29769 29770 29771 29772 29773 29774 29775 29776 29777 29778 29779 29780 29781 29782 29783 29784 29785 29786 29787 29788 29789 29790 29791 29792 29793 29794 29795 29796 29797 29798 29799 29800 29801 29802 29803 29804 29805 29806 29807 29808 29809 29810 29811 29812 29813 29814 29815 29816 29817 29818 29819 29820 29821 29822 29823 29824 29825 29826 29827 29828 29829 29830 29831 29832 29833 29834 29835 29836 29837 29838 29839 29840 29841 29842 29843 29844 29845 29846 29847 29848 29849 29850 29851 29852 29853 29854 29855 29856 29857 29858 29859 29860 29861 29862 29863 29864 29865 29866 29867 29868 29869 29870 29871 29872 29873 29874 29875 29876 29877 29878 29879 29880 29881 29882 29883 29884 29885 29886 29887 29888 29889 29890 29891 29892 29893 29894 29895 29896 29897 29898 29899 29900 29901 29902 29903 29904 29905 29906 29907 29908 29909 29910 29911 29912 29913 29914 29915 29916 29917 29918 29919 29920 29921 29922 29923 29924 29925 29926 29927 29928 29929 29930 29931 29932 29933 29934 29935 29936 29937 29938 29939 29940 29941 29942 29943 29944 29945 29946 29947 29948 29949 29950 29951 29952 29953 29954 29955 29956 29957 29958 29959 29960 29961 29962 29963 29964 29965 29966 29967 29968 29969 29970 29971 29972 29973 29974 29975 29976 29977 29978 29979 29980 29981 29982 29983 29984 29985 29986 29987 29988 29989 29990 29991 29992 29993 29994 29995 29996 29997 29998 29999 30000 30001 30002 30003 30004 30005 30006 30007 30008 30009 30010 30011 30012 30013 30014 30015 30016 30017 30018 30019 30020 30021 30022 30023 30024 30025 30026 30027 30028 30029 30030 30031 30032 30033 30034 30035 30036 30037 30038 30039 30040 30041 30042 30043 30044 30045 30046 30047 30048 30049 30050 30051 30052 30053 30054 30055 30056 30057 30058 30059 30060 30061 30062 30063 30064 30065 30066 30067 30068 30069 30070 30071 30072 30073 30074 30075 30076 30077 30078 30079 30080 30081 30082 30083 30084 30085 30086 30087 30088 30089 30090 30091 30092 30093 30094 30095 30096 30097 30098 30099 30100 30101 30102 30103 30104 30105 30106 30107 30108 30109 30110 30111 30112 30113 30114 30115 30116 30117 30118 30119 30120 30121 30122 30123 30124 30125 30126 30127 30128 30129 30130 30131 30132 30133 30134 30135 30136 30137 30138 30139 30140 30141 30142 30143 30144 30145 30146 30147 30148 30149 30150 30151 30152 30153 30154 30155 30156 30157 30158 30159 30160 30161 30162 30163 30164 30165 30166 30167 30168 30169 30170 30171 30172 30173 30174 30175 30176 30177 30178 30179 30180 
</DataArray>
<DataArray type="UInt32" Name="offsets" format="ascii">
3 6 9 11 14 16 19 22 24 27 29 32 35 38 41 44 47 50 53 56 59 62 64 66 69 71 74 76 79 82 85 88 90 93 95 98 101 104 107 110 113 116 119 121 124 127 130 133 136 139 142 144 147 150 153 156 159 162 164 166 168 171 174 176 179 181 184 187 190 192 195 198 201 204 207 210 213 216 219 222 225 228 231 234 237 240 243 246 249 252 255 258 261 264 267 270 273 276 279 282 284 287 290 293 296 299 302 304 307 310 313 316 319 321 324 327 329 332 335 338 340 343 346 349 352 355 357 360 363 366 369 372 375 378 381 384 387 390 393 396 399 402 405 408 411 414 417 420 423 426 429 431 434 437 440 443 446 448 451 454 457 460 462 465 468 471 474 476 479 482 485 487 490 492 495 498 501 504 507 509 512 515 518 520 523 526 529 532 535 538 540 543 546 549 552 554 557 560 563 566 569 572 574 577 580 583 586 589 592 595 598 601 604 607 610 613 616 619 622 624 627 630 633 636 639 642 645 648 651 654 657 660 663 666 669 672 675 678 681 684 687 689 691 694 697 700 703 706 709 712 715 717 720 723 725 728 731 734 737 740 742 745 748 751 754 756 758 761 764 767 769 772 775 778 781 784 787 790 792 794 796 799 801 804 807 810 813 816 818 821 824 827 829 832 835 838 841 844 847 850 853 856 859 861 864 867 870 873 876 879 882 884 887 890 893 896 899 902 905 908 911 914 917 920 923 926 929 932 935 938 941 943 946 948 951 954 957 960 963 966 969 972 975 978 981 983 986 989 991 994 996 998 1001 1004 1007 1009 1012 1015 1018 1020 1023 1026 1028 1031 1034 1036 1039 1042 1044 1047 1050 1053 1056 1059 1062 1065 1068 1071 1074 1077 1080 1083 1086 1089 1091 1094 1097 1100 1103 1106 1109 1112 1115 1118 1121 1124 1127 1130 1133 1136 1139 1142 1145 1148 1151 1154 1157 1160 1163 1166 1169 1172 1175 1178 1181 1184 1187 1190 1193 1196 1199 1202 1205 1208 1211 1214 1217 1220 1223 1226 1229 1232 1235 1238 1241 1244 1247 1250 1253 1256 1259 1262 1264 1267 1270 1273 1276 1279 1282 1285 1288 1291 1294 1297 1300 1303 1306 1309 1312 1315 1318 1321 1324 1327 1330 1333 1336 1339 1342 1345 1347 1350 1352 1355 1358 1361 1363 1366 1369 1371 1374 1377 1380 1383 1386 1389 1392 1395 1398 1401 1404 1407 1410 1413 1416 1419 1422 1425 1428 1430 1433 1435 1438 1441 1444 1447 1450 1453 1456 1458 1461 1464 1467 1470 1472 1475 1478 1481 1484 1487 1490 1493 1496 1499 1501 1504 1507 1509 1512 1515 1518 1521 1524 1527 1529 1532 1535 1538 1541 1544 1547 1550 1553 1556 1559 1561 1564 1567 1570 1573 1575 1578 1581 1584 1586 1589 1592 1595 1597 1600 1603 1606 1609 1612 1615 1618 1621 1624 1627 1630 1633 1636 1639 1642 1645 1648 1651 1653 1656 1659 1662 1665 1667 1670 1672 1675 1677 1679 1682 1685 1688 1691 1694 1697 1700 1703 1705 1708 1711 1713 1716 1719 1722 1725 1728 1731 1734 1737 1740 1743 1746 1749 1752 1755 1758 1761 1764 1767 1770 1773 1776 1779 1782 1785 1787 1790 1793 1796 1799 1802 1805 1808 1811 1814 1817 1820 1823 1826 1829 1832 1835 1838 1841 1844 1847 1849 1852 1855 1858 1860 1863 1866 1868 1870 1873 1876 1879 1882 1885 1887 1890 1893 1896 1899 1902 1905 1908 1911 1914 1916 1918 1921 1924 1927 1930 1933 1936 1939 1942 1945 1948 1951 1954 1957 1960 1963 1966 1969 1972 1975 1978 1981 1983 1986 1989 1991 1994 1997 1999 2002 2005 2008 2011 2014 2017 2020 2023 2026 2029 2032 2035 2038 2041 2044 2047 2050 2053 2056 2059 2062 2065 2068 2071 2074 2077 2080 2083 2086 2089 2092 2095 2098 2101 2103 2106 2109 2112 2115 2118 2120 2122 2125 2128 2130 2133 2136 2139 2141 2144 2147 2150 2153 2156 2159 2162 2165 2167 2170 2173 2176 2179 2182 2185 2187 2189 2192 2195 2198 2201 2204 2207 2210 2213 2216 2219 2222 2225 2228 2231 2234 2237 2240 2243 2245 2248 2251 2253 2255 2258 2261 2263 2266 2269 2272 2274 2277 2280 2282 2285 2288 2291 2294 2296 2299 2302 2305 2308 2311 2314 2316 2319 2322 2325 2328 2331 2333 2336 2339 2342 2345 2348 2351 2353 2356 2359 2362 2365 2368 2371 2373 2376 2379 2382 2385 2388 2391 2394 2397 2400 2403 2406 2409 2412 2415 2418 2421 2424 2427 2429 2432 2435 2438 2441 2444 2447 2450 2453 2456 2459 2462 2465 2468 2471 2473 2476 2479 2482 2484 2487 2490 2493 2496 2499 2502 2505 2508 2511 2513 2516 2519 2522 2525 2528 2531 2534 2537 2540 2543 2546 2549 2552 2555 2558 2561 2564 2567 2570 2572 2575 2577 2580 2583 2586 2588 2591 2594 2597 2600 2603 2605 2608 2611 2614 2617 2620 2623 2626 2629 2632 2635 2638 2641 2644 2647 2650 2653 2656 2659 2662 2665 2668 2671 2674 2677 2680 2683 2686 2689 2692 2695 2698 2701 2704 2707 2710 2713 2716 2719 2722 2725 2728 2731 2734 2737 2740 2743 2746 2749 2752 2755 2758 2761 2764 2767 2770 2772 2775 2778 2780 2783 2786 2789 2792 2795 2798 2801 2804 2807 2810 2813 2816 2819 2821 2824 2827 2830 2833 2836 2839 2841 2844 2847 2849 2852 2855 2858 2861 2864 2867 2870 2872 2875 2878 2881 2884 2887 2890 2893 2896 2899 2902 2905 2908 2910 2913 2916 2919 2922 2925 2928 2930 2933 2936 2939 2942 2945 2948 2950 2953 2956 2959 2962 2965 2968 2971 2974 2976 2979 2982 2985 2988 2990 2993 2996 2999 3002 3005 3008 3011 3014 3016 3019 3022 3025 3028 3031 3034 3037 3040 3043 3046 3049 3052 3055 3058 3060 3063 3066 3069 3072 3075 3077 3080 3083 3086 3089 3092 3095 3098 3100 3103 3106 3109 3112 3115 3118 3121 3124 3127 3130 3133 3136 3139 3142 3145 3148 3151 3154 3157 3160 3163 3166 3169 3172 3175 3178 3181 3184 3187 3190 3193 3196 3199 3202 3205 3208 3211 3214 3217 3220 3223 3226 3229 3232 3235 3238 3241 3244 3247 3250 3253 3256 3259 3262 3265 3268 3271 3274 3277 3280 3283 3286 3288 3291 3294 3297 3300 3303 3306 3308 3311 3314 3317 3320 3323 3326 3329 3332 3335 3338 3340 3342 3345 3348 3351 3354 3357 3360 3362 3365 3367 3370 3373 3376 3379 3382 3385 3388 3391 3394 3397 3400 3402 3405 3408 3411 3414 3417 3420 3423 3426 3429 3432 3435 3438 3441 3444 3447 3450 3453 3456 3459 3462 3465 3468 3471 3474 3477 3479 3482 3485 3488 3491 3494 3496 3499 3502 3505 3508 3510 3513 3516 3519 3522 3525 3528 3531 3534 3537 3540 3543 3546 3549 3552 3555 3558 3560 3563 3565 3568 3571 3573 3575 3578 3581 3584 3587 3590 3593 3596 3599 3602 3604 3607 3609 3612 3615 3618 3621 3624 3627 3630 3633 3636 3639 3642 3645 3648 3651 3654 3657 3660 3663 3666 3669 3672 3675 3678 3681 3684 3687 3690 3693 3696 3699 3702 3705 3708 3711 3714 3717 3720 3723 3726 3729 3732 3735 3738 3740 3742 3745 3748 3751 3754 3757 3760 3762 3765 3767 3770 3772 3775 3777 3780 3783 3785 3788 3791 3794 3797 3800 3803 3806 3809 3812 3815 3818 3821 3824 3827 3830 3833 3836 3839 3842 3845 3848 3851 3854 3857 3860 3863 3866 3869 3872 3875 3878 3881 3884 3887 3890 3893 3896 3899 3902 3905 3908 3911 3914 3917 3920 3923 3926 3929 3932 3935 3938 3941 3944 3947 3950 3953 3956 3959 3962 3965 3968 3971 3974 3977 3980 3983 3986 3989 3992 3995 3998 4001 4004 4007 4010 4013 4016 4019 4022 4025 4028 4031 4034 4037 4040 4043 4046 4048 4051 4054 4057 4059 4062 4065 4067 4070 4073 4076 4079 4082 4085 4088 4091 4094 4097 4100 4102 4105 4108 4111 4114 4117 4120 4123 4126 4129 4132 4135 4138 4141 4144 4147 4150 4153 4156 4159 4162 4165 4168 4171 4173 4176 4179 4182 4184 4187 4190 4193 4196 4198 4201 4204 4207 4210 4213 4216 4219 4222 4225 4228 4231 4233 4236 4239 4242 4244 4247 4250 4252 4255 4258 4260 4263 4266 4268 4271 4273 4276 4279 4282 4284 4286 4289 4291 4294 4296 4299 4302 4305 4308 4311 4313 4316 4319 4322 4325 4328 4331 4334 4337 4340 4343 4346 4349 4352 4355 4358 4361 4364 4367 4370 4373 4375 4378 4381 4384 4387 4390 4393 4396 4399 4402 4405 4408 4411 4414 4417 4420 4423 4426 4429 4432 4435 4438 4441 4444 4447 4450 4453 4456 4459 4462 4465 4468 4471 4474 4477 4480 4483 4486 4489 4492 4495 4498 4501 4504 4506 4509 4512 4515 4518 4521 4523 4526 4529 4532 4535 4538 4541 4544 4546 4549 4552 4555 4558 4561 4564 4567 4570 4573 4576 4579 4582 4585 4588 4591 4594 4597 4600 4603 4606 4609 4612 4615 4618 4621 4624 4627 4630 4633 4636 4639 4642 4645 4648 4651 4654 4657 4660 4663 4666 4669 4672 4675 4678 4681 4684 4687 4690 4693 4696 4699 4701 4704 4707 4710 4713 4716 4719 4721 4724 4727 4730 4732 4735 4738 4741 4744 4747 4750 4753 4756 4759 4762 4765 4768 4771 4774 4777 4780 4783 4786 4789 4792 4795 4798 4801 4804 4807 4810 4813 4816 4819 4822 4825 4828 4831 4834 4837 4840 4843 4846 4849 4852 4855 4858 4861 4864 4867 4870 4873 4876 4879 4882 4885 4888 4891 4894 4897 4900 4903 4906 4909 4912 4915 4918 4921 4924 4927 4930 4933 4936 4939 4942 4945 4948 4951 4954 4957 4960 4963 4966 4969 4972 4975 4978 4981 4984 4987 4990 4993 4996 4999 5002 5005 5007 5009 5012 5015 5018 5021 5024 5027 5030 5033 5036 5039 5042 5045 5048 5050 5053 5056 5059 5062 5065 5068 5071 5074 5077 5080 5083 5086 5089 5092 5095 5098 5101 5104 5107 5110 5113 5116 5119 5122 5125 5128 5131 5134 5137 5140 5142 5144 5147 5150 5153 5156 5159 5162 5165 5168 5171 5174 5177 5180 5182 5185 5188 5191 5194 5196 5199 5202 5205 5208 5211 5214 5217 5220 5223 5226 5229 5232 5235 5238 5241 5244 5247 5250 5253 5256 5259 5262 5265 5268 5271 5274 5277 5280 5283 5286 5289 5292 5295 5298 5301 5304 5307 5310 5313 5316 5318 5321 5324 5327 5329 5332 5335 5338 5341 5344 5347 5350 5353 5355 5358 5361 5363 5366 5369 5372 5375 5378 5381 5384 5387 5390 5393 5396 5399 5402 5405 5408 5411 5414 5417 5420 5423 5426 5429 5432 5435 5438 5441 5443 5446 5449 5452 5455 5458 5461 5464 5467 5470 5472 5475 5478 5481 5484 5487 5490 5493 5496 5499 5501 5504 5507 5510 5513 5515 5518 5521 5524 5527 5530 5532 5535 5538 5541 5544 5547 5550 5553 5556 5559 5562 5565 5568 5571 5574 5577 5580 5583 5586 5589 5591 5594 5597 5600 5602 5605 5608 5611 5614 5617 5620 5623 5626 5629 5632 5635 5638 5641 5644 5647 5650 5653 5656 5659 5662 5665 5668 5671 5674 5677 5680 5683 5686 5689 5692 5694 5697 5699 5702 5705 5708 5711 5714 5717 5720 5723 5725 5728 5731 5734 5737 5740 5743 5746 5748 5751 5754 5756 5759 5762 5765 5768 5770 5773 5776 5779 5782 5785 5787 5790 5793 5796 5799 5802 5805 5808 5810 5813 5816 5819 5822 5825 5828 5831 5833 5836 5839 5841 5844 5847 5850 5853 5856 5859 5862 5865 5868 5871 5874 5877 5880 5883 5886 5889 5892 5895 5898 5901 5904 5906 5909 5912 5915 5918 5921 5924 5927 5929 5932 5935 5938 5941 5944 5947 5950 5953 5956 5959 5962 5965 5968 5971 5974 5977 5980 5982 5985 5988 5991 5993 5996 5999 6002 6005 6008 6011 6014 6017 6020 6023 6026 6029 6032 6035 6038 6041 6044 6047 6050 6053 6055 6058 6061 6064 6066 6069 6072 6075 6078 6081 6084 6087 6090 6093 6096 6099 6102 6105 6108 6111 6114 6117 6120 6123 6126 6129 6132 6134 6137 6140 6143 6146 6148 6151 6154 6157 6160 6163 6165 6168 6171 6174 6176 6179 6182 6185 6188 6191 6193 6196 6199 6202 6204 6207 6210 6213 6215 6218 6220 6223 6226 6229 6232 6234 6237 6240 6243 6246 6249 6252 6255 6258 6261 6264 6267 6270 6273 6276 6279 6282 6285 6288 6291 6294 6297 6299 6302 6305 6308 6311 6314 6316 6319 6322 6325 6328 6331 6334 6337 6340 6343 6346 6349 6351 6354 6357 6360 6363 6366 6369 6372 6375 6378 6381 6384 6387 6390 6393 6396 6399 6402 6405 6408 6411 6414 6417 6420 6423 6426 6429 6432 6435 6438 6441 6444 6447 6450 6453 6456 6459 6462 6465 6468 6470 6473 6476 6479 6482 6484 6487 6490 6493 6496 6499 6502 6504 6507 6510 6513 6516 6519 6522 6525 6527 6530 6533 6536 6539 6542 6545 6548 6551 6554 6556 6559 6562 6564 6567 6570 6573 6576 6579 6581 6584 6586 6589 6592 6594 6597 6600 6603 6606 6609 6612 6615 6618 6621 6624 6627 6629 6632 6634 6637 6640 6643 6645 6648 6651 6654 6656 6659 6662 6664 6667 6670 6673 6676 6679 6681 6684 6687 6689 6692 6695 6698 6700 6703 6706 6709 6711 6714 6717 6720 6723 6726 6728 6731 6734 6737 6740 6742 6745 6747 6750 6752 6755 6758 6761 6764 6766 6769 6772 6775 6778 6781 6784 6787 6790 6793 6796 6799 6802 6805 6807 6810 6813 6816 6819 6822 6825 6828 6831 6834 6837 6840 6843 6846 6849 6852 6855 6858 6861 6864 6867 6870 6873 6876 6879 6882 6885 6888 6890 6892 6894 6897 6900 6903 6906 6908 6911 6914 6917 6920 6923 6926 6929 6931 6934 6937 6940 6942 6945 6948 6951 6953 6956 6958 6961 6963 6966 6969 6972 6975 6978 6981 6984 6987 6990 6993 6996 6999 7001 7004 7007 7010 7013 7016 7019 7021 7024 7027 7030 7033 7036 7038 7041 7043 7046 7048 7051 7054 7057 7059 7062 7065 7068 7071 7074 7077 7080 7083 7086 7089 7091 7094 7097 7100 7103 7106 7109 7112 7115 7118 7121 7124 7127 7130 7133 7135 7137 7140 7143 7146 7149 7152 7155 7158 7161 7164 7167 7170 7173 7176 7179 7182 7184 7187 7190 7193 7196 7199 7202 7205 7207 7210 7213 7216 7219 7222 7225 7228 7231 7233 7236 7239 7242 7245 7247 7250 7253 7256 7259 7262 7265 7268 7271 7274 7277 7280 7283 7286 7289 7292 7295 7298 7301 7304 7307 7310 7313 7316 7319 7322 7325 7328 7331 7334 7337 7340 7343 7346 7349 7352 7355 7358 7360 7363 7365 7368 7371 7374 7376 7379 7382 7385 7388 7391 7394 7397 7399 7402 7405 7407 7409 7412 7414 7417 7420 7423 7426 7429 7432 7435 7438 7441 7444 7447 7450 7453 7456 7459 7462 7465 7468 7471 7474 7477 7480 7483 7486 7489 7492 7495 7497 7500 7502 7505 7508 7510 7513 7516 7519 7522 7524 7527 7530 7532 7535 7538 7540 7543 7546 7549 7552 7555 7558 7561 7564 7567 7570 7573 7576 7579 7581 7584 7587 7590 7593 7596 7599 7602 7605 7608 7611 7614 7617 7619 7622 7625 7628 7631 7634 7637 7640 7643 7646 7649 7652 7655 7658 7661 7664 7667 7669 7671 7674 7677 7680 7683 7686 7689 7692 7695 7698 7701 7704 7706 7709 7712 7715 7718 7721 7724 7727 7729 7732 7735 7738 7741 7744 7747 7750 7753 7756 7759 7762 7765 7768 7771 7774 7777 7780 7783 7786 7789 7792 7795 7798 7800 7803 7806 7809 7812 7815 7818 7821 7823 7826 7829 7832 7835 7838 7841 7844 7847 7850 7853 7856 7858 7861 7864 7867 7870 7873 7876 7879 7882 7885 7887 7889 7892 7895 7898 7901 7904 7907 7909 7912 7914 7917 7920 7923 7926 7929 7932 7935 7937 7940 7943 7946 7948 7951 7954 7956 7959 7962 7965 7968 7971 7974 7977 7980 7983 7985 7988 7991 7994 7997 8000 8003 8006 8009 8012 8015 8018 8020 8023 8025 8028 8031 8033 8036 8039 8042 8045 8048 8051 8054 8057 8060 8063 8066 8069 8072 8075 8078 8081 8084 8087 8090 8093 8096 8099 8102 8105 8107 8110 8113 8116 8119 8122 8125 8128 8131 8134 8137 8140 8143 8146 8149 8152 8155 8158 8161 8164 8167 8170 8173 8176 8179 8182 8185 8188 8191 8194 8197 8199 8202 8205 8208 8211 8214 8217 8220 8223 8226 8229 8232 8235 8238 8240 8243 8246 8249 8252 8255 8258 8261 8264 8267 8270 8273 8276 8279 8282 8285 8288 8291 8294 8297 8300 8303 8306 8309 8312 8315 8318 8321 8324 8327 8330 8332 8335 8338 8341 8344 8347 8350 8353 8356 8359 8362 8365 8368 8371 8374 8376 8379 8382 8385 8387 8390 8393 8396 8398 8401 8403 8406 8409 8411 8414 8417 8420 8423 8426 8429 8432 8435 8438 8441 8444 8447 8449 8452 8455 8458 8461 8464 8467 8469 8472 8475 8478 8481 8484 8487 8490 8493 8496 8499 8502 8505 8507 8510 8513 8516 8519 8522 8525 8528 8531 8534 8537 8539 8542 8545 8548 8551 8554 8557 8560 8563 8566 8568 8571 8574 8577 8580 8583 8586 8589 8592 8595 8598 8601 8604 8607 8610 8613 8616 8619 8622 8625 8627 8630 8633 8636 8638 8640 8643 8646 8649 8652 8655 8658 8661 8664 8666 8669 8672 8674 8677 8680 8683 8685 8688 8691 8694 8697 8700 8703 8705 8708 8711 8714 8717 8719 8722 8725 8728 8731 8734 8736 8739 8742 8745 8748 8751 8754 8757 8759 8762 8765 8768 8771 8774 8777 8780 8783 8786 8789 8792 8795 8798 8801 8804 8807 8809 8812 8815 8818 8821 8824 8827 8830 8833 8836 8839 8842 8845 8848 8851 8854 8856 8859 8862 8865 8867 8870 8872 8875 8878 8881 8884 8887 8890 8893 8895 8898 8901 8904 8906 8909 8911 8914 8917 8920 8922 8925 8928 8931 8934 8937 8940 8943 8946 8949 8951 8954 8957 8959 8962 8965 8968 8971 8974 8977 8980 8983 8986 8988 8991 8993 8996 8999 9002 9005 9008 9011 9014 9017 9020 9023 9026 9029 9032 9035 9038 9041 9044 9047 9050 9053 9056 9059 9062 9065 9068 9071 9074 9077 9080 9083 9086 9089 9092 9095 9098 9101 9104 9107 9110 9113 9116 9118 9121 9124 9127 9130 9133 9136 9139 9142 9145 9148 9151 9154 9157 9160 9162 9164 9167 9169 9172 9175 9178 9180 9183 9186 9188 9191 9194 9197 9200 9203 9206 9209 9212 9214 9217 9220 9223 9226 9229 9232 9235 9238 9241 9244 9247 9250 9253 9255 9258 9261 9264 9266 9269 9272 9275 9278 9280 9283 9285 9288 9291 9294 9296 9299 9302 9305 9308 9311 9314 9317 9320 9322 9325 9328 9331 9333 9336 9339 9342 9344 9347 9350 9353 9356 9359 9362 9364 9367 9370 9373 9376 9379 9381 9383 9385 9388 9391 9394 9397 9400 9403 9406 9409 9412 9415 9418 9421 9424 9427 9430 9433 9436 9439 9442 9445 9448 9451 9454 9457 9460 9463 9466 9469 9471 9474 9477 9479 9482 9485 9488 9491 9494 9497 9500 9502 9504 9507 9509 9512 9515 9518 9521 9524 9527 9530 9532 9535 9538 9541 9544 9546 9549 9551 9554 9557 9560 9563 9566 9569 9572 9575 9578 9581 9584 9587 9590 9592 9595 9597 9600 9603 9606 9609 9612 9615 9618 9621 9623 9626 9629 9632 9635 9638 9640 9643 9645 9648 9651 9654 9657 9660 9663 9666 9669 9672 9675 9678 9681 9684 9687 9690 9693 9696 9699 9702 9705 9708 9711 9714 9717 9720 9723 9726 9729 9732 9735 9738 9741 9743 9746 9749 9752 9755 9758 9761 9764 9767 9770 9773 9776 9778 9780 9783 9786 9789 9792 9795 9798 9801 9804 9807 9810 9813 9816 9819 9822 9825 9828 9831 9833 9836 9839 9841 9844 9847 9850 9853 9856 9859 9862 9865 9868 9871 9874 9877 9879 9882 9884 9887 9890 9893 9896 9899 9902 9905 9908 9911 9914 9917 9920 9923 9926 9929 9932 9935 9938 9941 9944 9947 9950 9952 9955 9958 9961 9964 9967 9970 9973 9976 9979 9981 9984 9987 9990 9993 9996 9999 10002 10005 10007 10010 10013 10016 10019 10022 10025 10028 10031 10034 10037 10040 10043 10046 10049 10052 10055 10058 10061 10064 10067 10070 10073 10076 10079 10082 10085 10088 10091 10094 10097 10100 10103 10105 10108 10111 10114 10117 10119 10122 10125 10128 10131 10134 10137 10140 10143 10146 10149 10152 10155 10158 10160 10163 10166 10169 10172 10174 10177 10180 10183 10185 10188 10191 10193 10195 10198 10201 10204 10207 10210 10213 10216 10219 10222 10225 10228 10231 10234 10237 10240 10243 10246 10249 10252 10255 10258 10261 10264 10267 10270 10273 10276 10279 10282 10285 10287 10289 10292 10295 10298 10301 10303 10306 10308 10311 10314 10317 10320 10323 10326 10329 10331 10334 10337 10340 10343 10346 10349 10352 10355 10358 10361 10363 10366 10369 10372 10375 10378 10381 10383 10386 10388 10390 10393 10396 10398 10401 10404 10407 10409 10411 10414 10417 10420 10423 10425 10428 10431 10434 10437 10440 10442 10444 10447 10450 10453 10456 10459 10462 10465 10468 10471 10474 10477 10479 10482 10485 10488 10491 10494 10497 10499 10502 10505 10508 10511 10514 10517 10520 10523 10526 10529 10532 10535 10538 10540 10543 10546 10548 10551 10553 10556 10559 10562 10564 10567 10569 10572 10575 10578 10581 10584 10587 10590 10593 10596 10599 10602 10605 10608 10611 10614 10617 10620 10622 10625 10628 10630 10633 10636 10638 10641 10644 10647 10649 10652 10654 10657 10660 10662 10665 10668 10671 10674 10677 10680 10683 10686 10689 10692 10694 10697 10700 10703 10705 10708 10711 10714 10717 10720 10723 10726 10729 10731 10734 10737 10740 10743 10746 10749 10752 10754 10757 10760 10763 10766 10768 10771 10774 10777 10780 10783 10786 10789 10792 10795 10798 10801 10804 10807 10810 10813 10816 10819 10822 10825 10828 10831 10833 10836 10839 10842 10845 10848 10851 10854 10857 10860 10863 10866 10869 10872 10875 10878 10881 10884 10887 10890 10893 10896 10899 10902 10905 10908 10911 10914 10917 10920 10923 10926 10929 10932 10935 10938 10941 10944 10947 10950 10953 10956 10959 10962 10964 10967 10970 10973 10976 10979 10982 10984 10987 10990 10993 10996 10999 11002 11005 11008 11010 11013 11016 11019 11022 11025 11028 11031 11034 11037 11040 11043 11046 11049 11052 11055 11058 11060 11063 11066 11069 11072 11075 11078 11081 11084 11087 11090 11093 11096 11099 11102 11105 11108 11111 11114 11117 11120 11123 11126 11129 11131 11134 11137 11140 11143 11146 11149 11152 11155 11158 11161 11164 11167 11170 11173 11176 11179 11182 11185 11188 11191 11194 11197 11200 11203 11206 11209 11212 11215 11218 11221 11223 11225 11228 11231 11234 11237 11240 11243 11246 11248 11251 11254 11257 11260 11263 11266 11268 11271 11274 11277 11280 11283 11286 11289 11292 11295 11298 11301 11304 11306 11309 11312 11315 11318 11321 11324 11327 11330 11333 11335 11338 11341 11343 11346 11348 11351 11354 11357 11360 11363 11365 11368 11371 11374 11377 11380 11383 11386 11389 11392 11395 11398 11401 11404 11407 11410 11413 11416 11419 11422 11425 11428 11431 11434 11437 11440 11442 11445 11448 11451 11454 11457 11459 11462 11465 11468 11471 11474 11477 11480 11483 11486 11489 11492 11494 11497 11500 11503 11506 11509 11512 11515 11518 11521 11524 11527 11530 11533 11536 11538 11541 11544 11546 11549 11552 11555 11558 11560 11563 11565 11568 11571 11574 11577 11579 11582 11585 11588 11590 11593 11596 11599 11602 11605 11608 11611 11614 11617 11620 11623 11626 11629 11631 11634 11637 11640 11643 11646 11649 11651 11654 11657 11660 11663 11666 11668 11671 11674 11676 11679 11681 11684 11687 11690 11693 11696 11699 11702 11704 11707 11710 11713 11716 11719 11722 11725 11727 11730 11733 11736 11739 11742 11745 11747 11750 11753 11756 11759 11762 11765 11768 11771 11774 11777 11780 11783 11786 11788 11791 11794 11796 11799 11802 11805 11808 11811 11814 11817 11820 11823 11826 11829 11832 11835 11838 11841 11844 11847 11850 11853 11856 11859 11861 11864 11867 11870 11873 11876 11879 11881 11883 11886 11889 11892 11894 11897 11900 11903 11906 11909 11912 11914 11917 11920 11923 11926 11929 11932 11935 11938 11941 11944 11947 11950 11953 11956 11959 11962 11965 11968 11971 11974 11977 11980 11983 11986 11989 11992 11995 11998 12001 12004 12007 12010 12013 12016 12019 12022 12025 12028 12031 12034 12037 12040 12043 12046 12049 12052 12055 12058 12061 12064 12067 12070 12073 12076 12079 12082 12085 12088 12091 12094 12096 12099 12102 12105 12108 12111 12114 12116 12119 12122 12125 12128 12131 12134 12137 12140 12143 12145 12148 12151 12154 12157 12160 12163 12166 12169 12172 12175 12178 12181 12184 12187 12190 12193 12196 12199 12202 12205 12208 12211 12213 12216 12219 12221 12224 12227 12229 12232 12234 12237 12240 12243 12245 12248 12251 12253 12256 12259 12262 12265 12267 12270 12273 12275 12278 12281 12284 12286 12289 12291 12294 12296 12299 12302 12304 12307 12310 12312 12315 12318 12321 12324 12327 12330 12333 12336 12339 12342 12345 12347 12350 12353 12356 12359 12362 12365 12368 12371 12374 12377 12380 12383 12386 12389 12392 12395 12397 12400 12403 12405 12408 12411 12414 12417 12420 12423 12426 12429 12432 12435 12438 12441 12444 12447 12450 12453 12456 12459 12462 12464 12467 12469 12472 12475 12478 12481 12484 12486 12489 12491 12494 12497 12500 12503 12505 12508 12511 12514 12517 12519 12521 12524 12527 12530 12533 12536 12539 12542 12545 12548 12551 12554 12557 12560 12562 12565 12568 12571 12574 12577 12580 12583 12586 12589 12592 12595 12598 12601 12604 12607 12610 12613 12616 12618 12621 12624 12627 12630 12633 12636 12639 12641 12644 12646 12649 12652 12655 12657 12660 12663 12666 12668 12671 12674 12677 12680 12683 12686 12689 12691 12693 12696 12698 12701 12704 12707 12709 12711 12714 12716 12719 12722 12724 12727 12730 12733 12735 12738 12740 12743 12745 12748 12751 12754 12757 12760 12762 12765 12768 12770 12773 12776 12779 12781 12784 12787 12790 12793 12796 12798 12801 12804 12807 12809 12812 12814 12817 12820 12822 12825 12828 12831 12834 12836 12839 12842 12845 12847 12850 12853 12856 12859 12862 12865 12868 12871 12874 12877 12880 12883 12886 12889 12892 12895 12898 12901 12904 12907 12909 12912 12915 12918 12921 12923 12926 12929 12931 12934 12937 12939 12942 12944 12947 12950 12953 12955 12958 12961 12963 12966 12969 12972 12974 12977 12980 12982 12984 12987 12990 12993 12995 12998 13001 13004 13007 13010 13012 13015 13017 13020 13023 13025 13028 13031 13034 13037 13039 13041 13044 13047 13049 13052 13055 13057 13060 13063 13065 13068 13071 13074 13077 13080 13083 13086 13089 13092 13094 13097 13100 13102 13104 13107 13110 13113 13115 13118 13121 13123 13125 13128 13131 13133 13136 13139 13142 13144 13147 13150 13152 13155 13157 13160 13162 13165 13168 13171 13174 13176 13179 13182 13185 13188 13191 13194 13197 13200 13203 13206 13209 13211 13213 13216 13219 13222 13225 13227 13230 13233 13236 13238 13241 13244 13247 13250 13253 13256 13258 13260 13263 13265 13268 13270 13272 13274 13277 13279 13282 13285 13288 13291 13294 13296 13299 13302 13305 13308 13310 13313 13316 13319 13322 13324 13327 13330 13333 13336 13339 13341 13344 13346 13349 13352 13355 13358 13361 13364 13367 13370 13372 13375 13378 13380 13383 13386 13388 13391 13394 13396 13399 13401 13404 13407 13409 13412 13415 13417 13420 13423 13426 13429 13431 13434 13437 13439 13442 13445 13448 13451 13453 13456 13459 13462 13464 13467 13470 13473 13476 13479 13482 13484 13487 13489 13492 13495 13497 13500 13502 13505 13508 13511 13513 13516 13519 13522 13525 13527 13530 13533 13536 13539 13541 13544 13547 13549 13552 13554 13557 13560 13562 13565 13568 13571 13574 13577 13580 13583 13586 13589 13592 13595 13597 13600 13603 13606 13609 13612 13615 13617 13620 13623 13626 13629 13632 13635 13638 13641 13644 13647 13650 13653 13656 13659 13662 13665 13668 13671 13674 13677 13680 13683 13686 13689 13692 13695 13698 13701 13704 13707 13710 13713 13716 13719 13722 13725 13728 13731 13734 13737 13740 13743 13746 13749 13752 13755 13758 13761 13764 13767 13770 13773 13776 13779 13782 13785 13787 13790 13793 13796 13799 13802 13805 13808 13811 13814 13816 13819 13822 13825 13827 13830 13833 13835 13838 13841 13844 13847 13850 13853 13856 13859 13862 13865 13868 13871 13874 13877 13880 13883 13886 13889 13892 13895 13898 13901 13903 13906 13909 13912 13915 13918 13921 13923 13926 13929 13932 13934 13937 13940 13943 13945 13948 13951 13954 13957 13960 13963 13966 13969 13972 13975 13978 13980 13983 13986 13989 13992 13995 13998 14001 14004 14007 14009 14012 14014 14017 14020 14023 14025 14028 14031 14034 14037 14040 14043 14046 14049 14052 14055 14058 14061 14064 14067 14069 14072 14075 14078 14080 14083 14086 14089 14092 14095 14098 14100 14103 14106 14108 14111 14114 14117 14120 14123 14126 14129 14132 14135 14138 14141 14144 14147 14150 14153 14156 14159 14162 14165 14168 14171 14174 14177 14180 14183 14186 14188 14191 14194 14197 14200 14202 14205 14208 14211 14214 14217 14220 14223 14225 14228 14231 14233 14236 14239 14242 14245 14248 14251 14254 14257 14260 14262 14265 14268 14271 14274 14277 14280 14282 14285 14288 14291 14294 14297 14300 14303 14306 14309 14312 14315 14318 14321 14324 14327 14330 14333 14336 14339 14342 14345 14348 14351 14354 14357 14360 14363 14366 14369 14372 14375 14378 14381 14384 14387 14390 14393 14396 14399 14402 14405 14408 14411 14414 14417 14420 14423 14426 14429 14432 14435 14438 14441 14444 14446 14449 14452 14455 14458 14461 14464 14467 14470 14473 14476 14479 14482 14485 14488 14491 14494 14497 14500 14503 14506 14509 14512 14515 14518 14521 14524 14527 14530 14533 14535 14538 14541 14543 14546 14549 14552 14555 14558 14561 14564 14567 14570 14573 14576 14579 14582 14585 14588 14591 14593 14596 14599 14602 14605 14607 14610 14613 14616 14619 14621 14624 14627 14630 14633 14636 14638 14641 14644 14647 14650 14653 14656 14659 14662 14665 14668 14671 14674 14676 14679 14682 14685 14688 14691 14694 14697 14700 14703 14706 14709 14712 14715 14718 14721 14724 14727 14730 14733 14736 14739 14742 14744 14747 14750 14753 14756 14759 14762 14765 14768 14771 14774 14777 14780 14783 14786 14789 14791 14794 14797 14800 14803 14806 14809 14812 14814 14816 14819 14822 14825 14828 14831 14834 14837 14840 14843 14846 14849 14852 14855 14858 14861 14864 14867 14870 14873 14876 14879 14882 14885 14888 14891 14894 14897 14900 14903 14906 14909 14912 14915 14918 14921 14924 14927 14930 14933 14936 14939 14942 14944 14947 14950 14952 14955 14958 14961 14964 14967 14970 14973 14976 14979 14982 14985 14988 14991 14994 14997 15000 15003 15006 15009 15012 15015 15018 15021 15024 15027 15030 15033 15036 15039 15042 15045 15048 15051 15054 15056 15059 15062 15065 15068 15071 15074 15077 15080 15083 15086 15089 15092 15095 15098 15101 15104 15107 15110 15113 15115 15118 15121 15124 15127 15130 15132 15135 15137 15140 15143 15146 15149 15151 15154 15157 15160 15163 15166 15169 15172 15175 15177 15180 15183 15185 15187 15190 15192 15195 15198 15201 15204 15207 15210 15213 15216 15219 15222 15225 15228 15231 15234 15237 15240 15243 15246 15249 15251 15254 15257 15260 15263 15266 15268 15270 15273 15275 15278 15281 15284 15287 15290 15292 15295 15297 15300 15303 15305 15307 15310 15313 15316 15318 15321 15324 15326 15329 15331 15334 15336 15339 15342 15344 15347 15350 15353 15356 15359 15362 15365 15367 15370 15373 15376 15379 15382 15385 15388 15391 15394 15397 15400 15403 15406 15409 15412 15415 15418 15421 15424 15427 15430 15433 15436 15439 15442 15445 15448 15451 15454 15457 15460 15463 15465 15468 15471 15474 15477 15480 15482 15485 15488 15491 15494 15497 15500 15503 15506 15509 15511 15514 15517 15520 15522 15524 15527 15530 15533 15536 15539 15542 15545 15548 15551 15554 15557 15560 15563 15566 15569 15572 15575 15578 15581 15583 15586 15589 15592 15595 15597 15599 15602 15605 15608 15610 15612 15614 15616 15619 15621 15624 15627 15630 15633 15636 15639 15642 15644 15647 15649 15651 15654 15657 15660 15663 15666 15669 15672 15675 15678 15681 15684 15687 15690 15693 15696 15699 15702 15705 15708 15711 15714 15716 15718 15721 15724 15727 15730 15733 15736 15739 15742 15745 15748 15751 15754 15757 15760 15763 15766 15769 15772 15775 15778 15781 15784 15787 15790 15793 15796 15798 15801 15804 15806 15809 15811 15814 15817 15820 15822 15825 15828 15830 15833 15835 15838 15841 15844 15847 15850 15853 15856 15859 15862 15865 15868 15871 15874 15877 15880 15883 15886 15889 15891 15894 15896 15899 15902 15905 15908 15911 15914 15916 15919 15922 15925 15928 15930 15933 15936 15938 15941 15944 15947 15950 15952 15955 15958 15961 15964 15967 15970 15973 15976 15979 15982 15985 15988 15991 15993 15996 15999 16002 16005 16008 16011 16014 16016 16019 16022 16025 16027 16030 16033 16036 16039 16042 16045 16048 16051 16054 16057 16060 16063 16066 16068 16071 16074 16077 16080 16083 16086 16088 16090 16093 16096 16098 16101 16104 16106 16109 16112 16115 16118 16121 16124 16127 16130 16133 16135 16138 16141 16144 16147 16150 16153 16156 16159 16162 16165 16168 16171 16174 16177 16179 16182 16185 16188 16191 16194 16197 16200 16203 16206 16209 16212 16214 16217 16220 16223 16226 16229 16231 16234 16237 16240 16243 16246 16249 16252 16254 16256 16259 16262 16264 16267 16270 16273 16276 16279 16282 16285 16288 16291 16293 16296 16299 16302 16305 16308 16311 16313 16316 16319 16322 16325 16328 16331 16334 16337 16340 16343 16346 16349 16351 16354 16357 16360 16363 16365 16368 16371 16374 16376 16379 16382 16385 16388 16391 16393 16396 16398 16401 16404 16407 16409 16412 16415 16418 16421 16424 16427 16429 16432 16435 16438 16441 16444 16447 16450 16453 16456 16459 16462 16465 16468 16471 16474 16477 16480 16483 16486 16488 16491 16494 16497 16500 16503 16506 16509 16512 16515 16518 16521 16524 16527 16530 16533 16536 16539 16542 16545 16548 16550 16552 16555 16558 16561 16564 16567 16570 16573 16576 16579 16582 16585 16588 16590 16593 16596 16599 16602 16605 16608 16611 16614 16617 16620 16623 16626 16629 16632 16635 16638 16640 16642 16645 16648 16651 16654 16657 16660 16663 16666 16668 16671 16674 16677 16680 16683 16686 16689 16692 16695 16698 16701 16704 16707 16710 16713 16716 16719 16722 16725 16728 16731 16734 16737 16740 16743 16746 16749 16752 16755 16758 16761 16764 16767 16770 16773 16776 16779 16782 16784 16787 16790 16793 16796 16799 16801 16804 16807 16810 16812 16815 16818 16821 16824 16827 16830 16832 16835 16838 16841 16844 16847 16850 16853 16856 16859 16862 16865 16868 16871 16874 16877 16880 16883 16886 16889 16892 16895 16898 16901 16904 16907 16910 16912 16915 16918 16921 16924 16927 16930 16933 16936 16939 16942 16945 16948 16951 16954 16957 16959 16962 16965 16967 16970 16973 16976 16978 16981 16984 16987 16990 16993 16996 16999 17002 17005 17007 17009 17012 17015 17017 17020 17023 17026 17029 17032 17035 17037 17040 17043 17046 17049 17052 17055 17058 17061 17064 17067 17070 17073 17076 17079 17082 17085 17088 17091 17094 17097 17100 17103 17106 17109 17112 17115 17118 17121 17124 17127 17130 17133 17136 17138 17141 17144 17147 17150 17153 17156 17158 17160 17163 17166 17169 17172 17174 17176 17178 17181 17184 17187 17190 17193 17195 17198 17201 17204 17207 17210 17213 17216 17219 17222 17225 17228 17231 17234 17237 17240 17243 17245 17248 17251 17254 17257 17259 17262 17265 17268 17271 17274 17277 17280 17283 17286 17289 17291 17294 17297 17300 17303 17306 17309 17312 17314 17317 17320 17323 17326 17329 17332 17335 17338 17341 17344 17347 17350 17353 17356 17359 17362 17365 17368 17371 17374 17377 17380 17383 17386 17389 17392 17395 17398 17401 17404 17407 17410 17413 17416 17419 17421 17424 17427 17429 17432 17435 17438 17441 17444 17446 17449 17452 17455 17457 17460 17463 17465 17468 17471 17474 17477 17480 17483 17486 17489 17491 17494 17497 17500 17503 17505 17508 17511 17513 17516 17519 17522 17525 17528 17531 17534 17537 17540 17542 17545 17548 17551 17554 17557 17560 17563 17566 17569 17572 17575 17578 17581 17584 17587 17590 17593 17596 17599 17602 17605 17607 17610 17613 17615 17618 17621 17623 17626 17629 17632 17635 17638 17640 17643 17646 17649 17652 17654 17657 17659 17662 17665 17668 17671 17674 17677 17680 17683 17686 17689 17691 17693 17695 17698 17701 17703 17706 17709 17712 17715 17717 17720 17723 17726 17729 17732 17735 17737 17740 17743 17746 17749 17752 17754 17757 17760 17763 17766 17768 17771 17773 17776 17779 17782 17785 17788 17790 17793 17795 17798 17801 17803 17806 17809 17812 17815 17818 17821 17824 17827 17830 17833 17836 17839 17842 17844 17846 17849 17852 17855 17857 17860 17863 17866 17868 17871 17874 17877 17880 17883 17886 17889 17892 17894 17897 17900 17903 17906 17909 17912 17915 17918 17921 17924 17927 17930 17933 17936 17939 17942 17945 17947 17950 17953 17956 17959 17962 17965 17968 17970 17973 17976 17978 17981 17984 17987 17990 17993 17996 17999 18002 18005 18008 18011 18013 18016 18019 18022 18025 18028 18031 18034 18036 18039 18041 18043 18046 18049 18052 18055 18058 18061 18064 18067 18069 18072 18075 18078 18081 18084 18086 18089 18092 18095 18098 18101 18104 18107 18110 18113 18116 18119 18122 18124 18127 18130 18132 18135 18138 18141 18144 18147 18150 18153 18156 18158 18161 18164 18166 18169 18172 18175 18178 18181 18184 18187 18190 18193 18196 18199 18202 18204 18207 18210 18213 18216 18219 18222 18225 18228 18231 18234 18237 18239 18242 18245 18248 18251 18253 18256 18258 18261 18263 18265 18268 18271 18274 18276 18279 18282 18285 18287 18290 18293 18295 18298 18301 18304 18307 18310 18313 18316 18319 18322 18325 18328 18331 18334 18337 18340 18343 18346 18349 18352 18355 18358 18361 18364 18367 18370 18373 18376 18379 18382 18385 18388 18391 18394 18397 18400 18403 18406 18409 18412 18415 18418 18421 18424 18427 18430 18433 18436 18439 18442 18445 18448 18451 18453 18456 18459 18462 18465 18468 18471 18474 18477 18480 18482 18485 18488 18490 18493 18496 18499 18502 18505 18508 18511 18514 18517 18519 18522 18524 18527 18530 18533 18536 18539 18541 18544 18547 18550 18553 18556 18559 18562 18565 18568 18571 18574 18577 18580 18583 18585 18588 18591 18594 18597 18600 18603 18606 18609 18612 18615 18618 18621 18624 18627 18630 18633 18636 18639 18642 18644 18647 18650 18653 18656 18658 18661 18664 18667 18670 18673 18676 18678 18681 18684 18687 18690 18693 18696 18699 18702 18705 18708 18711 18714 18717 18720 18723 18726 18729 18732 18735 18738 18741 18743 18746 18749 18752 18755 18758 18761 18764 18767 18769 18772 18775 18778 18780 18783 18786 18788 18790 18792 18795 18798 18801 18803 18806 18809 18812 18815 18818 18821 18824 18827 18830 18833 18836 18839 18842 18845 18848 18851 18854 18857 18860 18863 18866 18868 18871 18874 18877 18880 18883 18886 18889 18891 18893 18896 18898 18900 18903 18906 18908 18911 18914 18917 18920 18923 18926 18929 18932 18935 18938 18941 18944 18947 18949 18952 18955 18958 18961 18963 18966 18969 18972 18975 18977 18980 18983 18986 18989 18991 18994 18997 19000 19002 19005 19007 19010 19013 19016 19019 19022 19025 19028 19031 19034 19037 19040 19043 19045 19048 19051 19054 19057 19060 19063 19066 19069 19072 19075 19078 19081 19084 19087 19090 19093 19096 19099 19102 19105 19108 19111 19114 19117 19119 19122 19125 19128 19131 19134 19137 19140 19143 19145 19148 19151 19154 19157 19160 19163 19166 19169 19172 19175 19178 19181 19184 19187 19190 19193 19196 19199 19202 19205 19207 19210 19213 19216 19219 19222 19225 19228 19231 19234 19237 19240 19243 19246 19249 19252 19255 19258 19261 19264 19266 19269 19272 19275 19278 19281 19284 19287 19290 19293 19296 19299 19302 19305 19308 19311 19314 19317 19320 19323 19326 19329 19332 19335 19338 19341 19344 19347 19350 19353 19356 19359 19362 19365 19367 19370 19373 19376 19379 19382 19384 19387 19389 19392 19395 19398 19401 19403 19406 19409 19412 19415 19418 19421 19424 19427 19430 19433 19436 19439 19442 19445 19448 19451 19454 19457 19460 19463 19466 19469 19472 19475 19478 19481 19484 19487 19490 19493 19496 19499 19502 19505 19507 19510 19513 19516 19519 19522 19525 19527 19530 19533 19536 19538 19541 19544 19546 19549 19552 19555 19558 19560 19563 19566 19569 19572 19574 19577 19580 19582 19585 19588 19591 19594 19597 19600 19603 19605 19608 19610 19612 19615 19618 19621 19624 19627 19630 19633 19636 19639 19642 19645 19647 19650 19653 19656 19659 19662 19665 19667 19670 19673 19676 19678 19681 19684 19687 19690 19693 19696 19698 19701 19704 19707 19709 19712 19715 19718 19721 19724 19727 19730 19733 19736 19739 19742 19745 19748 19751 19754 19756 19759 19762 19765 19768 19771 19774 19777 19779 19781 19784 19787 19790 19793 19796 19799 19802 19805 19808 19811 19814 19816 19819 19822 19825 19828 19831 19833 19836 19839 19842 19845 19848 19851 19854 19857 19860 19863 19866 19869 19872 19875 19878 19881 19884 19887 19890 19893 19896 19899 19902 19905 19908 19911 19914 19917 19920 19923 19926 19929 19932 19935 19937 19940 19943 19946 19949 19952 19955 19958 19961 19964 19966 19969 19972 19975 19978 19981 19984 19987 19990 19993 19995 19998 20001 20004 20007 20010 20013 20016 20019 20022 20025 20028 20031 20034 20037 20040 20043 20046 20049 20052 20055 20057 20060 20063 20066 20069 20072 20075 20078 20080 20082 20085 20088 20091 20094 20096 20099 20102 20105 20108 20111 20114 20116 20119 20122 20124 20127 20130 20133 20136 20139 20142 20145 20148 20151 20153 20156 20159 20162 20164 20167 20170 20172 20174 20177 20179 20182 20185 20188 20191 20193 20196 20199 20202 20205 20208 20210 20213 20216 20219 20222 20225 20228 20231 20234 20237 20240 20243 20246 20249 20252 20255 20258 20261 20264 20267 20270 20273 20276 20279 20282 20285 20288 20291 20294 20297 20300 20303 20306 20309 20312 20315 20318 20321 20324 20327 20330 20333 20336 20339 20342 20345 20348 20351 20354 20357 20360 20363 20366 20369 20371 20374 20377 20380 20383 20386 20388 20391 20394 20397 20400 20402 20405 20408 20411 20414 20417 20420 20423 20426 20429 20432 20435 20438 20441 20444 20447 20450 20452 20455 20458 20460 20463 20466 20469 20472 20475 20478 20481 20484 20487 20490 20493 20496 20499 20502 20505 20508 20511 20514 20517 20520 20523 20526 20529 20531 20534 20537 20540 20543 20546 20549 20552 20555 20558 20560 20563 20566 20569 20572 20575 20578 20581 20584 20587 20590 20593 20596 20599 20602 20605 20608 20611 20614 20617 20620 20623 20626 20629 20632 20635 20637 20640 20643 20646 20649 20651 20654 20657 20659 20662 20665 20668 20671 20674 20677 20680 20682 20685 20688 20691 20694 20697 20700 20703 20706 20709 20712 20714 20716 20719 20722 20725 20728 20731 20734 20737 20740 20743 20746 20749 20752 20755 20758 20761 20764 20767 20770 20773 20776 20779 20782 20785 20788 20791 20794 20797 20800 20803 20806 20809 20812 20815 20817 20820 20823 20826 20829 20832 20835 20838 20841 20844 20847 20850 20853 20856 20859 20861 20863 20866 20869 20872 20875 20878 20881 20884 20887 20890 20893 20896 20899 20902 20905 20908 20911 20914 20917 20920 20923 20926 20929 20932 20935 20938 20940 20943 20946 20949 20951 20954 20957 20960 20963 20966 20969 20972 20975 20978 20981 20984 20987 20990 20993 20996 20999 21002 21005 21008 21011 21013 21016 21019 21022 21025 21028 21031 21034 21036 21039 21041 21044 21046 21049 21052 21055 21057 21060 21063 21066 21069 21072 21075 21078 21080 21083 21086 21089 21092 21095 21098 21101 21104 21106 21108 21111 21114 21117 21120 21123 21125 21128 21131 21134 21137 21140 21143 21146 21149 21152 21155 21158 21161 21164 21167 21170 21173 21176 21179 21182 21185 21188 21191 21194 21197 21200 21203 21206 21209 21212 21215 21218 21221 21224 21227 21230 21233 21236 21239 21242 21245 21248 21251 21254 21257 21260 21263 21266 21269 21272 21275 21278 21281 21283 21286 21289 21292 21295 21298 21301 21304 21307 21310 21313 21316 21319 21322 21324 21327 21330 21333 21336 21339 21342 21345 21348 21351 21353 21356 21359 21362 21365 21368 21371 21373 21376 21379 21382 21385 21388 21390 21393 21396 21399 21402 21405 21408 21410 21413 21416 21419 21422 21425 21428 21431 21434 21437 21440 21443 21446 21448 21451 21454 21457 21460 21463 21466 21469 21472 21474 21477 21480 21483 21486 21489 21492 21495 21498 21501 21504 21507 21510 21513 21516 21519 21522 21525 21528 21530 21533 21536 21539 21542 21545 21548 21551 21554 21557 21560 21562 21565 21568 21571 21574 21577 21580 21583 21586 21589 21592 21595 21598 21601 21604 21607 21610 21613 21616 21619 21622 21625 21628 21630 21633 21636 21639 21641 21644 21646 21648 21651 21654 21657 21659 21661 21664 21667 21670 21673 21676 21679 21682 21685 21688 21691 21694 21697 21700 21703 21706 21709 21712 21714 21717 21720 21723 21726 21729 21732 21735 21738 21741 21744 21747 21750 21753 21756 21759 21762 21765 21768 21771 21774 21777 21779 21782 21785 21788 21791 21793 21796 21799 21802 21805 21808 21811 21814 21817 21820 21823 21826 21829 21832 21835 21838 21840 21843 21846 21848 21850 21853 21856 21859 21862 21865 21868 21871 21874 21877 21880 21883 21886 21888 21891 21894 21897 21900 21903 21906 21909 21912 21915 21918 21921 21924 21927 21930 21933 21936 21939 21942 21945 21948 21951 21954 21957 21959 21961 21964 21967 21970 21973 21975 21977 21980 21982 21985 21988 21991 21994 21996 21999 22002 22005 22008 22011 22014 22017 22020 22023 22026 22029 22032 22035 22038 22041 22044 22047 22050 22052 22055 22058 22061 22064 22067 22070 22073 22076 22079 22082 22085 22088 22091 22093 22096 22099 22102 22105 22108 22111 22114 22117 22119 22122 22125 22127 22129 22132 22134 22137 22140 22143 22146 22149 22152 22155 22158 22161 22164 22166 22169 22171 22174 22177 22180 22183 22186 22189 22191 22194 22197 22200 22203 22206 22209 22212 22215 22218 22221 22224 22227 22230 22233 22236 22239 22242 22245 22248 22251 22254 22257 22260 22263 22266 22269 22272 22275 22278 22281 22284 22287 22290 22293 22296 22299 22302 22305 22308 22311 22314 22317 22320 22323 22326 22329 22332 22335 22338 22340 22343 22346 22348 22351 22354 22357 22359 22362 22365 22368 22371 22373 22376 22379 22382 22385 22388 22391 22394 22397 22400 22403 22406 22409 22412 22415 22418 22421 22424 22427 22430 22433 22436 22439 22442 22445 22447 22449 22452 22455 22458 22461 22464 22467 22470 22473 22476 22479 22482 22485 22488 22491 22494 22497 22500 22503 22506 22508 22511 22514 22517 22520 22523 22526 22529 22531 22534 22537 22540 22542 22545 22548 22551 22554 22557 22560 22563 22566 22569 22572 22574 22576 22578 22581 22584 22586 22589 22592 22595 22598 22601 22604 22607 22609 22612 22615 22617 22620 22623 22626 22628 22631 22634 22637 22640 22643 22646 22649 22652 22655 22658 22661 22664 22667 22670 22673 22676 22679 22682 22685 22688 22691 22694 22697 22699 22702 22705 22708 22710 22713 22716 22719 22722 22725 22728 22731 22734 22737 22740 22743 22746 22749 22752 22754 22757 22759 22762 22765 22768 22771 22774 22777 22780 22783 22786 22788 22791 22794 22797 22800 22803 22806 22809 22812 22815 22817 22820 22823 22825 22828 22830 22833 22836 22838 22841 22844 22847 22850 22853 22856 22859 22862 22864 22867 22870 22873 22876 22879 22882 22885 22888 22891 22893 22896 22899 22902 22905 22908 22911 22914 22917 22920 22923 22926 22929 22931 22934 22936 22939 22941 22944 22947 22950 22953 22956 22959 22961 22964 22967 22970 22973 22976 22979 22982 22984 22987 22990 22992 22995 22998 23001 23004 23007 23010 23013 23016 23019 23022 23025 23028 23031 23034 23037 23039 23042 23044 23047 23050 23053 23056 23059 23062 23065 23068 23071 23074 23077 23080 23083 23086 23089 23092 23095 23098 23101 23104 23107 23110 23113 23116 23119 23122 23125 23128 23130 23133 23136 23139 23141 23144 23147 23150 23153 23155 23157 23160 23162 23165 23168 23171 23174 23177 23180 23183 23186 23189 23192 23195 23198 23200 23202 23205 23208 23211 23214 23217 23220 23222 23225 23228 23231 23233 23236 23239 23242 23245 23248 23251 23254 23257 23260 23263 23266 23269 23271 23274 23277 23280 23283 23286 23289 23292 23295 23298 23301 23304 23307 23309 23312 23315 23318 23321 23324 23326 23328 23331 23334 23337 23340 23343 23345 23348 23351 23354 23357 23360 23363 23366 23369 23371 23374 23376 23379 23382 23385 23388 23391 23394 23396 23399 23402 23405 23408 23411 23414 23417 23419 23422 23425 23428 23431 23434 23436 23439 23442 23445 23447 23450 23453 23456 23459 23462 23465 23468 23471 23473 23476 23479 23482 23485 23488 23491 23494 23497 23499 23502 23505 23508 23511 23514 23517 23520 23523 23526 23529 23532 23535 23538 23540 23543 23546 23549 23552 23555 23558 23561 23564 23567 23570 23573 23576 23579 23582 23585 23588 23591 23594 23597 23599 23602 23605 23608 23611 23614 23617 23620 23623 23626 23629 23632 23635 23638 23641 23644 23647 23650 23653 23655 23658 23661 23664 23666 23669 23671 23674 23677 23680 23683 23686 23689 23692 23694 23697 23700 23703 23706 23709 23712 23715 23718 23721 23724 23727 23730 23733 23736 23739 23742 23745 23748 23751 23754 23757 23760 23763 23766 23768 23770 23773 23776 23779 23782 23785 23788 23790 23793 23796 23799 23802 23805 23808 23811 23814 23817 23820 23823 23826 23829 23832 23835 23838 23841 23844 23847 23850 23852 23855 23858 23861 23864 23866 23869 23872 23875 23878 23880 23883 23886 23889 23892 23895 23898 23901 23904 23907 23910 23913 23916 23919 23922 23924 23927 23930 23933 23936 23939 23942 23945 23948 23951 23953 23956 23959 23962 23965 23967 23969 23972 23975 23978 23981 23984 23987 23990 23993 23996 23999 24002 24005 24008 24011 24014 24017 24020 24023 24026 24029 24032 24035 24038 24041 24044 24047 24050 24053 24056 24059 24062 24065 24068 24071 24074 24076 24079 24082 24085 24088 24090 24093 24096 24099 24102 24105 24108 24111 24114 24117 24119 24122 24125 24128 24131 24134 24137 24140 24143 24146 24149 24152 24154 24157 24160 24163 24166 24169 24172 24175 24177 24180 24183 24186 24189 24192 24195 24198 24201 24204 24207 24210 24213 24216 24219 24222 24224 24227 24230 24233 24236 24238 24241 24244 24246 24249 24252 24255 24258 24261 24264 24267 24269 24271 24274 24277 24280 24283 24286 24289 24292 24295 24298 24301 24304 24307 24310 24313 24316 24318 24321 24324 24326 24329 24332 24335 24338 24341 24344 24347 24350 24353 24356 24358 24361 24364 24367 24370 24373 24376 24378 24381 24384 24387 24390 24393 24396 24399 24402 24404 24407 24410 24413 24416 24419 24421 24424 24427 24430 24432 24435 24438 24441 24444 24447 24450 24453 24456 24459 24462 24465 24468 24471 24474 24477 24480 24482 24485 24488 24491 24494 24497 24500 24503 24506 24508 24511 24514 24517 24520 24523 24526 24529 24532 24534 24537 24539 24542 24545 24548 24551 24554 24557 24560 24562 24564 24567 24570 24573 24575 24578 24581 24584 24586 24589 24592 24595 24597 24600 24603 24606 24609 24612 24615 24618 24621 24624 24627 24630 24633 24636 24639 24642 24645 24647 24650 24653 24656 24659 24662 24665 24668 24671 24674 24676 24679 24682 24685 24688 24691 24694 24697 24700 24703 24706 24709 24712 24715 24718 24721 24723 24726 24729 24732 24735 24737 24740 24742 24745 24748 24751 24753 24756 24759 24762 24765 24768 24770 24773 24776 24778 24781 24784 24787 24790 24793 24795 24798 24801 24803 24806 24809 24812 24815 24817 24820 24823 24826 24829 24832 24835 24837 24840 24843 24845 24848 24851 24854 24857 24860 24862 24865 24868 24871 24874 24876 24879 24882 24885 24887 24890 24893 24896 24899 24902 24904 24907 24910 24913 24915 24917 24920 24923 24926 24928 24931 24934 24937 24940 24943 24946 24949 24952 24954 24957 24960 24963 24966 24969 24972 24975 24978 24981 24984 24987 24990 24993 24996 24999 25002 25005 25008 25011 25014 25017 25020 25023 25026 25029 25031 25034 25037 25039 25042 25045 25048 25051 25054 25057 25060 25063 25066 25068 25071 25074 25077 25080 25083 25085 25087 25090 25093 25095 25098 25101 25104 25107 25110 25113 25115 25118 25121 25123 25126 25128 25131 25134 25137 25140 25143 25146 25149 25152 25155 25158 25161 25164 25167 25170 25173 25176 25179 25182 25185 25188 25191 25194 25197 25200 25203 25206 25209 25212 25215 25217 25220 25223 25226 25229 25232 25235 25237 25240 25243 25246 25249 25252 25255 25258 25261 25264 25267 25270 25273 25276 25279 25282 25285 25288 25291 25294 25297 25300 25302 25305 25308 25311 25314 25317 25320 25323 25326 25329 25332 25335 25338 25341 25344 25347 25350 25353 25356 25359 25362 25365 25368 25371 25374 25377 25379 25382 25385 25388 25391 25394 25397 25400 25403 25406 25409 25412 25415 25418 25421 25424 25427 25429 25432 25434 25437 25440 25443 25445 25448 25451 25454 25456 25459 25462 25465 25468 25471 25474 25477 25480 25482 25485 25487 25489 25492 25495 25497 25499 25502 25504 25507 25510 25513 25516 25519 25522 25525 25528 25531 25534 25537 25539 25541 25544 25547 25550 25553 25556 25559 25562 25565 25568 25571 25574 25577 25580 25583 25586 25589 25592 25595 25598 25601 25604 25607 25610 25612 25615 25618 25621 25624 25626 25628 25631 25634 25637 25640 25643 25645 25648 25651 25654 25657 25660 25663 25666 25669 25672 25674 25677 25680 25683 25686 25688 25691 25694 25697 25700 25703 25706 25709 25712 25715 25718 25721 25723 25726 25729 25732 25735 25738 25741 25744 25747 25750 25753 25756 25759 25762 25765 25767 25770 25772 25775 25778 25781 25784 25787 25790 25793 25796 25798 25800 25803 25806 25808 25811 25814 25817 25820 25823 25826 25829 25832 25835 25838 25841 25843 25846 25849 25852 25854 25856 25859 25862 25865 25868 25871 25874 25876 25879 25882 25885 25888 25891 25894 25896 25899 25902 25905 25908 25911 25914 25917 25920 25923 25926 25929 25932 25935 25938 25940 25943 25946 25948 25951 25954 25957 25960 25963 25965 25968 25970 25973 25976 25979 25982 25985 25988 25991 25993 25996 25999 26001 26004 26007 26009 26012 26015 26018 26021 26024 26027 26030 26033 26036 26039 26042 26045 26048 26051 26054 26057 26060 26063 26066 26069 26071 26074 26077 26080 26082 26085 26088 26091 26093 26096 26099 26102 26105 26108 26111 26114 26117 26119 26122 26125 26128 26130 26133 26136 26139 26141 26144 26147 26150 26153 26156 26159 26162 26165 26168 26171 26174 26177 26180 26183 26186 26189 26192 26195 26198 26201 26204 26207 26210 26213 26216 26218 26221 26224 26226 26228 26231 26234 26237 26239 26242 26245 26248 26251 26254 26257 26259 26262 26265 26268 26271 26274 26277 26280 26283 26285 26287 26290 26293 26296 26299 26302 26304 26306 26309 26311 26314 26317 26319 26322 26325 26327 26330 26333 26335 26338 26341 26344 26347 26350 26353 26355 26357 26360 26363 26366 26369 26372 26374 26377 26380 26383 26386 26389 26392 26395 26398 26401 26404 26407 26410 26413 26416 26419 26422 26425 26428 26431 26434 26437 26440 26443 26446 26449 26452 26454 26457 26460 26463 26466 26469 26472 26474 26477 26480 26483 26486 26489 26492 26495 26498 26500 26503 26506 26509 26511 26514 26516 26519 26522 26525 26528 26530 26533 26536 26539 26542 26545 26548 26551 26553 26556 26559 26561 26564 26567 26570 26573 26576 26579 26582 26585 26588 26591 26594 26597 26600 26603 26606 26609 26612 26615 26618 26621 26623 26626 26629 26632 26635 26638 26641 26644 26646 26649 26652 26655 26658 26661 26663 26665 26668 26671 26674 26677 26680 26682 26685 26687 26690 26693 26695 26698 26701 26704 26707 26710 26713 26716 26719 26721 26724 26727 26730 26733 26735 26738 26740 26743 26746 26749 26752 26755 26757 26760 26763 26765 26768 26771 26773 26776 26779 26782 26785 26788 26791 26793 26796 26799 26802 26805 26808 26811 26814 26817 26819 26822 26824 26827 26830 26833 26836 26839 26841 26843 26846 26849 26852 26855 26858 26861 26864 26866 26869 26871 26874 26877 26879 26882 26885 26887 26890 26893 26895 26898 26901 26904 26907 26910 26912 26914 26916 26919 26922 26924 26927 26930 26932 26935 26938 26941 26944 26947 26950 26953 26956 26959 26961 26964 26967 26970 26972 26975 26978 26981 26984 26987 26990 26993 26996 26999 27002 27005 27008 27011 27014 27017 27020 27023 27026 27029 27032 27035 27038 27041 27044 27047 27050 27053 27056 27059 27062 27064 27067 27070 27073 27075 27078 27081 27084 27087 27090 27093 27095 27098 27101 27104 27106 27109 27112 27114 27117 27120 27123 27125 27128 27130 27133 27136 27139 27142 27145 27147 27150 27153 27156 27159 27162 27165 27168 27171 27174 27177 27179 27182 27185 27187 27190 27193 27196 27199 27202 27204 27207 27210 27213 27216 27219 27221 27224 27227 27230 27233 27236 27239 27242 27245 27247 27250 27253 27256 27258 27261 27264 27267 27270 27273 27276 27279 27282 27285 27288 27291 27294 27296 27299 27302 27305 27308 27311 27314 27317 27320 27323 27326 27329 27331 27334 27337 27340 27342 27345 27348 27351 27354 27357 27360 27363 27366 27368 27371 27374 27376 27379 27382 27385 27388 27391 27394 27397 27400 27403 27406 27409 27412 27415 27418 27421 27424 27427 27430 27433 27436 27439 27442 27445 27448 27451 27454 27457 27460 27463 27466 27469 27472 27475 27478 27481 27484 27487 27490 27493 27496 27499 27502 27505 27508 27511 27514 27517 27520 27523 27525 27528 27531 27534 27537 27539 27542 27544 27547 27550 27553 27556 27559 27562 27565 27568 27571 27574 27577 27579 27582 27585 27588 27591 27594 27597 27600 27603 27606 27609 27612 27615 27618 27621 27624 27627 27630 27633 27636 27639 27642 27644 27647 27650 27653 27656 27659 27662 27664 27666 27669 27671 27674 27677 27680 27682 27684 27687 27689 27692 27694 27697 27700 27703 27706 27708 27711 27714 27717 27720 27723 27726 27728 27731 27733 27735 27738 27740 27742 27745 27748 27750 27752 27755 27758 27761 27764 27767 27770 27773 27776 27779 27782 27785 27787 27790 27793 27795 27797 27800 27803 27805 27808 27811 27814 27817 27820 27823 27826 27829 27832 27835 27837 27840 27843 27845 27848 27851 27854 27857 27860 27863 27865 27868 27871 27874 27876 27879 27882 27885 27887 27890 27893 27896 27899 27902 27905 27908 27911 27914 27917 27920 27923 27926 27929 27932 27935 27938 27941 27944 27947 27950 27953 27956 27959 27962 27965 27968 27971 27974 27977 27980 27983 27986 27989 27991 27994 27997 28000 28003 28006 28009 28012 28015 28018 28021 28024 28027 28029 28032 28035 28038 28041 28044 28047 28050 28053 28056 28059 28062 28065 28068 28071 28074 28077 28080 28083 28086 28089 28092 28095 28098 28101 28104 28106 28108 28111 28114 28117 28120 28123 28126 28129 28132 28135 28138 28141 28144 28147 28150 28153 28156 28159 28162 28165 28168 28171 28174 28177 28180 28183 28186 28189 28192 28195 28198 28201 28204 28207 28210 28213 28216 28219 28222 28224 28227 28230 28233 28236 28239 28242 28245 28248 28251 28254 28257 28260 28263 28266 28269 28271 28274 28277 28280 28282 28285 28288 28291 28294 28297 28300 28303 28306 28309 28312 28315 28318 28321 28324 28327 28330 28333 28335 28338 28341 28343 28346 28349 28352 28355 28358 28361 28363 28366 28369 28372 28374 28377 28380 28383 28385 28388 28391 28394 28397 28400 28403 28406 28409 28412 28415 28417 28420 28422 28425 28428 28431 28434 28437 28440 28443 28446 28449 28452 28455 28458 28461 28464 28467 28470 28473 28476 28479 28482 28485 28488 28491 28494 28497 28500 28503 28506 28509 28512 28515 28518 28521 28524 28527 28530 28533 28536 28539 28542 28545 28548 28551 28554 28557 28560 28563 28566 28569 28572 28575 28578 28581 28584 28587 28590 28593 28596 28599 28602 28605 28608 28611 28614 28617 28620 28623 28626 28629 28632 28635 28638 28641 28644 28647 28649 28651 28654 28657 28660 28663 28666 28668 28671 28674 28677 28680 28683 28686 28689 28691 28694 28697 28700 28703 28706 28708 28711 28714 28717 28720 28723 28726 28729 28732 28735 28738 28741 28744 28747 28750 28753 28756 28759 28762 28765 28768 28770 28773 28776 28778 28781 28784 28787 28790 28793 28796 28799 28802 28805 28808 28811 28814 28817 28820 28823 28826 28829 28832 28835 28838 28841 28844 28847 28850 28853 28856 28859 28862 28865 28868 28871 28874 28877 28880 28883 28886 28888 28890 28893 28896 28899 28902 28904 28907 28909 28912 28915 28918 28921 28924 28927 28930 28933 28935 28938 28941 28944 28947 28950 28953 28956 28959 28962 28965 28968 28971 28974 28977 28980 28983 28986 28989 28992 28995 28998 29001 29003 29005 29008 29011 29014 29017 29020 29023 29026 29029 29032 29034 29037 29040 29043 29046 29049 29052 29055 29058 29061 29064 29067 29070 29073 29076 29079 29082 29085 29087 29090 29093 29095 29098 29101 29104 29106 29109 29112 29115 29117 29120 29123 29126 29129 29132 29134 29137 29140 29143 29146 29149 29152 29155 29158 29161 29164 29167 29170 29173 29176 29179 29182 29185 29188 29190 29193 29196 29199 29202 29205 29208 29210 29213 29216 29219 29222 29224 29227 29230 29232 29235 29238 29241 29244 29247 29250 29253 29256 29259 29262 29265 29268 29271 29274 29277 29279 29282 29285 29287 29290 29293 29296 29299 29302 29304 29307 29310 29313 29316 29318 29320 29323 29326 29329 29332 29335 29338 29341 29344 29347 29350 29353 29356 29359 29362 29365 29368 29370 29373 29376 29379 29381 29384 29387 29390 29393 29396 29398 29401 29404 29407 29410 29413 29416 29418 29421 29424 29427 29430 29433 29436 29439 29442 29445 29448 29451 29454 29457 29460 29463 29466 29469 29472 29475 29478 29481 29484 29487 29490 29493 29495 29498 29500 29503 29506 29509 29512 29515 29518 29521 29524 29527 29530 29533 29536 29539 29542 29544 29547 29550 29553 29556 29559 29562 29565 29568 29570 29573 29576 29579 29582 29584 29587 29590 29593 29596 29599 29602 29605 29608 29611 29614 29617 29619 29622 29624 29627 29629 29632 29635 29638 29641 29644 29647 29650 29652 29655 29657 29659 29662 29665 29668 29671 29674 29677 29680 29683 29686 29688 29691 29694 29697 29700 29702 29705 29708 29711 29714 29717 29720 29723 29726 29729 29732 29735 29738 29741 29744 29747 29750 29753 29756 29758 29761 29763 29766 29769 29772 29774 29777 29780 29782 29784 29787 29789 29792 29795 29798 29800 29802 29805 29808 29811 29814 29817 29819 29822 29825 29828 29831 29834 29837 29839 29842 29844 29847 29850 29853 29856 29859 29862 29865 29868 29871 29874 29877 29880 29883 29886 29889 29891 29894 29897 29900 29903 29906 29909 29912 29915 29918 29921 29924 29927 29930 29933 29936 29939 29941 29944 29947 29950 29953 29956 29959 29962 29965 29967 29970 29973 29976 29978 29981 29984 29987 29989 29992 29995 29998 30001 30004 30007 30010 30013 30016 30018 30021 30024 30027 30030 30033 30036 30039 30042 30045 30048 30051 30053 30056 30059 30062 30065 30068 30071 30074 30077 30080 30083 30085 30088 30090 30093 30096 30099 30102 30105 30107 30110 30113 30115 30118 30121 30124 30126 30129 30132 30135 30138 30140 30142 30145 30148 30151 30154 30157 30160 30163 30166 30169 30172 30175 30178 30181 
</DataArray>
<DataArray type="UInt32" Name="types" format="ascii">
5 5 5 3 5 3 5 5 3 5 3 5 5 5 5 5 5 5 5 5 5 5 3 3 5 3 5 3 5 5 5 5 3 5 3 5 5 5 5 5 5 5 5 3 5 5 5 5 5 5 5 3 5 5 5 5 5 5 3 3 3 5 5 3 5 3 5 5 5 3 5 5 5 5 5 5 5 5 5 5 5 5 5 5 5 5 5 5 5 5 5 5 5 5 5 5 5 5 5 5 3 5 5 5 5 5 5 3 5 5 5 5 5 3 5 5 3 5 5 5 3 5 5 5 5 5 3 5 5 5 5 5 5 5 5 5 5 5 5 5 5 5 5 5 5 5 5 5 5 5 5 3 5 5 5 5 5 3 5 5 5 5 3 5 5 5 5 3 5 5 5 3 5 3 5 5 5 5 5 3 5 5 5 3 5 5 5 5 5 5 3 5 5 5 5 3 5 5 5 5 5 5 3 5 5 5 5 5 5 5 5 5 5 5 5 5 5 5 5 3 5 5 5 5 5 5 5 5 5 5 5 5 5 5 5 5 5 5 5 5 5 3 3 5 5 5 5 5 5 5 5 3 5 5 3 5 5 5 5 5 3 5 5 5 5 3 3 5 5 5 3 5 5 5 5 5 5 5 3 3 3 5 3 5 5 5 5 5 3 5 5 5 3 5 5 5 5 5 5 5 5 5 5 3 5 5 5 5 5 5 5 3 5 5 5 5 5 5 5 5 5 5 5 5 5 5 5 5 5 5 5 3 5 3 5 5 5 5 5 5 5 5 5 5 5 3 5 5 3 5 3 3 5 5 5 3 5 5 5 3 5 5 3 5 5 3 5 5 3 5 5 5 5 5 5 5 5 5 5 5 5 5 5 5 3 5 5 5 5 5 5 5 5 5 5 5 5 5 5 5 5 5 5 5 5 5 5 5 5 5 5 5 5 5 5 5 5 5 5 5 5 5 5 5 5 5 5 5 5 5 5 5 5 5 5 5 5 5 5 5 5 5 3 5 5 5 5 5 5 5 5 5 5 5 5 5 5 5 5 5 5 5 5 5 5 5 5 5 5 5 3 5 3 5 5 5 3 5 5 3 5 5 5 5 5 5 5 5 5 5 5 5 5 5 5 5 5 5 5 3 5 3 5 5 5 5 5 5 5 3 5 5 5 5 3 5 5 5 5 5 5 5 5 5 3 5 5 3 5 5 5 5 5 5 3 5 5 5 5 5 5 5 5 5 5 3 5 5 5 5 3 5 5 5 3 5 5 5 3 5 5 5 5 5 5 5 5 5 5 5 5 5 5 5 5 5 5 3 5 5 5 5 3 5 3 5 3 3 5 5 5 5 5 5 5 5 3 5 5 3 5 5 5 5 5 5 5 5 5 5 5 5 5 5 5 5 5 5 5 5 5 5 5 5 3 5 5 5 5 5 5 5 5 5 5 5 5 5 5 5 5 5 5 5 5 3 5 5 5 3 5 5 3 3 5 5 5 5 5 3 5 5 5 5 5 5 5 5 5 3 3 5 5 5 5 5 5 5 5 5 5 5 5 5 5 5 5 5 5 5 5 5 3 5 5 3 5 5 3 5 5 5 5 5 5 5 5 5 5 5 5 5 5 5 5 5 5 5 5 5 5 5 5 5 5 5 5 5 5 5 5 5 5 3 5 5 5 5 5 3 3 5 5 3 5 5 5 3 5 5 5 5 5 5 5 5 3 5 5 5 5 5 5 3 3 5 5 5 5 5 5 5 5 5 5 5 5 5 5 5 5 5 5 3 5 5 3 3 5 5 3 5 5 5 3 5 5 3 5 5 5 5 3 5 5 5 5 5 5 3 5 5 5 5 5 3 5 5 5 5 5 5 3 5 5 5 5 5 5 3 5 5 5 5 5 5 5 5 5 5 5 5 5 5 5 5 5 5 3 5 5 5 5 5 5 5 5 5 5 5 5 5 5 3 5 5 5 3 5 5 5 5 5 5 5 5 5 3 5 5 5 5 5 5 5 5 5 5 5 5 5 5 5 5 5 5 5 3 5 3 5 5 5 3 5 5 5 5 5 3 5 5 5 5 5 5 5 5 5 5 5 5 5 5 5 5 5 5 5 5 5 5 5 5 5 5 5 5 5 5 5 5 5 5 5 5 5 5 5 5 5 5 5 5 5 5 5 5 5 5 5 5 5 5 5 3 5 5 3 5 5 5 5 5 5 5 5 5 5 5 5 5 3 5 5 5 5 5 5 3 5 5 3 5 5 5 5 5 5 5 3 5 5 5 5 5 5 5 5 5 5 5 5 3 5 5 5 5 5 5 3 5 5 5 5 5 5 3 5 5 5 5 5 5 5 5 3 5 5 5 5 3 5 5 5 5 5 5 5 5 3 5 5 5 5 5 5 5 5 5 5 5 5 5 5 3 5 5 5 5 5 3 5 5 5 5 5 5 5 3 5 5 5 5 5 5 5 5 5 5 5 5 5 5 5 5 5 5 5 5 5 5 5 5 5 5 5 5 5 5 5 5 5 5 5 5 5 5 5 5 5 5 5 5 5 5 5 5 5 5 5 5 5 5 5 5 5 5 5 5 5 5 3 5 5 5 5 5 5 3 5 5 5 5 5 5 5 5 5 5 3 3 5 5 5 5 5 5 3 5 3 5 5 5 5 5 5 5 5 5 5 5 3 5 5 5 5 5 5 5 5 5 5 5 5 5 5 5 5 5 5 5 5 5 5 5 5 5 3 5 5 5 5 5 3 5 5 5 5 3 5 5 5 5 5 5 5 5 5 5 5 5 5 5 5 5 3 5 3 5 5 3 3 5 5 5 5 5 5 5 5 5 3 5 3 5 5 5 5 5 5 5 5 5 5 5 5 5 5 5 5 5 5 5 5 5 5 5 5 5 5 5 5 5 5 5 5 5 5 5 5 5 5 5 5 5 5 5 3 3 5 5 5 5 5 5 3 5 3 5 3 5 3 5 5 3 5 5 5 5 5 5 5 5 5 5 5 5 5 5 5 5 5 5 5 5 5 5 5 5 5 5 5 5 5 5 5 5 5 5 5 5 5 5 5 5 5 5 5 5 5 5 5 5 5 5 5 5 5 5 5 5 5 5 5 5 5 5 5 5 5 5 5 5 5 5 5 5 5 5 5 5 5 5 5 5 5 5 5 5 5 5 5 3 5 5 5 3 5 5 3 5 5 5 5 5 5 5 5 5 5 5 3 5 5 5 5 5 5 5 5 5 5 5 5 5 5 5 5 5 5 5 5 5 5 5 3 5 5 5 3 5 5 5 5 3 5 5 5 5 5 5 5 5 5 5 5 3 5 5 5 3 5 5 3 5 5 3 5 5 3 5 3 5 5 5 3 3 5 3 5 3 5 5 5 5 5 3 5 5 5 5 5 5 5 5 5 5 5 5 5 5 5 5 5 5 5 5 3 5 5 5 5 5 5 5 5 5 5 5 5 5 5 5 5 5 5 5 5 5 5 5 5 5 5 5 5 5 5 5 5 5 5 5 5 5 5 5 5 5 5 5 3 5 5 5 5 5 3 5 5 5 5 5 5 5 3 5 5 5 5 5 5 5 5 5 5 5 5 5 5 5 5 5 5 5 5 5 5 5 5 5 5 5 5 5 5 5 5 5 5 5 5 5 5 5 5 5 5 5 5 5 5 5 5 5 5 5 3 5 5 5 5 5 5 3 5 5 5 3 5 5 5 5 5 5 5 5 5 5 5 5 5 5 5 5 5 5 5 5 5 5 5 5 5 5 5 5 5 5 5 5 5 5 5 5 5 5 5 5 5 5 5 5 5 5 5 5 5 5 5 5 5 5 5 5 5 5 5 5 5 5 5 5 5 5 5 5 5 5 5 5 5 5 5 5 5 5 5 5 5 5 5 5 5 5 5 5 5 5 5 3 3 5 5 5 5 5 5 5 5 5 5 5 5 5 3 5 5 5 5 5 5 5 5 5 5 5 5 5 5 5 5 5 5 5 5 5 5 5 5 5 5 5 5 5 5 3 3 5 5 5 5 5 5 5 5 5 5 5 5 3 5 5 5 5 3 5 5 5 5 5 5 5 5 5 5 5 5 5 5 5 5 5 5 5 5 5 5 5 5 5 5 5 5 5 5 5 5 5 5 5 5 5 5 5 5 3 5 5 5 3 5 5 5 5 5 5 5 5 3 5 5 3 5 5 5 5 5 5 5 5 5 5 5 5 5 5 5 5 5 5 5 5 5 5 5 5 5 5 3 5 5 5 5 5 5 5 5 5 3 5 5 5 5 5 5 5 5 5 3 5 5 5 5 3 5 5 5 5 5 3 5 5 5 5 5 5 5 5 5 5 5 5 5 5 5 5 5 5 5 3 5 5 5 3 5 5 5 5 5 5 5 5 5 5 5 5 5 5 5 5 5 5 5 5 5 5 5 5 5 5 5 5 5 5 3 5 3 5 5 5 5 5 5 5 5 3 5 5 5 5 5 5 5 3 5 5 3 5 5 5 5 3 5 5 5 5 5 3 5 5 5 5 5 5 5 3 5 5 5 5 5 5 5 3 5 5 3 5 5 5 5 5 5 5 5 5 5 5 5 5 5 5 5 5 5 5 5 5 3 5 5 5 5 5 5 5 3 5 5 5 5 5 5 5 5 5 5 5 5 5 5 5 5 5 3 5 5 5 3 5 5 5 5 5 5 5 5 5 5 5 5 5 5 5 5 5 5 5 5 3 5 5 5 3 5 5 5 5 5 5 5 5 5 5 5 5 5 5 5 5 5 5 5 5 5 5 3 5 5 5 5 3 5 5 5 5 5 3 5 5 5 3 5 5 5 5 5 3 5 5 5 3 5 5 5 3 5 3 5 5 5 5 3 5 5 5 5 5 5 5 5 5 5 5 5 5 5 5 5 5 5 5 5 5 3 5 5 5 5 5 3 5 5 5 5 5 5 5 5 5 5 5 3 5 5 5 5 5 5 5 5 5 5 5 5 5 5 5 5 5 5 5 5 5 5 5 5 5 5 5 5 5 5 5 5 5 5 5 5 5 5 5 3 5 5 5 5 3 5 5 5 5 5 5 3 5 5 5 5 5 5 5 3 5 5 5 5 5 5 5 5 5 3 5 5 3 5 5 5 5 5 3 5 3 5 5 3 5 5 5 5 5 5 5 5 5 5 5 3 5 3 5 5 5 3 5 5 5 3 5 5 3 5 5 5 5 5 3 5 5 3 5 5 5 3 5 5 5 3 5 5 5 5 5 3 5 5 5 5 3 5 3 5 3 5 5 5 5 3 5 5 5 5 5 5 5 5 5 5 5 5 5 3 5 5 5 5 5 5 5 5 5 5 5 5 5 5 5 5 5 5 5 5 5 5 5 5 5 5 5 3 3 3 5 5 5 5 3 5 5 5 5 5 5 5 3 5 5 5 3 5 5 5 3 5 3 5 3 5 5 5 5 5 5 5 5 5 5 5 5 3 5 5 5 5 5 5 3 5 5 5 5 5 3 5 3 5 3 5 5 5 3 5 5 5 5 5 5 5 5 5 5 3 5 5 5 5 5 5 5 5 5 5 5 5 5 5 3 3 5 5 5 5 5 5 5 5 5 5 5 5 5 5 5 3 5 5 5 5 5 5 5 3 5 5 5 5 5 5 5 5 3 5 5 5 5 3 5 5 5 5 5 5 5 5 5 5 5 5 5 5 5 5 5 5 5 5 5 5 5 5 5 5 5 5 5 5 5 5 5 5 5 5 5 3 5 3 5 5 5 3 5 5 5 5 5 5 5 3 5 5 3 3 5 3 5 5 5 5 5 5 5 5 5 5 5 5 5 5 5 5 5 5 5 5 5 5 5 5 5 5 5 3 5 3 5 5 3 5 5 5 5 3 5 5 3 5 5 3 5 5 5 5 5 5 5 5 5 5 5 5 5 3 5 5 5 5 5 5 5 5 5 5 5 5 3 5 5 5 5 5 5 5 5 5 5 5 5 5 5 5 5 3 3 5 5 5 5 5 5 5 5 5 5 5 3 5 5 5 5 5 5 5 3 5 5 5 5 5 5 5 5 5 5 5 5 5 5 5 5 5 5 5 5 5 5 5 3 5 5 5 5 5 5 5 3 5 5 5 5 5 5 5 5 5 5 5 3 5 5 5 5 5 5 5 5 5 3 3 5 5 5 5 5 5 3 5 3 5 5 5 5 5 5 5 3 5 5 5 3 5 5 3 5 5 5 5 5 5 5 5 5 3 5 5 5 5 5 5 5 5 5 5 5 3 5 3 5 5 3 5 5 5 5 5 5 5 5 5 5 5 5 5 5 5 5 5 5 5 5 5 5 5 5 3 5 5 5 5 5 5 5 5 5 5 5 5 5 5 5 5 5 5 5 5 5 5 5 5 5 5 5 5 5 5 3 5 5 5 5 5 5 5 5 5 5 5 5 5 3 5 5 5 5 5 5 5 5 5 5 5 5 5 5 5 5 5 5 5 5 5 5 5 5 5 5 5 5 5 5 3 5 5 5 5 5 5 5 5 5 5 5 5 5 5 3 5 5 5 3 5 5 5 3 5 3 5 5 3 5 5 5 5 5 5 5 5 5 5 5 5 3 5 5 5 5 5 5 3 5 5 5 5 5 5 5 5 5 5 5 5 3 5 5 5 5 5 5 5 5 5 5 3 5 5 5 5 5 5 5 5 5 3 5 5 5 5 5 5 5 5 5 5 5 5 5 5 5 5 5 5 5 3 5 5 5 3 3 5 5 5 5 5 5 5 5 3 5 5 3 5 5 5 3 5 5 5 5 5 5 3 5 5 5 5 3 5 5 5 5 5 3 5 5 5 5 5 5 5 3 5 5 5 5 5 5 5 5 5 5 5 5 5 5 5 5 3 5 5 5 5 5 5 5 5 5 5 5 5 5 5 5 3 5 5 5 3 5 3 5 5 5 5 5 5 5 3 5 5 5 3 5 3 5 5 5 3 5 5 5 5 5 5 5 5 5 3 5 5 3 5 5 5 5 5 5 5 5 5 3 5 3 5 5 5 5 5 5 5 5 5 5 5 5 5 5 5 5 5 5 5 5 5 5 5 5 5 5 5 5 5 5 5 5 5 5 5 5 5 5 5 5 5 3 5 5 5 5 5 5 5 5 5 5 5 5 5 5 3 3 5 3 5 5 5 3 5 5 3 5 5 5 5 5 5 5 5 3 5 5 5 5 5 5 5 5 5 5 5 5 5 3 5 5 5 3 5 5 5 5 3 5 3 5 5 5 3 5 5 5 5 5 5 5 5 3 5 5 5 3 5 5 5 3 5 5 5 5 5 5 3 5 5 5 5 5 3 3 3 5 5 5 5 5 5 5 5 5 5 5 5 5 5 5 5 5 5 5 5 5 5 5 5 5 5 5 5 3 5 5 3 5 5 5 5 5 5 5 3 3 5 3 5 5 5 5 5 5 5 3 5 5 5 5 3 5 3 5 5 5 5 5 5 5 5 5 5 5 5 5 3 5 3 5 5 5 5 5 5 5 5 3 5 5 5 5 5 3 5 3 5 5 5 5 5 5 5 5 5 5 5 5 5 5 5 5 5 5 5 5 5 5 5 5 5 5 5 5 5 5 5 5 3 5 5 5 5 5 5 5 5 5 5 5 3 3 5 5 5 5 5 5 5 5 5 5 5 5 5 5 5 5 5 3 5 5 3 5 5 5 5 5 5 5 5 5 5 5 5 3 5 3 5 5 5 5 5 5 5 5 5 5 5 5 5 5 5 5 5 5 5 5 5 5 3 5 5 5 5 5 5 5 5 5 3 5 5 5 5 5 5 5 5 3 5 5 5 5 5 5 5 5 5 5 5 5 5 5 5 5 5 5 5 5 5 5 5 5 5 5 5 5 5 5 5 5 3 5 5 5 5 3 5 5 5 5 5 5 5 5 5 5 5 5 5 3 5 5 5 5 3 5 5 5 3 5 5 3 3 5 5 5 5 5 5 5 5 5 5 5 5 5 5 5 5 5 5 5 5 5 5 5 5 5 5 5 5 5 5 3 3 5 5 5 5 3 5 3 5 5 5 5 5 5 5 3 5 5 5 5 5 5 5 5 5 5 3 5 5 5 5 5 5 3 5 3 3 5 5 3 5 5 5 3 3 5 5 5 5 3 5 5 5 5 5 3 3 5 5 5 5 5 5 5 5 5 5 5 3 5 5 5 5 5 5 3 5 5 5 5 5 5 5 5 5 5 5 5 5 3 5 5 3 5 3 5 5 5 3 5 3 5 5 5 5 5 5 5 5 5 5 5 5 5 5 5 5 5 3 5 5 3 5 5 3 5 5 5 3 5 3 5 5 3 5 5 5 5 5 5 5 5 5 5 3 5 5 5 3 5 5 5 5 5 5 5 5 3 5 5 5 5 5 5 5 3 5 5 5 5 3 5 5 5 5 5 5 5 5 5 5 5 5 5 5 5 5 5 5 5 5 5 3 5 5 5 5 5 5 5 5 5 5 5 5 5 5 5 5 5 5 5 5 5 5 5 5 5 5 5 5 5 5 5 5 5 5 5 5 5 5 5 5 5 5 5 3 5 5 5 5 5 5 3 5 5 5 5 5 5 5 5 3 5 5 5 5 5 5 5 5 5 5 5 5 5 5 5 5 3 5 5 5 5 5 5 5 5 5 5 5 5 5 5 5 5 5 5 5 5 5 5 5 3 5 5 5 5 5 5 5 5 5 5 5 5 5 5 5 5 5 5 5 5 5 5 5 5 5 5 5 5 5 5 3 3 5 5 5 5 5 5 5 3 5 5 5 5 5 5 3 5 5 5 5 5 5 5 5 5 5 5 5 3 5 5 5 5 5 5 5 5 5 3 5 5 3 5 3 5 5 5 5 5 3 5 5 5 5 5 5 5 5 5 5 5 5 5 5 5 5 5 5 5 5 5 5 5 5 5 3 5 5 5 5 5 3 5 5 5 5 5 5 5 5 5 5 5 3 5 5 5 5 5 5 5 5 5 5 5 5 5 5 3 5 5 3 5 5 5 5 3 5 3 5 5 5 5 3 5 5 5 3 5 5 5 5 5 5 5 5 5 5 5 5 5 3 5 5 5 5 5 5 3 5 5 5 5 5 3 5 5 3 5 3 5 5 5 5 5 5 5 3 5 5 5 5 5 5 5 3 5 5 5 5 5 5 3 5 5 5 5 5 5 5 5 5 5 5 5 5 3 5 5 3 5 5 5 5 5 5 5 5 5 5 5 5 5 5 5 5 5 5 5 5 5 3 5 5 5 5 5 5 3 3 5 5 5 3 5 5 5 5 5 5 3 5 5 5 5 5 5 5 5 5 5 5 5 5 5 5 5 5 5 5 5 5 5 5 5 5 5 5 5 5 5 5 5 5 5 5 5 5 5 5 5 5 5 5 5 5 5 5 5 5 5 5 5 5 5 5 5 5 5 5 5 3 5 5 5 5 5 5 3 5 5 5 5 5 5 5 5 5 3 5 5 5 5 5 5 5 5 5 5 5 5 5 5 5 5 5 5 5 5 5 5 3 5 5 3 5 5 3 5 3 5 5 5 3 5 5 3 5 5 5 5 3 5 5 3 5 5 5 3 5 3 5 3 5 5 3 5 5 3 5 5 5 5 5 5 5 5 5 5 5 3 5 5 5 5 5 5 5 5 5 5 5 5 5 5 5 5 3 5 5 3 5 5 5 5 5 5 5 5 5 5 5 5 5 5 5 5 5 5 5 3 5 3 5 5 5 5 5 3 5 3 5 5 5 5 3 5 5 5 5 3 3 5 5 5 5 5 5 5 5 5 5 5 5 5 3 5 5 5 5 5 5 5 5 5 5 5 5 5 5 5 5 5 5 3 5 5 5 5 5 5 5 3 5 3 5 5 5 3 5 5 5 3 5 5 5 5 5 5 5 3 3 5 3 5 5 5 3 3 5 3 5 5 3 5 5 5 3 5 3 5 3 5 5 5 5 5 3 5 5 3 5 5 5 3 5 5 5 5 5 3 5 5 5 3 5 3 5 5 3 5 5 5 5 3 5 5 5 3 5 5 5 5 5 5 5 5 5 5 5 5 5 5 5 5 5 5 5 5 3 5 5 5 5 3 5 5 3 5 5 3 5 3 5 5 5 3 5 5 3 5 5 5 3 5 5 3 3 5 5 5 3 5 5 5 5 5 3 5 3 5 5 3 5 5 5 5 3 3 5 5 3 5 5 3 5 5 3 5 5 5 5 5 5 5 5 5 3 5 5 3 3 5 5 5 3 5 5 3 3 5 5 3 5 5 5 3 5 5 3 5 3 5 3 5 5 5 5 3 5 5 5 5 5 5 5 5 5 5 5 3 3 5 5 5 5 3 5 5 5 3 5 5 5 5 5 5 3 3 5 3 5 3 3 3 5 3 5 5 5 5 5 3 5 5 5 5 3 5 5 5 5 3 5 5 5 5 5 3 5 3 5 5 5 5 5 5 5 5 3 5 5 3 5 5 3 5 5 3 5 3 5 5 3 5 5 3 5 5 5 5 3 5 5 3 5 5 5 5 3 5 5 5 3 5 5 5 5 5 5 3 5 3 5 5 3 5 3 5 5 5 3 5 5 5 5 3 5 5 5 5 3 5 5 3 5 3 5 5 3 5 5 5 5 5 5 5 5 5 5 5 3 5 5 5 5 5 5 3 5 5 5 5 5 5 5 5 5 5 5 5 5 5 5 5 5 5 5 5 5 5 5 5 5 5 5 5 5 5 5 5 5 5 5 5 5 5 5 5 5 5 5 5 5 5 5 5 5 5 5 5 5 5 5 5 3 5 5 5 5 5 5 5 5 5 3 5 5 5 3 5 5 3 5 5 5 5 5 5 5 5 5 5 5 5 5 5 5 5 5 5 5 5 5 5 3 5 5 5 5 5 5 3 5 5 5 3 5 5 5 3 5 5 5 5 5 5 5 5 5 5 5 3 5 5 5 5 5 5 5 5 5 3 5 3 5 5 5 3 5 5 5 5 5 5 5 5 5 5 5 5 5 5 3 5 5 5 3 5 5 5 5 5 5 3 5 5 3 5 5 5 5 5 5 5 5 5 5 5 5 5 5 5 5 5 5 5 5 5 5 5 5 5 5 3 5 5 5 5 3 5 5 5 5 5 5 5 3 5 5 3 5 5 5 5 5 5 5 5 5 3 5 5 5 5 5 5 3 5 5 5 5 5 5 5 5 5 5 5 5 5 5 5 5 5 5 5 5 5 5 5 5 5 5 5 5 5 5 5 5 5 5 5 5 5 5 5 5 5 5 5 5 5 5 5 5 5 5 5 5 5 5 3 5 5 5 5 5 5 5 5 5 5 5 5 5 5 5 5 5 5 5 5 5 5 5 5 5 5 5 5 5 3 5 5 3 5 5 5 5 5 5 5 5 5 5 5 5 5 5 5 5 3 5 5 5 5 3 5 5 5 5 3 5 5 5 5 5 3 5 5 5 5 5 5 5 5 5 5 5 5 3 5 5 5 5 5 5 5 5 5 5 5 5 5 5 5 5 5 5 5 5 5 5 3 5 5 5 5 5 5 5 5 5 5 5 5 5 5 5 3 5 5 5 5 5 5 5 3 3 5 5 5 5 5 5 5 5 5 5 5 5 5 5 5 5 5 5 5 5 5 5 5 5 5 5 5 5 5 5 5 5 5 5 5 5 5 5 5 5 5 5 3 5 5 3 5 5 5 5 5 5 5 5 5 5 5 5 5 5 5 5 5 5 5 5 5 5 5 5 5 5 5 5 5 5 5 5 5 5 3 5 5 5 5 5 5 5 5 5 5 5 5 5 5 5 5 5 5 5 3 5 5 5 5 5 3 5 3 5 5 5 5 3 5 5 5 5 5 5 5 5 3 5 5 3 3 5 3 5 5 5 5 5 5 5 5 5 5 5 5 5 5 5 5 5 5 5 3 5 5 5 5 5 3 3 5 3 5 5 5 5 5 3 5 3 5 5 3 3 5 5 5 3 5 5 3 5 3 5 3 5 5 3 5 5 5 5 5 5 5 3 5 5 5 5 5 5 5 5 5 5 5 5 5 5 5 5 5 5 5 5 5 5 5 5 5 5 5 5 5 5 5 5 3 5 5 5 5 5 3 5 5 5 5 5 5 5 5 5 3 5 5 5 3 3 5 5 5 5 5 5 5 5 5 5 5 5 5 5 5 5 5 5 5 3 5 5 5 5 3 3 5 5 5 3 3 3 3 5 3 5 5 5 5 5 5 5 3 5 3 3 5 5 5 5 5 5 5 5 5 5 5 5 5 5 5 5 5 5 5 5 5 3 3 5 5 5 5 5 5 5 5 5 5 5 5 5 5 5 5 5 5 5 5 5 5 5 5 5 5 3 5 5 3 5 3 5 5 5 3 5 5 3 5 3 5 5 5 5 5 5 5 5 5 5 5 5 5 5 5 5 5 5 3 5 3 5 5 5 5 5 5 3 5 5 5 5 3 5 5 3 5 5 5 5 3 5 5 5 5 5 5 5 5 5 5 5 5 5 3 5 5 5 5 5 5 5 3 5 5 5 3 5 5 5 5 5 5 5 5 5 5 5 5 5 3 5 5 5 5 5 5 3 3 5 5 3 5 5 3 5 5 5 5 5 5 5 5 5 3 5 5 5 5 5 5 5 5 5 5 5 5 5 5 3 5 5 5 5 5 5 5 5 5 5 5 3 5 5 5 5 5 3 5 5 5 5 5 5 5 3 3 5 5 3 5 5 5 5 5 5 5 5 5 3 5 5 5 5 5 5 3 5 5 5 5 5 5 5 5 5 5 5 5 3 5 5 5 5 3 5 5 5 3 5 5 5 5 5 3 5 3 5 5 5 3 5 5 5 5 5 5 3 5 5 5 5 5 5 5 5 5 5 5 5 5 5 5 5 5 5 5 3 5 5 5 5 5 5 5 5 5 5 5 5 5 5 5 5 5 5 5 5 3 3 5 5 5 5 5 5 5 5 5 5 5 5 3 5 5 5 5 5 5 5 5 5 5 5 5 5 5 5 5 3 3 5 5 5 5 5 5 5 5 3 5 5 5 5 5 5 5 5 5 5 5 5 5 5 5 5 5 5 5 5 5 5 5 5 5 5 5 5 5 5 5 5 5 5 5 5 5 5 3 5 5 5 5 5 3 5 5 5 3 5 5 5 5 5 5 3 5 5 5 5 5 5 5 5 5 5 5 5 5 5 5 5 5 5 5 5 5 5 5 5 5 5 3 5 5 5 5 5 5 5 5 5 5 5 5 5 5 5 3 5 5 3 5 5 5 3 5 5 5 5 5 5 5 5 5 3 3 5 5 3 5 5 5 5 5 5 3 5 5 5 5 5 5 5 5 5 5 5 5 5 5 5 5 5 5 5 5 5 5 5 5 5 5 5 5 5 5 5 5 5 3 5 5 5 5 5 5 3 3 5 5 5 5 3 3 3 5 5 5 5 5 3 5 5 5 5 5 5 5 5 5 5 5 5 5 5 5 5 3 5 5 5 5 3 5 5 5 5 5 5 5 5 5 5 3 5 5 5 5 5 5 5 3 5 5 5 5 5 5 5 5 5 5 5 5 5 5 5 5 5 5 5 5 5 5 5 5 5 5 5 5 5 5 5 5 5 5 5 3 5 5 3 5 5 5 5 5 3 5 5 5 3 5 5 3 5 5 5 5 5 5 5 5 3 5 5 5 5 3 5 5 3 5 5 5 5 5 5 5 5 5 3 5 5 5 5 5 5 5 5 5 5 5 5 5 5 5 5 5 5 5 5 5 3 5 5 3 5 5 3 5 5 5 5 5 3 5 5 5 5 3 5 3 5 5 5 5 5 5 5 5 5 5 3 3 3 5 5 3 5 5 5 5 3 5 5 5 5 5 5 3 5 5 5 5 5 3 5 5 5 5 3 5 3 5 5 5 5 5 3 5 3 5 5 3 5 5 5 5 5 5 5 5 5 5 5 5 5 3 3 5 5 5 3 5 5 5 3 5 5 5 5 5 5 5 5 3 5 5 5 5 5 5 5 5 5 5 5 5 5 5 5 5 5 3 5 5 5 5 5 5 5 3 5 5 3 5 5 5 5 5 5 5 5 5 5 5 3 5 5 5 5 5 5 5 3 5 3 3 5 5 5 5 5 5 5 5 3 5 5 5 5 5 3 5 5 5 5 5 5 5 5 5 5 5 5 3 5 5 3 5 5 5 5 5 5 5 5 3 5 5 3 5 5 5 5 5 5 5 5 5 5 5 5 3 5 5 5 5 5 5 5 5 5 5 5 3 5 5 5 5 3 5 3 5 3 3 5 5 5 3 5 5 5 3 5 5 3 5 5 5 5 5 5 5 5 5 5 5 5 5 5 5 5 5 5 5 5 5 5 5 5 5 5 5 5 5 5 5 5 5 5 5 5 5 5 5 5 5 5 5 5 5 5 5 5 5 5 5 5 3 5 5 5 5 5 5 5 5 5 3 5 5 3 5 5 5 5 5 5 5 5 5 3 5 3 5 5 5 5 5 3 5 5 5 5 5 5 5 5 5 5 5 5 5 5 3 5 5 5 5 5 5 5 5 5 5 5 5 5 5 5 5 5 5 5 3 5 5 5 5 3 5 5 5 5 5 5 3 5 5 5 5 5 5 5 5 5 5 5 5 5 5 5 5 5 5 5 5 5 3 5 5 5 5 5 5 5 5 3 5 5 5 3 5 5 3 3 3 5 5 5 3 5 5 5 5 5 5 5 5 5 5 5 5 5 5 5 5 5 5 5 5 5 3 5 5 5 5 5 5 5 3 3 5 3 3 5 5 3 5 5 5 5 5 5 5 5 5 5 5 5 5 3 5 5 5 5 3 5 5 5 5 3 5 5 5 5 3 5 5 5 3 5 3 5 5 5 5 5 5 5 5 5 5 5 5 3 5 5 5 5 5 5 5 5 5 5 5 5 5 5 5 5 5 5 5 5 5 5 5 5 3 5 5 5 5 5 5 5 5 3 5 5 5 5 5 5 5 5 5 5 5 5 5 5 5 5 5 5 5 5 3 5 5 5 5 5 5 5 5 5 5 5 5 5 5 5 5 5 5 5 3 5 5 5 5 5 5 5 5 5 5 5 5 5 5 5 5 5 5 5 5 5 5 5 5 5 5 5 5 5 5 5 5 5 3 5 5 5 5 5 3 5 3 5 5 5 5 3 5 5 5 5 5 5 5 5 5 5 5 5 5 5 5 5 5 5 5 5 5 5 5 5 5 5 5 5 5 5 5 5 5 5 3 5 5 5 5 5 5 3 5 5 5 3 5 5 3 5 5 5 5 3 5 5 5 5 3 5 5 3 5 5 5 5 5 5 5 3 5 3 3 5 5 5 5 5 5 5 5 5 5 5 3 5 5 5 5 5 5 3 5 5 5 3 5 5 5 5 5 5 3 5 5 5 3 5 5 5 5 5 5 5 5 5 5 5 5 5 5 5 3 5 5 5 5 5 5 5 3 3 5 5 5 5 5 5 5 5 5 5 5 3 5 5 5 5 5 3 5 5 5 5 5 5 5 5 5 5 5 5 5 5 5 5 5 5 5 5 5 5 5 5 5 5 5 5 5 5 5 5 5 5 3 5 5 5 5 5 5 5 5 5 3 5 5 5 5 5 5 5 5 5 3 5 5 5 5 5 5 5 5 5 5 5 5 5 5 5 5 5 5 5 5 3 5 5 5 5 5 5 5 3 3 5 5 5 5 3 5 5 5 5 5 5 3 5 5 3 5 5 5 5 5 5 5 5 5 3 5 5 5 3 5 5 3 3 5 3 5 5 5 5 3 5 5 5 5 5 3 5 5 5 5 5 5 5 5 5 5 5 5 5 5 5 5 5 5 5 5 5 5 5 5 5 5 5 5 5 5 5 5 5 5 5 5 5 5 5 5 5 5 5 5 5 5 5 5 5 5 5 5 5 3 5 5 5 5 5 3 5 5 5 5 3 5 5 5 5 5 5 5 5 5 5 5 5 5 5 5 5 3 5 5 3 5 5 5 5 5 5 5 5 5 5 5 5 5 5 5 5 5 5 5 5 5 5 5 3 5 5 5 5 5 5 5 5 5 3 5 5 5 5 5 5 5 5 5 5 5 5 5 5 5 5 5 5 5 5 5 5 5 5 5 3 5 5 5 5 3 5 5 3 5 5 5 5 5 5 5 3 5 5 5 5 5 5 5 5 5 5 3 3 5 5 5 5 5 5 5 5 5 5 5 5 5 5 5 5 5 5 5 5 5 5 5 5 5 5 5 5 5 5 5 5 5 3 5 5 5 5 5 5 5 5 5 5 5 5 5 5 3 3 5 5 5 5 5 5 5 5 5 5 5 5 5 5 5 5 5 5 5 5 5 5 5 5 5 3 5 5 5 3 5 5 5 5 5 5 5 5 5 5 5 5 5 5 5 5 5 5 5 5 3 5 5 5 5 5 5 5 3 5 3 5 3 5 5 5 3 5 5 5 5 5 5 5 3 5 5 5 5 5 5 5 5 3 3 5 5 5 5 5 3 5 5 5 5 5 5 5 5 5 5 5 5 5 5 5 5 5 5 5 5 5 5 5 5 5 5 5 5 5 5 5 5 5 5 5 5 5 5 5 5 5 5 5 5 5 5 5 5 5 5 5 5 3 5 5 5 5 5 5 5 5 5 5 5 5 5 3 5 5 5 5 5 5 5 5 5 3 5 5 5 5 5 5 3 5 5 5 5 5 3 5 5 5 5 5 5 3 5 5 5 5 5 5 5 5 5 5 5 5 3 5 5 5 5 5 5 5 5 3 5 5 5 5 5 5 5 5 5 5 5 5 5 5 5 5 5 5 3 5 5 5 5 5 5 5 5 5 5 3 5 5 5 5 5 5 5 5 5 5 5 5 5 5 5 5 5 5 5 5 5 5 3 5 5 5 3 5 3 3 5 5 5 3 3 5 5 5 5 5 5 5 5 5 5 5 5 5 5 5 5 5 3 5 5 5 5 5 5 5 5 5 5 5 5 5 5 5 5 5 5 5 5 5 3 5 5 5 5 3 5 5 5 5 5 5 5 5 5 5 5 5 5 5 5 3 5 5 3 3 5 5 5 5 5 5 5 5 5 5 5 5 3 5 5 5 5 5 5 5 5 5 5 5 5 5 5 5 5 5 5 5 5 5 5 5 3 3 5 5 5 5 3 3 5 3 5 5 5 5 3 5 5 5 5 5 5 5 5 5 5 5 5 5 5 5 5 5 5 3 5 5 5 5 5 5 5 5 5 5 5 5 5 3 5 5 5 5 5 5 5 5 3 5 5 3 3 5 3 5 5 5 5 5 5 5 5 5 5 3 5 3 5 5 5 5 5 5 3 5 5 5 5 5 5 5 5 5 5 5 5 5 5 5 5 5 5 5 5 5 5 5 5 5 5 5 5 5 5 5 5 5 5 5 5 5 5 5 5 5 5 5 5 5 5 5 5 5 3 5 5 3 5 5 5 3 5 5 5 5 3 5 5 5 5 5 5 5 5 5 5 5 5 5 5 5 5 5 5 5 5 5 5 5 5 3 3 5 5 5 5 5 5 5 5 5 5 5 5 5 5 5 5 5 5 5 3 5 5 5 5 5 5 5 3 5 5 5 3 5 5 5 5 5 5 5 5 5 5 3 3 3 5 5 3 5 5 5 5 5 5 5 3 5 5 3 5 5 5 3 5 5 5 5 5 5 5 5 5 5 5 5 5 5 5 5 5 5 5 5 5 5 5 3 5 5 5 3 5 5 5 5 5 5 5 5 5 5 5 5 5 5 3 5 3 5 5 5 5 5 5 5 5 5 3 5 5 5 5 5 5 5 5 5 3 5 5 3 5 3 5 5 3 5 5 5 5 5 5 5 5 3 5 5 5 5 5 5 5 5 5 3 5 5 5 5 5 5 5 5 5 5 5 5 3 5 3 5 3 5 5 5 5 5 5 3 5 5 5 5 5 5 5 3 5 5 3 5 5 5 5 5 5 5 5 5 5 5 5 5 5 5 3 5 3 5 5 5 5 5 5 5 5 5 5 5 5 5 5 5 5 5 5 5 5 5 5 5 5 5 5 5 5 3 5 5 5 3 5 5 5 5 3 3 5 3 5 5 5 5 5 5 5 5 5 5 5 5 3 3 5 5 5 5 5 5 3 5 5 5 3 5 5 5 5 5 5 5 5 5 5 5 5 3 5 5 5 5 5 5 5 5 5 5 5 5 3 5 5 5 5 5 3 3 5 5 5 5 5 3 5 5 5 5 5 5 5 5 3 5 3 5 5 5 5 5 5 3 5 5 5 5 5 5 5 3 5 5 5 5 5 3 5 5 5 3 5 5 5 5 5 5 5 5 3 5 5 5 5 5 5 5 5 3 5 5 5 5 5 5 5 5 5 5 5 5 5 3 5 5 5 5 5 5 5 5 5 5 5 5 5 5 5 5 5 5 5 3 5 5 5 5 5 5 5 5 5 5 5 5 5 5 5 5 5 5 3 5 5 5 3 5 3 5 5 5 5 5 5 5 3 5 5 5 5 5 5 5 5 5 5 5 5 5 5 5 5 5 5 5 5 5 5 5 5 3 3 5 5 5 5 5 5 3 5 5 5 5 5 5 5 5 5 5 5 5 5 5 5 5 5 5 5 5 3 5 5 5 5 3 5 5 5 5 3 5 5 5 5 5 5 5 5 5 5 5 5 5 5 3 5 5 5 5 5 5 5 5 5 3 5 5 5 5 3 3 5 5 5 5 5 5 5 5 5 5 5 5 5 5 5 5 5 5 5 5 5 5 5 5 5 5 5 5 5 5 5 5 5 5 5 3 5 5 5 5 3 5 5 5 5 5 5 5 5 5 3 5 5 5 5 5 5 5 5 5 5 5 3 5 5 5 5 5 5 5 3 5 5 5 5 5 5 5 5 5 5 5 5 5 5 5 3 5 5 5 5 3 5 5 3 5 5 5 5 5 5 5 3 3 5 5 5 5 5 5 5 5 5 5 5 5 5 5 5 3 5 5 3 5 5 5 5 5 5 5 5 5 5 3 5 5 5 5 5 5 3 5 5 5 5 5 5 5 5 3 5 5 5 5 5 3 5 5 5 3 5 5 5 5 5 5 5 5 5 5 5 5 5 5 5 5 3 5 5 5 5 5 5 5 5 3 5 5 5 5 5 5 5 5 3 5 3 5 5 5 5 5 5 5 3 3 5 5 5 3 5 5 5 3 5 5 5 3 5 5 5 5 5 5 5 5 5 5 5 5 5 5 5 5 3 5 5 5 5 5 5 5 5 5 3 5 5 5 5 5 5 5 5 5 5 5 5 5 5 5 3 5 5 5 5 3 5 3 5 5 5 3 5 5 5 5 5 3 5 5 3 5 5 5 5 5 3 5 5 3 5 5 5 5 3 5 5 5 5 5 5 3 5 5 3 5 5 5 5 5 3 5 5 5 5 3 5 5 5 3 5 5 5 5 5 3 5 5 5 3 3 5 5 5 3 5 5 5 5 5 5 5 5 3 5 5 5 5 5 5 5 5 5 5 5 5 5 5 5 5 5 5 5 5 5 5 5 5 5 3 5 5 3 5 5 5 5 5 5 5 5 5 3 5 5 5 5 5 3 3 5 5 3 5 5 5 5 5 5 3 5 5 3 5 3 5 5 5 5 5 5 5 5 5 5 5 5 5 5 5 5 5 5 5 5 5 5 5 5 5 5 5 5 5 3 5 5 5 5 5 5 3 5 5 5 5 5 5 5 5 5 5 5 5 5 5 5 5 5 5 5 5 5 3 5 5 5 5 5 5 5 5 5 5 5 5 5 5 5 5 5 5 5 5 5 5 5 5 5 3 5 5 5 5 5 5 5 5 5 5 5 5 5 5 5 5 3 5 3 5 5 5 3 5 5 5 3 5 5 5 5 5 5 5 5 3 5 3 3 5 5 3 3 5 3 5 5 5 5 5 5 5 5 5 5 5 3 3 5 5 5 5 5 5 5 5 5 5 5 5 5 5 5 5 5 5 5 5 5 5 5 3 5 5 5 5 3 3 5 5 5 5 5 3 5 5 5 5 5 5 5 5 5 3 5 5 5 5 3 5 5 5 5 5 5 5 5 5 5 5 3 5 5 5 5 5 5 5 5 5 5 5 5 5 5 3 5 3 5 5 5 5 5 5 5 5 3 3 5 5 3 5 5 5 5 5 5 5 5 5 5 5 3 5 5 5 3 3 5 5 5 5 5 5 3 5 5 5 5 5 5 3 5 5 5 5 5 5 5 5 5 5 5 5 5 5 3 5 5 3 5 5 5 5 5 3 5 3 5 5 5 5 5 5 5 3 5 5 3 5 5 3 5 5 5 5 5 5 5 5 5 5 5 5 5 5 5 5 5 5 5 5 3 5 5 5 3 5 5 5 3 5 5 5 5 5 5 5 5 3 5 5 5 3 5 5 5 3 5 5 5 5 5 5 5 5 5 5 5 5 5 5 5 5 5 5 5 5 5 5 5 5 5 3 5 5 3 3 5 5 5 3 5 5 5 5 5 5 3 5 5 5 5 5 5 5 5 3 3 5 5 5 5 5 3 3 5 3 5 5 3 5 5 3 5 5 3 5 5 5 5 5 5 3 3 5 5 5 5 5 3 5 5 5 5 5 5 5 5 5 5 5 5 5 5 5 5 5 5 5 5 5 5 5 5 5 5 3 5 5 5 5 5 5 3 5 5 5 5 5 5 5 5 3 5 5 5 3 5 3 5 5 5 5 3 5 5 5 5 5 5 5 3 5 5 3 5 5 5 5 5 5 5 5 5 5 5 5 5 5 5 5 5 5 5 5 3 5 5 5 5 5 5 5 3 5 5 5 5 5 3 3 5 5 5 5 5 3 5 3 5 5 3 5 5 5 5 5 5 5 5 3 5 5 5 5 3 5 3 5 5 5 5 5 3 5 5 3 5 5 3 5 5 5 5 5 5 3 5 5 5 5 5 5 5 5 3 5 3 5 5 5 5 5 3 3 5 5 5 5 5 5 5 3 5 3 5 5 3 5 5 3 5 5 3 5 5 5 5 5 3 3 3 5 5 3 5 5 3 5 5 5 5 5 5 5 5 5 3 5 5 5 3 5 5 5 5 5 5 5 5 5 5 5 5 5 5 5 5 5 5 5 5 5 5 5 5 5 5 5 5 5 5 3 5 5 5 3 5 5 5 5 5 5 3 5 5 5 3 5 5 3 5 5 5 3 5 3 5 5 5 5 5 3 5 5 5 5 5 5 5 5 5 5 3 5 5 3 5 5 5 5 5 3 5 5 5 5 5 3 5 5 5 5 5 5 5 5 3 5 5 5 3 5 5 5 5 5 5 5 5 5 5 5 5 3 5 5 5 5 5 5 5 5 5 5 5 3 5 5 5 3 5 5 5 5 5 5 5 5 3 5 5 3 5 5 5 5 5 5 5 5 5 5 5 5 5 5 5 5 5 5 5 5 5 5 5 5 5 5 5 5 5 5 5 5 5 5 5 5 5 5 5 5 5 5 5 5 5 5 5 5 5 3 5 5 5 5 3 5 3 5 5 5 5 5 5 5 5 5 5 5 3 5 5 5 5 5 5 5 5 5 5 5 5 5 5 5 5 5 5 5 5 5 3 5 5 5 5 5 5 3 3 5 3 5 5 5 3 3 5 3 5 3 5 5 5 5 3 5 5 5 5 5 5 3 5 3 3 5 3 3 5 5 3 3 5 5 5 5 5 5 5 5 5 5 5 3 5 5 3 3 5 5 3 5 5 5 5 5 5 5 5 5 5 3 5 5 3 5 5 5 5 5 5 3 5 5 5 3 5 5 5 3 5 5 5 5 5 5 5 5 5 5 5 5 5 5 5 5 5 5 5 5 5 5 5 5 5 5 5 5 5 5 5 5 5 5 3 5 5 5 5 5 5 5 5 5 5 5 5 3 5 5 5 5 5 5 5 5 5 5 5 5 5 5 5 5 5 5 5 5 5 5 5 5 5 3 3 5 5 5 5 5 5 5 5 5 5 5 5 5 5 5 5 5 5 5 5 5 5 5 5 5 5 5 5 5 5 5 5 5 5 5 5 5 5 3 5 5 5 5 5 5 5 5 5 5 5 5 5 5 5 3 5 5 5 3 5 5 5 5 5 5 5 5 5 5 5 5 5 5 5 5 5 3 5 5 3 5 5 5 5 5 5 3 5 5 5 3 5 5 5 3 5 5 5 5 5 5 5 5 5 5 3 5 3 5 5 5 5 5 5 5 5 5 5 5 5 5 5 5 5 5 5 5 5 5 5 5 5 5 5 5 5 5 5 5 5 5 5 5 5 5 5 5 5 5 5 5 5 5 5 5 5 5 5 5 5 5 5 5 5 5 5 5 5 5 5 5 5 5 5 5 5 5 5 5 5 5 5 5 3 3 5 5 5 5 5 3 5 5 5 5 5 5 5 3 5 5 5 5 5 3 5 5 5 5 5 5 5 5 5 5 5 5 5 5 5 5 5 5 5 5 3 5 5 3 5 5 5 5 5 5 5 5 5 5 5 5 5 5 5 5 5 5 5 5 5 5 5 5 5 5 5 5 5 5 5 5 5 5 5 5 3 3 5 5 5 5 3 5 3 5 5 5 5 5 5 5 5 3 5 5 5 5 5 5 5 5 5 5 5 5 5 5 5 5 5 5 5 5 5 5 3 3 5 5 5 5 5 5 5 5 5 3 5 5 5 5 5 5 5 5 5 5 5 5 5 5 5 5 5 3 5 5 3 5 5 5 3 5 5 5 3 5 5 5 5 5 3 5 5 5 5 5 5 5 5 5 5 5 5 5 5 5 5 5 5 3 5 5 5 5 5 5 3 5 5 5 5 3 5 5 3 5 5 5 5 5 5 5 5 5 5 5 5 5 5 5 3 5 5 3 5 5 5 5 5 3 5 5 5 5 3 3 5 5 5 5 5 5 5 5 5 5 5 5 5 5 5 5 3 5 5 5 3 5 5 5 5 5 3 5 5 5 5 5 5 3 5 5 5 5 5 5 5 5 5 5 5 5 5 5 5 5 5 5 5 5 5 5 5 5 5 3 5 3 5 5 5 5 5 5 5 5 5 5 5 5 5 5 3 5 5 5 5 5 5 5 5 3 5 5 5 5 3 5 5 5 5 5 5 5 5 5 5 5 3 5 3 5 3 5 5 5 5 5 5 5 3 5 3 3 5 5 5 5 5 5 5 5 5 3 5 5 5 5 3 5 5 5 5 5 5 5 5 5 5 5 5 5 5 5 5 5 5 3 5 3 5 5 5 3 5 5 3 3 5 3 5 5 5 3 3 5 5 5 5 5 3 5 5 5 5 5 5 3 5 3 5 5 5 5 5 5 5 5 5 5 5 5 5 5 5 3 5 5 5 5 5 5 5 5 5 5 5 5 5 5 5 5 3 5 5 5 5 5 5 5 5 3 5 5 5 3 5 5 5 3 5 5 5 5 5 5 5 5 5 3 5 5 5 5 5 5 5 5 5 5 5 3 5 5 5 5 5 5 5 5 5 5 3 5 3 5 5 5 5 5 3 5 5 3 5 5 5 3 5 5 5 5 3 3 5 5 5 5 5 5 5 5 5 5 5 5 5 
</DataArray>
</Cells>
<PointData Scalars="" Vectors="displacement," Tensors="">
<DataArray type="Float64" Name="displacement" NumberOfComponents="3" format="ascii">
-4.395772571841642e-07 -0.034999227307515431 0 1.0712478585415206e-07 -0.034998403398973421 0 -0.00011855336225905343 -0.033734073460158047 0 1.0712478585415206e-07 -0.034998403398973421 0 -0.00011855336225905343 -0.033734073460158047 0 -0.00017266979599597321 -0.034126664366512259 0 -4.395772571841642e-07 -0.034999227307515431 0 -0.00011855336225905343 -0.033734073460158047 0 7.6630699740930469e-07 -0.032357443054878851 0 -6.5015602395075652e-08 -0.034999626740410537 0 5.6758317003318067e-06 -0.034481231648994436 0 -0.00011855336225905343 -0.033734073460158047 0 -0.00017266979599597321 -0.034126664366512259 0 0.00027191727573384807 -0.033762986472558355 0 5.6758317003318067e-06 -0.034481231648994436 0 -0.00022512451142892722 -0.032507609222713868 0 -7.0836110460307944e-05 -0.033466748184110509 0 0.00021528573574595286 -0.033700287584042685 0 -0.00033655482185805549 -0.033655103338225488 0 -4.0886474452794667e-05 -0.035009439551383456 0 -1.1895277397242342e-05 -0.03500823550446331 0 -1.5042954830877815e-05 -0.035003397288866894 0 4.6337265598946137e-05 -0.034336191911008673 0 5.6758317003318067e-06 -0.034481231648994436 0 2.9566743947140982e-10 -0.03500000238888952 0 -5.8760125172798061e-10 -0.034999994164071326 0 -7.1981816703019293e-07 -0.034996963093777457 0 1.6604760985323118e-08 -0.034999691553515351 0 5.6758317003318067e-06 -0.034481231648994436 0 -4.7403174774350862e-09 -0.03500002594295578 0 -1.1895277397242342e-05 -0.03500823550446331 0 -1.5042954830877815e-05 -0.035003397288866894 0 -2.967632929769809e-08 -0.035000013188085446 0 -1.5042954830877815e-05 -0.035003397288866894 0 -3.6952610766939738e-05 -0.03498335824669839 0 -4.7403174774350862e-09 -0.03500002594295578 0 -2.967632929769809e-08 -0.035000013188085446 0 -1.5042954830877815e-05 -0.035003397288866894 0 -4.0886474452794667e-05 -0.035009439551383456 0 -1.5042954830877815e-05 -0.035003397288866894 0 -3.6952610766939738e-05 -0.03498335824669839 0 -4.0886474452794667e-05 -0.035009439551383456 0 -3.6952610766939738e-05 -0.03498335824669839 0 -9.194543551799637e-05 -0.034990439391541776 0 -2.967632929769809e-08 -0.035000013188085446 0 -3.6952610766939738e-05 -0.03498335824669839 0 -9.2560739908830963e-06 -0.034970365369689865 0 -2.967632929769809e-08 -0.035000013188085446 0 -9.2560739908830963e-06 -0.034970365369689865 0 8.0897739613187963e-08 -0.034999821692206626 0 -0.00054549708702133657 -0.032147384913216039 0 -0.00065893357874479786 -0.032000625221364945 0 -0.00042569212186719025 -0.031852478119056192 0 -0.00054549708702133657 -0.032147384913216039 0 -0.00065893357874479786 -0.032000625221364945 0 -0.00081514806413458449 -0.032173386993985524 0 -3.6952610766939738e-05 -0.03498335824669839 0 -9.194543551799637e-05 -0.034990439391541776 0 -0.00011911326323632776 -0.034933074257283536 0 -0.00065893357874479786 -0.032000625221364945 0 -0.00082145304577108764 -0.031882044476219285 0 -0.00081514806413458449 -0.032173386993985524 0 -0.00043850171413010455 -0.033074729471017805 0 -0.00047842137342900699 -0.033595040183541036 0 -0.00096134257253576892 -0.031849308966359575 0 -0.00043850171413010455 -0.033074729471017805 0 -7.0836110460307944e-05 -0.033466748184110509 0 -0.00035801269214420973 -0.033236163821587811 0 -0.00033655482185805549 -0.033655103338225488 0 -0.00043850171413010455 -0.033074729471017805 0 -0.00022512451142892722 -0.032507609222713868 0 -0.0008319946285662421 -0.031858621470494446 0 -0.00065508780962067156 -0.031756660966764313 0 -0.00084242927748505252 -0.031538554295341505 0 4.6337265598946137e-05 -0.034336191911008673 0 -0.00043850171413010455 -0.033074729471017805 0 -0.00065893357874479786 -0.032000625221364945 0 -0.00065508780962067156 -0.031756660966764313 0 -0.00042569212186719025 -0.031852478119056192 0 -0.00065893357874479786 -0.032000625221364945 0 -0.0008319946285662421 -0.031858621470494446 0 -0.00065508780962067156 -0.031756660966764313 0 -0.00065508780962067156 -0.031756660966764313 0 -0.00051381181376278576 -0.031541619134320305 0 -0.00042569212186719025 -0.031852478119056192 0 -0.00065508780962067156 -0.031756660966764313 0 -0.00051381181376278576 -0.031541619134320305 0 -0.00084242927748505252 -0.031538554295341505 0 -0.00033854085094122392 -0.031315422510742597 0 -0.00022512451142892722 -0.032507609222713868 0 -0.00012506112397198544 -0.031298855111938313 0 9.6987011339261939e-05 -0.031215092308795163 0 -0.00015780919780052592 -0.031327893058325014 0 -0.00022512451142892722 -0.032507609222713868 0 1.7458679297481259e-07 -0.03235435524794511 0 9.6987011339261939e-05 -0.031215092308795163 0 1.5767331361509657e-07 -0.032351871612040707 0 -0.00015780919780052592 -0.031327893058325014 0 -0.00011855336225905343 -0.033734073460158047 0 0.00027191727573384807 -0.033762986472558355 0 7.6630699740930469e-07 -0.032357443054878851 0 1.5767331361509657e-07 -0.032351871612040707 0 -0.00015780919780052592 -0.031327893058325014 0 -1.341504307417405e-08 -0.030547235730501769 0 -0.00012506112397198544 -0.031298855111938313 0 -5.311516737510467e-05 -0.031000928399918734 0 -0.00015780919780052592 -0.031327893058325014 0 -5.311516737510467e-05 -0.031000928399918734 0 -0.00015780919780052592 -0.031327893058325014 0 -1.341504307417405e-08 -0.030547235730501769 0 -5.311516737510467e-05 -0.031000928399918734 0 -1.341504307417405e-08 -0.030547235730501769 0 1.2548769690406453e-05 -0.030390132192903773 0 -1.341504307417405e-08 -0.030547235730501769 0 1.2548769690406453e-05 -0.030390132192903773 0 1.6164401344108482e-08 -0.028737678110687264 0 1.2548769690406453e-05 -0.030390132192903773 0 0.0002531045241424923 -0.031068254701526691 0 0.00080063829596382279 -0.031029120728003921 0 -1.8705600923831178e-05 -0.03016679891808725 0 0.00035649536441922729 -0.029870036157561272 0 -5.311516737510467e-05 -0.031000928399918734 0 1.2548769690406453e-05 -0.030390132192903773 0 0.0002531045241424923 -0.031068254701526691 0 -0.00012506112397198544 -0.031298855111938313 0 -5.311516737510467e-05 -0.031000928399918734 0 0.0002531045241424923 -0.031068254701526691 0 1.2548769690406453e-05 -0.030390132192903773 0 1.6164401344108482e-08 -0.028737678110687264 0 -2.0892248505952957e-05 -0.028497407667149168 0 1.6164401344108482e-08 -0.028737678110687264 0 -2.0892248505952957e-05 -0.028497407667149168 0 3.2054309243634797e-05 -0.028268773137006854 0 0.0002531045241424923 -0.031068254701526691 0 0.00080063829596382279 -0.031029120728003921 0 0.00070383765427137559 -0.031394501616229135 0 0.00080063829596382279 -0.031029120728003921 0 0.00070383765427137559 -0.031394501616229135 0 0.0014216748603061891 -0.031401820978609829 0 -0.00012506112397198544 -0.031298855111938313 0 0.0002531045241424923 -0.031068254701526691 0 0.00070383765427137559 -0.031394501616229135 0 -0.00033854085094122392 -0.031315422510742597 0 0.00029582201028393191 -0.031614523129157718 0 -0.00051381181376278576 -0.031541619134320305 0 -0.00017690019477266692 -0.03153530528404587 0 -0.00042569212186719025 -0.031852478119056192 0 -2.1535261497962308e-05 -0.026442490112885072 0 -8.472695650736595e-09 -0.026930083889136119 0 -6.3938142793831226e-05 -0.02587044983083649 0 1.6164401344108482e-08 -0.028737678110687264 0 -8.472695650736595e-09 -0.026930083889136119 0 3.2054309243634797e-05 -0.028268773137006854 0 -2.1535261497962308e-05 -0.026442490112885072 0 -8.472695650736595e-09 -0.026930083889136119 0 3.2054309243634797e-05 -0.028268773137006854 0 0.00044639900552035326 -0.028288007267652276 0 3.2054309243634797e-05 -0.028268773137006854 0 0.00023890575869130718 -0.028512483155342473 0 -2.0892248505952957e-05 -0.028497407667149168 0 3.2054309243634797e-05 -0.028268773137006854 0 0.00023890575869130718 -0.028512483155342473 0 6.6636418397726923e-05 -0.027639231656657937 0 1.4313730015902725e-06 -0.027999532561604631 0 0.00035649536441922729 -0.029870036157561272 0 0.0007288769637976085 -0.029621762547270652 0 0.00029582201028393191 -0.031614523129157718 0 0.0007288769637976085 -0.029621762547270652 0 -0.00017690019477266692 -0.03153530528404587 0 0.0001720828538647824 -0.031518340422602466 0 5.5575691841158122e-05 -0.031711112323756889 0 0.00044639900552035326 -0.028288007267652276 0 0.00023890575869130718 -0.028512483155342473 0 0.00071402800381263718 -0.028485534219640993 0 0.0007288769637976085 -0.029621762547270652 0 0.0020920081418607499 -0.023375008530713361 0 0.0011912361790846733 -0.026373824110291488 0 0.0015586637704983668 -0.026562001200828713 0 0.0018084711573062412 -0.026364122515286834 0 0.0007288769637976085 -0.029621762547270652 0 0.0014464746677372087 -0.02588404979088017 0 0.00039466729317441901 -0.031850476058881888 0 0.00033674632224600328 -0.03180123036856581 0 0.0003799678764402184 -0.031719052078611649 0 0.00039466729317441901 -0.031850476058881888 0 0.00033674632224600328 -0.03180123036856581 0 0.00029140347819431279 -0.031882411697149442 0 0.00033674632224600328 -0.03180123036856581 0 0.0003799678764402184 -0.031719052078611649 0 0.00027109812263725463 -0.031763041925211961 0 0.0014464746677372087 -0.02588404979088017 0 -0.00098555834538431109 -0.030879845140218475 0 0.0001720828538647824 -0.031518340422602466 0 0.00041880135718747085 -0.031636160848123318 0 0.00027109812263725463 -0.031763041925211961 0 0.00027109812263725463 -0.031763041925211961 0 0.00013955686160952642 -0.031870459247801797 0 0.00029140347819431279 -0.031882411697149442 0 0.00033674632224600328 -0.03180123036856581 0 0.00027109812263725463 -0.031763041925211961 0 0.00029140347819431279 -0.031882411697149442 0 0.00013955686160952642 -0.031870459247801797 0 5.5575691841158122e-05 -0.031711112323756889 0 -0.00011873729687546811 -0.031871108246261382 0 0.00027109812263725463 -0.031763041925211961 0 0.00013955686160952642 -0.031870459247801797 0 5.5575691841158122e-05 -0.031711112323756889 0 0.0001720828538647824 -0.031518340422602466 0 0.00027109812263725463 -0.031763041925211961 0 5.5575691841158122e-05 -0.031711112323756889 0 0.00013955686160952642 -0.031870459247801797 0 1.6298527499329436e-05 -0.032003075421616622 0 -0.00011873729687546811 -0.031871108246261382 0 1.6298527499329436e-05 -0.032003075421616622 0 0.00018185631353187675 -0.032014059922499769 0 3.177474280373753e-05 -0.032181426884894247 0 1.6298527499329436e-05 -0.032003075421616622 0 -0.0001229024887405626 -0.032099086927166599 0 3.177474280373753e-05 -0.032181426884894247 0 0.00018185631353187675 -0.032014059922499769 0 0.00023520795827347102 -0.032143554900454729 0 3.177474280373753e-05 -0.032181426884894247 0 0.00013955686160952642 -0.031870459247801797 0 1.6298527499329436e-05 -0.032003075421616622 0 0.00018185631353187675 -0.032014059922499769 0 0.00013955686160952642 -0.031870459247801797 0 0.00018185631353187675 -0.032014059922499769 0 0.00029140347819431279 -0.031882411697149442 0 0.00018185631353187675 -0.032014059922499769 0 0.00029140347819431279 -0.031882411697149442 0 0.00032843445620614416 -0.031981048721065608 0 0.00018185631353187675 -0.032014059922499769 0 0.00032843445620614416 -0.031981048721065608 0 0.00023520795827347102 -0.032143554900454729 0 0.00032843445620614416 -0.031981048721065608 0 0.00037198826560908287 -0.032152374079628461 0 0.00042265865834295564 -0.031935852067802396 0 0.00039466729317441901 -0.031850476058881888 0 0.00032843445620614416 -0.031981048721065608 0 0.00042265865834295564 -0.031935852067802396 0 0.00039466729317441901 -0.031850476058881888 0 0.00029140347819431279 -0.031882411697149442 0 0.00032843445620614416 -0.031981048721065608 0 -0.00017690019477266692 -0.03153530528404587 0 -0.00042569212186719025 -0.031852478119056192 0 -0.00011873729687546811 -0.031871108246261382 0 -0.00017690019477266692 -0.03153530528404587 0 5.5575691841158122e-05 -0.031711112323756889 0 -0.00011873729687546811 -0.031871108246261382 0 -0.00011873729687546811 -0.031871108246261382 0 -0.0001229024887405626 -0.032099086927166599 0 -0.00033737323428681334 -0.032087085795708466 0 1.6298527499329436e-05 -0.032003075421616622 0 -0.00011873729687546811 -0.031871108246261382 0 -0.0001229024887405626 -0.032099086927166599 0 -0.00054549708702133657 -0.032147384913216039 0 -0.00042569212186719025 -0.031852478119056192 0 -0.00033737323428681334 -0.032087085795708466 0 -0.00042569212186719025 -0.031852478119056192 0 -0.00011873729687546811 -0.031871108246261382 0 -0.00033737323428681334 -0.032087085795708466 0 -0.00033737323428681334 -0.032087085795708466 0 -0.00014564836956044956 -0.032372197987700115 0 -0.00046905650497571785 -0.032424973319657373 0 -0.00054549708702133657 -0.032147384913216039 0 -0.00033737323428681334 -0.032087085795708466 0 -0.00046905650497571785 -0.032424973319657373 0 -0.0001229024887405626 -0.032099086927166599 0 -0.00033737323428681334 -0.032087085795708466 0 -0.00014564836956044956 -0.032372197987700115 0 -0.0001229024887405626 -0.032099086927166599 0 -0.00014564836956044956 -0.032372197987700115 0 3.177474280373753e-05 -0.032181426884894247 0 -1.4605791294654048e-06 -0.03313688895644467 0 0.0001116223304039366 -0.032965041041340397 0 3.0010964060393584e-05 -0.033478101515855854 0 -1.4605791294654048e-06 -0.03313688895644467 0 0.00011834689551109697 -0.033618498590941133 0 3.0010964060393584e-05 -0.033478101515855854 0 0.00011834689551109697 -0.033618498590941133 0 3.0010964060393584e-05 -0.033478101515855854 0 0.0002081458974754334 -0.033767375970746048 0 -3.0401536436739493e-05 -0.032739411128998093 0 -0.0001486661055719308 -0.032963462572371961 0 0.00040299567422129415 -0.032278220619771494 0 0.00037198826560908287 -0.032152374079628461 0 0.00042174662174997423 -0.032039108210921485 0 0.00040299567422129415 -0.032278220619771494 0 0.00037198826560908287 -0.032152374079628461 0 0.00038347404818878724 -0.0324208663445507 0 0.00037198826560908287 -0.032152374079628461 0 0.00042265865834295564 -0.031935852067802396 0 0.00042174662174997423 -0.032039108210921485 0 0.00037198826560908287 -0.032152374079628461 0 0.00023520795827347102 -0.032143554900454729 0 0.00022551300344490495 -0.032392978988848034 0 0.00032843445620614416 -0.031981048721065608 0 0.00037198826560908287 -0.032152374079628461 0 0.00023520795827347102 -0.032143554900454729 0 0.00037198826560908287 -0.032152374079628461 0 0.00022551300344490495 -0.032392978988848034 0 0.00038347404818878724 -0.0324208663445507 0 -3.0401536436739493e-05 -0.032739411128998093 0 0.00025398475834391513 -0.032461198353826812 0 -0.00014564836956044956 -0.032372197987700115 0 0.00022551300344490495 -0.032392978988848034 0 3.177474280373753e-05 -0.032181426884894247 0 0.00023520795827347102 -0.032143554900454729 0 0.00022551300344490495 -0.032392978988848034 0 3.177474280373753e-05 -0.032181426884894247 0 -1.4605791294654048e-06 -0.03313688895644467 0 0.00022551300344490495 -0.032392978988848034 0 0.0001116223304039366 -0.032965041041340397 0 0.00040299567422129415 -0.032278220619771494 0 0.00037758346633855156 -0.032409826143369576 0 0.00046531518074041379 -0.032137756751731125 0 0.00022551300344490495 -0.032392978988848034 0 0.0001116223304039366 -0.032965041041340397 0 0.00038347404818878724 -0.0324208663445507 0 0.00039464013795894871 -0.032710838751377126 0 0.00035794089785843393 -0.031863798125463763 0 0.0001116223304039366 -0.032965041041340397 0 0.00038347404818878724 -0.0324208663445507 0 0.00040298052092885728 -0.033063879120193609 0 0.00040299567422129415 -0.032278220619771494 0 0.00038347404818878724 -0.0324208663445507 0 0.00037758346633855156 -0.032409826143369576 0 0.00035794089785843393 -0.031863798125463763 0 0.00017260333761942969 -0.030642235785079051 0 0.0013100160324751161 -0.029675199047490074 0 0.00089898731446350056 -0.028926215239562875 0 0.00096027138738795825 -0.029420989002942276 0 -0.00050804193579440755 -0.033022099571377375 0 -9.6871186271702152e-05 -0.032751365411082749 0 -0.00054505599846704712 -0.032530861447531867 0 0.0001116223304039366 -0.032965041041340397 0 0.00040298052092885728 -0.033063879120193609 0 -2.711143175044221e-05 -0.03332397426843596 0 0.00035794089785843393 -0.031863798125463763 0 -0.00018265724724301065 -0.033253350007822799 0 -9.6871186271702152e-05 -0.032751365411082749 0 -0.00054505599846704712 -0.032530861447531867 0 -0.00010339329488965999 -0.032282264460031691 0 3.0010964060393584e-05 -0.033478101515855854 0 0.00025263208369151376 -0.03364140820914692 0 0.0002081458974754334 -0.033767375970746048 0 0.0001116223304039366 -0.032965041041340397 0 -2.711143175044221e-05 -0.03332397426843596 0 3.0010964060393584e-05 -0.033478101515855854 0 -2.711143175044221e-05 -0.03332397426843596 0 3.0010964060393584e-05 -0.033478101515855854 0 0.00012838214643852593 -0.032974083322790643 0 -9.6871186271702152e-05 -0.032751365411082749 0 0.00012838214643852593 -0.032974083322790643 0 -0.00010339329488965999 -0.032282264460031691 0 -0.00018265724724301065 -0.033253350007822799 0 0.00020316465477411373 -0.032872766197679849 0 3.0010964060393584e-05 -0.033478101515855854 0 0.00025263208369151376 -0.03364140820914692 0 0.00012838214643852593 -0.032974083322790643 0 0.00035870420979436455 -0.0335765174995395 0 0.00025263208369151376 -0.03364140820914692 0 0.00012838214643852593 -0.032974083322790643 0 0.00035870420979436455 -0.0335765174995395 0 0.00025263208369151376 -0.03364140820914692 0 0.00031831880491631768 -0.033951726338340121 0 0.00025263208369151376 -0.03364140820914692 0 0.0002607168434422347 -0.033904481261921735 0 0.00031831880491631768 -0.033951726338340121 0 0.00025263208369151376 -0.03364140820914692 0 0.0002607168434422347 -0.033904481261921735 0 0.0002081458974754334 -0.033767375970746048 0 0.00022245383026701481 -0.034153870276121101 0 0.00031831880491631768 -0.033951726338340121 0 0.0001913676587965502 -0.034345968831685371 0 0.0002607168434422347 -0.033904481261921735 0 0.00022245383026701481 -0.034153870276121101 0 0.00023463524150655734 -0.033991346733119508 0 0.0002607168434422347 -0.033904481261921735 0 0.00022245383026701481 -0.034153870276121101 0 0.00031831880491631768 -0.033951726338340121 0 0.00031831880491631768 -0.033951726338340121 0 0.00039943567953421293 -0.03408692212455592 0 0.0001913676587965502 -0.034345968831685371 0 0.00035870420979436455 -0.0335765174995395 0 0.00031831880491631768 -0.033951726338340121 0 0.00039943567953421293 -0.03408692212455592 0 5.6601351920071991e-05 -0.034733280920767461 0 0.0001913676587965502 -0.034345968831685371 0 9.4023855586463471e-05 -0.034621422025591819 0 0.00039943567953421293 -0.03408692212455592 0 0.0001913676587965502 -0.034345968831685371 0 9.4023855586463471e-05 -0.034621422025591819 0 5.6601351920071991e-05 -0.034733280920767461 0 9.3102775744580793e-08 -0.034999331758055377 0 9.4023855586463471e-05 -0.034621422025591819 0 5.6601351920071991e-05 -0.034733280920767461 0 7.2200147167881641e-08 -0.034999318732961096 0 9.3102775744580793e-08 -0.034999331758055377 0 5.6601351920071991e-05 -0.034733280920767461 0 7.4421559352167135e-05 -0.034664917953663568 0 7.2200147167881641e-08 -0.034999318732961096 0 7.4421559352167135e-05 -0.034664917953663568 0 7.2200147167881641e-08 -0.034999318732961096 0 4.2271153964190642e-05 -0.034775532676126618 0 5.6601351920071991e-05 -0.034733280920767461 0 7.4421559352167135e-05 -0.034664917953663568 0 0.0001913676587965502 -0.034345968831685371 0 7.4421559352167135e-05 -0.034664917953663568 0 0.0001913676587965502 -0.034345968831685371 0 0.00013940917640225208 -0.034427123919413785 0 7.4421559352167135e-05 -0.034664917953663568 0 0.00013940917640225208 -0.034427123919413785 0 4.2271153964190642e-05 -0.034775532676126618 0 0.00022245383026701481 -0.034153870276121101 0 0.00013940917640225208 -0.034427123919413785 0 0.00017354414255934964 -0.034259768977780991 0 0.00022245383026701481 -0.034153870276121101 0 0.0001913676587965502 -0.034345968831685371 0 0.00013940917640225208 -0.034427123919413785 0 4.2271153964190642e-05 -0.034775532676126618 0 -5.7834169524450761e-05 -0.034900758455339576 0 -0.00015537294721235036 -0.034827806224740132 0 0.00013940917640225208 -0.034427123919413785 0 4.2271153964190642e-05 -0.034775532676126618 0 0.00017354414255934964 -0.034259768977780991 0 4.2271153964190642e-05 -0.034775532676126618 0 0.00017354414255934964 -0.034259768977780991 0 0.00023637477121079572 -0.033958167215916532 0 0.00020215818820493132 -0.034883550321713343 0 -0.0002613166977076359 -0.033776029221751797 0 7.2200147167881641e-08 -0.034999318732961096 0 4.2271153964190642e-05 -0.034775532676126618 0 8.0897739613187963e-08 -0.034999821692206626 0 4.2271153964190642e-05 -0.034775532676126618 0 -9.2560739908830963e-06 -0.034970365369689865 0 8.0897739613187963e-08 -0.034999821692206626 0 -3.6952610766939738e-05 -0.03498335824669839 0 -9.2560739908830963e-06 -0.034970365369689865 0 -5.7834169524450761e-05 -0.034900758455339576 0 4.2271153964190642e-05 -0.034775532676126618 0 -9.2560739908830963e-06 -0.034970365369689865 0 -5.7834169524450761e-05 -0.034900758455339576 0 -3.6952610766939738e-05 -0.03498335824669839 0 -5.7834169524450761e-05 -0.034900758455339576 0 -0.00011911326323632776 -0.034933074257283536 0 -0.00047842137342900699 -0.033595040183541036 0 -0.0002613166977076359 -0.033776029221751797 0 -5.7834169524450761e-05 -0.034900758455339576 0 -0.00011911326323632776 -0.034933074257283536 0 -0.00015537294721235036 -0.034827806224740132 0 -0.00081514806413458449 -0.032173386993985524 0 -0.00065335119800033394 -0.03230928198420438 0 -0.00079992235554042967 -0.032486719692740161 0 -0.00054549708702133657 -0.032147384913216039 0 -0.00046905650497571785 -0.032424973319657373 0 -0.00065335119800033394 -0.03230928198420438 0 -0.00054549708702133657 -0.032147384913216039 0 -0.00081514806413458449 -0.032173386993985524 0 -0.00065335119800033394 -0.03230928198420438 0 -0.0001486661055719308 -0.032963462572371961 0 -0.0002613166977076359 -0.033776029221751797 0 0.00011834689551109697 -0.033618498590941133 0 0.0002081458974754334 -0.033767375970746048 0 0.00023855007827378085 -0.033940551273692138 0 -0.00046905650497571785 -0.032424973319657373 0 -0.00065335119800033394 -0.03230928198420438 0 -0.00079992235554042967 -0.032486719692740161 0 0.0002607168434422347 -0.033904481261921735 0 0.0002081458974754334 -0.033767375970746048 0 0.00023463524150655734 -0.033991346733119508 0 0.0002081458974754334 -0.033767375970746048 0 0.00023463524150655734 -0.033991346733119508 0 0.00023855007827378085 -0.033940551273692138 0 -0.00012966393274373543 -0.033922732153716835 0 -0.0002613166977076359 -0.033776029221751797 0 0.00023463524150655734 -0.033991346733119508 0 0.00017354414255934964 -0.034259768977780991 0 0.00023637477121079572 -0.033958167215916532 0 0.00022245383026701481 -0.034153870276121101 0 0.00023463524150655734 -0.033991346733119508 0 0.00017354414255934964 -0.034259768977780991 0 0.0004202104163205591 -0.015483556060231251 0 0.00066720660953094714 -0.015097591542947446 0 -4.5699777454877248e-05 -0.014953377132899157 0 0.0014248951781532921 -0.013388180748770651 0 -0.00038594676232702293 -0.015411933527278482 0 0.00082748762447204104 -0.015550442906997622 0 0.0004202104163205591 -0.015483556060231251 0 0.00066720660953094714 -0.015097591542947446 0 3.0477028790907998e-05 -0.015862163056136015 0 0.0015321230976187131 -0.016562000775449736 0 0.00023947421115265395 -0.01743815090966996 0 -0.0002280198102329905 -0.016339591139290267 0 0.0015095900840195896 -0.01734974631393572 0 0.00023947421115265395 -0.01743815090966996 0 0.00036349162770623082 -0.018549073630569957 0 0.0015095900840195896 -0.01734974631393572 0 0.00082748762447204104 -0.015550442906997622 0 0.0004202104163205591 -0.015483556060231251 0 0.0010789875816030413 -0.016001783743713874 0 0.00023947421115265395 -0.01743815090966996 0 -0.0002280198102329905 -0.016339591139290267 0 -0.0002832173369340655 -0.017316883746952477 0 -0.0002280198102329905 -0.016339591139290267 0 -0.0002832173369340655 -0.017316883746952477 0 -0.00060635738660660531 -0.01606464694349978 0 -8.0749044410719252e-05 -0.018229419618157581 0 -0.0004390619160155859 -0.016307487384588221 0 -0.0002832173369340655 -0.017316883746952477 0 -0.00018893603476657971 -0.018737549193524865 0 -0.00089194261881255182 -0.016765668313323708 0 0.00014106371910295768 -0.017748746478559244 0 -6.6271701096460207e-06 -0.01695560239598904 0 -4.7603851607761853e-05 -0.015841427683962211 0 0.00014106371910295768 -0.017748746478559244 0 2.5547254460914498e-07 -0.018207680811761086 0 -6.6271701096460207e-06 -0.01695560239598904 0 -8.0749044410719252e-05 -0.018229419618157581 0 -1.6116506501032557e-08 -0.020115548239248288 0 0.00014106371910295768 -0.017748746478559244 0 2.5547254460914498e-07 -0.018207680811761086 0 4.7052766075540299e-07 -0.020115335238908166 0 -0.00018893603476657971 -0.018737549193524865 0 0.00036349162770623082 -0.018549073630569957 0 6.7850977994753843e-07 -0.020116867848431134 0 0.00023947421115265395 -0.01743815090966996 0 -0.0002832173369340655 -0.017316883746952477 0 0.00036349162770623082 -0.018549073630569957 0 -0.0002832173369340655 -0.017316883746952477 0 -0.00018893603476657971 -0.018737549193524865 0 0.00036349162770623082 -0.018549073630569957 0 0.00036349162770623082 -0.018549073630569957 0 0.0020976266188813312 -0.018202381683560739 0 0.0015095900840195896 -0.01734974631393572 0 0.00036349162770623082 -0.018549073630569957 0 1.393341030772584e-05 -0.020202699422310295 0 -2.6261373696143823e-06 -0.02021861348480411 0 0.00031370623497782666 -0.018739779674995356 0 0.00098230436599140995 -0.019232189885454488 0 0.00036349162770623082 -0.018549073630569957 0 6.7850977994753843e-07 -0.020116867848431134 0 1.393341030772584e-05 -0.020202699422310295 0 6.7850977994753843e-07 -0.020116867848431134 0 -9.8700043154408125e-07 -0.021714820253570469 0 1.393341030772584e-05 -0.020202699422310295 0 -9.8700043154408125e-07 -0.021714820253570469 0 1.393341030772584e-05 -0.020202699422310295 0 -2.1307582901815352e-05 -0.020880513944132401 0 -2.8361063657212234e-05 -0.020613306367445326 0 -2.6261373696143823e-06 -0.02021861348480411 0 1.5525425210377577e-05 -0.020776477401858905 0 0.00098230436599140995 -0.019232189885454488 0 0.0016836082127073373 -0.018081952512141532 0 1.393341030772584e-05 -0.020202699422310295 0 -2.1307582901815352e-05 -0.020880513944132401 0 -2.8361063657212234e-05 -0.020613306367445326 0 -2.1307582901815352e-05 -0.020880513944132401 0 -2.8361063657212234e-05 -0.020613306367445326 0 -7.7860127991852851e-06 -0.020837956306986791 0 1.393341030772584e-05 -0.020202699422310295 0 -2.8361063657212234e-05 -0.020613306367445326 0 -2.6261373696143823e-06 -0.02021861348480411 0 0.0015116160211925082 -0.016066221767142216 0 0.0010789875816030413 -0.016001783743713874 0 0.0018252769305258756 -0.016410887523367518 0 0.0020976266188813312 -0.018202381683560739 0 0.0015095900840195896 -0.01734974631393572 0 0.0037200193664336544 -0.018032954380087184 0 0.0015116160211925082 -0.016066221767142216 0 0.0010789875816030413 -0.016001783743713874 0 0.0012705343614331883 -0.015792840812518805 0 0.0015321230976187131 -0.016562000775449736 0 0.0016836082127073373 -0.018081952512141532 0 0.0015116160211925082 -0.016066221767142216 0 0.0015957323717999742 -0.015796606169980146 0 0.0017198261626560508 -0.016100953932564246 0 0.0015116160211925082 -0.016066221767142216 0 0.0015957323717999742 -0.015796606169980146 0 0.0012705343614331883 -0.015792840812518805 0 0.00082748762447204104 -0.015550442906997622 0 0.0010789875816030413 -0.016001783743713874 0 0.0010665149362924194 -0.015689764876999662 0 0.0010789875816030413 -0.016001783743713874 0 0.0010665149362924194 -0.015689764876999662 0 0.0012705343614331883 -0.015792840812518805 0 0.0010665149362924194 -0.015689764876999662 0 0.0011283338886276854 -0.015432284918657909 0 0.0012705343614331883 -0.015792840812518805 0 0.00082748762447204104 -0.015550442906997622 0 0.0011283338886276854 -0.015432284918657909 0 0.00066720660953094714 -0.015097591542947446 0 0.00082748762447204104 -0.015550442906997622 0 0.0010665149362924194 -0.015689764876999662 0 0.0011283338886276854 -0.015432284918657909 0 0.0011283338886276854 -0.015432284918657909 0 0.0015957323717999742 -0.015796606169980146 0 0.0012705343614331883 -0.015792840812518805 0 0.0011283338886276854 -0.015432284918657909 0 0.0015957323717999742 -0.015796606169980146 0 0.0017217622766191262 -0.015268565224923134 0 0.0015957323717999742 -0.015796606169980146 0 0.0019762201593072431 -0.015846459865385562 0 0.0017217622766191262 -0.015268565224923134 0 0.0019762201593072431 -0.015846459865385562 0 0.0023263807866487521 -0.015691782066535792 0 0.0017217622766191262 -0.015268565224923134 0 0.0015957323717999742 -0.015796606169980146 0 0.0019762201593072431 -0.015846459865385562 0 0.001812207478873937 -0.016007896167321688 0 0.0023263807866487521 -0.015691782066535792 0 0.0025229905091778012 -0.016089956418438751 0 0.0022744991603206042 -0.01598594894649636 0 0.0019762201593072431 -0.015846459865385562 0 0.0023263807866487521 -0.015691782066535792 0 0.0022744991603206042 -0.01598594894649636 0 0.0019762201593072431 -0.015846459865385562 0 0.0022744991603206042 -0.01598594894649636 0 0.0021484629104328683 -0.016131007017458367 0 0.0021484629104328683 -0.016131007017458367 0 0.002389119842012621 -0.016250374993402168 0 0.0022000588092583135 -0.01635079597172337 0 0.0016836082127073373 -0.018081952512141532 0 0.0022798170644432541 -0.016581692917005942 0 0.0022000588092583135 -0.01635079597172337 0 0.0018252769305258756 -0.016410887523367518 0 0.0025447875241835067 -0.016494233390243741 0 0.0022744991603206042 -0.01598594894649636 0 0.0021484629104328683 -0.016131007017458367 0 0.002389119842012621 -0.016250374993402168 0 0.0025229905091778012 -0.016089956418438751 0 0.0022744991603206042 -0.01598594894649636 0 0.002389119842012621 -0.016250374993402168 0 0.002389119842012621 -0.016250374993402168 0 0.0022000588092583135 -0.01635079597172337 0 0.0025447875241835067 -0.016494233390243741 0 0.0021484629104328683 -0.016131007017458367 0 0.0022000588092583135 -0.01635079597172337 0 0.0020155724469677369 -0.016237712433661768 0 0.0022000588092583135 -0.01635079597172337 0 0.0019731911912697769 -0.016306206528615457 0 0.0018252769305258756 -0.016410887523367518 0 0.0022000588092583135 -0.01635079597172337 0 0.0019731911912697769 -0.016306206528615457 0 0.0020155724469677369 -0.016237712433661768 0 0.0019731911912697769 -0.016306206528615457 0 0.0018533042214228645 -0.016226303084462056 0 0.0018252769305258756 -0.016410887523367518 0 0.0019731911912697769 -0.016306206528615457 0 0.0020155724469677369 -0.016237712433661768 0 0.0018533042214228645 -0.016226303084462056 0 0.0019762201593072431 -0.015846459865385562 0 0.0019677379749215847 -0.016095931959867305 0 0.001812207478873937 -0.016007896167321688 0 0.0019762201593072431 -0.015846459865385562 0 0.0021484629104328683 -0.016131007017458367 0 0.0019677379749215847 -0.016095931959867305 0 0.0021484629104328683 -0.016131007017458367 0 0.0020155724469677369 -0.016237712433661768 0 0.0019677379749215847 -0.016095931959867305 0 0.0020155724469677369 -0.016237712433661768 0 0.0019677379749215847 -0.016095931959867305 0 0.0018533042214228645 -0.016226303084462056 0 0.0019677379749215847 -0.016095931959867305 0 0.001812207478873937 -0.016007896167321688 0 0.0018533042214228645 -0.016226303084462056 0 0.0015957323717999742 -0.015796606169980146 0 0.001812207478873937 -0.016007896167321688 0 0.0017198261626560508 -0.016100953932564246 0 0.001812207478873937 -0.016007896167321688 0 0.0017198261626560508 -0.016100953932564246 0 0.0018533042214228645 -0.016226303084462056 0 0.0017198261626560508 -0.016100953932564246 0 0.0018533042214228645 -0.016226303084462056 0 0.0018252769305258756 -0.016410887523367518 0 0.0015116160211925082 -0.016066221767142216 0 0.0017198261626560508 -0.016100953932564246 0 0.0018252769305258756 -0.016410887523367518 0 -2.8361063657212234e-05 -0.020613306367445326 0 1.5525425210377577e-05 -0.020776477401858905 0 -7.7860127991852851e-06 -0.020837956306986791 0 1.5525425210377577e-05 -0.020776477401858905 0 4.0256560687066297e-05 -0.020791506123129175 0 -7.7860127991852851e-06 -0.020837956306986791 0 1.5525425210377577e-05 -0.020776477401858905 0 0.00010729710293479998 -0.020780740195601263 0 4.0256560687066297e-05 -0.020791506123129175 0 0.00067420342769802159 -0.019764970132749641 0 0.00032207397050658447 -0.019991754550763192 0 0.0016836082127073373 -0.018081952512141532 0 0.00067420342769802159 -0.019764970132749641 0 0.0001894030282572733 -0.020751432388856392 0 4.0256560687066297e-05 -0.020791506123129175 0 9.3097734144942544e-05 -0.020972316893565254 0 4.0256560687066297e-05 -0.020791506123129175 0 9.3097734144942544e-05 -0.020972316893565254 0 -7.7860127991852851e-06 -0.020837956306986791 0 0.0001894030282572733 -0.020751432388856392 0 9.3097734144942544e-05 -0.020972316893565254 0 0.00038409338544869099 -0.021184391160238989 0 9.3097734144942544e-05 -0.020972316893565254 0 -7.7860127991852851e-06 -0.020837956306986791 0 2.5515932731560583e-05 -0.021416516586634071 0 9.3097734144942544e-05 -0.020972316893565254 0 2.5515932731560583e-05 -0.021416516586634071 0 0.00038409338544869099 -0.021184391160238989 0 -2.1307582901815352e-05 -0.020880513944132401 0 -7.7860127991852851e-06 -0.020837956306986791 0 2.5515932731560583e-05 -0.021416516586634071 0 -9.8700043154408125e-07 -0.021714820253570469 0 2.5515932731560583e-05 -0.021416516586634071 0 2.4114101350888897e-06 -0.023311319161672683 0 -9.8700043154408125e-07 -0.021714820253570469 0 -2.1307582901815352e-05 -0.020880513944132401 0 2.5515932731560583e-05 -0.021416516586634071 0 1.0260994416424687e-07 -0.023314551269268985 0 0.00081307165836403447 -0.023454781710630798 0 2.5515932731560583e-05 -0.021416516586634071 0 2.4114101350888897e-06 -0.023311319161672683 0 0.00059980822015103332 -0.02173892980669416 0 2.4114101350888897e-06 -0.023311319161672683 0 0.00059980822015103332 -0.02173892980669416 0 0.001606905569213091 -0.022180046140168729 0 0.00067420342769802159 -0.019764970132749641 0 0.0012986670681822564 -0.021207849171856759 0 0.0001894030282572733 -0.020751432388856392 0 0.00038409338544869099 -0.021184391160238989 0 0.0012777240954660774 -0.020962704479977549 0 0.00059980822015103332 -0.02173892980669416 0 0.00038409338544869099 -0.021184391160238989 0 0.0012777240954660774 -0.020962704479977549 0 0.00064695539540401189 -0.021194948763410482 0 0.0011902483080085664 -0.021390152041039313 0 0.0013379301255392463 -0.021288990951511381 0 0.00059980822015103332 -0.02173892980669416 0 0.0012777240954660774 -0.020962704479977549 0 0.001606905569213091 -0.022180046140168729 0 0.0011665247419783567 -0.017239381314117144 0 0.0022295814977030979 -0.017273221400971695 0 0.0020792414159706172 -0.016949453471638478 0 0.00067420342769802159 -0.019764970132749641 0 0.0019003121989856998 -0.019001764027055376 0 0.00079781247653396719 -0.017151522480815629 0 0.0011665247419783567 -0.017239381314117144 0 0.0020792414159706172 -0.016949453471638478 0 2.5515932731560583e-05 -0.021416516586634071 0 0.00059980822015103332 -0.02173892980669416 0 0.00038409338544869099 -0.021184391160238989 0 0.0013379301255392463 -0.021288990951511381 0 0.0017208739358457543 -0.021567167824415513 0 0.0020106334834164839 -0.021366119075800251 0 0.0012777240954660774 -0.020962704479977549 0 0.001606905569213091 -0.022180046140168729 0 0.0026906528192751607 -0.021372726016328236 0 0.0019003121989856998 -0.019001764027055376 0 0.0020920081418607499 -0.023375008530713361 0 0.0012986670681822564 -0.021207849171856759 0 0.0011298778147441012 -0.024421709490195006 0 0.0011902483080085664 -0.021390152041039313 0 0.0013379301255392463 -0.021288990951511381 0 0.0017208739358457543 -0.021567167824415513 0 7.9280497095884297e-07 -0.023315667903382433 0 5.6561168970332534e-05 -0.024857980188089285 0 -4.5364493768369862e-07 -0.025122323218143418 0 5.6561168970332534e-05 -0.024857980188089285 0 -1.2348894253046504e-05 -0.025359393943310583 0 -3.3478950085392894e-05 -0.025544454092056908 0 0.00081307165836403447 -0.023454781710630798 0 0.0011298778147441012 -0.024421709490195006 0 5.6561168970332534e-05 -0.024857980188089285 0 -1.2348894253046504e-05 -0.025359393943310583 0 -4.5364493768369862e-07 -0.025122323218143418 0 -2.1535261497962308e-05 -0.026442490112885072 0 -6.3938142793831226e-05 -0.02587044983083649 0 -3.3478950085392894e-05 -0.025544454092056908 0 -8.472695650736595e-09 -0.026930083889136119 0 -4.5364493768369862e-07 -0.025122323218143418 0 -6.3938142793831226e-05 -0.02587044983083649 0 -1.2348894253046504e-05 -0.025359393943310583 0 -4.5364493768369862e-07 -0.025122323218143418 0 -6.3938142793831226e-05 -0.02587044983083649 0 -1.2348894253046504e-05 -0.025359393943310583 0 -6.3938142793831226e-05 -0.02587044983083649 0 -3.3478950085392894e-05 -0.025544454092056908 0 0.00044639900552035326 -0.028288007267652276 0 0.00088943459805112905 -0.028339500959244597 0 0.00071402800381263718 -0.028485534219640993 0 0.0022295814977030979 -0.017273221400971695 0 0.0033553677803371952 -0.017296149887460244 0 0.0034454906588295238 -0.016719120847770965 0 6.6636418397726923e-05 -0.027639231656657937 0 0.0011298778147441012 -0.024421709490195006 0 0.0011298778147441012 -0.024421709490195006 0 0.0020920081418607499 -0.023375008530713361 0 0.0014464746677372087 -0.02588404979088017 0 0.0020920081418607499 -0.023375008530713361 0 0.003785499583771927 -0.016921948811260124 0 0.0034454906588295238 -0.016719120847770965 0 0.0029822687507856656 -0.016197071980211079 0 0.0014464746677372087 -0.02588404979088017 0 0.0017209145590559166 -0.023880601946369248 0 0.00039466729317441901 -0.031850476058881888 0 0.0003799678764402184 -0.031719052078611649 0 0.00043841937548892918 -0.031922740839762036 0 0.003785499583771927 -0.016921948811260124 0 0.0033553677803371952 -0.017296149887460244 0 0.0034454906588295238 -0.016719120847770965 0 0.0034454906588295238 -0.016719120847770965 0 0.0027564729979210299 -0.016331092544863025 0 0.0029822687507856656 -0.016197071980211079 0 0.0034454906588295238 -0.016719120847770965 0 0.0025447875241835067 -0.016494233390243741 0 0.0027564729979210299 -0.016331092544863025 0 0.0022295814977030979 -0.017273221400971695 0 0.0034454906588295238 -0.016719120847770965 0 0.0020792414159706172 -0.016949453471638478 0 0.0034202577558244576 -0.016730177072903484 0 0.0022798170644432541 -0.016581692917005942 0 0.002389119842012621 -0.016250374993402168 0 0.0025447875241835067 -0.016494233390243741 0 0.0027564729979210299 -0.016331092544863025 0 0.0025229905091778012 -0.016089956418438751 0 0.002389119842012621 -0.016250374993402168 0 0.0027564729979210299 -0.016331092544863025 0 0.0025229905091778012 -0.016089956418438751 0 0.0027564729979210299 -0.016331092544863025 0 0.0029822687507856656 -0.016197071980211079 0 0.001049184459805526 -0.023690688418289568 0 0.0017209145590559166 -0.023880601946369248 0 0.0023263807866487521 -0.015691782066535792 0 0.0025229905091778012 -0.016089956418438751 0 0.0029822687507856656 -0.016197071980211079 0 0.00043841937548892918 -0.031922740839762036 0 0.00043283830159090834 -0.031791189174610074 0 0.00024772735533525487 -0.031440622201828562 0 -0.00022660146986862772 -0.031687777622873906 0 0.00043841937548892918 -0.031922740839762036 0 0.00024772735533525487 -0.031440622201828562 0 0.00039466729317441901 -0.031850476058881888 0 0.00043841937548892918 -0.031922740839762036 0 0.00044028026125821372 -0.031881887201509355 0 0.00043283830159090834 -0.031791189174610074 0 0.00042265865834295564 -0.031935852067802396 0 0.00044028026125821372 -0.031881887201509355 0 0.00039466729317441901 -0.031850476058881888 0 0.00042265865834295564 -0.031935852067802396 0 0.00044028026125821372 -0.031881887201509355 0 0.00043841937548892918 -0.031922740839762036 0 0.00043283830159090834 -0.031791189174610074 0 0.00044028026125821372 -0.031881887201509355 0 0.00043283830159090834 -0.031791189174610074 0 0.00042174662174997423 -0.032039108210921485 0 0.00046531518074041379 -0.032137756751731125 0 0.00040299567422129415 -0.032278220619771494 0 0.00042174662174997423 -0.032039108210921485 0 0.00046531518074041379 -0.032137756751731125 0 0.00043283830159090834 -0.031791189174610074 0 0.00042265865834295564 -0.031935852067802396 0 0.00042174662174997423 -0.032039108210921485 0 0.0001849400275975741 -0.031527907397444876 0 0.00077792584317971567 -0.031111314638883003 0 0.00043283830159090834 -0.031791189174610074 0 0.00024772735533525487 -0.031440622201828562 0 0.00046531518074041379 -0.032137756751731125 0 0.00024772735533525487 -0.031440622201828562 0 0.0003050822113625751 -0.030442603182082133 0 0.00095944593766744419 -0.030306033385766869 0 0.00024772735533525487 -0.031440622201828562 0 0.0003050822113625751 -0.030442603182082133 0 -0.00040866036084195509 -0.030685209209191003 0 0.0003050822113625751 -0.030442603182082133 0 0.00053947277672281545 -0.029942042982137651 0 0.00095944593766744419 -0.030306033385766869 0 9.7589159939771188e-05 -0.029919760207622638 0 0.00053947277672281545 -0.029942042982137651 0 0.00015182941675174593 -0.029334392299127637 0 0.0003050822113625751 -0.030442603182082133 0 9.7589159939771188e-05 -0.029919760207622638 0 0.00053947277672281545 -0.029942042982137651 0 0.0013100160324751161 -0.029675199047490074 0 0.00095944593766744419 -0.030306033385766869 0 0.00096027138738795825 -0.029420989002942276 0 0.00035794089785843393 -0.031863798125463763 0 0.00077792584317971567 -0.031111314638883003 0 0.00095944593766744419 -0.030306033385766869 0 0.00096027138738795825 -0.029420989002942276 0 0.00070673060401806303 -0.029540082659673752 0 0.00053947277672281545 -0.029942042982137651 0 0.00095944593766744419 -0.030306033385766869 0 0.00070673060401806303 -0.029540082659673752 0 0.00096027138738795825 -0.029420989002942276 0 0.00070673060401806303 -0.029540082659673752 0 0.00072524689559950106 -0.02907226440483128 0 0.00070673060401806303 -0.029540082659673752 0 0.00072524689559950106 -0.02907226440483128 0 0.00050668901080923052 -0.029245574592573653 0 0.00089898731446350056 -0.028926215239562875 0 0.00096027138738795825 -0.029420989002942276 0 0.00072524689559950106 -0.02907226440483128 0 0.00072524689559950106 -0.02907226440483128 0 0.00055478786356181282 -0.028883751478239659 0 0.00060873588054047322 -0.028811606623445087 0 0.00089898731446350056 -0.028926215239562875 0 0.00072524689559950106 -0.02907226440483128 0 0.00060873588054047322 -0.028811606623445087 0 0.00072524689559950106 -0.02907226440483128 0 0.00055478786356181282 -0.028883751478239659 0 0.00050668901080923052 -0.029245574592573653 0 0.00039270381519460415 -0.028910771758131164 0 0.0004731877144704146 -0.028756405872530411 0 0.00052245957654745818 -0.028793051190486991 0 0.00055478786356181282 -0.028883751478239659 0 0.00052245957654745818 -0.028793051190486991 0 0.00060873588054047322 -0.028811606623445087 0 0.00055478786356181282 -0.028883751478239659 0 0.00039270381519460415 -0.028910771758131164 0 0.00052245957654745818 -0.028793051190486991 0 0.00055478786356181282 -0.028883751478239659 0 0.00039270381519460415 -0.028910771758131164 0 0.00050668901080923052 -0.029245574592573653 0 0.00039270381519460415 -0.028910771758131164 0 0.00015182941675174593 -0.029334392299127637 0 0.00050668901080923052 -0.029245574592573653 0 0.00039270381519460415 -0.028910771758131164 0 0.00015182941675174593 -0.029334392299127637 0 1.5742372005531132e-05 -0.02874375556622381 0 0.00053947277672281545 -0.029942042982137651 0 0.00070673060401806303 -0.029540082659673752 0 0.00050668901080923052 -0.029245574592573653 0 0.00053947277672281545 -0.029942042982137651 0 0.00015182941675174593 -0.029334392299127637 0 0.00050668901080923052 -0.029245574592573653 0 9.7589159939771188e-05 -0.029919760207622638 0 0.00015182941675174593 -0.029334392299127637 0 -0.00028910139804214882 -0.029518361468745685 0 -0.00028910139804214882 -0.029518361468745685 0 1.5742372005531132e-05 -0.02874375556622381 0 -0.0013269326607990612 -0.029513610495940003 0 -0.00028910139804214882 -0.029518361468745685 0 -0.0013269326607990612 -0.029513610495940003 0 -0.00060830754727662581 -0.029976070091987904 0 0.00032819429547323661 -0.028287000231363196 0 -0.0017334002207388492 -0.030371544037661805 0 0.00015182941675174593 -0.029334392299127637 0 -0.00028910139804214882 -0.029518361468745685 0 1.5742372005531132e-05 -0.02874375556622381 0 0.00036136662010814784 -0.028850434812424903 0 -0.00012520722497865467 -0.028515663788740424 0 0.00039270381519460415 -0.028910771758131164 0 0.00045512365042475918 -0.028737879782837164 0 0.0004731877144704146 -0.028756405872530411 0 0.00039270381519460415 -0.028910771758131164 0 1.5742372005531132e-05 -0.02874375556622381 0 -0.00069871634447711453 -0.028241713030152722 0 -0.00069871634447711453 -0.028241713030152722 0 -0.00078193617223158056 -0.028685358354671103 0 -0.0012395035285760444 -0.028447368636869926 0 1.5742372005531132e-05 -0.02874375556622381 0 -0.00069871634447711453 -0.028241713030152722 0 -0.00078193617223158056 -0.028685358354671103 0 -0.0013269326607990612 -0.029513610495940003 0 -0.0011875168556536974 -0.030252273265529067 0 -0.00060830754727662581 -0.029976070091987904 0 9.7589159939771188e-05 -0.029919760207622638 0 -0.00028910139804214882 -0.029518361468745685 0 -0.00060830754727662581 -0.029976070091987904 0 9.7589159939771188e-05 -0.029919760207622638 0 -0.00060830754727662581 -0.029976070091987904 0 -0.00040866036084195509 -0.030685209209191003 0 0.0003050822113625751 -0.030442603182082133 0 9.7589159939771188e-05 -0.029919760207622638 0 -0.00040866036084195509 -0.030685209209191003 0 -0.0011875168556536974 -0.030252273265529067 0 -0.00060830754727662581 -0.029976070091987904 0 -0.00040866036084195509 -0.030685209209191003 0 -0.00022660146986862772 -0.031687777622873906 0 -0.00040866036084195509 -0.030685209209191003 0 -0.0014279763217625223 -0.030908673474004483 0 -0.00022660146986862772 -0.031687777622873906 0 0.00024772735533525487 -0.031440622201828562 0 -0.00040866036084195509 -0.030685209209191003 0 0.001049184459805526 -0.023690688418289568 0 0.00010520283923254815 -0.02314769299690966 0 -0.0011875168556536974 -0.030252273265529067 0 -0.00040866036084195509 -0.030685209209191003 0 -0.0014279763217625223 -0.030908673474004483 0 0.0011283338886276854 -0.015432284918657909 0 0.0017217622766191262 -0.015268565224923134 0 0.0011898815703742999 -0.014926063052560123 0 0.00010520283923254815 -0.02314769299690966 0 -0.00022402747650745623 -0.021957025172413141 0 0.0011283338886276854 -0.015432284918657909 0 0.0011898815703742999 -0.014926063052560123 0 0.00066720660953094714 -0.015097591542947446 0 -0.00022402747650745623 -0.021957025172413141 0 0.0014248951781532921 -0.013388180748770651 0 -0.00022402747650745623 -0.021957025172413141 0 -0.00038449781731337288 -0.020956274957050765 0 0.0015815542090933641 -0.013791612247198135 0 0.0010043688805455879 -0.01338110078810263 0 0.00084826494583034454 -0.01421791892107193 0 -0.0013265769157454509 -0.028878156249554695 0 -0.0012395035285760444 -0.028447368636869926 0 -0.0017773584135759516 -0.028609422867912584 0 -0.0011875168556536974 -0.030252273265529067 0 -0.0014279763217625223 -0.030908673474004483 0 -0.0024826843420008996 -0.030183831212961344 0 -0.0017334002207388492 -0.030371544037661805 0 -0.00022402747650745623 -0.021957025172413141 0 -0.0013269326607990612 -0.029513610495940003 0 -0.0011875168556536974 -0.030252273265529067 0 -0.0024826843420008996 -0.030183831212961344 0 -0.00078193617223158056 -0.028685358354671103 0 -0.0013265769157454509 -0.028878156249554695 0 -0.0012395035285760444 -0.028447368636869926 0 -0.00069871634447711453 -0.028241713030152722 0 -0.0012395035285760444 -0.028447368636869926 0 -0.0014111462567924177 -0.027907471572511076 0 -0.00012520722497865467 -0.028515663788740424 0 -0.00067882185375002068 -0.02824070342257478 0 -0.0012395035285760444 -0.028447368636869926 0 -0.0014111462567924177 -0.027907471572511076 0 -0.0017799969937689504 -0.028174088998422595 0 -0.0012395035285760444 -0.028447368636869926 0 -0.0017773584135759516 -0.028609422867912584 0 -0.0017799969937689504 -0.028174088998422595 0 -0.00038449781731337288 -0.020956274957050765 0 -0.00094435861321841806 -0.020674611643417388 0 0.0010043688805455879 -0.01338110078810263 0 0.00035534199450644124 -0.012966478952911857 0 0.00034262964745372128 -0.0135433735751743 0 -0.0017773584135759516 -0.028609422867912584 0 -0.0017799969937689504 -0.028174088998422595 0 -0.002298151945460129 -0.028287727163189256 0 -0.00067882185375002068 -0.02824070342257478 0 -0.0015512569800678817 -0.028252027074751482 0 -0.0017799969937689504 -0.028174088998422595 0 -0.002298151945460129 -0.028287727163189256 0 -0.0022503680633646421 -0.02757781050253557 0 -0.0014111462567924177 -0.027907471572511076 0 -0.0017799969937689504 -0.028174088998422595 0 -0.0022503680633646421 -0.02757781050253557 0 -0.00094435861321841806 -0.020674611643417388 0 -0.0015188527611436483 -0.019747345917870279 0 -0.002298151945460129 -0.028287727163189256 0 -0.0022503680633646421 -0.02757781050253557 0 -0.0028648617422789668 -0.027912911886418621 0 0.00035534199450644124 -0.012966478952911857 0 0.00034262964745372128 -0.0135433735751743 0 -8.3280904451610329e-05 -0.013151019806378278 0 0.00035534199450644124 -0.012966478952911857 0 -8.3280904451610329e-05 -0.013151019806378278 0 -0.00027092295153755474 -0.012628487745276773 0 0.00034262964745372128 -0.0135433735751743 0 0.00010371457543039371 -0.014074569613937124 0 -0.00030445091460683363 -0.013591807091161248 0 0.0010043688805455879 -0.01338110078810263 0 0.00034262964745372128 -0.0135433735751743 0 0.00084826494583034454 -0.01421791892107193 0 0.00034262964745372128 -0.0135433735751743 0 0.00084826494583034454 -0.01421791892107193 0 0.00010371457543039371 -0.014074569613937124 0 0.00084826494583034454 -0.01421791892107193 0 0.00010371457543039371 -0.014074569613937124 0 -4.5699777454877248e-05 -0.014953377132899157 0 -0.0003428696721967253 -0.026548247765052817 0 -0.00074985748859160699 -0.025038854686291072 0 -0.0011276640940229453 -0.026122148091789879 0 0.00018515134549952641 -0.026381246435117821 0 -0.0003428696721967253 -0.026548247765052817 0 -0.00074985748859160699 -0.025038854686291072 0 0.00018515134549952641 -0.026381246435117821 0 -0.0003428696721967253 -0.026548247765052817 0 0.00012711606436624043 -0.027083361250020206 0 -0.00014395644818509317 -0.027204899054760503 0 -0.0003428696721967253 -0.026548247765052817 0 -0.00087615361298096163 -0.026780452875905619 0 -0.00014395644818509317 -0.027204899054760503 0 -0.0003428696721967253 -0.026548247765052817 0 0.00012711606436624043 -0.027083361250020206 0 -0.0003428696721967253 -0.026548247765052817 0 -0.00087615361298096163 -0.026780452875905619 0 -0.0011276640940229453 -0.026122148091789879 0 -0.0011121903334405474 -0.027839111516116007 0 -0.00083938119081279346 -0.028537415618812036 0 -0.00039850203654347751 -0.02803974525400545 0 9.4349468165627035e-05 -0.02863527637491171 0 -0.00083938119081279346 -0.028537415618812036 0 -0.00039850203654347751 -0.02803974525400545 0 -0.00018972643280441785 -0.027104314468419356 0 -0.00089441869619465381 -0.027476437995269515 0 -0.00014395644818509317 -0.027204899054760503 0 -0.0011121903334405474 -0.027839111516116007 0 -0.00039850203654347751 -0.02803974525400545 0 -0.00014395644818509317 -0.027204899054760503 0 -0.00039850203654347751 -0.02803974525400545 0 0.00010838658903626174 -0.028138999712497791 0 -0.00014395644818509317 -0.027204899054760503 0 0.00010838658903626174 -0.028138999712497791 0 0.00021550204147864272 -0.027738986793004666 0 9.4349468165627035e-05 -0.02863527637491171 0 -0.00039850203654347751 -0.02803974525400545 0 0.00010838658903626174 -0.028138999712497791 0 9.4349468165627035e-05 -0.02863527637491171 0 0.00010838658903626174 -0.028138999712497791 0 0.0003709550244445619 -0.028374771503794 0 0.00045512365042475918 -0.028737879782837164 0 9.4349468165627035e-05 -0.02863527637491171 0 0.0003709550244445619 -0.028374771503794 0 0.00010838658903626174 -0.028138999712497791 0 0.0003709550244445619 -0.028374771503794 0 0.00021550204147864272 -0.027738986793004666 0 0.0003709550244445619 -0.028374771503794 0 0.00021550204147864272 -0.027738986793004666 0 0.00034747087892726924 -0.02810335364027803 0 0.00021550204147864272 -0.027738986793004666 0 0.00017885274282128895 -0.02761905522800762 0 0.00034747087892726924 -0.02810335364027803 0 0.00021550204147864272 -0.027738986793004666 0 0.00012711606436624043 -0.027083361250020206 0 0.00017885274282128895 -0.02761905522800762 0 -0.00014395644818509317 -0.027204899054760503 0 0.00021550204147864272 -0.027738986793004666 0 0.00012711606436624043 -0.027083361250020206 0 0.00012711606436624043 -0.027083361250020206 0 0.00017885274282128895 -0.02761905522800762 0 1.1953113252721802e-05 -0.027320999098360148 0 0.00018515134549952641 -0.026381246435117821 0 0.00012711606436624043 -0.027083361250020206 0 1.1953113252721802e-05 -0.027320999098360148 0 0.00017885274282128895 -0.02761905522800762 0 0.00028380482893118375 -0.028026096104973485 0 0.00017389071581197976 -0.027807615113216898 0 0.00017885274282128895 -0.02761905522800762 0 0.00028380482893118375 -0.028026096104973485 0 0.00034747087892726924 -0.02810335364027803 0 0.00028380482893118375 -0.028026096104973485 0 0.00043520872307493388 -0.028435776757594816 0 0.00028106835384187489 -0.02822647904119345 0 0.00028380482893118375 -0.028026096104973485 0 0.00028106835384187489 -0.02822647904119345 0 0.00017389071581197976 -0.027807615113216898 0 0.00048880852476990784 -0.028836450814647738 0 0.00043520872307493388 -0.028435776757594816 0 0.00028106835384187489 -0.02822647904119345 0 0.00048880852476990784 -0.028836450814647738 0 0.00041787718287092048 -0.028775359028326591 0 0.00028106835384187489 -0.02822647904119345 0 0.00048880852476990784 -0.028836450814647738 0 0.00043520872307493388 -0.028435776757594816 0 0.00054975776182283073 -0.028725084400986794 0 0.00043520872307493388 -0.028435776757594816 0 0.00048362018074370097 -0.028514407307289588 0 0.00054975776182283073 -0.028725084400986794 0 0.00043520872307493388 -0.028435776757594816 0 0.00034747087892726924 -0.02810335364027803 0 0.00048362018074370097 -0.028514407307289588 0 0.00028380482893118375 -0.028026096104973485 0 0.00043520872307493388 -0.028435776757594816 0 0.00034747087892726924 -0.02810335364027803 0 0.0003709550244445619 -0.028374771503794 0 0.00048362018074370097 -0.028514407307289588 0 0.00047458906137406087 -0.028621347286066284 0 0.0003709550244445619 -0.028374771503794 0 0.00034747087892726924 -0.02810335364027803 0 0.00048362018074370097 -0.028514407307289588 0 0.00045512365042475918 -0.028737879782837164 0 0.0003709550244445619 -0.028374771503794 0 0.00047458906137406087 -0.028621347286066284 0 0.00045512365042475918 -0.028737879782837164 0 0.00047458906137406087 -0.028621347286066284 0 0.0004731877144704146 -0.028756405872530411 0 0.0004731877144704146 -0.028756405872530411 0 0.00052613921899602489 -0.028702035684721464 0 0.00052245957654745818 -0.028793051190486991 0 0.00047458906137406087 -0.028621347286066284 0 0.0004731877144704146 -0.028756405872530411 0 0.00052613921899602489 -0.028702035684721464 0 0.00048362018074370097 -0.028514407307289588 0 0.00052613921899602489 -0.028702035684721464 0 0.00054975776182283073 -0.028725084400986794 0 0.00048362018074370097 -0.028514407307289588 0 0.00047458906137406087 -0.028621347286066284 0 0.00052613921899602489 -0.028702035684721464 0 0.00052613921899602489 -0.028702035684721464 0 0.00054975776182283073 -0.028725084400986794 0 0.00059912526856820982 -0.028854519814054094 0 0.00054975776182283073 -0.028725084400986794 0 0.00059912526856820982 -0.028854519814054094 0 0.00057495994181502906 -0.029063075129536577 0 0.00059912526856820982 -0.028854519814054094 0 0.00052245957654745818 -0.028793051190486991 0 0.00060873588054047322 -0.028811606623445087 0 0.00052613921899602489 -0.028702035684721464 0 0.00059912526856820982 -0.028854519814054094 0 0.00052245957654745818 -0.028793051190486991 0 0.00059912526856820982 -0.028854519814054094 0 0.00060873588054047322 -0.028811606623445087 0 0.0003711134130136863 -0.028856749596305315 0 0.00059912526856820982 -0.028854519814054094 0 0.0005339267475126928 -0.029317611813593318 0 0.00057495994181502906 -0.029063075129536577 0 0.00059912526856820982 -0.028854519814054094 0 0.0005339267475126928 -0.029317611813593318 0 0.0003711134130136863 -0.028856749596305315 0 0.0005339267475126928 -0.029317611813593318 0 0.00057495994181502906 -0.029063075129536577 0 0.00053943090712969073 -0.029561203654135074 0 0.0005339267475126928 -0.029317611813593318 0 0.00053943090712969073 -0.029561203654135074 0 0.00015519019024066343 -0.030156581924578443 0 0.00048880852476990784 -0.028836450814647738 0 0.00054975776182283073 -0.028725084400986794 0 0.00057495994181502906 -0.029063075129536577 0 0.00048880852476990784 -0.028836450814647738 0 0.00057495994181502906 -0.029063075129536577 0 0.00053943090712969073 -0.029561203654135074 0 0.00048880852476990784 -0.028836450814647738 0 0.00053943090712969073 -0.029561203654135074 0 0.00041787718287092048 -0.028775359028326591 0 0.00053943090712969073 -0.029561203654135074 0 0.00015519019024066343 -0.030156581924578443 0 0.00082759109676283648 -0.030198019803440456 0 0.00053943090712969073 -0.029561203654135074 0 0.00053343629034842291 -0.0289233094967262 0 0.00082759109676283648 -0.030198019803440456 0 0.00053943090712969073 -0.029561203654135074 0 0.00041787718287092048 -0.028775359028326591 0 0.00053343629034842291 -0.0289233094967262 0 0.00041787718287092048 -0.028775359028326591 0 0.00053343629034842291 -0.0289233094967262 0 0.00033813047088465198 -0.028272270072973043 0 0.00053343629034842291 -0.0289233094967262 0 0.00053371801766535982 -0.028253851872740588 0 0.00033813047088465198 -0.028272270072973043 0 0.00053343629034842291 -0.0289233094967262 0 0.00079243244499611226 -0.028369388772483187 0 0.0011526428204207098 -0.028836609509228939 0 0.00053343629034842291 -0.0289233094967262 0 0.00079243244499611226 -0.028369388772483187 0 0.00053371801766535982 -0.028253851872740588 0 0.00079243244499611226 -0.028369388772483187 0 0.00070865525173113657 -0.028183424732978912 0 0.00053371801766535982 -0.028253851872740588 0 0.00070865525173113657 -0.028183424732978912 0 0.00089279930046766789 -0.02821700927242907 0 0.0008693131046123995 -0.02814332578494964 0 0.00079243244499611226 -0.028369388772483187 0 0.00070865525173113657 -0.028183424732978912 0 0.00089279930046766789 -0.02821700927242907 0 0.000654581605571198 -0.027696909457489635 0 0.00039832765769586725 -0.027907324147978842 0 0.00039967637581226099 -0.027624956135572944 0 0.000654581605571198 -0.027696909457489635 0 0.00039967637581226099 -0.027624956135572944 0 0.00052154402306285022 -0.027502115086788785 0 0.00053371801766535982 -0.028253851872740588 0 0.00039832765769586725 -0.027907324147978842 0 0.00033813047088465198 -0.028272270072973043 0 0.000654581605571198 -0.027696909457489635 0 0.00053371801766535982 -0.028253851872740588 0 0.00039832765769586725 -0.027907324147978842 0 0.000643457139248784 -0.028059965208303398 0 0.00056434567715846196 -0.028200557147539058 0 0.00025033689375620146 -0.027860693785653062 0 0.00039832765769586725 -0.027907324147978842 0 0.00039967637581226099 -0.027624956135572944 0 0.00025033689375620146 -0.027860693785653062 0 0.00039832765769586725 -0.027907324147978842 0 0.00033813047088465198 -0.028272270072973043 0 0.00025033689375620146 -0.027860693785653062 0 0.00039967637581226099 -0.027624956135572944 0 0.00028712427049620729 -0.027483266004527003 0 0.00028712427049620729 -0.027483266004527003 0 0.00018490279697453742 -0.02759415915446202 0 0.00015574478903556055 -0.027361516361717506 0 0.00025033689375620146 -0.027860693785653062 0 0.00028712427049620729 -0.027483266004527003 0 0.00018490279697453742 -0.02759415915446202 0 0.00025033689375620146 -0.027860693785653062 0 0.00011875357659625259 -0.027783270457178749 0 0.00014217474151358283 -0.027681454388870937 0 0.00025033689375620146 -0.027860693785653062 0 0.00018490279697453742 -0.02759415915446202 0 0.00014217474151358283 -0.027681454388870937 0 0.00033813047088465198 -0.028272270072973043 0 0.00028106835384187489 -0.02822647904119345 0 0.00011875357659625259 -0.027783270457178749 0 0.00025033689375620146 -0.027860693785653062 0 0.00033813047088465198 -0.028272270072973043 0 0.00011875357659625259 -0.027783270457178749 0 0.00041787718287092048 -0.028775359028326591 0 0.00033813047088465198 -0.028272270072973043 0 0.00028106835384187489 -0.02822647904119345 0 0.00028106835384187489 -0.02822647904119345 0 0.00017389071581197976 -0.027807615113216898 0 0.00011875357659625259 -0.027783270457178749 0 0.00017389071581197976 -0.027807615113216898 0 1.1953113252721802e-05 -0.027320999098360148 0 0.00011875357659625259 -0.027783270457178749 0 0.00017885274282128895 -0.02761905522800762 0 0.00017389071581197976 -0.027807615113216898 0 1.1953113252721802e-05 -0.027320999098360148 0 1.1953113252721802e-05 -0.027320999098360148 0 5.4369132832305865e-05 -0.027553318797503366 0 0.00021615477177266843 -0.027385173356141407 0 5.4369132832305865e-05 -0.027553318797503366 0 0.00011875357659625259 -0.027783270457178749 0 0.00014217474151358283 -0.027681454388870937 0 1.1953113252721802e-05 -0.027320999098360148 0 5.4369132832305865e-05 -0.027553318797503366 0 0.00011875357659625259 -0.027783270457178749 0 5.4369132832305865e-05 -0.027553318797503366 0 0.00014217474151358283 -0.027681454388870937 0 0.00012053489972804022 -0.027531446213850085 0 0.00018490279697453742 -0.02759415915446202 0 0.00014217474151358283 -0.027681454388870937 0 0.00012053489972804022 -0.027531446213850085 0 0.00018490279697453742 -0.02759415915446202 0 0.00012053489972804022 -0.027531446213850085 0 0.00015574478903556055 -0.027361516361717506 0 0.00012053489972804022 -0.027531446213850085 0 6.0826890040040418e-05 -0.027247325851534138 0 0.00015574478903556055 -0.027361516361717506 0 6.0826890040040418e-05 -0.027247325851534138 0 7.1418431501683031e-05 -0.02745332879133067 0 -8.3190712812421605e-05 -0.027144983193487703 0 0.00012053489972804022 -0.027531446213850085 0 6.0826890040040418e-05 -0.027247325851534138 0 7.1418431501683031e-05 -0.02745332879133067 0 5.4369132832305865e-05 -0.027553318797503366 0 0.00012053489972804022 -0.027531446213850085 0 7.1418431501683031e-05 -0.02745332879133067 0 5.4369132832305865e-05 -0.027553318797503366 0 7.1418431501683031e-05 -0.02745332879133067 0 3.3895471253628358e-05 -0.027456105505154677 0 5.4369132832305865e-05 -0.027553318797503366 0 3.3895471253628358e-05 -0.027456105505154677 0 0.00021615477177266843 -0.027385173356141407 0 7.1418431501683031e-05 -0.02745332879133067 0 3.3895471253628358e-05 -0.027456105505154677 0 -8.3190712812421605e-05 -0.027144983193487703 0 3.3895471253628358e-05 -0.027456105505154677 0 -8.3190712812421605e-05 -0.027144983193487703 0 -0.00039740695525046884 -0.027165793369849665 0 -8.5148592187170603e-05 -0.027317387261211384 0 2.724836846611763e-05 -0.027515835927789209 0 3.822376610413204e-05 -0.027270758192345219 0 3.8223334299123128e-06 -0.027398116033596633 0 -0.00018895844910752285 -0.02702435914168376 0 -0.00039248747607077163 -0.024198340292686776 0 -0.00091288272274561418 -0.024698284508057704 0 3.3895471253628358e-05 -0.027456105505154677 0 3.822376610413204e-05 -0.027270758192345219 0 3.8223334299123128e-06 -0.027398116033596633 0 3.3895471253628358e-05 -0.027456105505154677 0 3.8223334299123128e-06 -0.027398116033596633 0 0.00021615477177266843 -0.027385173356141407 0 -0.0008023363721227591 -0.021242689387350005 0 0.00011838924429407403 -0.02310873095505599 0 -0.0010513455592733481 -0.022154755474688575 0 -0.00039248747607077163 -0.024198340292686776 0 0.00011083171746845307 -0.02528342021435975 0 0.00011838924429407403 -0.02310873095505599 0 -0.0014452542221114546 -0.023544090112037539 0 -0.0010513455592733481 -0.022154755474688575 0 0.00018515134549952641 -0.026381246435117821 0 1.1953113252721802e-05 -0.027320999098360148 0 0.00021615477177266843 -0.027385173356141407 0 0.00021057376681903907 -0.026221554310550781 0 0.00011083171746845307 -0.02528342021435975 0 0.00018515134549952641 -0.026381246435117821 0 0.00011838924429407403 -0.02310873095505599 0 -0.00074985748859160699 -0.025038854686291072 0 0.00011838924429407403 -0.02310873095505599 0 -0.00074985748859160699 -0.025038854686291072 0 -0.0014452542221114546 -0.023544090112037539 0 0.00012662130804588312 -0.034550212131184727 0 0.0001303465468430027 -0.034659466537434722 0 0.00014498647294843844 -0.034753486370054189 0 0.00012662130804588312 -0.034550212131184727 0 0.00014498647294843844 -0.034753486370054189 0 0.00028851277762138037 -0.034600916928743182 0 0.00012662130804588312 -0.034550212131184727 0 0.00028851277762138037 -0.034600916928743182 0 -5.2767404812698511e-05 -0.034515876128796801 0 0.00012662130804588312 -0.034550212131184727 0 -5.2767404812698511e-05 -0.034515876128796801 0 8.5293605458356416e-06 -0.034094532954332749 0 0.00012662130804588312 -0.034550212131184727 0 0.00011721864469454768 -0.034409171469052036 0 8.5293605458356416e-06 -0.034094532954332749 0 0.00012662130804588312 -0.034550212131184727 0 0.00011721864469454768 -0.034409171469052036 0 0.0001303465468430027 -0.034659466537434722 0 0.00011721864469454768 -0.034409171469052036 0 0.0001303465468430027 -0.034659466537434722 0 0.0001254641731472522 -0.034535242385818427 0 0.0001303465468430027 -0.034659466537434722 0 0.00010293903148060759 -0.0347668523586444 0 0.0001254641731472522 -0.034535242385818427 0 0.0001303465468430027 -0.034659466537434722 0 0.00010293903148060759 -0.0347668523586444 0 9.2680984636689878e-05 -0.034833252815949213 0 6.097538768519443e-07 -0.034999026359731469 0 0.00010293903148060759 -0.0347668523586444 0 0.00013837354463596487 -0.034712294331706577 0 6.097538768519443e-07 -0.034999026359731469 0 0.00010293903148060759 -0.0347668523586444 0 9.2680984636689878e-05 -0.034833252815949213 0 9.2680984636689878e-05 -0.034833252815949213 0 0.00014498647294843844 -0.034753486370054189 0 -1.0760692971738787e-07 -0.034999930336011835 0 6.097538768519443e-07 -0.034999026359731469 0 9.2680984636689878e-05 -0.034833252815949213 0 -1.0760692971738787e-07 -0.034999930336011835 0 0.0001303465468430027 -0.034659466537434722 0 9.2680984636689878e-05 -0.034833252815949213 0 0.00014498647294843844 -0.034753486370054189 0 0.00014498647294843844 -0.034753486370054189 0 -1.0760692971738787e-07 -0.034999930336011835 0 9.4023855586463471e-05 -0.034621422025591819 0 -1.0760692971738787e-07 -0.034999930336011835 0 9.3102775744580793e-08 -0.034999331758055377 0 9.4023855586463471e-05 -0.034621422025591819 0 0.00039943567953421293 -0.03408692212455592 0 0.00014498647294843844 -0.034753486370054189 0 9.4023855586463471e-05 -0.034621422025591819 0 0.00040874438292285142 -0.033962208144578468 0 0.00041507370529200488 -0.033547179796156859 0 0.00039943567953421293 -0.03408692212455592 0 0.00014498647294843844 -0.034753486370054189 0 0.00028851277762138037 -0.034600916928743182 0 0.00041507370529200488 -0.033547179796156859 0 0.00014976566516017775 -0.032991097195296852 0 0.00035870420979436455 -0.0335765174995395 0 0.00039943567953421293 -0.03408692212455592 0 0.00065986227833714141 -0.032556162460090826 0 0.00035870420979436455 -0.0335765174995395 0 0.00065986227833714141 -0.032556162460090826 0 0.00012838214643852593 -0.032974083322790643 0 0.00012838214643852593 -0.032974083322790643 0 0.00013247777536021439 -0.031961877032200582 0 -0.00010339329488965999 -0.032282264460031691 0 0.00013247777536021439 -0.031961877032200582 0 -0.00010339329488965999 -0.032282264460031691 0 9.9002247059023957e-06 -0.031462665395294492 0 0.00065986227833714141 -0.032556162460090826 0 0.00013247777536021439 -0.031961877032200582 0 0.00039310103162117262 -0.03146111624281038 0 0.00065986227833714141 -0.032556162460090826 0 0.00012838214643852593 -0.032974083322790643 0 0.00013247777536021439 -0.031961877032200582 0 -0.00054505599846704712 -0.032530861447531867 0 -0.00010339329488965999 -0.032282264460031691 0 -0.00050774383928161714 -0.031674371174295071 0 0.00017260333761942969 -0.030642235785079051 0 -1.7809358612825933e-05 -0.030337403400480814 0 0.00089898731446350056 -0.028926215239562875 0 0.00060873588054047322 -0.028811606623445087 0 0.0003711134130136863 -0.028856749596305315 0 -0.00010339329488965999 -0.032282264460031691 0 9.9002247059023957e-06 -0.031462665395294492 0 -0.00050774383928161714 -0.031674371174295071 0 -0.00050774383928161714 -0.031674371174295071 0 0.00015519019024066343 -0.030156581924578443 0 0.00020287350722702721 -0.030630478883709379 0 0.0005339267475126928 -0.029317611813593318 0 0.0003711134130136863 -0.028856749596305315 0 0.00015519019024066343 -0.030156581924578443 0 -1.7809358612825933e-05 -0.030337403400480814 0 0.00010496758816741085 -0.030201984514990333 0 9.9002247059023957e-06 -0.031462665395294492 0 0.00020287350722702721 -0.030630478883709379 0 1.5749239321083619e-05 -0.031128121999029246 0 9.9002247059023957e-06 -0.031462665395294492 0 -0.00050774383928161714 -0.031674371174295071 0 0.00020287350722702721 -0.030630478883709379 0 0.00020287350722702721 -0.030630478883709379 0 0.00015805937901610843 -0.031020942303451548 0 1.5749239321083619e-05 -0.031128121999029246 0 0.00020287350722702721 -0.030630478883709379 0 0.00015805937901610843 -0.031020942303451548 0 0.00082759109676283648 -0.030198019803440456 0 0.00015519019024066343 -0.030156581924578443 0 0.00020287350722702721 -0.030630478883709379 0 0.00082759109676283648 -0.030198019803440456 0 0.00013247777536021439 -0.031961877032200582 0 0.00039310103162117262 -0.03146111624281038 0 1.5749239321083619e-05 -0.031128121999029246 0 0.00013247777536021439 -0.031961877032200582 0 9.9002247059023957e-06 -0.031462665395294492 0 1.5749239321083619e-05 -0.031128121999029246 0 0.00015805937901610843 -0.031020942303451548 0 1.5749239321083619e-05 -0.031128121999029246 0 -0.00022546679783535891 -0.031155985194763616 0 0.00039310103162117262 -0.03146111624281038 0 1.5749239321083619e-05 -0.031128121999029246 0 -0.00022546679783535891 -0.031155985194763616 0 0.00014976566516017775 -0.032991097195296852 0 -0.00020973820687358462 -0.032628592933337884 0 -5.2767404812698511e-05 -0.034515876128796801 0 -0.00030663515333868309 -0.033980198715948012 0 8.5293605458356416e-06 -0.034094532954332749 0 -0.00030663515333868309 -0.033980198715948012 0 -0.00015896203399310243 -0.033451716399321277 0 8.5293605458356416e-06 -0.034094532954332749 0 -0.00020973820687358462 -0.032628592933337884 0 -0.00016327473128736384 -0.032755195376167841 0 -0.00030663515333868309 -0.033980198715948012 0 -0.00020037043233448189 -0.032693965574620766 0 -0.00015896203399310243 -0.033451716399321277 0 0.00015805937901610843 -0.031020942303451548 0 -0.00022546679783535891 -0.031155985194763616 0 -0.00020037043233448189 -0.032693965574620766 0 -0.00020037043233448189 -0.032693965574620766 0 -0.0001314368593116621 -0.03301166974468283 0 -0.00015896203399310243 -0.033451716399321277 0 -0.00020037043233448189 -0.032693965574620766 0 -0.0001314368593116621 -0.03301166974468283 0 0.00011719123436666522 -0.032861700565508946 0 -0.00015896203399310243 -0.033451716399321277 0 -0.00012700795693915181 -0.033591497953002779 0 -9.0611266838943238e-05 -0.033737195550166403 0 -0.0001314368593116621 -0.03301166974468283 0 -0.00015896203399310243 -0.033451716399321277 0 -0.00012700795693915181 -0.033591497953002779 0 0.00092282477008727838 -0.030260180722035138 0 0.0010533106826347226 -0.030656697247124696 0 0.00082759109676283648 -0.030198019803440456 0 0.00029571869378552983 -0.031889577018435207 0 0.0011137760029226674 -0.032382043888554445 0 0.00053343629034842291 -0.0289233094967262 0 0.00082759109676283648 -0.030198019803440456 0 0.0011526428204207098 -0.028836609509228939 0 0.00015805937901610843 -0.031020942303451548 0 -0.00020037043233448189 -0.032693965574620766 0 0.00029571869378552983 -0.031889577018435207 0 0.00015805937901610843 -0.031020942303451548 0 0.00082759109676283648 -0.030198019803440456 0 0.00029571869378552983 -0.031889577018435207 0 -0.00020037043233448189 -0.032693965574620766 0 0.00029571869378552983 -0.031889577018435207 0 0.00011719123436666522 -0.032861700565508946 0 0.00029571869378552983 -0.031889577018435207 0 0.00011719123436666522 -0.032861700565508946 0 0.00049072399255324422 -0.03287216199917848 0 0.00029571869378552983 -0.031889577018435207 0 0.00049072399255324422 -0.03287216199917848 0 0.0011137760029226674 -0.032382043888554445 0 0.00079243244499611226 -0.028369388772483187 0 0.0011526428204207098 -0.028836609509228939 0 0.001071271645329128 -0.028323911764740722 0 0.00049072399255324422 -0.03287216199917848 0 0.0011137760029226674 -0.032382043888554445 0 0.00084797239997189816 -0.033391480541418488 0 0.00079243244499611226 -0.028369388772483187 0 0.001071271645329128 -0.028323911764740722 0 0.00089279930046766789 -0.02821700927242907 0 0.0010533106826347226 -0.030656697247124696 0 0.0010179737526106452 -0.030598834547774865 0 0.00011719123436666522 -0.032861700565508946 0 0.00049072399255324422 -0.03287216199917848 0 0.00023970827877606502 -0.033425387576254018 0 -0.0001314368593116621 -0.03301166974468283 0 0.00011719123436666522 -0.032861700565508946 0 0.00023970827877606502 -0.033425387576254018 0 0.00049072399255324422 -0.03287216199917848 0 0.00084797239997189816 -0.033391480541418488 0 0.00023970827877606502 -0.033425387576254018 0 0.00041735234712401872 -0.033801212255735069 0 0.00030580479581024411 -0.034096881512660972 0 0.00047828851501535491 -0.034151909244302031 0 0.00041260707312537723 -0.033888824976478112 0 0.00053138337230158091 -0.032501260799080729 0 0.00084797239997189816 -0.033391480541418488 0 0.00023970827877606502 -0.033425387576254018 0 0.00071943538626605065 -0.034137692558402356 0 0.001071271645329128 -0.028323911764740722 0 0.00089279930046766789 -0.02821700927242907 0 0.00099475539144121337 -0.028166300494097431 0 0.00089279930046766789 -0.02821700927242907 0 0.00099475539144121337 -0.028166300494097431 0 0.0008693131046123995 -0.02814332578494964 0 0.0010179737526106452 -0.030598834547774865 0 0.00053138337230158091 -0.032501260799080729 0 -0.00012700795693915181 -0.033591497953002779 0 -7.2130509541697905e-06 -0.033648002418776357 0 -3.9408000938503587e-05 -0.03390539604727507 0 -0.00012700795693915181 -0.033591497953002779 0 -3.9408000938503587e-05 -0.03390539604727507 0 -0.00010651042186791377 -0.033926180505437477 0 -0.0001314368593116621 -0.03301166974468283 0 0.00041735234712401872 -0.033801212255735069 0 -7.2130509541697905e-06 -0.033648002418776357 0 -0.0001421763466366258 -0.032947148766980537 0 0.00041260707312537723 -0.033888824976478112 0 -0.0001314368593116621 -0.03301166974468283 0 -0.00012700795693915181 -0.033591497953002779 0 -7.2130509541697905e-06 -0.033648002418776357 0 0.00041735234712401872 -0.033801212255735069 0 -7.2130509541697905e-06 -0.033648002418776357 0 0.00011361608807521549 -0.033978706264772306 0 -7.2130509541697905e-06 -0.033648002418776357 0 0.00011361608807521549 -0.033978706264772306 0 -3.9408000938503587e-05 -0.03390539604727507 0 0.00041735234712401872 -0.033801212255735069 0 0.00030580479581024411 -0.034096881512660972 0 0.00011361608807521549 -0.033978706264772306 0 0.00030580479581024411 -0.034096881512660972 0 0.00011361608807521549 -0.033978706264772306 0 0.00017615541390488744 -0.034229228891252197 0 0.00011361608807521549 -0.033978706264772306 0 0.00017615541390488744 -0.034229228891252197 0 3.9943793822406694e-05 -0.034209020037611629 0 -3.9408000938503587e-05 -0.03390539604727507 0 -6.0881388666223787e-05 -0.034174131697566043 0 3.9943793822406694e-05 -0.034209020037611629 0 0.00011361608807521549 -0.033978706264772306 0 -3.9408000938503587e-05 -0.03390539604727507 0 3.9943793822406694e-05 -0.034209020037611629 0 -3.9408000938503587e-05 -0.03390539604727507 0 -6.0881388666223787e-05 -0.034174131697566043 0 -0.00010651042186791377 -0.033926180505437477 0 -6.0881388666223787e-05 -0.034174131697566043 0 -0.0001336978523117009 -0.034212408094819534 0 -0.00010473531338359222 -0.034379808897529472 0 -0.0001336978523117009 -0.034212408094819534 0 -0.0002446244946872182 -0.034009086968648343 0 -0.00010651042186791377 -0.033926180505437477 0 -0.0001336978523117009 -0.034212408094819534 0 -0.00010473531338359222 -0.034379808897529472 0 -0.00017529035137251985 -0.034499352887227532 0 -6.0881388666223787e-05 -0.034174131697566043 0 -0.0001336978523117009 -0.034212408094819534 0 -0.00010651042186791377 -0.033926180505437477 0 -0.0001336978523117009 -0.034212408094819534 0 -0.0002446244946872182 -0.034009086968648343 0 -0.00017529035137251985 -0.034499352887227532 0 -0.0002446244946872182 -0.034009086968648343 0 -0.00025461570689911181 -0.034657681974162143 0 -0.00017529035137251985 -0.034499352887227532 0 -0.0002446244946872182 -0.034009086968648343 0 -0.00010651042186791377 -0.033926180505437477 0 -9.0611266838943238e-05 -0.033737195550166403 0 -0.00012700795693915181 -0.033591497953002779 0 -0.00010651042186791377 -0.033926180505437477 0 -9.0611266838943238e-05 -0.033737195550166403 0 -0.00015896203399310243 -0.033451716399321277 0 -9.0611266838943238e-05 -0.033737195550166403 0 8.5293605458356416e-06 -0.034094532954332749 0 -8.7958200847962286e-05 -0.033789531333800651 0 -0.00017965328050564521 -0.033873819351511576 0 -9.0611266838943238e-05 -0.033737195550166403 0 8.5293605458356416e-06 -0.034094532954332749 0 0.00014818652444571992 -0.034221436427602399 0 -0.0002446244946872182 -0.034009086968648343 0 -9.0611266838943238e-05 -0.033737195550166403 0 -0.00038470474424052265 -0.033685717890810984 0 0.00011721864469454768 -0.034409171469052036 0 8.5293605458356416e-06 -0.034094532954332749 0 0.00014818652444571992 -0.034221436427602399 0 0.00010293903148060759 -0.0347668523586444 0 0.00013837354463596487 -0.034712294331706577 0 0.0001254641731472522 -0.034535242385818427 0 -0.00018655204654952317 -0.034559959784963977 0 -0.00035775905265500137 -0.034343677131702423 0 -4.2151523569417544e-06 -0.035001958255715469 0 9.2681461539155538e-09 -0.034999971685896275 0 -5.8983291824936991e-08 -0.035000099154967601 0 5.1576109760829871e-08 -0.03500002587613376 0 -0.00018655204654952317 -0.034559959784963977 0 1.6165762406310797e-09 -0.035000001650452056 0 -5.5738622612363257e-07 -0.034999234407177865 0 -2.3699701922900827e-09 -0.034999995941995078 0 -0.00018655204654952317 -0.034559959784963977 0 2.5226358535246338e-08 -0.034999327658055475 0 -0.00018655204654952317 -0.034559959784963977 0 -0.00017965328050564521 -0.033873819351511576 0 0.00013837354463596487 -0.034712294331706577 0 0.0001254641731472522 -0.034535242385818427 0 0.00014818652444571992 -0.034221436427602399 0 0.00011721864469454768 -0.034409171469052036 0 0.0001254641731472522 -0.034535242385818427 0 0.00014818652444571992 -0.034221436427602399 0 -0.00038470474424052265 -0.033685717890810984 0 -0.00062790647752423523 -0.033795828872084023 0 -0.00044987563017021405 -0.033896139210049504 0 -0.0002446244946872182 -0.034009086968648343 0 -0.00038470474424052265 -0.033685717890810984 0 -0.00044987563017021405 -0.033896139210049504 0 -4.2151523569417544e-06 -0.035001958255715469 0 -2.6452267200136945e-05 -0.035006073513966909 0 -5.8983291824936991e-08 -0.035000099154967601 0 -0.0007136180956066468 -0.033555320325272135 0 -0.00038470474424052265 -0.033685717890810984 0 -0.00062790647752423523 -0.033795828872084023 0 -2.6452267200136945e-05 -0.035006073513966909 0 -5.8983291824936991e-08 -0.035000099154967601 0 -0.00010127447110250898 -0.034976889352026648 0 -5.8983291824936991e-08 -0.035000099154967601 0 -0.00010127447110250898 -0.034976889352026648 0 -1.3711236922270657e-08 -0.034999661609200282 0 -0.00035775905265500137 -0.034343677131702423 0 -0.0003111290178380386 -0.034550484116673906 0 -0.0002446244946872182 -0.034009086968648343 0 -0.00044987563017021405 -0.033896139210049504 0 -0.00054852905308133346 -0.034111230475521545 0 -0.00062790647752423523 -0.033795828872084023 0 -0.00044987563017021405 -0.033896139210049504 0 -0.00054852905308133346 -0.034111230475521545 0 -0.0003111290178380386 -0.034550484116673906 0 -0.0002705825528261051 -0.034637667276991531 0 -0.0002446244946872182 -0.034009086968648343 0 -0.00054852905308133346 -0.034111230475521545 0 -0.00025461570689911181 -0.034657681974162143 0 -0.00010127447110250898 -0.034976889352026648 0 -1.3711236922270657e-08 -0.034999661609200282 0 -0.00025461570689911181 -0.034657681974162143 0 -1.3711236922270657e-08 -0.034999661609200282 0 -0.00010771960064944896 -0.034850545590479197 0 -0.00025461570689911181 -0.034657681974162143 0 -1.3711236922270657e-08 -0.034999661609200282 0 -0.00010771960064944896 -0.034850545590479197 0 -1.6420621612657375e-07 -0.034999701239686036 0 -0.00010771960064944896 -0.034850545590479197 0 -0.00025461570689911181 -0.034657681974162143 0 -0.00013584148037950144 -0.034768516321375821 0 -0.00025461570689911181 -0.034657681974162143 0 -0.00013584148037950144 -0.034768516321375821 0 -0.00017529035137251985 -0.034499352887227532 0 -0.00010771960064944896 -0.034850545590479197 0 -0.00013584148037950144 -0.034768516321375821 0 -1.6420621612657375e-07 -0.034999701239686036 0 -0.00010473531338359222 -0.034379808897529472 0 -0.00011066374309194968 -0.034575427810471383 0 -2.0334619667754692e-05 -0.034383422219012104 0 -6.0881388666223787e-05 -0.034174131697566043 0 -0.00010473531338359222 -0.034379808897529472 0 -2.0334619667754692e-05 -0.034383422219012104 0 -0.00010473531338359222 -0.034379808897529472 0 -0.00017529035137251985 -0.034499352887227532 0 -0.00011066374309194968 -0.034575427810471383 0 -0.00013584148037950144 -0.034768516321375821 0 -0.00017529035137251985 -0.034499352887227532 0 -0.00011066374309194968 -0.034575427810471383 0 -0.00013584148037950144 -0.034768516321375821 0 -0.00011066374309194968 -0.034575427810471383 0 -9.1729452519109114e-05 -0.034726299680616031 0 -0.00011066374309194968 -0.034575427810471383 0 -3.3063992283417087e-05 -0.034599951506369013 0 -2.0334619667754692e-05 -0.034383422219012104 0 -0.00011066374309194968 -0.034575427810471383 0 -9.1729452519109114e-05 -0.034726299680616031 0 -3.3063992283417087e-05 -0.034599951506369013 0 -9.1729452519109114e-05 -0.034726299680616031 0 -5.5250177111699114e-05 -0.034760028340108801 0 -3.3063992283417087e-05 -0.034599951506369013 0 -5.5250177111699114e-05 -0.034760028340108801 0 -1.8490280018068531e-05 -0.034657217411628326 0 -3.3063992283417087e-05 -0.034599951506369013 0 -9.1729452519109114e-05 -0.034726299680616031 0 -5.5250177111699114e-05 -0.034760028340108801 0 -3.0818187430152672e-05 -0.034851342321950793 0 -5.5250177111699114e-05 -0.034760028340108801 0 -3.0818187430152672e-05 -0.034851342321950793 0 7.915406945008187e-05 -0.034797058327777693 0 -1.6420621612657375e-07 -0.034999701239686036 0 -3.0818187430152672e-05 -0.034851342321950793 0 4.6031732823998858e-08 -0.034999826275372584 0 -0.00013584148037950144 -0.034768516321375821 0 -9.1729452519109114e-05 -0.034726299680616031 0 -3.0818187430152672e-05 -0.034851342321950793 0 -0.00013584148037950144 -0.034768516321375821 0 -1.6420621612657375e-07 -0.034999701239686036 0 -3.0818187430152672e-05 -0.034851342321950793 0 -3.0818187430152672e-05 -0.034851342321950793 0 4.6031732823998858e-08 -0.034999826275372584 0 6.3253767719985537e-06 -0.034908111559358315 0 4.6031732823998858e-08 -0.034999826275372584 0 6.3253767719985537e-06 -0.034908111559358315 0 -5.2509254317255071e-08 -0.034999859384411774 0 6.3253767719985537e-06 -0.034908111559358315 0 -5.2509254317255071e-08 -0.034999859384411774 0 2.7212395194094229e-05 -0.034989468603200513 0 8.7790295425243159e-05 -0.034815611795818741 0 0.00025447705138293596 -0.034672756545154539 0 6.3253767719985537e-06 -0.034908111559358315 0 7.915406945008187e-05 -0.034797058327777693 0 2.7212395194094229e-05 -0.034989468603200513 0 7.915406945008187e-05 -0.034797058327777693 0 0.00010753674444714946 -0.034406972517794475 0 0.0004307491100222718 -0.034450043978074898 0 -3.0818187430152672e-05 -0.034851342321950793 0 6.3253767719985537e-06 -0.034908111559358315 0 7.915406945008187e-05 -0.034797058327777693 0 -5.5250177111699114e-05 -0.034760028340108801 0 7.915406945008187e-05 -0.034797058327777693 0 -5.9085749333423166e-05 -0.034618354639695356 0 -5.5250177111699114e-05 -0.034760028340108801 0 -5.9085749333423166e-05 -0.034618354639695356 0 -0.00013111211098494591 -0.03471912425556116 0 -5.9085749333423166e-05 -0.034618354639695356 0 0.00010753674444714946 -0.034406972517794475 0 -4.0972927358147434e-05 -0.034327770018171576 0 -5.9085749333423166e-05 -0.034618354639695356 0 -4.0972927358147434e-05 -0.034327770018171576 0 -0.00020926043402458216 -0.034354696474116077 0 7.915406945008187e-05 -0.034797058327777693 0 -5.9085749333423166e-05 -0.034618354639695356 0 0.00010753674444714946 -0.034406972517794475 0 -4.0972927358147434e-05 -0.034327770018171576 0 2.3711345835123811e-05 -0.034063957511042187 0 0.00015661371617466867 -0.034168752707966932 0 0.00010753674444714946 -0.034406972517794475 0 -4.0972927358147434e-05 -0.034327770018171576 0 0.00015661371617466867 -0.034168752707966932 0 0.00010753674444714946 -0.034406972517794475 0 0.00015661371617466867 -0.034168752707966932 0 0.000315181096631672 -0.03418470672530001 0 -4.0972927358147434e-05 -0.034327770018171576 0 -0.00014696667904872724 -0.034138826924016485 0 -0.00020926043402458216 -0.034354696474116077 0 -4.0972927358147434e-05 -0.034327770018171576 0 -0.00014696667904872724 -0.034138826924016485 0 2.3711345835123811e-05 -0.034063957511042187 0 -0.00014696667904872724 -0.034138826924016485 0 2.3711345835123811e-05 -0.034063957511042187 0 -7.2166050375165709e-05 -0.033911368113028174 0 -0.00014696667904872724 -0.034138826924016485 0 -0.00024160191514707331 -0.033955546984521558 0 -7.2166050375165709e-05 -0.033911368113028174 0 2.3711345835123811e-05 -0.034063957511042187 0 0.00024164570377774373 -0.033972266919127629 0 5.8545422130603418e-05 -0.033798786660182115 0 0.00015661371617466867 -0.034168752707966932 0 0.00024164570377774373 -0.033972266919127629 0 0.000315181096631672 -0.03418470672530001 0 2.3711345835123811e-05 -0.034063957511042187 0 0.00015661371617466867 -0.034168752707966932 0 0.00024164570377774373 -0.033972266919127629 0 0.00024164570377774373 -0.033972266919127629 0 0.000315181096631672 -0.03418470672530001 0 0.00045508301404384563 -0.034005048047367405 0 0.000315181096631672 -0.03418470672530001 0 0.00046826267398328276 -0.034189880617265876 0 0.00045508301404384563 -0.034005048047367405 0 0.00017825244672209188 -0.034735036495695745 0 0.00030629571092018291 -0.03435649853439042 0 1.1972721685639592e-08 -0.034999977198144863 0 2.2046979784603327e-06 -0.034997100025873598 0 3.5576442165225163e-07 -0.034998583353542265 0 0.00045508301404384563 -0.034005048047367405 0 0.00067338360006400201 -0.034120357659577744 0 0.00060787017975519352 -0.033781207530789822 0 -3.4565941471254307e-11 -0.034999999349416583 0 2.8957010894035664e-07 -0.034999571500517961 0 6.8022521100197928e-10 -0.034999998087870847 0 -2.7284922939520588e-08 -0.035000038698962337 0 0.00017825244672209188 -0.034735036495695745 0 0.00046826267398328276 -0.034189880617265876 0 0.00045508301404384563 -0.034005048047367405 0 0.00067338360006400201 -0.034120357659577744 0 0.00046826267398328276 -0.034189880617265876 0 0.00067338360006400201 -0.034120357659577744 0 0.0004307491100222718 -0.034450043978074898 0 0.00017825244672209188 -0.034735036495695745 0 0.00025447705138293596 -0.034672756545154539 0 -3.5120932900234093e-08 -0.035000372246815042 0 0.00017825244672209188 -0.034735036495695745 0 -1.1784018787279174e-11 -0.035000000419197236 0 2.8957010894035664e-07 -0.034999571500517961 0 6.8022521100197928e-10 -0.034999998087870847 0 -5.2509254317255071e-08 -0.034999859384411774 0 1.3895472412392998e-05 -0.03500742430519424 0 2.7212395194094229e-05 -0.034989468603200513 0 0.000315181096631672 -0.03418470672530001 0 0.00046826267398328276 -0.034189880617265876 0 0.0004307491100222718 -0.034450043978074898 0 0.00010753674444714946 -0.034406972517794475 0 0.000315181096631672 -0.03418470672530001 0 0.0004307491100222718 -0.034450043978074898 0 -0.00063366756846782216 -0.034144043332512523 0 -0.00057393384383269783 -0.034413075325225653 0 -0.00077536361406337583 -0.034357981619398945 0 -0.0013763955677533787 -0.030142962530782063 0 -0.0013846288127146943 -0.030187539253098555 0 -0.0021418075059329027 -0.026372442880443277 0 -0.0016379484148886551 -0.02635870983388218 0 -0.0018496851053309265 -0.025974456801297754 0 -0.0016379484148886551 -0.02635870983388218 0 -0.0018496851053309265 -0.025974456801297754 0 -0.0014731410333951181 -0.025991192002308136 0 -0.0021418075059329027 -0.026372442880443277 0 -0.0016379484148886551 -0.02635870983388218 0 -0.0018452727334774333 -0.0266189313510437 0 -0.0016379484148886551 -0.02635870983388218 0 -0.0018452727334774333 -0.0266189313510437 0 -0.0016080485908986609 -0.026743648894070805 0 -0.0018452727334774333 -0.0266189313510437 0 -0.0016080485908986609 -0.026743648894070805 0 -0.0018417844288374729 -0.026903938693617607 0 -0.0021418075059329027 -0.026372442880443277 0 -0.0021022992813982916 -0.026750079147503731 0 -0.0024620672687724059 -0.026805151876909131 0 -0.0018452727334774333 -0.0266189313510437 0 -0.0021022992813982916 -0.026750079147503731 0 -0.0018417844288374729 -0.026903938693617607 0 -0.0021418075059329027 -0.026372442880443277 0 -0.0018452727334774333 -0.0266189313510437 0 -0.0021022992813982916 -0.026750079147503731 0 -0.00063366756846782216 -0.034144043332512523 0 -0.00050752713541599138 -0.033920901837128273 0 -0.00046753769140142458 -0.033988476009679823 0 -0.0013763955677533787 -0.030142962530782063 0 -0.00093383428004647172 -0.031334173139270616 0 -0.00093383428004647172 -0.031334173139270616 0 -0.00023611652976764127 -0.032939058444326451 0 -0.0005341243350802387 -0.033908953909227803 0 -0.00043513099794612964 -0.033914812215191416 0 -0.00046753769140142458 -0.033988476009679823 0 -0.00043513099794612964 -0.033914812215191416 0 -0.00046753769140142458 -0.033988476009679823 0 -0.00036656402404459547 -0.034028852234376593 0 -0.00046753769140142458 -0.033988476009679823 0 -0.00036656402404459547 -0.034028852234376593 0 -0.00044846175958535554 -0.034154182671879647 0 -0.00063366756846782216 -0.034144043332512523 0 -0.00046753769140142458 -0.033988476009679823 0 -0.00044846175958535554 -0.034154182671879647 0 -0.00043513099794612964 -0.033914812215191416 0 -0.00036656402404459547 -0.034028852234376593 0 -0.00035905331195059932 -0.033884548814193512 0 -0.00024160191514707331 -0.033955546984521558 0 -0.00036656402404459547 -0.034028852234376593 0 -0.00035905331195059932 -0.033884548814193512 0 -0.00024160191514707331 -0.033955546984521558 0 -0.00036656402404459547 -0.034028852234376593 0 -0.00030863337798903026 -0.034166074757035099 0 -0.00036656402404459547 -0.034028852234376593 0 -0.00030863337798903026 -0.034166074757035099 0 -0.00044846175958535554 -0.034154182671879647 0 -0.00014696667904872724 -0.034138826924016485 0 -0.00024160191514707331 -0.033955546984521558 0 -0.00030863337798903026 -0.034166074757035099 0 -0.00030863337798903026 -0.034166074757035099 0 -0.00020926043402458216 -0.034354696474116077 0 -0.00043274273462355335 -0.034312811126388197 0 -0.00014696667904872724 -0.034138826924016485 0 -0.00030863337798903026 -0.034166074757035099 0 -0.00020926043402458216 -0.034354696474116077 0 -0.00063366756846782216 -0.034144043332512523 0 -0.00043274273462355335 -0.034312811126388197 0 -0.00057393384383269783 -0.034413075325225653 0 -0.00063366756846782216 -0.034144043332512523 0 -0.00044846175958535554 -0.034154182671879647 0 -0.00043274273462355335 -0.034312811126388197 0 -0.00030863337798903026 -0.034166074757035099 0 -0.00044846175958535554 -0.034154182671879647 0 -0.00043274273462355335 -0.034312811126388197 0 -0.00030899602578481913 -0.034503166700736013 0 -0.00058901661456089711 -0.034639171261424732 0 -0.00057393384383269783 -0.034413075325225653 0 -0.00043274273462355335 -0.034312811126388197 0 -0.00030899602578481913 -0.034503166700736013 0 -0.00057393384383269783 -0.034413075325225653 0 -5.9085749333423166e-05 -0.034618354639695356 0 -0.00030899602578481913 -0.034503166700736013 0 -0.00013111211098494591 -0.03471912425556116 0 -5.9085749333423166e-05 -0.034618354639695356 0 -0.00020926043402458216 -0.034354696474116077 0 -0.00030899602578481913 -0.034503166700736013 0 -0.00020926043402458216 -0.034354696474116077 0 -0.00043274273462355335 -0.034312811126388197 0 -0.00030899602578481913 -0.034503166700736013 0 -0.00030899602578481913 -0.034503166700736013 0 -0.00013111211098494591 -0.03471912425556116 0 -0.00058901661456089711 -0.034639171261424732 0 -0.00013111211098494591 -0.03471912425556116 0 0.00016271476940422829 -0.034779454943086527 0 0.00011895812012697989 -0.034614495078504857 0 -0.00017641522719328905 -0.034583862518240589 0 -0.00011772055792134342 -0.03525595880279795 0 -0.00058901661456089711 -0.034639171261424732 0 -0.00057393384383269783 -0.034413075325225653 0 -0.00077536361406337583 -0.034357981619398945 0 -0.0018496851053309265 -0.025974456801297754 0 -0.0015573267315951462 -0.025576973221434245 0 -0.0014731410333951181 -0.025991192002308136 0 -0.0013846288127146943 -0.030187539253098555 0 -0.00045607946056865734 -0.030365860223227032 0 -0.00058901661456089711 -0.034639171261424732 0 -0.00077536361406337583 -0.034357981619398945 0 -0.00091998097301929733 -0.034545498760969781 0 0.00016271476940422829 -0.034779454943086527 0 0.0004780112814255391 -0.034845233074852273 0 0.00031535834040038319 -0.034626149165909788 0 -0.00011772055792134342 -0.03525595880279795 0 -0.00045607946056865734 -0.030365860223227032 0 0.0004780112814255391 -0.034845233074852273 0 0.00050896310346350998 -0.034463526667772436 0 0.00031535834040038319 -0.034626149165909788 0 0.00031535834040038319 -0.034626149165909788 0 0.00028658757686268494 -0.034517363212471695 0 0.00041434535745879297 -0.034457675175297922 0 0.00050896310346350998 -0.034463526667772436 0 0.00031535834040038319 -0.034626149165909788 0 0.00041434535745879297 -0.034457675175297922 0 0.00031535834040038319 -0.034626149165909788 0 0.00028658757686268494 -0.034517363212471695 0 0.00011895812012697989 -0.034614495078504857 0 0.00016271476940422829 -0.034779454943086527 0 0.00031535834040038319 -0.034626149165909788 0 0.00011895812012697989 -0.034614495078504857 0 0.00028658757686268494 -0.034517363212471695 0 0.0002296224526865056 -0.034470880792022186 0 0.00011895812012697989 -0.034614495078504857 0 0.00028658757686268494 -0.034517363212471695 0 0.0002296224526865056 -0.034470880792022186 0 0.00037805979717402626 -0.034415595122474989 0 0.00050896310346350998 -0.034463526667772436 0 0.00047480496321508528 -0.034409478660641778 0 0.00041434535745879297 -0.034457675175297922 0 0.00037805979717402626 -0.034415595122474989 0 0.00043947427101066966 -0.034396039104355333 0 0.00041434535745879297 -0.034457675175297922 0 0.00037805979717402626 -0.034415595122474989 0 0.00043947427101066966 -0.034396039104355333 0 0.00046543939793057879 -0.034335262359956396 0 0.00043947427101066966 -0.034396039104355333 0 0.00047480496321508528 -0.034409478660641778 0 0.00041434535745879297 -0.034457675175297922 0 0.00043947427101066966 -0.034396039104355333 0 0.00047480496321508528 -0.034409478660641778 0 0.00048430324658971436 -0.034371039902041135 0 0.00028658757686268494 -0.034517363212471695 0 0.00037805979717402626 -0.034415595122474989 0 0.00041434535745879297 -0.034457675175297922 0 -5.5250177111699114e-05 -0.034760028340108801 0 -0.00013111211098494591 -0.03471912425556116 0 -1.8490280018068531e-05 -0.034657217411628326 0 -0.00013111211098494591 -0.03471912425556116 0 -1.8490280018068531e-05 -0.034657217411628326 0 0.00011895812012697989 -0.034614495078504857 0 -1.8490280018068531e-05 -0.034657217411628326 0 0.00011895812012697989 -0.034614495078504857 0 8.0409774226055332e-05 -0.03453379574412322 0 0.0002296224526865056 -0.034470880792022186 0 0.00011895812012697989 -0.034614495078504857 0 8.0409774226055332e-05 -0.03453379574412322 0 -1.8490280018068531e-05 -0.034657217411628326 0 8.0409774226055332e-05 -0.03453379574412322 0 -3.3063992283417087e-05 -0.034599951506369013 0 8.0409774226055332e-05 -0.03453379574412322 0 -3.3063992283417087e-05 -0.034599951506369013 0 6.9892474424883494e-05 -0.034426954119092947 0 -3.3063992283417087e-05 -0.034599951506369013 0 6.9892474424883494e-05 -0.034426954119092947 0 -2.0334619667754692e-05 -0.034383422219012104 0 0.0002296224526865056 -0.034470880792022186 0 8.0409774226055332e-05 -0.03453379574412322 0 0.00020278623263767005 -0.034379309462438674 0 8.0409774226055332e-05 -0.03453379574412322 0 6.9892474424883494e-05 -0.034426954119092947 0 0.00020278623263767005 -0.034379309462438674 0 6.9892474424883494e-05 -0.034426954119092947 0 0.00017615541390488744 -0.034229228891252197 0 3.9943793822406694e-05 -0.034209020037611629 0 0.00020278623263767005 -0.034379309462438674 0 0.00017615541390488744 -0.034229228891252197 0 0.00030808653216848962 -0.034247501183765544 0 6.9892474424883494e-05 -0.034426954119092947 0 0.00020278623263767005 -0.034379309462438674 0 0.00017615541390488744 -0.034229228891252197 0 6.9892474424883494e-05 -0.034426954119092947 0 3.9943793822406694e-05 -0.034209020037611629 0 -2.0334619667754692e-05 -0.034383422219012104 0 -6.0881388666223787e-05 -0.034174131697566043 0 3.9943793822406694e-05 -0.034209020037611629 0 -2.0334619667754692e-05 -0.034383422219012104 0 0.0004701833198338385 -0.034239016653102576 0 0.00046543939793057879 -0.034335262359956396 0 0.00033353521062071123 -0.034365091939197574 0 0.0004701833198338385 -0.034239016653102576 0 0.00046543939793057879 -0.034335262359956396 0 0.00052328156510081901 -0.034372604099916666 0 0.00043947427101066966 -0.034396039104355333 0 0.00046543939793057879 -0.034335262359956396 0 0.00048430324658971436 -0.034371039902041135 0 0.00037805979717402626 -0.034415595122474989 0 0.00046543939793057879 -0.034335262359956396 0 0.00033353521062071123 -0.034365091939197574 0 0.00020278623263767005 -0.034379309462438674 0 0.00033353521062071123 -0.034365091939197574 0 0.00030808653216848962 -0.034247501183765544 0 0.0002296224526865056 -0.034470880792022186 0 0.00037805979717402626 -0.034415595122474989 0 0.00033353521062071123 -0.034365091939197574 0 0.0002296224526865056 -0.034470880792022186 0 0.00020278623263767005 -0.034379309462438674 0 0.00033353521062071123 -0.034365091939197574 0 0.00027303686557124027 -0.034983559084744403 0 0.00053138337230158091 -0.032501260799080729 0 0.00033353521062071123 -0.034365091939197574 0 0.00030808653216848962 -0.034247501183765544 0 0.00047828851501535491 -0.034151909244302031 0 0.00030580479581024411 -0.034096881512660972 0 0.00017615541390488744 -0.034229228891252197 0 0.00030808653216848962 -0.034247501183765544 0 0.00030580479581024411 -0.034096881512660972 0 0.00030808653216848962 -0.034247501183765544 0 0.00047828851501535491 -0.034151909244302031 0 0.00089221818426443527 -0.028099391491906472 0 0.00099475539144121337 -0.028166300494097431 0 0.0008693131046123995 -0.02814332578494964 0 0.0004701833198338385 -0.034239016653102576 0 0.00033353521062071123 -0.034365091939197574 0 0.00034697879779817432 -0.034019386826141383 0 0.00063587464225489589 -0.031087016377447072 0 0.00053138337230158091 -0.032501260799080729 0 0.000643457139248784 -0.028059965208303398 0 0.00081634560215107933 -0.027319424420670257 0 0.00070865525173113657 -0.028183424732978912 0 0.0008693131046123995 -0.02814332578494964 0 0.00082660223427463058 -0.028100200429573473 0 0.00089221818426443527 -0.028099391491906472 0 0.0008693131046123995 -0.02814332578494964 0 0.00082660223427463058 -0.028100200429573473 0 0.00081634560215107933 -0.027319424420670257 0 0.00092864278961483481 -0.030393155858741576 0 0.0006387874737725927 -0.027499672227735878 0 0.00061323848046254909 -0.027427450283276207 0 0.00056607371339207192 -0.027451372667959582 0 0.0006387874737725927 -0.027499672227735878 0 0.00061323848046254909 -0.027427450283276207 0 0.0006430659747338782 -0.027420982844671982 0 0.00089221818426443527 -0.028099391491906472 0 0.00082660223427463058 -0.028100200429573473 0 0.00085859072271831716 -0.028086905217620816 0 0.00063587464225489589 -0.031087016377447072 0 0.00092864278961483481 -0.030393155858741576 0 0.00046543939793057879 -0.034335262359956396 0 0.00048430324658971436 -0.034371039902041135 0 0.00052328156510081901 -0.034372604099916666 0 0.00061323848046254909 -0.027427450283276207 0 0.00049326691179168048 -0.02739640755978609 0 0.00065180108851945991 -0.027414138151796864 0 0.00056607371339207192 -0.027451372667959582 0 0.00052154402306285022 -0.027502115086788785 0 0.00049326691179168048 -0.02739640755978609 0 0.00061323848046254909 -0.027427450283276207 0 0.00056607371339207192 -0.027451372667959582 0 0.00049326691179168048 -0.02739640755978609 0 0.000654581605571198 -0.027696909457489635 0 0.0006387874737725927 -0.027499672227735878 0 0.00052154402306285022 -0.027502115086788785 0 0.0006387874737725927 -0.027499672227735878 0 0.00056607371339207192 -0.027451372667959582 0 0.00052154402306285022 -0.027502115086788785 0 0.00039967637581226099 -0.027624956135572944 0 0.00028712427049620729 -0.027483266004527003 0 0.00038315827654634152 -0.027462754650379877 0 0.00039967637581226099 -0.027624956135572944 0 0.00052154402306285022 -0.027502115086788785 0 0.00038315827654634152 -0.027462754650379877 0 0.00027566033007270875 -0.02752081573687714 0 0.00049538073042874355 -0.027257503286240312 0 0.00028712427049620729 -0.027483266004527003 0 0.00026742270780805085 -0.027190899266217945 0 0.00015574478903556055 -0.027361516361717506 0 0.00028712427049620729 -0.027483266004527003 0 0.00044004184496335114 -0.027294688256685334 0 0.00026742270780805085 -0.027190899266217945 0 0.0002040624183717751 -0.025818406949954721 0 0.00013601041502457747 -0.025803870016079436 0 0.00022240056918658159 -0.02582897080490229 0 0.00044004184496335114 -0.027294688256685334 0 0.00026742270780805085 -0.027190899266217945 0 0.0005651018270086762 -0.027137593065032644 0 0.00052154402306285022 -0.027502115086788785 0 0.00038315827654634152 -0.027462754650379877 0 0.00049326691179168048 -0.02739640755978609 0 0.0002040624183717751 -0.025818406949954721 0 6.4422197112745144e-07 -0.02573951131988772 0 0.00013601041502457747 -0.025803870016079436 0 0.00015171058257506295 -0.026275024111877848 0 0.00092041030132878991 -0.028628131080393762 0 0.00049538073042874355 -0.027257503286240312 0 0.00092041030132878991 -0.028628131080393762 0 6.4422197112745144e-07 -0.02573951131988772 0 4.2682573174946527e-05 -0.025819262479868502 0 -8.6369192871153943e-05 -0.02584858022124522 0 6.4422197112745144e-07 -0.02573951131988772 0 4.2682573174946527e-05 -0.025819262479868502 0 0.00013601041502457747 -0.025803870016079436 0 0.00013601041502457747 -0.025803870016079436 0 0.00015371300882686311 -0.025810939731471947 0 0.00022240056918658159 -0.02582897080490229 0 4.2682573174946527e-05 -0.025819262479868502 0 0.00013601041502457747 -0.025803870016079436 0 0.00015371300882686311 -0.025810939731471947 0 0.00015371300882686311 -0.025810939731471947 0 0.00022240056918658159 -0.02582897080490229 0 0.00020542961967033273 -0.025775358327102815 0 0.00015322474549528254 -0.025822293232994287 0 0.00021371967801935926 -0.025749412442471718 0 7.30568926282173e-05 -0.025949576176199484 0 0.00015371300882686311 -0.025810939731471947 0 0.00015322474549528254 -0.025822293232994287 0 0.00020542961967033273 -0.025775358327102815 0 0.00015371300882686311 -0.025810939731471947 0 0.00015322474549528254 -0.025822293232994287 0 7.4524094880480419e-05 -0.025848165508159569 0 0.00015322474549528254 -0.025822293232994287 0 7.4524094880480419e-05 -0.025848165508159569 0 7.30568926282173e-05 -0.025949576176199484 0 4.2682573174946527e-05 -0.025819262479868502 0 -5.4781639888019588e-05 -0.025870996720932925 0 -8.6369192871153943e-05 -0.02584858022124522 0 4.2682573174946527e-05 -0.025819262479868502 0 0.00015371300882686311 -0.025810939731471947 0 7.4524094880480419e-05 -0.025848165508159569 0 4.2682573174946527e-05 -0.025819262479868502 0 7.4524094880480419e-05 -0.025848165508159569 0 -5.4781639888019588e-05 -0.025870996720932925 0 7.4524094880480419e-05 -0.025848165508159569 0 -5.4781639888019588e-05 -0.025870996720932925 0 7.30568926282173e-05 -0.025949576176199484 0 -5.4781639888019588e-05 -0.025870996720932925 0 -8.6369192871153943e-05 -0.02584858022124522 0 -0.00021374738817094913 -0.025915972124778079 0 -5.4781639888019588e-05 -0.025870996720932925 0 -0.00021374738817094913 -0.025915972124778079 0 -0.00012348765449533833 -0.025910892433772242 0 -8.6369192871153943e-05 -0.02584858022124522 0 -0.00021173378083141025 -0.025878735153126515 0 -0.00021374738817094913 -0.025915972124778079 0 -0.00027057420386179863 -0.025967827274681415 0 -0.00021173378083141025 -0.025878735153126515 0 -0.00021374738817094913 -0.025915972124778079 0 0.0004780112814255391 -0.034845233074852273 0 0.00050896310346350998 -0.034463526667772436 0 0.00097532071707206243 -0.03436802530513345 0 -0.00045607946056865734 -0.030365860223227032 0 0.00042685522850214485 -0.0302720343525738 0 0.00050896310346350998 -0.034463526667772436 0 0.00047480496321508528 -0.034409478660641778 0 0.00048830042679580399 -0.034401303001669326 0 0.00050896310346350998 -0.034463526667772436 0 0.00097532071707206243 -0.03436802530513345 0 0.00059645098182210441 -0.033712735305529998 0 0.00036573956700137664 -0.034991486864792386 0 0.00034700304724193484 -0.032252862518043941 0 0.00021503411683871764 -0.032825578969800068 0 0.00034700304724193484 -0.032252862518043941 0 0.00061323848046254909 -0.027427450283276207 0 0.0006430659747338782 -0.027420982844671982 0 0.00065180108851945991 -0.027414138151796864 0 0.00052328156510081901 -0.034372604099916666 0 0.00051657312195609777 -0.03439345984947393 0 0.00050098328030277566 -0.034383113121606197 0 0.00092864278961483481 -0.030393155858741576 0 0.00034700304724193484 -0.032252862518043941 0 0.00048430324658971436 -0.034371039902041135 0 0.00052328156510081901 -0.034372604099916666 0 0.00050098328030277566 -0.034383113121606197 0 0.00047480496321508528 -0.034409478660641778 0 0.00051657312195609777 -0.03439345984947393 0 0.00050098328030277566 -0.034383113121606197 0 0.00047480496321508528 -0.034409478660641778 0 0.00048430324658971436 -0.034371039902041135 0 0.00050098328030277566 -0.034383113121606197 0 0.00092041030132878991 -0.028628131080393762 0 0.00042685522850214485 -0.0302720343525738 0 6.4422197112745144e-07 -0.02573951131988772 0 -8.6369192871153943e-05 -0.02584858022124522 0 -0.00021173378083141025 -0.025878735153126515 0 0.0017099431944592924 -0.033325935504993361 0 0.00097532071707206243 -0.03436802530513345 0 0.00059645098182210441 -0.033712735305529998 0 0.00092041030132878991 -0.028628131080393762 0 0.00034700304724193484 -0.032252862518043941 0 -0.00053941119015147839 -0.026012245816568493 0 -0.00028620800976742426 -0.026237696796454713 0 -0.00081399614098728423 -0.026602910445312065 0 -0.00053941119015147839 -0.026012245816568493 0 -0.00028620800976742426 -0.026237696796454713 0 -0.00022298604106893422 -0.02585185272797573 0 -0.00028620800976742426 -0.026237696796454713 0 -0.00013379021159678784 -0.026736905094580484 0 -0.00081399614098728423 -0.026602910445312065 0 -0.00039740695525046884 -0.027165793369849665 0 -0.00013379021159678784 -0.026736905094580484 0 -0.00081399614098728423 -0.026602910445312065 0 2.724836846611763e-05 -0.027515835927789209 0 -0.00091288272274561418 -0.024698284508057704 0 6.0826890040040418e-05 -0.027247325851534138 0 -8.3190712812421605e-05 -0.027144983193487703 0 -0.00013379021159678784 -0.026736905094580484 0 -8.3190712812421605e-05 -0.027144983193487703 0 -0.00039740695525046884 -0.027165793369849665 0 -0.00013379021159678784 -0.026736905094580484 0 -0.00028620800976742426 -0.026237696796454713 0 -0.00013379021159678784 -0.026736905094580484 0 4.025297396795296e-05 -0.02607127257443562 0 -0.00028620800976742426 -0.026237696796454713 0 4.025297396795296e-05 -0.02607127257443562 0 -0.00022298604106893422 -0.02585185272797573 0 4.025297396795296e-05 -0.02607127257443562 0 0.00025529308840572764 -0.026101546919520782 0 0.0001918552692353761 -0.025833198509262145 0 -0.00013379021159678784 -0.026736905094580484 0 4.025297396795296e-05 -0.02607127257443562 0 0.00025529308840572764 -0.026101546919520782 0 -0.00016713110518051338 -0.026734547700913183 0 0.00014211444625549389 -0.026652612870971995 0 6.0826890040040418e-05 -0.027247325851534138 0 0.00010020477708836924 -0.027141210788550633 0 0.00015574478903556055 -0.027361516361717506 0 6.0826890040040418e-05 -0.027247325851534138 0 -0.00013379021159678784 -0.026736905094580484 0 0.00010020477708836924 -0.027141210788550633 0 0.00026742270780805085 -0.027190899266217945 0 0.00010020477708836924 -0.027141210788550633 0 0.00015574478903556055 -0.027361516361717506 0 0.0002040624183717751 -0.025818406949954721 0 0.00025529308840572764 -0.026101546919520782 0 0.00022240056918658159 -0.02582897080490229 0 0.00025529308840572764 -0.026101546919520782 0 0.00022240056918658159 -0.02582897080490229 0 0.0001918552692353761 -0.025833198509262145 0 0.00015171058257506295 -0.026275024111877848 0 0.00014211444625549389 -0.026652612870971995 0 0.00022240056918658159 -0.02582897080490229 0 0.00020542961967033273 -0.025775358327102815 0 0.0001918552692353761 -0.025833198509262145 0 0.00020542961967033273 -0.025775358327102815 0 0.00015673307394959638 -0.025697662771300891 0 0.0001918552692353761 -0.025833198509262145 0 0.00015322474549528254 -0.025822293232994287 0 0.00020542961967033273 -0.025775358327102815 0 0.00021371967801935926 -0.025749412442471718 0 0.00020542961967033273 -0.025775358327102815 0 0.00015673307394959638 -0.025697662771300891 0 0.00021371967801935926 -0.025749412442471718 0 0.00015673307394959638 -0.025697662771300891 0 2.7302765823988121e-05 -0.02570586494454187 0 2.5267799549194014e-05 -0.025476758055817346 0 0.00015673307394959638 -0.025697662771300891 0 2.5267799549194014e-05 -0.025476758055817346 0 0.00021371967801935926 -0.025749412442471718 0 -0.00016155271354755408 -0.025335704518785571 0 -3.9000823503124923e-05 -0.025531523728056102 0 4.025297396795296e-05 -0.02607127257443562 0 0.0001918552692353761 -0.025833198509262145 0 2.7302765823988121e-05 -0.02570586494454187 0 0.00015673307394959638 -0.025697662771300891 0 0.0001918552692353761 -0.025833198509262145 0 2.7302765823988121e-05 -0.02570586494454187 0 4.025297396795296e-05 -0.02607127257443562 0 -0.00022298604106893422 -0.02585185272797573 0 2.7302765823988121e-05 -0.02570586494454187 0 -0.00022298604106893422 -0.02585185272797573 0 -0.00022079629998061125 -0.0255342830942029 0 2.7302765823988121e-05 -0.02570586494454187 0 -0.00022079629998061125 -0.0255342830942029 0 2.7302765823988121e-05 -0.02570586494454187 0 2.5267799549194014e-05 -0.025476758055817346 0 -0.00022079629998061125 -0.0255342830942029 0 2.5267799549194014e-05 -0.025476758055817346 0 -0.00051409107801845069 -0.025145297403661331 0 -0.00016155271354755408 -0.025335704518785571 0 -0.00050118483293329612 -0.025192336226937537 0 -0.00030239760885120137 -0.025207534479558581 0 -0.00051409107801845069 -0.025145297403661331 0 -0.00048818071845661772 -0.024989229644859511 0 -0.00022079629998061125 -0.0255342830942029 0 -0.00051409107801845069 -0.025145297403661331 0 -0.00053868385722535763 -0.025551368370841213 0 -0.00022298604106893422 -0.02585185272797573 0 -0.00022079629998061125 -0.0255342830942029 0 -0.00053868385722535763 -0.025551368370841213 0 -0.00053941119015147839 -0.026012245816568493 0 -0.00022298604106893422 -0.02585185272797573 0 -0.00053868385722535763 -0.025551368370841213 0 -0.00055021511400035099 -0.024858166073097005 0 -0.00041942726100207639 -0.025039049392564044 0 -0.00048384496088566025 -0.024932070500497935 0 -0.00055021511400035099 -0.024858166073097005 0 -0.00054948504714152576 -0.024866096222125964 0 -0.00057246608318422491 -0.024804074980368199 0 -0.00055021511400035099 -0.024858166073097005 0 -0.00048384496088566025 -0.024932070500497935 0 -0.00054948504714152576 -0.024866096222125964 0 -0.00055021511400035099 -0.024858166073097005 0 -0.00048818071845661772 -0.024989229644859511 0 -0.00041942726100207639 -0.025039049392564044 0 -0.00051409107801845069 -0.025145297403661331 0 -0.00048818071845661772 -0.024989229644859511 0 -0.00063374013648764837 -0.024802600989472023 0 -0.00055021511400035099 -0.024858166073097005 0 -0.00048818071845661772 -0.024989229644859511 0 -0.00063374013648764837 -0.024802600989472023 0 -0.00030239760885120137 -0.025207534479558581 0 -0.00048818071845661772 -0.024989229644859511 0 -0.00041942726100207639 -0.025039049392564044 0 -0.00030239760885120137 -0.025207534479558581 0 -0.00041942726100207639 -0.025039049392564044 0 -0.00032302123000320273 -0.02515372282526589 0 -0.00041942726100207639 -0.025039049392564044 0 -0.00039258913176098574 -0.025031342243908319 0 -0.00032302123000320273 -0.02515372282526589 0 -0.00041942726100207639 -0.025039049392564044 0 -0.00039258913176098574 -0.025031342243908319 0 -0.00048384496088566025 -0.024932070500497935 0 -0.00039258913176098574 -0.025031342243908319 0 -0.00046345929661888819 -0.024934645520988927 0 -0.00041904813008477562 -0.024902351551005907 0 -0.00039258913176098574 -0.025031342243908319 0 -0.00048384496088566025 -0.024932070500497935 0 -0.00041904813008477562 -0.024902351551005907 0 -0.00019624793103272399 -0.025286475289074756 0 -0.00022831066824684793 -0.025760595260672675 0 2.509970083844451e-05 -0.02598348130935281 0 -0.00039258913176098574 -0.025031342243908319 0 -0.00019624793103272399 -0.025286475289074756 0 -0.00046345929661888819 -0.024934645520988927 0 -0.00020157996017733078 -0.025308512764605117 0 -0.00021933493249298976 -0.025463683367466624 0 -0.00030239760885120137 -0.025207534479558581 0 -0.00019624793103272399 -0.025286475289074756 0 -0.00025839633435978003 -0.025309836582527168 0 -0.00039258913176098574 -0.025031342243908319 0 -0.00032302123000320273 -0.02515372282526589 0 -0.00019624793103272399 -0.025286475289074756 0 -0.00030239760885120137 -0.025207534479558581 0 -0.00032302123000320273 -0.02515372282526589 0 -0.00019624793103272399 -0.025286475289074756 0 -0.00019624793103272399 -0.025286475289074756 0 -0.00025839633435978003 -0.025309836582527168 0 -0.00030530822072816601 -0.025489247935406256 0 -0.00025839633435978003 -0.025309836582527168 0 -0.00030530822072816601 -0.025489247935406256 0 -0.00044803323893632274 -0.025555861023502664 0 -0.00019624793103272399 -0.025286475289074756 0 -0.00030530822072816601 -0.025489247935406256 0 -0.00022831066824684793 -0.025760595260672675 0 -0.00030530822072816601 -0.025489247935406256 0 -0.00044803323893632274 -0.025555861023502664 0 -0.00040458147500774976 -0.025718452912844369 0 -0.00030530822072816601 -0.025489247935406256 0 -0.00022831066824684793 -0.025760595260672675 0 -0.00040458147500774976 -0.025718452912844369 0 -0.00022831066824684793 -0.025760595260672675 0 -0.00027217863864775592 -0.02599067427103819 0 -0.00040458147500774976 -0.025718452912844369 0 -0.00022831066824684793 -0.025760595260672675 0 -0.00027217863864775592 -0.02599067427103819 0 -0.00014525687655933872 -0.02604197187185793 0 -0.00027217863864775592 -0.02599067427103819 0 -0.00014525687655933872 -0.02604197187185793 0 -0.00020646557090212207 -0.026167087597678083 0 -0.00027217863864775592 -0.02599067427103819 0 -0.00020646557090212207 -0.026167087597678083 0 -0.00032596134042077858 -0.026287638688972242 0 -0.00020646557090212207 -0.026167087597678083 0 -0.00032596134042077858 -0.026287638688972242 0 -0.00017303617415485154 -0.026261139191654931 0 -0.00020646557090212207 -0.026167087597678083 0 -0.00012696928839469904 -0.026165715536438972 0 -0.00017303617415485154 -0.026261139191654931 0 -0.00029207017222111065 -0.02629754558060066 0 -5.1843117613369508e-05 -0.026466749711385906 0 -0.00014525687655933872 -0.02604197187185793 0 -0.00020646557090212207 -0.026167087597678083 0 -0.00012696928839469904 -0.026165715536438972 0 -7.4572200668158946e-05 -0.026153753720876992 0 2.509970083844451e-05 -0.02598348130935281 0 -7.5564341349596291e-05 -0.026224849863349033 0 -0.00012696928839469904 -0.026165715536438972 0 -7.4572200668158946e-05 -0.026153753720876992 0 2.509970083844451e-05 -0.02598348130935281 0 -0.00021933493249298976 -0.025463683367466624 0 -0.00018993103400859819 -0.025870389024365177 0 -0.00012696928839469904 -0.026165715536438972 0 -0.00010892229421930593 -0.026217064517541893 0 -0.00017303617415485154 -0.026261139191654931 0 -0.00012696928839469904 -0.026165715536438972 0 -0.00010892229421930593 -0.026217064517541893 0 -7.4572200668158946e-05 -0.026153753720876992 0 -0.00010892229421930593 -0.026217064517541893 0 -7.4572200668158946e-05 -0.026153753720876992 0 -7.5564341349596291e-05 -0.026224849863349033 0 -0.00014525687655933872 -0.02604197187185793 0 -0.00012696928839469904 -0.026165715536438972 0 2.509970083844451e-05 -0.02598348130935281 0 -0.00022831066824684793 -0.025760595260672675 0 -0.00014525687655933872 -0.02604197187185793 0 2.509970083844451e-05 -0.02598348130935281 0 -0.00046345929661888819 -0.024934645520988927 0 -0.00041904813008477562 -0.024902351551005907 0 -0.00032069505543188252 -0.025525961844611214 0 -0.00048384496088566025 -0.024932070500497935 0 -0.00041904813008477562 -0.024902351551005907 0 -0.00053243209330255329 -0.024883763510055886 0 -0.00041904813008477562 -0.024902351551005907 0 -0.00059826063243070653 -0.024909364597563977 0 -0.00053243209330255329 -0.024883763510055886 0 -0.00041904813008477562 -0.024902351551005907 0 -0.00016001207140929727 -0.025554213008546701 0 -0.00032069505543188252 -0.025525961844611214 0 -0.00039842490073376669 -0.025012116478077433 0 -0.00055173028335372954 -0.025131662580821047 0 -0.00041904813008477562 -0.024902351551005907 0 -0.00059826063243070653 -0.024909364597563977 0 -0.00076549295883640773 -0.024982588274295968 0 -0.00059826063243070653 -0.024909364597563977 0 -0.00066669486120930202 -0.024969141421352616 0 -0.00076549295883640773 -0.024982588274295968 0 -0.00059826063243070653 -0.024909364597563977 0 -0.00066669486120930202 -0.024969141421352616 0 -0.00060051747396512502 -0.024923278919951858 0 -0.00059826063243070653 -0.024909364597563977 0 -0.00060051747396512502 -0.024923278919951858 0 -0.00057557446306210518 -0.024874223428866329 0 -0.00066669486120930202 -0.024969141421352616 0 -0.00060051747396512502 -0.024923278919951858 0 -0.00062101343920594148 -0.025004491617132137 0 -0.00060051747396512502 -0.024923278919951858 0 -0.00062101343920594148 -0.025004491617132137 0 -0.00056615485871065784 -0.024964260799833795 0 -0.00060051747396512502 -0.024923278919951858 0 -0.00055608412347116318 -0.024886032924883384 0 -0.00056615485871065784 -0.024964260799833795 0 -0.00060051747396512502 -0.024923278919951858 0 -0.00057557446306210518 -0.024874223428866329 0 -0.00055608412347116318 -0.024886032924883384 0 -0.00057557446306210518 -0.024874223428866329 0 -0.00057246608318422491 -0.024804074980368199 0 -0.00055608412347116318 -0.024886032924883384 0 -0.00059826063243070653 -0.024909364597563977 0 -0.00057557446306210518 -0.024874223428866329 0 -0.00053243209330255329 -0.024883763510055886 0 -0.00048384496088566025 -0.024932070500497935 0 -0.00053243209330255329 -0.024883763510055886 0 -0.00054948504714152576 -0.024866096222125964 0 -0.00057557446306210518 -0.024874223428866329 0 -0.00053243209330255329 -0.024883763510055886 0 -0.00054948504714152576 -0.024866096222125964 0 -0.00057557446306210518 -0.024874223428866329 0 -0.00054948504714152576 -0.024866096222125964 0 -0.00057246608318422491 -0.024804074980368199 0 -0.00090872383281453484 -0.02578523172120158 0 -0.0011230898658602089 -0.025569968073197089 0 -0.0006073853686074203 -0.02563323508753005 0 -0.00090872383281453484 -0.02578523172120158 0 -0.0012053904370058813 -0.025856944816242327 0 -0.0011230898658602089 -0.025569968073197089 0 -0.00090872383281453484 -0.02578523172120158 0 -0.0007292842504469212 -0.02584193848334812 0 -0.00096476014440252862 -0.02602327178002228 0 -0.00090872383281453484 -0.02578523172120158 0 -0.0012053904370058813 -0.025856944816242327 0 -0.00096476014440252862 -0.02602327178002228 0 -0.0015573267315951462 -0.025576973221434245 0 -0.0012053904370058813 -0.025856944816242327 0 -0.0011230898658602089 -0.025569968073197089 0 -0.0015573267315951462 -0.025576973221434245 0 -0.0012053904370058813 -0.025856944816242327 0 -0.0014731410333951181 -0.025991192002308136 0 -0.00045607946056865734 -0.030365860223227032 0 -0.00083232886900229625 -0.025627696014846629 0 -0.00027057420386179863 -0.025967827274681415 0 -0.00021374738817094913 -0.025915972124778079 0 -0.00023553656314231116 -0.025910809789120838 0 -0.00083232886900229625 -0.025627696014846629 0 -0.00058599861165527646 -0.02567309786278742 0 -0.00021374738817094913 -0.025915972124778079 0 -0.00027135464157467383 -0.025921667425762702 0 -0.00012348765449533833 -0.025910892433772242 0 -0.00021374738817094913 -0.025915972124778079 0 -0.00023553656314231116 -0.025910809789120838 0 -0.00027135464157467383 -0.025921667425762702 0 -0.00023553656314231116 -0.025910809789120838 0 -0.00027135464157467383 -0.025921667425762702 0 -0.0006073853686074203 -0.02563323508753005 0 -0.00025305567807163473 -0.02588840044086765 0 -0.00027335470801688824 -0.025758659173930734 0 -0.00027135464157467383 -0.025921667425762702 0 -0.00066786170853272875 -0.025572428943351676 0 -0.0006073853686074203 -0.02563323508753005 0 -5.4781639888019588e-05 -0.025870996720932925 0 -0.00012348765449533833 -0.025910892433772242 0 7.30568926282173e-05 -0.025949576176199484 0 -0.00027135464157467383 -0.025921667425762702 0 -0.00012348765449533833 -0.025910892433772242 0 7.30568926282173e-05 -0.025949576176199484 0 -0.00066786170853272875 -0.025572428943351676 0 -0.0006073853686074203 -0.02563323508753005 0 -0.00057571673516830448 -0.025671698131522341 0 -0.00025839633435978003 -0.025309836582527168 0 -0.00066786170853272875 -0.025572428943351676 0 -0.00044803323893632274 -0.025555861023502664 0 -3.9000823503124923e-05 -0.025531523728056102 0 -0.00027335470801688824 -0.025758659173930734 0 -0.00066786170853272875 -0.025572428943351676 0 -0.00044803323893632274 -0.025555861023502664 0 -0.00057571673516830448 -0.025671698131522341 0 -0.00040458147500774976 -0.025718452912844369 0 -0.00058990200598005684 -0.025905786084022091 0 -0.00042803251979968838 -0.025994383564827184 0 -0.00040458147500774976 -0.025718452912844369 0 -0.00057571673516830448 -0.025671698131522341 0 -0.00058990200598005684 -0.025905786084022091 0 -0.00044803323893632274 -0.025555861023502664 0 -0.00040458147500774976 -0.025718452912844369 0 -0.00057571673516830448 -0.025671698131522341 0 -0.0006073853686074203 -0.02563323508753005 0 -0.00057571673516830448 -0.025671698131522341 0 -0.0007292842504469212 -0.02584193848334812 0 -0.00090872383281453484 -0.02578523172120158 0 -0.0006073853686074203 -0.02563323508753005 0 -0.0007292842504469212 -0.02584193848334812 0 -0.00057571673516830448 -0.025671698131522341 0 -0.00058990200598005684 -0.025905786084022091 0 -0.0007292842504469212 -0.02584193848334812 0 -0.00058990200598005684 -0.025905786084022091 0 -0.0007292842504469212 -0.02584193848334812 0 -0.00077138380476052466 -0.026170880361901547 0 -0.00058990200598005684 -0.025905786084022091 0 -0.00077138380476052466 -0.026170880361901547 0 -0.00054639876187826905 -0.026147565402218839 0 -0.00027217863864775592 -0.02599067427103819 0 -0.00042803251979968838 -0.025994383564827184 0 -0.00032596134042077858 -0.026287638688972242 0 -0.00042803251979968838 -0.025994383564827184 0 -0.00054639876187826905 -0.026147565402218839 0 -0.00032596134042077858 -0.026287638688972242 0 -0.00027217863864775592 -0.02599067427103819 0 -0.00040458147500774976 -0.025718452912844369 0 -0.00042803251979968838 -0.025994383564827184 0 -0.00058990200598005684 -0.025905786084022091 0 -0.00042803251979968838 -0.025994383564827184 0 -0.00054639876187826905 -0.026147565402218839 0 -0.00032596134042077858 -0.026287638688972242 0 -0.00060919534458262858 -0.026437744030207214 0 -0.00033607350930223531 -0.026826924954581614 0 -0.00054639876187826905 -0.026147565402218839 0 -0.00032596134042077858 -0.026287638688972242 0 -0.00060919534458262858 -0.026437744030207214 0 -0.00077138380476052466 -0.026170880361901547 0 -0.00060919534458262858 -0.026437744030207214 0 -0.00085354591239196129 -0.026500804319095919 0 -0.00077138380476052466 -0.026170880361901547 0 -0.00054639876187826905 -0.026147565402218839 0 -0.00060919534458262858 -0.026437744030207214 0 -0.00060919534458262858 -0.026437744030207214 0 -0.00085354591239196129 -0.026500804319095919 0 -0.00075085295716956929 -0.026810552592840878 0 -0.0010450370409300941 -0.026363807766492019 0 -0.001325594390180151 -0.026558789613372401 0 -0.0010732528334252475 -0.026770398082555841 0 -0.00085354591239196129 -0.026500804319095919 0 -0.0010450370409300941 -0.026363807766492019 0 -0.0010732528334252475 -0.026770398082555841 0 -0.00077138380476052466 -0.026170880361901547 0 -0.00085354591239196129 -0.026500804319095919 0 -0.0010450370409300941 -0.026363807766492019 0 -0.0007292842504469212 -0.02584193848334812 0 -0.00077138380476052466 -0.026170880361901547 0 -0.00096476014440252862 -0.02602327178002228 0 -0.00077138380476052466 -0.026170880361901547 0 -0.0010450370409300941 -0.026363807766492019 0 -0.00096476014440252862 -0.02602327178002228 0 -0.0010450370409300941 -0.026363807766492019 0 -0.00096476014440252862 -0.02602327178002228 0 -0.0012744731469882789 -0.026192486600594721 0 -0.0012053904370058813 -0.025856944816242327 0 -0.00096476014440252862 -0.02602327178002228 0 -0.0012744731469882789 -0.026192486600594721 0 -0.0016379484148886551 -0.02635870983388218 0 -0.0014731410333951181 -0.025991192002308136 0 -0.0012744731469882789 -0.026192486600594721 0 -0.0012053904370058813 -0.025856944816242327 0 -0.0014731410333951181 -0.025991192002308136 0 -0.0012744731469882789 -0.026192486600594721 0 -0.0016379484148886551 -0.02635870983388218 0 -0.0012744731469882789 -0.026192486600594721 0 -0.001325594390180151 -0.026558789613372401 0 -0.0016379484148886551 -0.02635870983388218 0 -0.001325594390180151 -0.026558789613372401 0 -0.0016080485908986609 -0.026743648894070805 0 -0.0010450370409300941 -0.026363807766492019 0 -0.0012744731469882789 -0.026192486600594721 0 -0.001325594390180151 -0.026558789613372401 0 -0.001325594390180151 -0.026558789613372401 0 -0.001381292091552062 -0.026958728788077577 0 -0.0010732528334252475 -0.026770398082555841 0 -0.001381292091552062 -0.026958728788077577 0 -0.0012477906068013161 -0.027194205519300348 0 -0.0010732528334252475 -0.026770398082555841 0 -0.001325594390180151 -0.026558789613372401 0 -0.001381292091552062 -0.026958728788077577 0 -0.0016080485908986609 -0.026743648894070805 0 -0.001381292091552062 -0.026958728788077577 0 -0.0016080485908986609 -0.026743648894070805 0 -0.0016211950017004572 -0.027038278997124514 0 -0.001381292091552062 -0.026958728788077577 0 -0.0012477906068013161 -0.027194205519300348 0 -0.0015358477277021057 -0.027333473772002209 0 -0.001381292091552062 -0.026958728788077577 0 -0.0015358477277021057 -0.027333473772002209 0 -0.0016211950017004572 -0.027038278997124514 0 -0.0012477906068013161 -0.027194205519300348 0 -0.0015358477277021057 -0.027333473772002209 0 -0.0012809956981141664 -0.027589207867200132 0 -0.0012477906068013161 -0.027194205519300348 0 -0.00095338698552720452 -0.027288845163635885 0 -0.0010732528334252475 -0.026770398082555841 0 -0.0012477906068013161 -0.027194205519300348 0 -0.00095338698552720452 -0.027288845163635885 0 -0.0012809956981141664 -0.027589207867200132 0 -0.00095338698552720452 -0.027288845163635885 0 -0.0010732528334252475 -0.026770398082555841 0 -0.00075085295716956929 -0.026810552592840878 0 -0.00085354591239196129 -0.026500804319095919 0 -0.0010732528334252475 -0.026770398082555841 0 -0.00075085295716956929 -0.026810552592840878 0 -0.00060919534458262858 -0.026437744030207214 0 -0.00075085295716956929 -0.026810552592840878 0 -0.00033607350930223531 -0.026826924954581614 0 -0.00075085295716956929 -0.026810552592840878 0 -0.00033607350930223531 -0.026826924954581614 0 -0.000597959118435622 -0.027135553181622571 0 -0.00032596134042077858 -0.026287638688972242 0 -0.00033607350930223531 -0.026826924954581614 0 0.0001316968667596671 -0.026710751567755455 0 -0.00033607350930223531 -0.026826924954581614 0 -0.00028122753382730928 -0.027303427913431818 0 -0.000597959118435622 -0.027135553181622571 0 -0.00033607350930223531 -0.026826924954581614 0 -0.00028122753382730928 -0.027303427913431818 0 0.0001644962222210114 -0.02728811745434432 0 -0.00028122753382730928 -0.027303427913431818 0 -0.000597959118435622 -0.027135553181622571 0 -0.00060543180041929055 -0.027641293353132534 0 -0.00095338698552720452 -0.027288845163635885 0 -0.00075085295716956929 -0.026810552592840878 0 -0.000597959118435622 -0.027135553181622571 0 -0.00095338698552720452 -0.027288845163635885 0 -0.000597959118435622 -0.027135553181622571 0 -0.00060543180041929055 -0.027641293353132534 0 -0.00060543180041929055 -0.027641293353132534 0 -0.00021641111429465272 -0.028092235491583628 0 -6.5413795582665968e-05 -0.027664398154080058 0 -0.00028122753382730928 -0.027303427913431818 0 -0.00060543180041929055 -0.027641293353132534 0 -6.5413795582665968e-05 -0.027664398154080058 0 -0.00060543180041929055 -0.027641293353132534 0 -0.00021641111429465272 -0.028092235491583628 0 -0.00082535510742710698 -0.02811807390538178 0 -0.00082535510742710698 -0.02811807390538178 0 -0.0013725021265948109 -0.028178019184603938 0 -0.0014019253478971612 -0.027651287424537832 0 -0.0013725021265948109 -0.028178019184603938 0 -0.0014019253478971612 -0.027651287424537832 0 -0.0018613696156096471 -0.028027834518376225 0 -0.0015358477277021057 -0.027333473772002209 0 -0.0012809956981141664 -0.027589207867200132 0 -0.0016193928066097589 -0.027888546589852313 0 -0.0013305554339634893 -0.027507288422280066 0 -0.0012067539272596997 -0.029166899324570041 0 -0.00095338698552720452 -0.027288845163635885 0 -0.00060543180041929055 -0.027641293353132534 0 -0.0014019253478971612 -0.027651287424537832 0 -0.00060543180041929055 -0.027641293353132534 0 -0.00082535510742710698 -0.02811807390538178 0 -0.0014019253478971612 -0.027651287424537832 0 -0.0010016151251218044 -0.027344394348503966 0 -0.0013305554339634893 -0.027507288422280066 0 -0.00068663229302016473 -0.025460123131976781 0 -0.00075681433719408024 -0.025349034786410755 0 -0.00090605247461422202 -0.025448974167076255 0 -0.00068663229302016473 -0.025460123131976781 0 -0.00064605994643549881 -0.025271833599938398 0 -0.00053478418697073746 -0.025347192603706749 0 -0.00068663229302016473 -0.025460123131976781 0 -0.00075681433719408024 -0.025349034786410755 0 -0.00064605994643549881 -0.025271833599938398 0 -0.00075681433719408024 -0.025349034786410755 0 -0.00064605994643549881 -0.025271833599938398 0 -0.00072993974542637664 -0.025174454360963414 0 -0.00064605994643549881 -0.025271833599938398 0 -0.00063097063996426801 -0.025121870531998415 0 -0.00054478908929800004 -0.025185740628067287 0 -0.00064605994643549881 -0.025271833599938398 0 -0.00063097063996426801 -0.025121870531998415 0 -0.00072993974542637664 -0.025174454360963414 0 -0.00062101343920594148 -0.025004491617132137 0 -0.00055392078443429753 -0.025050140208591361 0 -0.00056615485871065784 -0.024964260799833795 0 -0.00063097063996426801 -0.025121870531998415 0 -0.00062101343920594148 -0.025004491617132137 0 -0.00067438056964848466 -0.025048760370461342 0 -0.00063097063996426801 -0.025121870531998415 0 -0.00062101343920594148 -0.025004491617132137 0 -0.00055392078443429753 -0.025050140208591361 0 -0.00067438056964848466 -0.025048760370461342 0 -0.00072993974542637664 -0.025174454360963414 0 -0.00070826103889246408 -0.025038662878308755 0 -0.00066669486120930202 -0.024969141421352616 0 -0.00062101343920594148 -0.025004491617132137 0 -0.00067438056964848466 -0.025048760370461342 0 -0.00066669486120930202 -0.024969141421352616 0 -0.00067438056964848466 -0.025048760370461342 0 -0.00070826103889246408 -0.025038662878308755 0 -0.00063097063996426801 -0.025121870531998415 0 -0.00067438056964848466 -0.025048760370461342 0 -0.00072993974542637664 -0.025174454360963414 0 -0.00018993103400859819 -0.025870389024365177 0 -8.9381075018357469e-05 -0.026254424552777465 0 -7.5564341349596291e-05 -0.026224849863349033 0 -7.8626044604215153e-05 -0.026275668273669464 0 -0.00011024805852500654 -0.026235537466092352 0 -0.00072993974542637664 -0.025174454360963414 0 -0.00076549295883640773 -0.024982588274295968 0 -0.00090605247461422202 -0.025448974167076255 0 -0.00016001207140929727 -0.025554213008546701 0 -0.00032069505543188252 -0.025525961844611214 0 -7.8626044604215153e-05 -0.026275668273669464 0 -0.00072993974542637664 -0.025174454360963414 0 -0.00070826103889246408 -0.025038662878308755 0 -0.00076549295883640773 -0.024982588274295968 0 -0.00066669486120930202 -0.024969141421352616 0 -0.00070826103889246408 -0.025038662878308755 0 -0.00076549295883640773 -0.024982588274295968 0 -0.00016001207140929727 -0.025554213008546701 0 -7.8626044604215153e-05 -0.026275668273669464 0 -5.0196303679294756e-05 -0.026381174203117412 0 -0.00055173028335372954 -0.025131662580821047 0 0.00011076171465708712 -0.026544822741862432 0 -0.00075681433719408024 -0.025349034786410755 0 -0.00072993974542637664 -0.025174454360963414 0 -0.00090605247461422202 -0.025448974167076255 0 -7.8626044604215153e-05 -0.026275668273669464 0 -0.00012440461738816549 -0.02623714147006987 0 -5.0196303679294756e-05 -0.026381174203117412 0 0.00025024559432107528 -0.026730925522289308 0 0.00011076171465708712 -0.026544822741862432 0 0.00050172103194007689 -0.027086208287075555 0 0.0001316968667596671 -0.026710751567755455 0 0.0001644962222210114 -0.02728811745434432 0 -7.8626044604215153e-05 -0.026275668273669464 0 -0.00012440461738816549 -0.02623714147006987 0 -0.00011024805852500654 -0.026235537466092352 0 0.00050172103194007689 -0.027086208287075555 0 0.00051047878571873983 -0.027428723700311432 0 0.00084473127250222677 -0.027432164785640905 0 0.00050172103194007689 -0.027086208287075555 0 0.0001644962222210114 -0.02728811745434432 0 0.00051047878571873983 -0.027428723700311432 0 -0.00010892229421930593 -0.026217064517541893 0 -0.00011024805852500654 -0.026235537466092352 0 -0.00017303617415485154 -0.026261139191654931 0 -0.00012440461738816549 -0.02623714147006987 0 -0.00011024805852500654 -0.026235537466092352 0 -0.00017303617415485154 -0.026261139191654931 0 -0.00010892229421930593 -0.026217064517541893 0 -7.5564341349596291e-05 -0.026224849863349033 0 -0.00011024805852500654 -0.026235537466092352 0 0.00025024559432107528 -0.026730925522289308 0 -5.1843117613369508e-05 -0.026466749711385906 0 -0.00033607350930223531 -0.026826924954581614 0 0.0001316968667596671 -0.026710751567755455 0 0.0001644962222210114 -0.02728811745434432 0 -0.00028122753382730928 -0.027303427913431818 0 0.0001644962222210114 -0.02728811745434432 0 -6.5413795582665968e-05 -0.027664398154080058 0 0.0001644962222210114 -0.02728811745434432 0 -6.5413795582665968e-05 -0.027664398154080058 0 0.00034147819482372013 -0.027674705488811766 0 -6.5413795582665968e-05 -0.027664398154080058 0 0.00018542680418499871 -0.027974846249507485 0 0.00034147819482372013 -0.027674705488811766 0 -0.00021641111429465272 -0.028092235491583628 0 -6.5413795582665968e-05 -0.027664398154080058 0 0.00018542680418499871 -0.027974846249507485 0 -0.00021641111429465272 -0.028092235491583628 0 0.00018542680418499871 -0.027974846249507485 0 0.00030315958483109474 -0.028438938167546553 0 0.00018542680418499871 -0.027974846249507485 0 0.00051142870990058121 -0.028035374091037669 0 0.00030315958483109474 -0.028438938167546553 0 0.00018542680418499871 -0.027974846249507485 0 0.00051142870990058121 -0.028035374091037669 0 0.00034147819482372013 -0.027674705488811766 0 0.00051142870990058121 -0.028035374091037669 0 0.00034147819482372013 -0.027674705488811766 0 0.00064374601206793297 -0.027709980909347735 0 0.0001644962222210114 -0.02728811745434432 0 0.00034147819482372013 -0.027674705488811766 0 0.00051047878571873983 -0.027428723700311432 0 0.00034147819482372013 -0.027674705488811766 0 0.00051047878571873983 -0.027428723700311432 0 0.00064374601206793297 -0.027709980909347735 0 0.00084473127250222677 -0.027432164785640905 0 0.00064374601206793297 -0.027709980909347735 0 0.00084918205788971513 -0.027820443213339013 0 0.00011076171465708712 -0.026544822741862432 0 0.00081090307107504632 -0.02798493353656846 0 0.00051047878571873983 -0.027428723700311432 0 0.00084473127250222677 -0.027432164785640905 0 0.00064374601206793297 -0.027709980909347735 0 0.00064374601206793297 -0.027709980909347735 0 0.00071643786281463885 -0.027970973294253267 0 0.00084918205788971513 -0.027820443213339013 0 0.00051142870990058121 -0.028035374091037669 0 0.00071643786281463885 -0.027970973294253267 0 0.00083623458806194716 -0.028159235045869768 0 0.00071643786281463885 -0.027970973294253267 0 0.00084918205788971513 -0.027820443213339013 0 0.00083623458806194716 -0.028159235045869768 0 0.00051142870990058121 -0.028035374091037669 0 0.00064374601206793297 -0.027709980909347735 0 0.00071643786281463885 -0.027970973294253267 0 0.00077839623366645597 -0.027832943399149063 0 0.00089740119763450808 -0.027959909035892738 0 0.00083623458806194716 -0.028159235045869768 0 0.00081090307107504632 -0.02798493353656846 0 0.00082898654277274665 -0.028061188887895681 0 0.00089740119763450808 -0.027959909035892738 0 0.0010135501030221071 -0.027989044529281734 0 0.0011081379128761836 -0.027834136682349353 0 0.00077839623366645597 -0.027832943399149063 0 0.00089740119763450808 -0.027959909035892738 0 0.0011081379128761836 -0.027834136682349353 0 0.0010135501030221071 -0.027989044529281734 0 0.00095261815503459954 -0.028081937341426708 0 0.0010937399676417571 -0.028077874264926736 0 0.00089740119763450808 -0.027959909035892738 0 0.00095261815503459954 -0.028081937341426708 0 0.00083623458806194716 -0.028159235045869768 0 0.00089740119763450808 -0.027959909035892738 0 0.0010135501030221071 -0.027989044529281734 0 0.00095261815503459954 -0.028081937341426708 0 0.0010135501030221071 -0.027989044529281734 0 0.0010937399676417571 -0.028077874264926736 0 0.0011081379128761836 -0.027834136682349353 0 0.00011076171465708712 -0.026544822741862432 0 0.00019478462503007464 -0.026812151761949302 0 -0.00068663229302016473 -0.025460123131976781 0 -0.00072695041706426742 -0.025776814706783654 0 -0.0005379429103050899 -0.025589746435495976 0 0.00074841837575652674 -0.027490987901902474 0 0.00077839623366645597 -0.027832943399149063 0 0.0011081379128761836 -0.027834136682349353 0 -0.00068663229302016473 -0.025460123131976781 0 -0.00090605247461422202 -0.025448974167076255 0 -0.00072695041706426742 -0.025776814706783654 0 -0.00056028367481828444 -0.027504071291129539 0 -0.00039073502842117515 -0.027023699468135983 0 -0.00032576560496010582 -0.027494957529841837 0 -0.00056028367481828444 -0.027504071291129539 0 -0.0006225683822885218 -0.02800426170357086 0 -0.00032576560496010582 -0.027494957529841837 0 -0.00049947971232434116 -0.027188853962496519 0 -0.00062329617986791837 -0.027316559785271064 0 -0.0002397419315099174 -0.026431307140121311 0 -0.00056028367481828444 -0.027504071291129539 0 -0.00039073502842117515 -0.027023699468135983 0 -0.00049947971232434116 -0.027188853962496519 0 0.0010937399676417571 -0.028077874264926736 0 0.00088228160920855335 -0.028230279236631382 0 0.0013668514701986219 -0.02807755086396262 0 0.00022534126038964837 -0.027775086071086443 0 0.00029478117813798893 -0.02714762627671927 0 0.00095261815503459954 -0.028081937341426708 0 0.0010937399676417571 -0.028077874264926736 0 0.00088228160920855335 -0.028230279236631382 0 -0.00056028367481828444 -0.027504071291129539 0 -0.00049947971232434116 -0.027188853962496519 0 -0.00062329617986791837 -0.027316559785271064 0 -0.00062329617986791837 -0.027316559785271064 0 -0.00069336504049548233 -0.027822207790797426 0 -0.00082735881123254212 -0.028102900776485053 0 -0.00056028367481828444 -0.027504071291129539 0 -0.00062329617986791837 -0.027316559785271064 0 -0.00069336504049548233 -0.027822207790797426 0 0.00022534126038964837 -0.027775086071086443 0 -0.00024926261157994119 -0.028260145030744498 0 0.00088228160920855335 -0.028230279236631382 0 0.00083623458806194716 -0.028159235045869768 0 0.00030315958483109474 -0.028438938167546553 0 0.00095261815503459954 -0.028081937341426708 0 0.00088228160920855335 -0.028230279236631382 0 0.00083623458806194716 -0.028159235045869768 0 -0.00069336504049548233 -0.027822207790797426 0 -0.00074267016720263354 -0.028208754316446344 0 -0.0006225683822885218 -0.02800426170357086 0 -0.00056028367481828444 -0.027504071291129539 0 -0.00069336504049548233 -0.027822207790797426 0 -0.0006225683822885218 -0.02800426170357086 0 -0.00082735881123254212 -0.028102900776485053 0 -0.00080732405539083753 -0.028497480209299108 0 -0.00074267016720263354 -0.028208754316446344 0 -0.00069336504049548233 -0.027822207790797426 0 -0.00082735881123254212 -0.028102900776485053 0 -0.00074267016720263354 -0.028208754316446344 0 0.00051142870990058121 -0.028035374091037669 0 0.00083623458806194716 -0.028159235045869768 0 0.00030315958483109474 -0.028438938167546553 0 -0.00021641111429465272 -0.028092235491583628 0 0.00030315958483109474 -0.028438938167546553 0 -0.00036256549479642879 -0.028672352580789186 0 -0.00024926261157994119 -0.028260145030744498 0 -0.00058537864774607759 -0.028672188578897684 0 -0.00082735881123254212 -0.028102900776485053 0 -0.00080732405539083753 -0.028497480209299108 0 -0.00081728644650040975 -0.028684281365796791 0 -0.00080732405539083753 -0.028497480209299108 0 -0.00079757840480465297 -0.028716984716301925 0 -0.00082641973795513776 -0.028911991046792027 0 -0.00079757840480465297 -0.028716984716301925 0 -0.00079933442732186936 -0.028834807513612188 0 -0.00070967913717301801 -0.028646953401883873 0 -0.00079757840480465297 -0.028716984716301925 0 -0.00084600716277899587 -0.029018517146962304 0 -0.00079933442732186936 -0.028834807513612188 0 -0.00079757840480465297 -0.028716984716301925 0 -0.00073691602547683516 -0.028487154424714362 0 -0.00070967913717301801 -0.028646953401883873 0 -0.00073691602547683516 -0.028487154424714362 0 -0.00060336878401958478 -0.028491574546217206 0 -0.00070967913717301801 -0.028646953401883873 0 -0.00080732405539083753 -0.028497480209299108 0 -0.00079757840480465297 -0.028716984716301925 0 -0.00073691602547683516 -0.028487154424714362 0 -0.00080732405539083753 -0.028497480209299108 0 -0.00073691602547683516 -0.028487154424714362 0 -0.00074267016720263354 -0.028208754316446344 0 -0.00073691602547683516 -0.028487154424714362 0 -0.00074267016720263354 -0.028208754316446344 0 -0.0006225683822885218 -0.02800426170357086 0 -0.00073691602547683516 -0.028487154424714362 0 -0.0006225683822885218 -0.02800426170357086 0 -0.00060336878401958478 -0.028491574546217206 0 -0.00060336878401958478 -0.028491574546217206 0 -0.00018634675743131992 -0.028141589217867521 0 -0.00050550620403903921 -0.028569032928150506 0 -0.0006225683822885218 -0.02800426170357086 0 -0.00060336878401958478 -0.028491574546217206 0 -0.00018634675743131992 -0.028141589217867521 0 -0.0006225683822885218 -0.02800426170357086 0 -0.00018634675743131992 -0.028141589217867521 0 -0.00032576560496010582 -0.027494957529841837 0 -0.0010767086550633226 -0.028983271651667999 0 -0.0014532041933640661 -0.028713067807073459 0 -0.00090306272747348569 -0.029557379494468003 0 -0.00098299999556957689 -0.029603102183840421 0 -0.00092107449067478967 -0.029566039309834358 0 -0.0010767086550633226 -0.028983271651667999 0 -0.0014532041933640661 -0.028713067807073459 0 -0.00099969212097460484 -0.028533175650237812 0 -0.00042663406815218811 -0.030337322484609398 0 -0.00056962236374969669 -0.030454584732747626 0 -0.0003820354380878302 -0.030437438165507154 0 -0.00042663406815218811 -0.030337322484609398 0 -0.00056962236374969669 -0.030454584732747626 0 -0.00047777240726528552 -0.03011007025817029 0 -0.00056962236374969669 -0.030454584732747626 0 -0.00090306272747348569 -0.029557379494468003 0 -0.00047777240726528552 -0.03011007025817029 0 -0.00042663406815218811 -0.030337322484609398 0 -0.00047777240726528552 -0.03011007025817029 0 -0.00038941032777148712 -0.030274828370835623 0 -0.00098299999556957689 -0.029603102183840421 0 -0.0012067539272596997 -0.029166899324570041 0 -0.00056962236374969669 -0.030454584732747626 0 -0.0003820354380878302 -0.030437438165507154 0 -0.00040994601309048481 -0.03056452787157438 0 -0.0013725021265948109 -0.028178019184603938 0 -0.0014532041933640661 -0.028713067807073459 0 -0.0018613696156096471 -0.028027834518376225 0 -0.0013725021265948109 -0.028178019184603938 0 -0.0014532041933640661 -0.028713067807073459 0 -0.00099969212097460484 -0.028533175650237812 0 -0.00082535510742710698 -0.02811807390538178 0 -0.0013725021265948109 -0.028178019184603938 0 -0.00099969212097460484 -0.028533175650237812 0 -0.00082535510742710698 -0.02811807390538178 0 -0.00099969212097460484 -0.028533175650237812 0 -0.00036256549479642879 -0.028672352580789186 0 -0.00021641111429465272 -0.028092235491583628 0 -0.00082535510742710698 -0.02811807390538178 0 -0.00036256549479642879 -0.028672352580789186 0 -0.00080732405539083753 -0.028497480209299108 0 -0.00081728644650040975 -0.028684281365796791 0 -0.00082641973795513776 -0.028911991046792027 0 -0.0010576090691884693 -0.02895011260240268 0 -0.00058537864774607759 -0.028672188578897684 0 -0.0010767086550633226 -0.028983271651667999 0 -0.00099969212097460484 -0.028533175650237812 0 -0.00036256549479642879 -0.028672352580789186 0 -0.0010767086550633226 -0.028983271651667999 0 -0.00081728644650040975 -0.028684281365796791 0 -0.0008314297395722414 -0.029138724114533301 0 -0.0008314297395722414 -0.029138724114533301 0 -0.00082641973795513776 -0.028911991046792027 0 -0.00084426944992522417 -0.029384179199558085 0 -0.0008314297395722414 -0.029138724114533301 0 -0.00084426944992522417 -0.029384179199558085 0 -0.00090306272747348569 -0.029557379494468003 0 -0.00081728644650040975 -0.028684281365796791 0 -0.0008314297395722414 -0.029138724114533301 0 -0.00082641973795513776 -0.028911991046792027 0 -0.00082641973795513776 -0.028911991046792027 0 -0.00084600716277899587 -0.029018517146962304 0 -0.00084426944992522417 -0.029384179199558085 0 -0.00079757840480465297 -0.028716984716301925 0 -0.00082641973795513776 -0.028911991046792027 0 -0.00084600716277899587 -0.029018517146962304 0 -0.00084426944992522417 -0.029384179199558085 0 -0.00076906593132214482 -0.02946399845905864 0 -0.00085272892385240622 -0.029240690758929797 0 -0.00084600716277899587 -0.029018517146962304 0 -0.00084426944992522417 -0.029384179199558085 0 -0.00085272892385240622 -0.029240690758929797 0 -0.00084426944992522417 -0.029384179199558085 0 -0.00068642549238591844 -0.02965088822776743 0 -0.00076906593132214482 -0.02946399845905864 0 -0.00084426944992522417 -0.029384179199558085 0 -0.00068642549238591844 -0.02965088822776743 0 -0.00067083254956683291 -0.029755104098780627 0 -0.00068642549238591844 -0.02965088822776743 0 -0.00067083254956683291 -0.029755104098780627 0 -0.00050871934075352027 -0.02989892714397261 0 -0.00068642549238591844 -0.02965088822776743 0 -0.00050871934075352027 -0.02989892714397261 0 -0.00059846616106421521 -0.029740874385796753 0 -0.0010767086550633226 -0.028983271651667999 0 -0.0008314297395722414 -0.029138724114533301 0 -0.00090306272747348569 -0.029557379494468003 0 -0.00084426944992522417 -0.029384179199558085 0 -0.00067083254956683291 -0.029755104098780627 0 -0.00090306272747348569 -0.029557379494468003 0 -0.00067083254956683291 -0.029755104098780627 0 -0.00090306272747348569 -0.029557379494468003 0 -0.00057815103874839669 -0.029900290599763991 0 -0.00090306272747348569 -0.029557379494468003 0 -0.00047777240726528552 -0.03011007025817029 0 -0.00057815103874839669 -0.029900290599763991 0 -0.00047777240726528552 -0.03011007025817029 0 -0.00042319270108303724 -0.03011859885478043 0 -0.00037846277433032152 -0.030244066286507672 0 -0.00057815103874839669 -0.029900290599763991 0 -0.00042319270108303724 -0.03011859885478043 0 -0.00047684686653618846 -0.029993626949150011 0 -0.00047777240726528552 -0.03011007025817029 0 -0.00057815103874839669 -0.029900290599763991 0 -0.00042319270108303724 -0.03011859885478043 0 -0.00042319270108303724 -0.03011859885478043 0 -0.00047684686653618846 -0.029993626949150011 0 -0.00037793493823711882 -0.030225329090151968 0 -0.00067083254956683291 -0.029755104098780627 0 -0.00047684686653618846 -0.029993626949150011 0 -0.00050871934075352027 -0.02989892714397261 0 -0.00067083254956683291 -0.029755104098780627 0 -0.00057815103874839669 -0.029900290599763991 0 -0.00047684686653618846 -0.029993626949150011 0 -0.00050871934075352027 -0.02989892714397261 0 -0.00040184777111120044 -0.030087693542782557 0 -0.00033031487840122828 -0.030096971406238866 0 -0.00047684686653618846 -0.029993626949150011 0 -0.00050871934075352027 -0.02989892714397261 0 -0.00040184777111120044 -0.030087693542782557 0 -0.00040184777111120044 -0.030087693542782557 0 -0.00037793493823711882 -0.030225329090151968 0 -0.00035903469008133793 -0.030283147677901499 0 -0.00047684686653618846 -0.029993626949150011 0 -0.00040184777111120044 -0.030087693542782557 0 -0.00037793493823711882 -0.030225329090151968 0 -0.00037793493823711882 -0.030225329090151968 0 -0.00036543385795149015 -0.030482380422472029 0 -0.00035903469008133793 -0.030283147677901499 0 -0.00035700073165755106 -0.030448758960411288 0 -0.00036543385795149015 -0.030482380422472029 0 -0.00036806512296568884 -0.030690833318059402 0 -0.00035700073165755106 -0.030448758960411288 0 -0.00037793493823711882 -0.030225329090151968 0 -0.00036543385795149015 -0.030482380422472029 0 -0.00035700073165755106 -0.030448758960411288 0 -0.00037793493823711882 -0.030225329090151968 0 -0.00036255437483215404 -0.030296094860595053 0 -0.00035700073165755106 -0.030448758960411288 0 -0.00034698121747590654 -0.030458299613707152 0 -0.00036255437483215404 -0.030296094860595053 0 -0.00042319270108303724 -0.03011859885478043 0 -0.00037793493823711882 -0.030225329090151968 0 -0.00036255437483215404 -0.030296094860595053 0 -0.00036390349134376727 -0.03064270697865179 0 -0.00037833508403525482 -0.030732318927031828 0 -0.00039179366011509711 -0.030905114607788824 0 -0.00036390349134376727 -0.03064270697865179 0 -0.00039179366011509711 -0.030905114607788824 0 -0.00036806512296568884 -0.030690833318059402 0 -0.00035700073165755106 -0.030448758960411288 0 -0.00036390349134376727 -0.03064270697865179 0 -0.00036806512296568884 -0.030690833318059402 0 -0.00035700073165755106 -0.030448758960411288 0 -0.00036390349134376727 -0.03064270697865179 0 -0.00034698121747590654 -0.030458299613707152 0 -0.00036390349134376727 -0.03064270697865179 0 -0.0003594990010337293 -0.030598003441749348 0 -0.00037833508403525482 -0.030732318927031828 0 -0.00036390349134376727 -0.03064270697865179 0 -0.0003594990010337293 -0.030598003441749348 0 -0.00034698121747590654 -0.030458299613707152 0 -0.0003594990010337293 -0.030598003441749348 0 -0.00033976234907452836 -0.030461295592152951 0 -0.00034833835648696057 -0.030516734928999499 0 -0.0003594990010337293 -0.030598003441749348 0 -0.00034698121747590654 -0.030458299613707152 0 -0.00033976234907452836 -0.030461295592152951 0 -0.00034698121747590654 -0.030458299613707152 0 -0.00033976234907452836 -0.030461295592152951 0 -0.00034433764775110471 -0.030375014140115307 0 -0.00033702871520715317 -0.030399907468968826 0 -0.00033976234907452836 -0.030461295592152951 0 -0.00034433764775110471 -0.030375014140115307 0 -0.00033702871520715317 -0.030399907468968826 0 -0.00033425826587638404 -0.030437767976339895 0 -0.00033976234907452836 -0.030461295592152951 0 -0.00033425826587638404 -0.030437767976339895 0 -0.00033976234907452836 -0.030461295592152951 0 -0.00034833835648696057 -0.030516734928999499 0 -0.00033425826587638404 -0.030437767976339895 0 -0.00034833835648696057 -0.030516734928999499 0 -0.00035228133741030697 -0.030475485389239214 0 -0.0003594990010337293 -0.030598003441749348 0 -0.00034833835648696057 -0.030516734928999499 0 -0.00038443294223370695 -0.030598725654205457 0 -0.00034833835648696057 -0.030516734928999499 0 -0.00035228133741030697 -0.030475485389239214 0 -0.00038443294223370695 -0.030598725654205457 0 -0.00042319270108303724 -0.03011859885478043 0 -0.00036255437483215404 -0.030296094860595053 0 -0.00037846277433032152 -0.030244066286507672 0 -0.00036255437483215404 -0.030296094860595053 0 -0.00034433764775110471 -0.030375014140115307 0 -0.00037846277433032152 -0.030244066286507672 0 -0.00034698121747590654 -0.030458299613707152 0 -0.00036255437483215404 -0.030296094860595053 0 -0.00034433764775110471 -0.030375014140115307 0 -0.00034433764775110471 -0.030375014140115307 0 -0.00035236906506295464 -0.030329383561418875 0 -0.00037846277433032152 -0.030244066286507672 0 -0.00033702871520715317 -0.030399907468968826 0 -0.00034433764775110471 -0.030375014140115307 0 -0.00035236906506295464 -0.030329383561418875 0 -0.00033702871520715317 -0.030399907468968826 0 -0.00035236906506295464 -0.030329383561418875 0 -0.00033636666415830485 -0.030394890391156861 0 -0.00047777240726528552 -0.03011007025817029 0 -0.00037846277433032152 -0.030244066286507672 0 -0.00038941032777148712 -0.030274828370835623 0 -0.00035236906506295464 -0.030329383561418875 0 -0.00037846277433032152 -0.030244066286507672 0 -0.00038941032777148712 -0.030274828370835623 0 -0.00042663406815218811 -0.030337322484609398 0 -0.00038941032777148712 -0.030274828370835623 0 -0.00036547878354215859 -0.030371120208418739 0 -0.00035236906506295464 -0.030329383561418875 0 -0.00038941032777148712 -0.030274828370835623 0 -0.00036547878354215859 -0.030371120208418739 0 -0.00042663406815218811 -0.030337322484609398 0 -0.00036547878354215859 -0.030371120208418739 0 -0.0003820354380878302 -0.030437438165507154 0 -0.00036547878354215859 -0.030371120208418739 0 -0.00032981610471900856 -0.03041668976496166 0 -0.0003820354380878302 -0.030437438165507154 0 -0.00036547878354215859 -0.030371120208418739 0 -0.00033636666415830485 -0.030394890391156861 0 -0.00032981610471900856 -0.03041668976496166 0 -0.00035236906506295464 -0.030329383561418875 0 -0.00036547878354215859 -0.030371120208418739 0 -0.00033636666415830485 -0.030394890391156861 0 -0.00026679279623494393 -0.030173361104327383 0 -0.00071353631409020618 -0.031108782447032867 0 -0.00033425826587638404 -0.030437767976339895 0 -0.00035228133741030697 -0.030475485389239214 0 -0.00032981610471900856 -0.03041668976496166 0 -0.00035228133741030697 -0.030475485389239214 0 -0.00032981610471900856 -0.03041668976496166 0 -0.00031343555108334599 -0.030440041612798799 0 -0.00033425826587638404 -0.030437767976339895 0 -0.00033636666415830485 -0.030394890391156861 0 -0.00032981610471900856 -0.03041668976496166 0 -0.00033702871520715317 -0.030399907468968826 0 -0.00033425826587638404 -0.030437767976339895 0 -0.00033636666415830485 -0.030394890391156861 0 -0.00076497683401607322 -0.032749449720326958 0 -0.00059026177312386204 -0.032801576959238903 0 -0.0008256406049149958 -0.033065848810663975 0 -0.00032981610471900856 -0.03041668976496166 0 -0.00031343555108334599 -0.030440041612798799 0 -0.0003820354380878302 -0.030437438165507154 0 -0.00071353631409020618 -0.031108782447032867 0 -0.0012067539272596997 -0.029166899324570041 0 -0.00031343555108334599 -0.030440041612798799 0 -0.0003820354380878302 -0.030437438165507154 0 -0.00040994601309048481 -0.03056452787157438 0 -0.00042398994603792074 -0.032731905337838589 0 -0.0003035134791195975 -0.032713347388914293 0 -0.00032469306765605147 -0.032852599775918818 0 -0.0003035134791195975 -0.032713347388914293 0 -0.00012989369119401751 -0.032690820120620856 0 -0.00019776171642504363 -0.032837040739899598 0 -0.0003035134791195975 -0.032713347388914293 0 -0.00032469306765605147 -0.032852599775918818 0 -0.00019776171642504363 -0.032837040739899598 0 -0.00032469306765605147 -0.032852599775918818 0 -0.00019776171642504363 -0.032837040739899598 0 -0.00023002995972399497 -0.032942605491209732 0 -0.00042398994603792074 -0.032731905337838589 0 -0.00032469306765605147 -0.032852599775918818 0 -0.0004964809515955453 -0.032966095140096949 0 -0.00042398994603792074 -0.032731905337838589 0 -0.00059026177312386204 -0.032801576959238903 0 -0.0004964809515955453 -0.032966095140096949 0 -0.00042398994603792074 -0.032731905337838589 0 -0.00059026177312386204 -0.032801576959238903 0 -0.00044249120753874768 -0.03248842241803656 0 -0.00076497683401607322 -0.032749449720326958 0 -0.00059026177312386204 -0.032801576959238903 0 -0.00044249120753874768 -0.03248842241803656 0 -0.00035228133741030697 -0.030475485389239214 0 -0.00032006086430544579 -0.030276460036329358 0 -0.00055703385704350243 -0.030460412978818997 0 -0.00071353631409020618 -0.031108782447032867 0 -0.00044051866545260387 -0.032324495799367046 0 -0.00044051866545260387 -0.032324495799367046 0 -0.0002654122014808205 -0.034022132003990568 0 -0.00066677132688790989 -0.034903955802303703 0 -0.00055618570793557079 -0.034919232150084342 0 -0.00051448043074649066 -0.03502384973388048 0 -0.0003035134791195975 -0.032713347388914293 0 -0.00044249120753874768 -0.03248842241803656 0 -0.00012989369119401751 -0.032690820120620856 0 -0.00042398994603792074 -0.032731905337838589 0 -0.0003035134791195975 -0.032713347388914293 0 -0.00044249120753874768 -0.03248842241803656 0 -0.00066677132688790989 -0.034903955802303703 0 -0.0005475233038938728 -0.034791889710456249 0 -0.00055618570793557079 -0.034919232150084342 0 -0.00045884706834299453 -0.030803068086151169 0 -0.00043936303419959353 -0.03099258426228987 0 -0.0006414245199479543 -0.031023861735634727 0 -0.00046928687384078561 -0.03064682254831929 0 -0.00045884706834299453 -0.030803068086151169 0 -0.0006414245199479543 -0.031023861735634727 0 -0.00044051866545260387 -0.032324495799367046 0 -0.0006350036349741699 -0.032987276533123812 0 -0.00035228133741030697 -0.030475485389239214 0 -0.00055703385704350243 -0.030460412978818997 0 -0.00038443294223370695 -0.030598725654205457 0 -0.00044051866545260387 -0.032324495799367046 0 -0.00068613061654893774 -0.030424431164675421 0 -0.00046928687384078561 -0.03064682254831929 0 -0.00045884706834299453 -0.030803068086151169 0 -0.00038443294223370695 -0.030598725654205457 0 -0.00045884706834299453 -0.030803068086151169 0 -0.00038443294223370695 -0.030598725654205457 0 -0.00040794371905987736 -0.030773686381637279 0 -0.0003594990010337293 -0.030598003441749348 0 -0.00038443294223370695 -0.030598725654205457 0 -0.00040794371905987736 -0.030773686381637279 0 -0.00039179366011509711 -0.030905114607788824 0 -0.00043936303419959353 -0.03099258426228987 0 -0.0004259024822201607 -0.031263592977166445 0 -0.00040794371905987736 -0.030773686381637279 0 -0.00037833508403525482 -0.030732318927031828 0 -0.00039179366011509711 -0.030905114607788824 0 -0.0003594990010337293 -0.030598003441749348 0 -0.00040794371905987736 -0.030773686381637279 0 -0.00037833508403525482 -0.030732318927031828 0 -0.00040794371905987736 -0.030773686381637279 0 -0.00039179366011509711 -0.030905114607788824 0 -0.00043936303419959353 -0.03099258426228987 0 -0.00045884706834299453 -0.030803068086151169 0 -0.00040794371905987736 -0.030773686381637279 0 -0.00043936303419959353 -0.03099258426228987 0 -0.00043936303419959353 -0.03099258426228987 0 -0.0006414245199479543 -0.031023861735634727 0 -0.00052903170261307168 -0.031568535430349945 0 -0.00081192216786914748 -0.031746757678760174 0 -0.0006414245199479543 -0.031023861735634727 0 -0.00052903170261307168 -0.031568535430349945 0 -0.00060054954473793068 -0.034655877279684097 0 -0.0005475233038938728 -0.034791889710456249 0 -0.00033056064887209151 -0.034960764664588709 0 -0.0006138170806581901 -0.033154685178639988 0 -0.0006350036349741699 -0.032987276533123812 0 -0.0005475233038938728 -0.034791889710456249 0 -0.00046448730382154754 -0.034941471097306394 0 -0.00033056064887209151 -0.034960764664588709 0 -0.0005475233038938728 -0.034791889710456249 0 -0.00055618570793557079 -0.034919232150084342 0 -0.00046448730382154754 -0.034941471097306394 0 -0.00060054954473793068 -0.034655877279684097 0 -0.00022660731147654804 -0.034885802148470112 0 -0.00033056064887209151 -0.034960764664588709 0 2.2899377991674703e-07 -0.03499911989808252 0 -0.00022660731147654804 -0.034885802148470112 0 -0.00014712659979622861 -0.034972020999450577 0 2.2899377991674703e-07 -0.03499911989808252 0 -0.00022660731147654804 -0.034885802148470112 0 9.6481051511765624e-05 -0.034580327700508187 0 -0.00022660731147654804 -0.034885802148470112 0 -0.00014712659979622861 -0.034972020999450577 0 -0.00033056064887209151 -0.034960764664588709 0 2.2899377991674703e-07 -0.03499911989808252 0 -0.00014712659979622861 -0.034972020999450577 0 -2.0016014953853163e-07 -0.035000213999814428 0 -0.00014712659979622861 -0.034972020999450577 0 -2.0016014953853163e-07 -0.035000213999814428 0 -0.00015011673865223559 -0.035014558638759519 0 -2.0016014953853163e-07 -0.035000213999814428 0 -0.00015011673865223559 -0.035014558638759519 0 -5.5435536318468687e-05 -0.035020708591575474 0 -0.00014712659979622861 -0.034972020999450577 0 -0.00015011673865223559 -0.035014558638759519 0 -0.00033056064887209151 -0.034960764664588709 0 -0.00015011673865223559 -0.035014558638759519 0 -0.00033056064887209151 -0.034960764664588709 0 -0.00026787937927614836 -0.035025712277843311 0 -0.00018350632021691871 -0.035051052890684324 0 -0.00030116234552597323 -0.035099103069086812 0 -9.8744112564908826e-05 -0.03506809912856218 0 -0.00015011673865223559 -0.035014558638759519 0 -0.00018350632021691871 -0.035051052890684324 0 -0.00026787937927614836 -0.035025712277843311 0 -0.00018350632021691871 -0.035051052890684324 0 -0.00011240452578508175 -0.035042514747608007 0 -9.8744112564908826e-05 -0.03506809912856218 0 -0.00015011673865223559 -0.035014558638759519 0 -0.00011240452578508175 -0.035042514747608007 0 -5.5435536318468687e-05 -0.035020708591575474 0 -0.00015011673865223559 -0.035014558638759519 0 -0.00018350632021691871 -0.035051052890684324 0 -0.00011240452578508175 -0.035042514747608007 0 -2.0016014953853163e-07 -0.035000213999814428 0 -5.5435536318468687e-05 -0.035020708591575474 0 -4.4608899311597134e-08 -0.035000062518715333 0 -0.00011240452578508175 -0.035042514747608007 0 -5.5435536318468687e-05 -0.035020708591575474 0 -4.4031092696025232e-05 -0.035031139583129665 0 -0.00046448730382154754 -0.034941471097306394 0 -0.00037485514465299894 -0.03500420363386169 0 -0.00051448043074649066 -0.03502384973388048 0 -0.00055618570793557079 -0.034919232150084342 0 -0.00046448730382154754 -0.034941471097306394 0 -0.00051448043074649066 -0.03502384973388048 0 -0.00046448730382154754 -0.034941471097306394 0 -0.00033056064887209151 -0.034960764664588709 0 -0.00037485514465299894 -0.03500420363386169 0 -0.00033056064887209151 -0.034960764664588709 0 -0.00037485514465299894 -0.03500420363386169 0 -0.00026787937927614836 -0.035025712277843311 0 -0.00037485514465299894 -0.03500420363386169 0 -0.00030116234552597323 -0.035099103069086812 0 -0.00051448043074649066 -0.03502384973388048 0 -0.00037485514465299894 -0.03500420363386169 0 -0.00026787937927614836 -0.035025712277843311 0 -0.00030116234552597323 -0.035099103069086812 0 -0.00018350632021691871 -0.035051052890684324 0 -0.00026787937927614836 -0.035025712277843311 0 -0.00030116234552597323 -0.035099103069086812 0 -2.0498461801807514e-05 -0.033982113621180768 0 -0.0002654122014808205 -0.034022132003990568 0 0.00025249469143632288 -0.032964323689190785 0 -0.00019776171642504363 -0.032837040739899598 0 0.00010362760774590692 -0.033132471756012492 0 0.00025249469143632288 -0.032964323689190785 0 -0.00012989369119401751 -0.032690820120620856 0 -0.00019776171642504363 -0.032837040739899598 0 -0.00019776171642504363 -0.032837040739899598 0 -0.00011538541710331048 -0.033001555245865781 0 -0.00023002995972399497 -0.032942605491209732 0 -0.00019776171642504363 -0.032837040739899598 0 -0.00011538541710331048 -0.033001555245865781 0 4.6210357188506677e-05 -0.033022842354866251 0 -0.00011538541710331048 -0.033001555245865781 0 -0.00020565717211359468 -0.033067381748613504 0 -0.00023002995972399497 -0.032942605491209732 0 -0.0001740949214434601 -0.032860950178669822 0 7.5863579667777729e-05 -0.03308069924798205 0 -0.00020565717211359468 -0.033067381748613504 0 -7.0823241847626733e-05 -0.033142093897145737 0 -0.00021211762171397886 -0.033218939246104723 0 -0.00011538541710331048 -0.033001555245865781 0 -0.00020565717211359468 -0.033067381748613504 0 -7.0823241847626733e-05 -0.033142093897145737 0 -7.0823241847626733e-05 -0.033142093897145737 0 4.6210357188506677e-05 -0.033022842354866251 0 7.3363884863744149e-05 -0.033220138981304499 0 -0.00011538541710331048 -0.033001555245865781 0 -7.0823241847626733e-05 -0.033142093897145737 0 4.6210357188506677e-05 -0.033022842354866251 0 7.5863579667777729e-05 -0.03308069924798205 0 0.00036554901467166 -0.033287284787014704 0 0.00010362760774590692 -0.033132471756012492 0 0.000320429900176913 -0.033197425173332962 0 0.00043015645784038621 -0.033431278734664956 0 0.00025249469143632288 -0.032964323689190785 0 0.00010362760774590692 -0.033132471756012492 0 0.000320429900176913 -0.033197425173332962 0 4.6210357188506677e-05 -0.033022842354866251 0 7.3363884863744149e-05 -0.033220138981304499 0 0.00029727219437033283 -0.033234076428235899 0 0.00025249469143632288 -0.032964323689190785 0 0.000320429900176913 -0.033197425173332962 0 0.00045346825492914691 -0.033248817293434187 0 0.000320429900176913 -0.033197425173332962 0 0.00045346825492914691 -0.033248817293434187 0 0.00043015645784038621 -0.033431278734664956 0 0.00012894172270003188 -0.033404817482312416 0 0.00029727219437033283 -0.033234076428235899 0 0.00028788668131518336 -0.033515614183391232 0 7.3363884863744149e-05 -0.033220138981304499 0 0.00012894172270003188 -0.033404817482312416 0 0.00029727219437033283 -0.033234076428235899 0 7.3363884863744149e-05 -0.033220138981304499 0 0.00012894172270003188 -0.033404817482312416 0 -5.0983494518677103e-05 -0.033337604606501509 0 -5.0983494518677103e-05 -0.033337604606501509 0 -0.00021211762171397886 -0.033218939246104723 0 -0.00021566883756715769 -0.03338041978599475 0 -7.0823241847626733e-05 -0.033142093897145737 0 -5.0983494518677103e-05 -0.033337604606501509 0 -0.00021211762171397886 -0.033218939246104723 0 -7.0823241847626733e-05 -0.033142093897145737 0 7.3363884863744149e-05 -0.033220138981304499 0 -5.0983494518677103e-05 -0.033337604606501509 0 -4.4608899311597134e-08 -0.035000062518715333 0 -4.4031092696025232e-05 -0.035031139583129665 0 -2.8461914372457976e-05 -0.035018759221487721 0 -5.5435536318468687e-05 -0.035020708591575474 0 -4.4608899311597134e-08 -0.035000062518715333 0 -4.4031092696025232e-05 -0.035031139583129665 0 -4.4031092696025232e-05 -0.035031139583129665 0 -9.8744112564908826e-05 -0.03506809912856218 0 -2.8461914372457976e-05 -0.035018759221487721 0 -0.00030116234552597323 -0.035099103069086812 0 -7.9345229171299146e-05 -0.035110575539710392 0 -9.8744112564908826e-05 -0.03506809912856218 0 0.00025249469143632288 -0.032964323689190785 0 0.0006767076935376439 -0.033253270713079638 0 0.00045346825492914691 -0.033248817293434187 0 -2.0498461801807514e-05 -0.033982113621180768 0 8.4356899573998141e-05 -0.034417349359394507 0 -5.9780761895364514e-05 -0.035037841502175877 0 -9.8744112564908826e-05 -0.03506809912856218 0 -2.8461914372457976e-05 -0.035018759221487721 0 8.4356899573998141e-05 -0.034417349359394507 0 8.2206436531795526e-05 -0.034918250243405627 0 -0.00011240452578508175 -0.035042514747608007 0 -4.4031092696025232e-05 -0.035031139583129665 0 -9.8744112564908826e-05 -0.03506809912856218 0 0.0006767076935376439 -0.033253270713079638 0 0.00045346825492914691 -0.033248817293434187 0 0.00058493631531719606 -0.033411053886270581 0 0.00036554901467166 -0.033287284787014704 0 0.00032115068242093381 -0.034234107175232162 0 8.4356899573998141e-05 -0.034417349359394507 0 0.00032115068242093381 -0.034234107175232162 0 0.00029727219437033283 -0.033234076428235899 0 0.00054350772190133302 -0.033448277616444665 0 0.00028788668131518336 -0.033515614183391232 0 0.00043015645784038621 -0.033431278734664956 0 0.00058493631531719606 -0.033411053886270581 0 0.00077366918676755167 -0.033724312386804983 0 0.0006767076935376439 -0.033253270713079638 0 0.00058493631531719606 -0.033411053886270581 0 0.00077366918676755167 -0.033724312386804983 0 0.00045346825492914691 -0.033248817293434187 0 0.00043015645784038621 -0.033431278734664956 0 0.00058493631531719606 -0.033411053886270581 0 -5.9780761895364514e-05 -0.035037841502175877 0 -2.8461914372457976e-05 -0.035018759221487721 0 -1.161548265774849e-05 -0.035005932159380686 0 -4.4608899311597134e-08 -0.035000062518715333 0 -2.8461914372457976e-05 -0.035018759221487721 0 -1.6992426067817148e-08 -0.035000015671470083 0 -2.8461914372457976e-05 -0.035018759221487721 0 -1.6992426067817148e-08 -0.035000015671470083 0 -1.161548265774849e-05 -0.035005932159380686 0 2.2540960958160606e-07 -0.034999359501565581 0 -8.8276204253372932e-07 -0.03498919064104259 0 3.5576442165225163e-07 -0.034998583353542265 0 0.00054350772190133302 -0.033448277616444665 0 0.00043166269169970937 -0.033643166969721972 0 0.00060787017975519352 -0.033781207530789822 0 0.00032115068242093381 -0.034234107175232162 0 0.00030629571092018291 -0.03435649853439042 0 2.2540960958160606e-07 -0.034999359501565581 0 -1.6992426067817148e-08 -0.035000015671470083 0 -1.161548265774849e-05 -0.035005932159380686 0 8.8272462806851434e-05 -0.034994926151769835 0 0.00032115068242093381 -0.034234107175232162 0 0.00054350772190133302 -0.033448277616444665 0 0.00043166269169970937 -0.033643166969721972 0 0.00028788668131518336 -0.033515614183391232 0 0.00043166269169970937 -0.033643166969721972 0 0.00028788668131518336 -0.033515614183391232 0 0.00025901714587130831 -0.033768278312175347 0 0.00043166269169970937 -0.033643166969721972 0 0.00042923557863827188 -0.033821116460677376 0 0.00025901714587130831 -0.033768278312175347 0 0.00024164570377774373 -0.033972266919127629 0 0.00042923557863827188 -0.033821116460677376 0 0.00025901714587130831 -0.033768278312175347 0 0.00024164570377774373 -0.033972266919127629 0 0.00045508301404384563 -0.034005048047367405 0 0.00042923557863827188 -0.033821116460677376 0 0.00045508301404384563 -0.034005048047367405 0 0.00042923557863827188 -0.033821116460677376 0 0.00060787017975519352 -0.033781207530789822 0 0.00043166269169970937 -0.033643166969721972 0 0.00042923557863827188 -0.033821116460677376 0 0.00060787017975519352 -0.033781207530789822 0 1.1972721685639592e-08 -0.034999977198144863 0 2.2540960958160606e-07 -0.034999359501565581 0 -1.6992426067817148e-08 -0.035000015671470083 0 1.1972721685639592e-08 -0.034999977198144863 0 2.2540960958160606e-07 -0.034999359501565581 0 3.5576442165225163e-07 -0.034998583353542265 0 -0.00014061151370351791 -0.033515743135791171 0 -0.00013657481000193988 -0.033724101806505376 0 -0.00026484612585630824 -0.033567018179015765 0 4.4499477957685276e-06 -0.033558670352933653 0 -0.00014061151370351791 -0.033515743135791171 0 -0.00013657481000193988 -0.033724101806505376 0 -5.0983494518677103e-05 -0.033337604606501509 0 -0.00014061151370351791 -0.033515743135791171 0 -0.00021566883756715769 -0.03338041978599475 0 0.00012894172270003188 -0.033404817482312416 0 -5.0983494518677103e-05 -0.033337604606501509 0 4.4499477957685276e-06 -0.033558670352933653 0 -5.0983494518677103e-05 -0.033337604606501509 0 4.4499477957685276e-06 -0.033558670352933653 0 -0.00014061151370351791 -0.033515743135791171 0 0.00012894172270003188 -0.033404817482312416 0 4.4499477957685276e-06 -0.033558670352933653 0 0.00014717601765918092 -0.033635354727239407 0 0.00012894172270003188 -0.033404817482312416 0 0.00028788668131518336 -0.033515614183391232 0 0.00014717601765918092 -0.033635354727239407 0 0.00028788668131518336 -0.033515614183391232 0 0.00014717601765918092 -0.033635354727239407 0 0.00025901714587130831 -0.033768278312175347 0 4.4499477957685276e-06 -0.033558670352933653 0 0.00014717601765918092 -0.033635354727239407 0 5.8545422130603418e-05 -0.033798786660182115 0 0.00014717601765918092 -0.033635354727239407 0 5.8545422130603418e-05 -0.033798786660182115 0 0.00025901714587130831 -0.033768278312175347 0 0.00024164570377774373 -0.033972266919127629 0 5.8545422130603418e-05 -0.033798786660182115 0 0.00025901714587130831 -0.033768278312175347 0 5.8545422130603418e-05 -0.033798786660182115 0 -7.2166050375165709e-05 -0.033911368113028174 0 -0.00013657481000193988 -0.033724101806505376 0 2.3711345835123811e-05 -0.034063957511042187 0 5.8545422130603418e-05 -0.033798786660182115 0 -7.2166050375165709e-05 -0.033911368113028174 0 4.4499477957685276e-06 -0.033558670352933653 0 5.8545422130603418e-05 -0.033798786660182115 0 -0.00013657481000193988 -0.033724101806505376 0 -0.00024160191514707331 -0.033955546984521558 0 -7.2166050375165709e-05 -0.033911368113028174 0 -0.00013657481000193988 -0.033724101806505376 0 -0.00024160191514707331 -0.033955546984521558 0 -0.00013657481000193988 -0.033724101806505376 0 -0.00030297591820244629 -0.033755965363369798 0 -0.00024160191514707331 -0.033955546984521558 0 -0.00035905331195059932 -0.033884548814193512 0 -0.00030297591820244629 -0.033755965363369798 0 -0.00043513099794612964 -0.033914812215191416 0 -0.00035905331195059932 -0.033884548814193512 0 -0.0004543277832450595 -0.033746874747093196 0 -0.00035905331195059932 -0.033884548814193512 0 -0.00030297591820244629 -0.033755965363369798 0 -0.0004543277832450595 -0.033746874747093196 0 -0.00030297591820244629 -0.033755965363369798 0 -0.00042354114791165438 -0.033597862266880531 0 -0.0004543277832450595 -0.033746874747093196 0 -0.00013657481000193988 -0.033724101806505376 0 -0.00030297591820244629 -0.033755965363369798 0 -0.00026484612585630824 -0.033567018179015765 0 -0.00026484612585630824 -0.033567018179015765 0 -0.00042354114791165438 -0.033597862266880531 0 -0.00038591965035723403 -0.033432849489010728 0 -0.00030297591820244629 -0.033755965363369798 0 -0.00026484612585630824 -0.033567018179015765 0 -0.00042354114791165438 -0.033597862266880531 0 -0.00026484612585630824 -0.033567018179015765 0 -0.00038591965035723403 -0.033432849489010728 0 -0.00021566883756715769 -0.03338041978599475 0 -0.00014061151370351791 -0.033515743135791171 0 -0.00026484612585630824 -0.033567018179015765 0 -0.00021566883756715769 -0.03338041978599475 0 -0.00055274335130743645 -0.033477232930028668 0 -0.00073900715362294961 -0.03362801435675998 0 -0.00068662909248030967 -0.033335199332881253 0 -0.00042354114791165438 -0.033597862266880531 0 -0.00038591965035723403 -0.033432849489010728 0 -0.00055274335130743645 -0.033477232930028668 0 -0.00038591965035723403 -0.033432849489010728 0 -0.00055274335130743645 -0.033477232930028668 0 -0.00050983597086134101 -0.033310479256898486 0 -0.00042354114791165438 -0.033597862266880531 0 -0.00055274335130743645 -0.033477232930028668 0 -0.00056777247366107837 -0.033641471600052486 0 -0.00055274335130743645 -0.033477232930028668 0 -0.00056777247366107837 -0.033641471600052486 0 -0.00073900715362294961 -0.03362801435675998 0 -0.00057460010740104572 -0.033880068330039328 0 -0.00056777247366107837 -0.033641471600052486 0 -0.00073900715362294961 -0.03362801435675998 0 -0.00042354114791165438 -0.033597862266880531 0 -0.00056777247366107837 -0.033641471600052486 0 -0.0004543277832450595 -0.033746874747093196 0 -0.00057460010740104572 -0.033880068330039328 0 -0.00056777247366107837 -0.033641471600052486 0 -0.0004543277832450595 -0.033746874747093196 0 -0.0005341243350802387 -0.033908953909227803 0 -0.00043513099794612964 -0.033914812215191416 0 -0.0004543277832450595 -0.033746874747093196 0 -0.00093383428004647172 -0.031334173139270616 0 -0.001073411746309226 -0.033753007061864064 0 -0.00093383428004647172 -0.031334173139270616 0 -0.0015152006562423579 -0.030378588788672074 0 -0.0021022992813982916 -0.026750079147503731 0 -0.0024620672687724059 -0.026805151876909131 0 -0.0022295108688587034 -0.027205727050853792 0 -0.0021022992813982916 -0.026750079147503731 0 -0.0022295108688587034 -0.027205727050853792 0 -0.0018417844288374729 -0.026903938693617607 0 -0.0016080485908986609 -0.026743648894070805 0 -0.0018417844288374729 -0.026903938693617607 0 -0.0016211950017004572 -0.027038278997124514 0 -0.0018417844288374729 -0.026903938693617607 0 -0.0016211950017004572 -0.027038278997124514 0 -0.0019324994022293122 -0.027392369752974072 0 -0.0015358477277021057 -0.027333473772002209 0 -0.0016211950017004572 -0.027038278997124514 0 -0.0019324994022293122 -0.027392369752974072 0 -0.00073900715362294961 -0.03362801435675998 0 -0.00089225057621295271 -0.033373977401022589 0 -0.00068662909248030967 -0.033335199332881253 0 -0.001865774497994961 -0.026127906235786612 0 -0.0014896612633631527 -0.029585963026726766 0 -0.0022295108688587034 -0.027205727050853792 0 -0.0018417844288374729 -0.026903938693617607 0 -0.0019259775483870837 -0.027695841666378618 0 -0.0015152006562423579 -0.030378588788672074 0 -0.0014896612633631527 -0.029585963026726766 0 -0.0008256406049149958 -0.033065848810663975 0 -0.00068662909248030967 -0.033335199332881253 0 -0.00060174320349439708 -0.033175132904882373 0 -0.0014896612633631527 -0.029585963026726766 0 -0.0011129414984236694 -0.032282116291324353 0 -0.00089225057621295271 -0.033373977401022589 0 -0.0008256406049149958 -0.033065848810663975 0 -0.00068662909248030967 -0.033335199332881253 0 -0.0014896612633631527 -0.029585963026726766 0 -0.0012067539272596997 -0.029166899324570041 0 -0.0015358477277021057 -0.027333473772002209 0 -0.0019324994022293122 -0.027392369752974072 0 -0.0016193928066097589 -0.027888546589852313 0 -0.0012100394185889337 -0.029974473025014312 0 -0.00087713312335651857 -0.030485514480700405 0 -0.0012885500516456815 -0.03044076052414673 0 -0.00071353631409020618 -0.031108782447032867 0 -0.0011129414984236694 -0.032282116291324353 0 -0.0013647609984860014 -0.030901682227152647 0 -0.00087713312335651857 -0.030485514480700405 0 -0.0012885500516456815 -0.03044076052414673 0 -0.0008256406049149958 -0.033065848810663975 0 -0.0004964809515955453 -0.032966095140096949 0 -0.00060174320349439708 -0.033175132904882373 0 -0.00059026177312386204 -0.032801576959238903 0 -0.0008256406049149958 -0.033065848810663975 0 -0.0004964809515955453 -0.032966095140096949 0 -0.0004964809515955453 -0.032966095140096949 0 -0.00060174320349439708 -0.033175132904882373 0 -0.00046240208390255173 -0.033166112705269112 0 -0.0004964809515955453 -0.032966095140096949 0 -0.00031665110654187785 -0.032982134460834013 0 -0.0003454198971052143 -0.033113702359942862 0 -0.00032469306765605147 -0.032852599775918818 0 -0.0004964809515955453 -0.032966095140096949 0 -0.00031665110654187785 -0.032982134460834013 0 -0.00032469306765605147 -0.032852599775918818 0 -0.00031665110654187785 -0.032982134460834013 0 -0.00023002995972399497 -0.032942605491209732 0 -0.00020565717211359468 -0.033067381748613504 0 -0.00031665110654187785 -0.032982134460834013 0 -0.00023002995972399497 -0.032942605491209732 0 -0.00020565717211359468 -0.033067381748613504 0 -0.0003454198971052143 -0.033113702359942862 0 -0.00021211762171397886 -0.033218939246104723 0 -0.00020565717211359468 -0.033067381748613504 0 -0.00031665110654187785 -0.032982134460834013 0 -0.0003454198971052143 -0.033113702359942862 0 -0.0004964809515955453 -0.032966095140096949 0 -0.0003454198971052143 -0.033113702359942862 0 -0.00046240208390255173 -0.033166112705269112 0 -0.0003454198971052143 -0.033113702359942862 0 -0.00035755429408264777 -0.033267238548947739 0 -0.00046240208390255173 -0.033166112705269112 0 -0.00035755429408264777 -0.033267238548947739 0 -0.00050983597086134101 -0.033310479256898486 0 -0.00046240208390255173 -0.033166112705269112 0 -0.0003454198971052143 -0.033113702359942862 0 -0.00035755429408264777 -0.033267238548947739 0 -0.00021211762171397886 -0.033218939246104723 0 -0.00038591965035723403 -0.033432849489010728 0 -0.00035755429408264777 -0.033267238548947739 0 -0.00021566883756715769 -0.03338041978599475 0 -0.00035755429408264777 -0.033267238548947739 0 -0.00021211762171397886 -0.033218939246104723 0 -0.00021566883756715769 -0.03338041978599475 0 -0.00038591965035723403 -0.033432849489010728 0 -0.00035755429408264777 -0.033267238548947739 0 -0.00050983597086134101 -0.033310479256898486 0 -0.00050983597086134101 -0.033310479256898486 0 -0.00068662909248030967 -0.033335199332881253 0 -0.00060174320349439708 -0.033175132904882373 0 -0.00055274335130743645 -0.033477232930028668 0 -0.00050983597086134101 -0.033310479256898486 0 -0.00068662909248030967 -0.033335199332881253 0 -0.00050983597086134101 -0.033310479256898486 0 -0.00060174320349439708 -0.033175132904882373 0 -0.00046240208390255173 -0.033166112705269112 0 0.00047724784300862946 -0.022435402930173699 0 0.00047906339143109333 -0.02236435369913102 0 0.0006220813311236139 -0.022336838296669541 0 0.00047724784300862946 -0.022435402930173699 0 0.0003682291897281919 -0.02246664579154109 0 0.00032615857087898282 -0.022570810903685908 0 0.00047724784300862946 -0.022435402930173699 0 0.0003682291897281919 -0.02246664579154109 0 0.00047906339143109333 -0.02236435369913102 0 0.0003682291897281919 -0.02246664579154109 0 0.00047906339143109333 -0.02236435369913102 0 0.00039491401376863739 -0.022385268156366864 0 0.00065542588273657942 -0.022294640597440501 0 0.0006220813311236139 -0.022336838296669541 0 0.00056243520040717666 -0.02228783745795632 0 0.00065542588273657942 -0.022294640597440501 0 0.0006220813311236139 -0.022336838296669541 0 0.00087007873860272752 -0.022057525371372313 0 0.00047906339143109333 -0.02236435369913102 0 0.0006220813311236139 -0.022336838296669541 0 0.00056243520040717666 -0.02228783745795632 0 0.0006220813311236139 -0.022336838296669541 0 0.00087007873860272752 -0.022057525371372313 0 0.00064306291349199409 -0.02256371486706988 0 0.00049173460961051308 -0.022531499470044881 0 0.00064306291349199409 -0.02256371486706988 0 0.00031255823865452393 -0.022806350073828707 0 0.0006220813311236139 -0.022336838296669541 0 0.00049173460961051308 -0.022531499470044881 0 0.00064306291349199409 -0.02256371486706988 0 0.00047724784300862946 -0.022435402930173699 0 0.0006220813311236139 -0.022336838296669541 0 0.00049173460961051308 -0.022531499470044881 0 0.00047724784300862946 -0.022435402930173699 0 0.00049173460961051308 -0.022531499470044881 0 0.00032615857087898282 -0.022570810903685908 0 0.00049173460961051308 -0.022531499470044881 0 0.00032615857087898282 -0.022570810903685908 0 0.00031255823865452393 -0.022806350073828707 0 0.00032615857087898282 -0.022570810903685908 0 8.3283323813150673e-05 -0.022719923201421719 0 0.00031255823865452393 -0.022806350073828707 0 8.3283323813150673e-05 -0.022719923201421719 0 -0.00010971157713005315 -0.022937197331211343 0 0.00031255823865452393 -0.022806350073828707 0 8.3283323813150673e-05 -0.022719923201421719 0 -5.8273802859164061e-05 -0.022813000181760287 0 -0.00010971157713005315 -0.022937197331211343 0 8.3283323813150673e-05 -0.022719923201421719 0 -5.8273802859164061e-05 -0.022813000181760287 0 -5.2023487495792027e-06 -0.02274618682159139 0 8.3283323813150673e-05 -0.022719923201421719 0 -5.2023487495792027e-06 -0.02274618682159139 0 0.00014612377531477767 -0.022629975936477829 0 0.00014612377531477767 -0.022629975936477829 0 8.3733174905460306e-05 -0.022675194114864902 0 0.00017631667720713671 -0.022592765410338347 0 -5.2023487495792027e-06 -0.02274618682159139 0 8.3733174905460306e-05 -0.022675194114864902 0 1.8125726119496921e-05 -0.022736942736947513 0 -5.2023487495792027e-06 -0.02274618682159139 0 0.00014612377531477767 -0.022629975936477829 0 8.3733174905460306e-05 -0.022675194114864902 0 0.00032615857087898282 -0.022570810903685908 0 8.3283323813150673e-05 -0.022719923201421719 0 0.00024570415215335666 -0.022572032756786816 0 0.0003682291897281919 -0.02246664579154109 0 0.00032615857087898282 -0.022570810903685908 0 0.00024570415215335666 -0.022572032756786816 0 8.3283323813150673e-05 -0.022719923201421719 0 0.00014612377531477767 -0.022629975936477829 0 0.00024570415215335666 -0.022572032756786816 0 0.00014612377531477767 -0.022629975936477829 0 0.0002795732453668794 -0.022507693295160669 0 0.00017631667720713671 -0.022592765410338347 0 0.00014612377531477767 -0.022629975936477829 0 0.00024570415215335666 -0.022572032756786816 0 0.0002795732453668794 -0.022507693295160669 0 0.0003682291897281919 -0.02246664579154109 0 0.00024570415215335666 -0.022572032756786816 0 0.0002795732453668794 -0.022507693295160669 0 0.0003682291897281919 -0.02246664579154109 0 0.0002795732453668794 -0.022507693295160669 0 0.00039491401376863739 -0.022385268156366864 0 0.0002795732453668794 -0.022507693295160669 0 0.00032931733921302749 -0.022446019902326857 0 0.00024233153587325672 -0.022529583267700475 0 0.0002795732453668794 -0.022507693295160669 0 0.00032931733921302749 -0.022446019902326857 0 0.00039491401376863739 -0.022385268156366864 0 0.0002795732453668794 -0.022507693295160669 0 0.00024233153587325672 -0.022529583267700475 0 0.00017631667720713671 -0.022592765410338347 0 0.00024233153587325672 -0.022529583267700475 0 0.00022097508157705264 -0.022543342328874453 0 0.0003031866868231095 -0.022469630781547442 0 0.00022097508157705264 -0.022543342328874453 0 0.0003031866868231095 -0.022469630781547442 0 0.00028874175997874277 -0.022484104917411676 0 0.00032931733921302749 -0.022446019902326857 0 0.00024233153587325672 -0.022529583267700475 0 0.0003031866868231095 -0.022469630781547442 0 0.0003031866868231095 -0.022469630781547442 0 0.00033743910451630087 -0.022437913257141898 0 0.00036254901146818533 -0.0224038921300663 0 0.00032931733921302749 -0.022446019902326857 0 0.0003031866868231095 -0.022469630781547442 0 0.00036254901146818533 -0.0224038921300663 0 8.3733174905460306e-05 -0.022675194114864902 0 1.8125726119496921e-05 -0.022736942736947513 0 0.00012818896506583115 -0.022632729690233437 0 1.8125726119496921e-05 -0.022736942736947513 0 0.00012818896506583115 -0.022632729690233437 0 3.3703953092416532e-05 -0.022722781871936243 0 8.3733174905460306e-05 -0.022675194114864902 0 0.00012818896506583115 -0.022632729690233437 0 0.00017631667720713671 -0.022592765410338347 0 0.00024233153587325672 -0.022529583267700475 0 0.00012818896506583115 -0.022632729690233437 0 0.00017631667720713671 -0.022592765410338347 0 0.00022097508157705264 -0.022543342328874453 0 0.00012818896506583115 -0.022632729690233437 0 0.00011830380559594329 -0.022631765434668986 0 0.00024233153587325672 -0.022529583267700475 0 0.00022097508157705264 -0.022543342328874453 0 0.00012818896506583115 -0.022632729690233437 0 0.00012818896506583115 -0.022632729690233437 0 0.00011830380559594329 -0.022631765434668986 0 3.3703953092416532e-05 -0.022722781871936243 0 0.00011830380559594329 -0.022631765434668986 0 3.3703953092416532e-05 -0.022722781871936243 0 1.971530135975061e-05 -0.022696539696665918 0 0.00011830380559594329 -0.022631765434668986 0 0.00011442879625500629 -0.022590584718038115 0 1.971530135975061e-05 -0.022696539696665918 0 0.00011830380559594329 -0.022631765434668986 0 0.00017939355933258887 -0.022565759066096543 0 0.00011442879625500629 -0.022590584718038115 0 0.00022097508157705264 -0.022543342328874453 0 0.00011830380559594329 -0.022631765434668986 0 0.00017939355933258887 -0.022565759066096543 0 0.00022097508157705264 -0.022543342328874453 0 0.00017939355933258887 -0.022565759066096543 0 0.00026153505655543457 -0.022499177754709353 0 0.00017939355933258887 -0.022565759066096543 0 0.00026153505655543457 -0.022499177754709353 0 0.00019379933356990765 -0.02249887843405839 0 0.00017939355933258887 -0.022565759066096543 0 0.00011442879625500629 -0.022590584718038115 0 0.00019379933356990765 -0.02249887843405839 0 0.00011442879625500629 -0.022590584718038115 0 5.4018005217727201e-05 -0.022551606781980465 0 0.00019379933356990765 -0.02249887843405839 0 0.00032316856735475208 -0.022457730501271898 0 0.00033743910451630087 -0.022437913257141898 0 0.00028874175997874277 -0.022484104917411676 0 0.00035280544519620627 -0.022432073446440808 0 0.00033743910451630087 -0.022437913257141898 0 0.00036877758933473464 -0.022404090224662974 0 0.00032316856735475208 -0.022457730501271898 0 0.00035280544519620627 -0.022432073446440808 0 0.00033743910451630087 -0.022437913257141898 0 0.0003031866868231095 -0.022469630781547442 0 0.00033743910451630087 -0.022437913257141898 0 0.00028874175997874277 -0.022484104917411676 0 0.00022097508157705264 -0.022543342328874453 0 0.00028874175997874277 -0.022484104917411676 0 0.00026153505655543457 -0.022499177754709353 0 0.00032316856735475208 -0.022457730501271898 0 0.00028874175997874277 -0.022484104917411676 0 0.00026153505655543457 -0.022499177754709353 0 0.00026153505655543457 -0.022499177754709353 0 0.00028159317626107525 -0.022462204906981562 0 0.00019379933356990765 -0.02249887843405839 0 0.00032316856735475208 -0.022457730501271898 0 0.00026153505655543457 -0.022499177754709353 0 0.00031009728756113821 -0.02246429160657033 0 0.00026153505655543457 -0.022499177754709353 0 0.00031009728756113821 -0.02246429160657033 0 0.00028159317626107525 -0.022462204906981562 0 0.00031009728756113821 -0.02246429160657033 0 0.00031983224843682481 -0.022451146482771557 0 0.00028159317626107525 -0.022462204906981562 0 0.00035280544519620627 -0.022432073446440808 0 0.00033778257039361099 -0.022453773624466593 0 0.00034454900688693697 -0.022469784313388315 0 0.00033778257039361099 -0.022453773624466593 0 0.00034454900688693697 -0.022469784313388315 0 0.00031983224843682481 -0.022451146482771557 0 0.00031009728756113821 -0.02246429160657033 0 0.00033778257039361099 -0.022453773624466593 0 0.00031983224843682481 -0.022451146482771557 0 0.00032316856735475208 -0.022457730501271898 0 0.00031009728756113821 -0.02246429160657033 0 0.00033778257039361099 -0.022453773624466593 0 0.00032316856735475208 -0.022457730501271898 0 0.00035280544519620627 -0.022432073446440808 0 0.00033778257039361099 -0.022453773624466593 0 0.00036877758933473464 -0.022404090224662974 0 0.00039520084394542983 -0.022358337636336684 0 0.00034454900688693697 -0.022469784313388315 0 -0.00030046432693466913 -0.017222612497149296 0 0.00095352716637800319 -0.022682938702636369 0 0.00050106085362240649 -0.022069593783476508 0 0.00060319160342462211 -0.021845186838414812 0 0.00025717102051049548 -0.02134908919455196 0 0.00035280544519620627 -0.022432073446440808 0 0.00036877758933473464 -0.022404090224662974 0 0.00034454900688693697 -0.022469784313388315 0 0.00060319160342462211 -0.021845186838414812 0 0.00032969743338862528 -0.021291630057078046 0 0.00025717102051049548 -0.02134908919455196 0 0.0004341717277446109 -0.022279006849387693 0 0.00031751886648062497 -0.021925018668240568 0 0.00039520084394542983 -0.022358337636336684 0 0.00043559107693139245 -0.022284156587021469 0 0.00034454900688693697 -0.022469784313388315 0 0.00050106085362240649 -0.022069593783476508 0 0.00043559107693139245 -0.022284156587021469 0 0.00025717102051049548 -0.02134908919455196 0 -0.00075517942959827864 -0.020385847441476562 0 -0.00030046432693466913 -0.017222612497149296 0 0.00033743910451630087 -0.022437913257141898 0 0.00036877758933473464 -0.022404090224662974 0 0.00036254901146818533 -0.0224038921300663 0 0.00036877758933473464 -0.022404090224662974 0 0.00036254901146818533 -0.0224038921300663 0 0.00039520084394542983 -0.022358337636336684 0 0.00036254901146818533 -0.0224038921300663 0 0.00039520084394542983 -0.022358337636336684 0 0.00039491401376863739 -0.022385268156366864 0 0.00050106085362240649 -0.022069593783476508 0 0.00043559107693139245 -0.022284156587021469 0 0.00056243520040717666 -0.02228783745795632 0 0.00047906339143109333 -0.02236435369913102 0 0.00043559107693139245 -0.022284156587021469 0 0.00056243520040717666 -0.02228783745795632 0 0.00047906339143109333 -0.02236435369913102 0 0.00043559107693139245 -0.022284156587021469 0 0.00039491401376863739 -0.022385268156366864 0 0.00039520084394542983 -0.022358337636336684 0 0.00043559107693139245 -0.022284156587021469 0 0.00039491401376863739 -0.022385268156366864 0 0.00032931733921302749 -0.022446019902326857 0 0.00036254901146818533 -0.0224038921300663 0 0.00039491401376863739 -0.022385268156366864 0 0.00050106085362240649 -0.022069593783476508 0 0.00056243520040717666 -0.02228783745795632 0 0.00054742046270357192 -0.021963816688915127 0 -0.0024938893463798011 -0.010853796075132453 0 -0.0015133308220660225 -0.0091988655762100212 0 -0.0027214719699511667 -0.0088256919087498237 0 0.00065542588273657942 -0.022294640597440501 0 0.00056243520040717666 -0.02228783745795632 0 0.00054742046270357192 -0.021963816688915127 0 -0.0010809877008729715 -0.016276757521174273 0 -0.00030046432693466913 -0.017222612497149296 0 -0.0015133308220660225 -0.0091988655762100212 0 -0.0027214719699511667 -0.0088256919087498237 0 -0.0012452190195120973 -0.0081883383186180068 0 -0.0027214719699511667 -0.0088256919087498237 0 -0.0012452190195120973 -0.0081883383186180068 0 -0.0013929611920429237 -0.0070391278461960968 0 -0.0012452190195120973 -0.0081883383186180068 0 -0.0002312090285459424 -0.0086044808870000024 0 -0.0001596321492937086 -0.007475835826097091 0 -0.0015133308220660225 -0.0091988655762100212 0 -0.0012452190195120973 -0.0081883383186180068 0 -0.0002312090285459424 -0.0086044808870000024 0 -0.0002312090285459424 -0.0086044808870000024 0 0.0012248089766029528 -0.0095644038449218018 0 0.0012421804369279637 -0.0078883910962803047 0 -0.0002312090285459424 -0.0086044808870000024 0 0.0012421804369279637 -0.0078883910962803047 0 -0.0001596321492937086 -0.007475835826097091 0 -0.0002312090285459424 -0.0086044808870000024 0 0.0012248089766029528 -0.0095644038449218018 0 -0.00037116319850061762 -0.010184463940069917 0 0.0012248089766029528 -0.0095644038449218018 0 -0.00037116319850061762 -0.010184463940069917 0 0.0015420110544862721 -0.011316576343542406 0 -0.0024938893463798011 -0.010853796075132453 0 -0.0015133308220660225 -0.0091988655762100212 0 -0.00037116319850061762 -0.010184463940069917 0 -0.0015133308220660225 -0.0091988655762100212 0 -0.0002312090285459424 -0.0086044808870000024 0 -0.00037116319850061762 -0.010184463940069917 0 0.0027090842104335686 -0.0081827955654776956 0 0.0019231591387019809 -0.0089393270200424455 0 0.002189818507645614 -0.0074873216351665798 0 0.0027090842104335686 -0.0081827955654776956 0 0.002189818507645614 -0.0074873216351665798 0 0.0028770331631316781 -0.0074411579616206567 0 0.0012421804369279637 -0.0078883910962803047 0 0.0019231591387019809 -0.0089393270200424455 0 0.002189818507645614 -0.0074873216351665798 0 0.0012248089766029528 -0.0095644038449218018 0 0.0012421804369279637 -0.0078883910962803047 0 0.0019231591387019809 -0.0089393270200424455 0 0.0012248089766029528 -0.0095644038449218018 0 0.0019231591387019809 -0.0089393270200424455 0 0.0020359618060377758 -0.010498944719353007 0 0.0027090842104335686 -0.0081827955654776956 0 0.0019231591387019809 -0.0089393270200424455 0 0.0031976036875584453 -0.0089443228299057147 0 0.0019231591387019809 -0.0089393270200424455 0 0.0020359618060377758 -0.010498944719353007 0 0.0031976036875584453 -0.0089443228299057147 0 0.0020359618060377758 -0.010498944719353007 0 0.0029374725918765777 -0.010872517061981385 0 0.0031976036875584453 -0.0089443228299057147 0 0.0020359618060377758 -0.010498944719353007 0 0.0017678165892929813 -0.011307007674042743 0 0.0023423313065892813 -0.011317468308847597 0 0.0020359618060377758 -0.010498944719353007 0 0.0017678165892929813 -0.011307007674042743 0 0.0015420110544862721 -0.011316576343542406 0 0.0020359618060377758 -0.010498944719353007 0 0.0023423313065892813 -0.011317468308847597 0 0.0029374725918765777 -0.010872517061981385 0 0.0023423313065892813 -0.011317468308847597 0 0.0029374725918765777 -0.010872517061981385 0 0.0028913281435567089 -0.011793240345976499 0 0.0029374725918765777 -0.010872517061981385 0 0.0028913281435567089 -0.011793240345976499 0 0.0036487429953036879 -0.011658576968387376 0 -0.0010809877008729715 -0.016276757521174273 0 -0.00034929913335174633 -0.018555701762633308 0 -0.00037116319850061762 -0.010184463940069917 0 0.0015420110544862721 -0.011316576343542406 0 -0.0019535354553555971 -0.014649433566600194 0 -0.0024938893463798011 -0.010853796075132453 0 -0.00037116319850061762 -0.010184463940069917 0 -0.0019535354553555971 -0.014649433566600194 0 0.0012248089766029528 -0.0095644038449218018 0 0.0020359618060377758 -0.010498944719353007 0 0.0015420110544862721 -0.011316576343542406 0 0.0033793487369479288 -0.014501901492352566 0 0.001672347743078775 -0.011473270462913576 0 0.0015420110544862721 -0.011316576343542406 0 0.001458754652169587 -0.015773990907372776 0 -0.0019535354553555971 -0.014649433566600194 0 0.0050221678728829683 -0.017495742983783289 0 0.0015420110544862721 -0.011316576343542406 0 0.001458754652169587 -0.015773990907372776 0 0.0050221678728829683 -0.017495742983783289 0 0.001458754652169587 -0.015773990907372776 0 0.0011084579161191649 -0.021181512587377695 0 0.001458754652169587 -0.015773990907372776 0 -0.0019535354553555971 -0.014649433566600194 0 0.0011084579161191649 -0.021181512587377695 0 -0.00034929913335174633 -0.018555701762633308 0 0.00095080109765613983 -0.020975990390844176 0 0.00087007873860272752 -0.022057525371372313 0 0.0011084579161191649 -0.021181512587377695 0 0.00090659193759038315 -0.022473558306011551 0 0.0050221678728829683 -0.017495742983783289 0 0.0011084579161191649 -0.021181512587377695 0 0.0031990285967546861 -0.022361453956760379 0 0.0011084579161191649 -0.021181512587377695 0 0.0031990285967546861 -0.022361453956760379 0 0.00155758806749415 -0.02290906351653214 0 0.0031990285967546861 -0.022361453956760379 0 0.0056044016398485979 -0.023348707617546573 0 0.0019763866318793068 -0.02412041425235081 0 0.0031990285967546861 -0.022361453956760379 0 0.00155758806749415 -0.02290906351653214 0 0.0019763866318793068 -0.02412041425235081 0 0.00155758806749415 -0.02290906351653214 0 0.0013033983008541132 -0.023882423654181435 0 0.00090659193759038315 -0.022473558306011551 0 0.0011084579161191649 -0.021181512587377695 0 0.00155758806749415 -0.02290906351653214 0 0.00090659193759038315 -0.022473558306011551 0 0.0028913281435567089 -0.011793240345976499 0 0.0027001298403871309 -0.01235846271557528 0 0.0035019489108862123 -0.012508637596763964 0 0.0023423313065892813 -0.011317468308847597 0 0.0028913281435567089 -0.011793240345976499 0 0.0023351366132653636 -0.012099315960482441 0 0.0028913281435567089 -0.011793240345976499 0 0.0023351366132653636 -0.012099315960482441 0 0.0027001298403871309 -0.01235846271557528 0 0.0023351366132653636 -0.012099315960482441 0 0.0027001298403871309 -0.01235846271557528 0 0.0022585525270533207 -0.012504760315718158 0 0.0033793487369479288 -0.014501901492352566 0 0.0037976039231936336 -0.01619775065202941 0 0.0017678165892929813 -0.011307007674042743 0 0.0023351366132653636 -0.012099315960482441 0 0.0022612873863763492 -0.012459679397930266 0 0.0050221678728829683 -0.017495742983783289 0 0.0031990285967546861 -0.022361453956760379 0 0.0049187012517902121 -0.022344013879611994 0 0.0050221678728829683 -0.017495742983783289 0 0.0049187012517902121 -0.022344013879611994 0 0.0063416055319379565 -0.021470920385214448 0 0.0036165472971435419 -0.01328381430319775 0 0.0037976039231936336 -0.01619775065202941 0 0.0017678165892929813 -0.011307007674042743 0 0.0023423313065892813 -0.011317468308847597 0 0.0023351366132653636 -0.012099315960482441 0 0.0031990285967546861 -0.022361453956760379 0 0.0049187012517902121 -0.022344013879611994 0 0.0056044016398485979 -0.023348707617546573 0 0.0034754881371379352 -0.019552611217092088 0 0.0037976039231936336 -0.01619775065202941 0 0.0049187012517902121 -0.022344013879611994 0 0.0056044016398485979 -0.023348707617546573 0 0.0063416055319379565 -0.021470920385214448 0 0.0033464088305451261 -0.010932553827973843 0 0.0033879440167654522 -0.010927039654790732 0 0.0033876968529625174 -0.010889581663494914 0 0.003389865677519329 -0.014185074187629643 0 0.0034808891762909554 -0.011676948954905314 0 0.0027001298403871309 -0.01235846271557528 0 0.002531403817263436 -0.01300572361347003 0 0.0035019489108862123 -0.012508637596763964 0 0.0027001298403871309 -0.01235846271557528 0 0.0022585525270533207 -0.012504760315718158 0 0.002531403817263436 -0.01300572361347003 0 0.0037976039231936336 -0.01619775065202941 0 0.003389865677519329 -0.014185074187629643 0 0.003859563150713508 -0.015248742157303747 0 0.0031197302210505301 -0.015625197584409722 0 0.0022348865152882012 -0.013994937203152391 0 0.0034754881371379352 -0.019552611217092088 0 0.003389865677519329 -0.014185074187629643 0 0.0036191326255174969 -0.017052585296658491 0 0.0038163216611992032 -0.015953794300982801 0 0.0042415220521313732 -0.016724969379923179 0 0.003859563150713508 -0.015248742157303747 0 0.0022348865152882012 -0.013994937203152391 0 0.0029575197318222556 -0.012931862223606766 0 0.0033464088305451261 -0.010932553827973843 0 0.0033678022313457442 -0.010954834302262319 0 0.0033879440167654522 -0.010927039654790732 0 0.0028221111520661405 -0.012457491749419276 0 0.0031783913148893941 -0.01032412405831009 0 0.003389865677519329 -0.014185074187629643 0 0.0028221111520661405 -0.012457491749419276 0 0.0025806440381604323 -0.023684330052279719 0 0.0022755925915365388 -0.024136851776892655 0 0.0024377819310218655 -0.024422293880634438 0 0.0034754881371379352 -0.019552611217092088 0 0.0033264782160663114 -0.018234191729599929 0 0.0025806440381604323 -0.023684330052279719 0 0.0022755925915365388 -0.024136851776892655 0 0.0019763866318793068 -0.02412041425235081 0 0.0034754881371379352 -0.019552611217092088 0 0.0021270160460926313 -0.025253152706769325 0 0.003859563150713508 -0.015248742157303747 0 0.0043745268648696187 -0.012061849119111142 0 0.0029575197318222556 -0.012931862223606766 0 0.0022755925915365388 -0.024136851776892655 0 0.0024377819310218655 -0.024422293880634438 0 0.0021127057754881688 -0.024390268372037043 0 0.0024377819310218655 -0.024422293880634438 0 0.0021127057754881688 -0.024390268372037043 0 0.0021450216137136996 -0.024765299359882 0 0.0043745268648696187 -0.012061849119111142 0 0.0029575197318222556 -0.012931862223606766 0 0.0029684610421521675 -0.011046629375774846 0 0.0029575197318222556 -0.012931862223606766 0 0.0013896532771921861 -0.01240122788993455 0 0.0029684610421521675 -0.011046629375774846 0 0.0031783913148893941 -0.01032412405831009 0 0.003449278276953838 -0.01049506710721107 0 0.0022348865152882012 -0.013994937203152391 0 0.0029575197318222556 -0.012931862223606766 0 0.0013896532771921861 -0.01240122788993455 0 0.0013033983008541132 -0.023882423654181435 0 0.0019763866318793068 -0.02412041425235081 0 0.0017508743043341958 -0.024543581581039534 0 0.00155758806749415 -0.02290906351653214 0 0.0013033983008541132 -0.023882423654181435 0 0.0019763866318793068 -0.02412041425235081 0 0.0022755925915365388 -0.024136851776892655 0 0.0019763866318793068 -0.02412041425235081 0 0.0021127057754881688 -0.024390268372037043 0 0.0019763866318793068 -0.02412041425235081 0 0.0021127057754881688 -0.024390268372037043 0 0.0017508743043341958 -0.024543581581039534 0 0.0021127057754881688 -0.024390268372037043 0 0.0017508743043341958 -0.024543581581039534 0 0.0021450216137136996 -0.024765299359882 0 0.0017508743043341958 -0.024543581581039534 0 0.0010239914133966205 -0.024421755708045358 0 0.0011963587264591324 -0.02480625677620284 0 0.0013033983008541132 -0.023882423654181435 0 0.0017508743043341958 -0.024543581581039534 0 0.0010239914133966205 -0.024421755708045358 0 0.0010239914133966205 -0.024421755708045358 0 0.00075957824156560304 -0.024841376310215147 0 0.0011963587264591324 -0.02480625677620284 0 0.00044072711474393654 -0.024354467195196211 0 0.00036296402087066144 -0.025069675794639402 0 0.00075957824156560304 -0.024841376310215147 0 0.0010239914133966205 -0.024421755708045358 0 0.00044072711474393654 -0.024354467195196211 0 0.00075957824156560304 -0.024841376310215147 0 0.00044072711474393654 -0.024354467195196211 0 0.00077826400036593816 -0.023725621005018061 0 0.00054215375393576047 -0.023175074649073025 0 0.0010239914133966205 -0.024421755708045358 0 0.00044072711474393654 -0.024354467195196211 0 0.00077826400036593816 -0.023725621005018061 0 0.0013033983008541132 -0.023882423654181435 0 0.00077826400036593816 -0.023725621005018061 0 0.00090659193759038315 -0.022473558306011551 0 0.0013033983008541132 -0.023882423654181435 0 0.0010239914133966205 -0.024421755708045358 0 0.00077826400036593816 -0.023725621005018061 0 0.00077826400036593816 -0.023725621005018061 0 0.00090659193759038315 -0.022473558306011551 0 0.00054215375393576047 -0.023175074649073025 0 0.00044072711474393654 -0.024354467195196211 0 0.00054215375393576047 -0.023175074649073025 0 0.00017886728915291408 -0.023583973722177839 0 0.00054215375393576047 -0.023175074649073025 0 0.00064306291349199409 -0.02256371486706988 0 0.00031255823865452393 -0.022806350073828707 0 0.00090659193759038315 -0.022473558306011551 0 0.00054215375393576047 -0.023175074649073025 0 0.00064306291349199409 -0.02256371486706988 0 0.00087007873860272752 -0.022057525371372313 0 0.00090659193759038315 -0.022473558306011551 0 0.00064306291349199409 -0.02256371486706988 0 -0.00017563617736403056 -0.023201399280182809 0 0.00016112158725801876 -0.023559458147764851 0 -0.00010971157713005315 -0.022937197331211343 0 0.00031255823865452393 -0.022806350073828707 0 0.00017886728915291408 -0.023583973722177839 0 0.00054215375393576047 -0.023175074649073025 0 0.00031255823865452393 -0.022806350073828707 0 0.00017886728915291408 -0.023583973722177839 0 0.00017886728915291408 -0.023583973722177839 0 -0.00021517341025173903 -0.023801516900827845 0 0.00010221836080582504 -0.024397431223236902 0 -0.0003368283491590501 -0.023357476392542448 0 0.00017886728915291408 -0.023583973722177839 0 -0.00021517341025173903 -0.023801516900827845 0 -0.00021517341025173903 -0.023801516900827845 0 0.00010221836080582504 -0.024397431223236902 0 -0.00028557202877449949 -0.02493130695732728 0 0.00044072711474393654 -0.024354467195196211 0 0.00017886728915291408 -0.023583973722177839 0 0.00010221836080582504 -0.024397431223236902 0 0.00044072711474393654 -0.024354467195196211 0 8.7834092134951659e-05 -0.024950623608890755 0 0.00036296402087066144 -0.025069675794639402 0 0.00044072711474393654 -0.024354467195196211 0 0.00010221836080582504 -0.024397431223236902 0 8.7834092134951659e-05 -0.024950623608890755 0 8.7834092134951659e-05 -0.024950623608890755 0 -0.00028557202877449949 -0.02493130695732728 0 -4.3101283268055686e-05 -0.02531183912099735 0 0.00010221836080582504 -0.024397431223236902 0 8.7834092134951659e-05 -0.024950623608890755 0 -0.00028557202877449949 -0.02493130695732728 0 -7.8375710160679578e-05 -0.02542399141623318 0 -0.00028557202877449949 -0.02493130695732728 0 -1.773343465903007e-05 -0.025430377082461635 0 -7.8375710160679578e-05 -0.02542399141623318 0 -0.00028557202877449949 -0.02493130695732728 0 -4.3101283268055686e-05 -0.02531183912099735 0 -0.00028557202877449949 -0.02493130695732728 0 3.6611272017626393e-05 -0.025556360733172301 0 -3.3009732391963254e-05 -0.025855922090390407 0 -0.00028557202877449949 -0.02493130695732728 0 3.6611272017626393e-05 -0.025556360733172301 0 -1.773343465903007e-05 -0.025430377082461635 0 0.00010510248737273962 -0.025676362208646598 0 -1.773343465903007e-05 -0.025430377082461635 0 3.2144550184916678e-05 -0.025652960499897331 0 0.00010510248737273962 -0.025676362208646598 0 3.6611272017626393e-05 -0.025556360733172301 0 -1.773343465903007e-05 -0.025430377082461635 0 -7.8375710160679578e-05 -0.02542399141623318 0 -1.773343465903007e-05 -0.025430377082461635 0 3.2144550184916678e-05 -0.025652960499897331 0 3.2144550184916678e-05 -0.025652960499897331 0 0.00011942209271034988 -0.025875289567065075 0 5.8143552943192551e-05 -0.025888436786340729 0 9.540582875874319e-05 -0.026019105895072541 0 0.00010712968252021386 -0.026063336646649678 0 8.6731312211523162e-05 -0.026180705086498734 0 9.540582875874319e-05 -0.026019105895072541 0 0.00011942209271034988 -0.025875289567065075 0 5.8143552943192551e-05 -0.025888436786340729 0 9.540582875874319e-05 -0.026019105895072541 0 5.8143552943192551e-05 -0.025888436786340729 0 7.3748259778655523e-05 -0.026081017199091686 0 9.540582875874319e-05 -0.026019105895072541 0 8.6731312211523162e-05 -0.026180705086498734 0 7.3748259778655523e-05 -0.026081017199091686 0 0.00011942209271034988 -0.025875289567065075 0 0.00018338120011576758 -0.025873200731376667 0 0.00015129892758541878 -0.025992737979868789 0 0.00010712968252021386 -0.026063336646649678 0 0.00011942209271034988 -0.025875289567065075 0 0.00015129892758541878 -0.025992737979868789 0 9.540582875874319e-05 -0.026019105895072541 0 0.00010712968252021386 -0.026063336646649678 0 0.00011942209271034988 -0.025875289567065075 0 0.00010712968252021386 -0.026063336646649678 0 0.00015129892758541878 -0.025992737979868789 0 9.6261190794255034e-05 -0.026109702407329297 0 0.00010510248737273962 -0.025676362208646598 0 3.2144550184916678e-05 -0.025652960499897331 0 0.00011942209271034988 -0.025875289567065075 0 0.00010510248737273962 -0.025676362208646598 0 0.00011942209271034988 -0.025875289567065075 0 0.00018338120011576758 -0.025873200731376667 0 0.00010510248737273962 -0.025676362208646598 0 0.00018338120011576758 -0.025873200731376667 0 0.00018490287342436088 -0.02583907017754105 0 0.00018338120011576758 -0.025873200731376667 0 0.00019993086912794902 -0.025957650200328031 0 0.00022945817337019975 -0.025899719712874813 0 0.00018338120011576758 -0.025873200731376667 0 0.00022945817337019975 -0.025899719712874813 0 0.00018490287342436088 -0.02583907017754105 0 0.00015129892758541878 -0.025992737979868789 0 9.6261190794255034e-05 -0.026109702407329297 0 0.00014400274333102608 -0.026037403053204417 0 0.00018338120011576758 -0.025873200731376667 0 0.00015129892758541878 -0.025992737979868789 0 0.00019993086912794902 -0.025957650200328031 0 0.00015129892758541878 -0.025992737979868789 0 0.00019993086912794902 -0.025957650200328031 0 0.00014400274333102608 -0.026037403053204417 0 0.00019993086912794902 -0.025957650200328031 0 0.00021470329817100512 -0.025927780904320293 0 0.00014400274333102608 -0.026037403053204417 0 0.00021470329817100512 -0.025927780904320293 0 0.00016169176398206033 -0.025965881053573246 0 0.00014400274333102608 -0.026037403053204417 0 0.00019993086912794902 -0.025957650200328031 0 0.00021470329817100512 -0.025927780904320293 0 0.0002648091580088326 -0.025885927347222795 0 0.00021470329817100512 -0.025927780904320293 0 0.0002648091580088326 -0.025885927347222795 0 0.00024731785028745426 -0.025838204737798357 0 0.00021470329817100512 -0.025927780904320293 0 0.00016169176398206033 -0.025965881053573246 0 0.00019494004388667427 -0.025872101881108701 0 0.00022945817337019975 -0.025899719712874813 0 0.00027870239452132634 -0.025879758273973819 0 0.00018490287342436088 -0.02583907017754105 0 0.00019993086912794902 -0.025957650200328031 0 0.00022945817337019975 -0.025899719712874813 0 0.0002648091580088326 -0.025885927347222795 0 0.00022945817337019975 -0.025899719712874813 0 0.0002648091580088326 -0.025885927347222795 0 0.00027870239452132634 -0.025879758273973819 0 0.00022157177929917884 -0.025867185147306498 0 -3.3009732391963254e-05 -0.025855922090390407 0 0.00035578526675034161 -0.025857616668339547 0 -0.00037707121610155265 -0.024726896752785901 0 -0.00026326941359600028 -0.024576466490750085 0 0.00022157177929917884 -0.025867185147306498 0 -3.3009732391963254e-05 -0.025855922090390407 0 0.00018490287342436088 -0.02583907017754105 0 0.00022157177929917884 -0.025867185147306498 0 0.00035578526675034161 -0.025857616668339547 0 0.0003054432446779562 -0.02586093441736691 0 0.00027870239452132634 -0.025879758273973819 0 0.00022157177929917884 -0.025867185147306498 0 0.0003054432446779562 -0.02586093441736691 0 0.00027870239452132634 -0.025879758273973819 0 0.00022157177929917884 -0.025867185147306498 0 0.00018490287342436088 -0.02583907017754105 0 -0.0003368283491590501 -0.023357476392542448 0 -0.00075206732767549214 -0.023654055944875647 0 -0.00088531190287114618 -0.023137971222262584 0 -0.00029023317636562554 -0.024947942880143976 0 -0.00037707121610155265 -0.024726896752785901 0 -0.00021517341025173903 -0.023801516900827845 0 -0.00028557202877449949 -0.02493130695732728 0 -0.00075206732767549214 -0.023654055944875647 0 -0.0003368283491590501 -0.023357476392542448 0 -0.00021517341025173903 -0.023801516900827845 0 -0.00075206732767549214 -0.023654055944875647 0 3.6611272017626393e-05 -0.025556360733172301 0 -3.3009732391963254e-05 -0.025855922090390407 0 0.00018490287342436088 -0.02583907017754105 0 0.00010510248737273962 -0.025676362208646598 0 3.6611272017626393e-05 -0.025556360733172301 0 0.00018490287342436088 -0.02583907017754105 0 -0.00017010232202527338 -0.026311233007060293 0 -0.00011539674541737113 -0.026361412907569867 0 -4.2354901494144574e-05 -0.026750501948095858 0 -0.00017010232202527338 -0.026311233007060293 0 -0.0001048532348202144 -0.026408188157950721 0 -0.00011539674541737113 -0.026361412907569867 0 -0.00017010232202527338 -0.026311233007060293 0 -0.0001048532348202144 -0.026408188157950721 0 -0.00055614062468758692 -0.026736156601361197 0 -0.00020281418402777078 -0.027229629127240543 0 -0.00050507429891870315 -0.027651461114031467 0 -0.0001048532348202144 -0.026408188157950721 0 4.1862675568177022e-05 -0.026366452993933708 0 -0.00011099845371780001 -0.026751471280678611 0 -0.0001048532348202144 -0.026408188157950721 0 -3.6643426790327906e-05 -0.026300221451724975 0 4.1862675568177022e-05 -0.026366452993933708 0 -0.0001048532348202144 -0.026408188157950721 0 -0.00011539674541737113 -0.026361412907569867 0 -3.6643426790327906e-05 -0.026300221451724975 0 -0.00011539674541737113 -0.026361412907569867 0 -3.6643426790327906e-05 -0.026300221451724975 0 -8.3990482119465323e-05 -0.026371636473697453 0 -3.6643426790327906e-05 -0.026300221451724975 0 1.4565004248128698e-05 -0.026230147682924847 0 -8.3990482119465323e-05 -0.026371636473697453 0 -3.6643426790327906e-05 -0.026300221451724975 0 5.5699508627963155e-05 -0.026199165944151122 0 1.4565004248128698e-05 -0.026230147682924847 0 -3.6643426790327906e-05 -0.026300221451724975 0 4.1862675568177022e-05 -0.026366452993933708 0 5.5699508627963155e-05 -0.026199165944151122 0 4.1862675568177022e-05 -0.026366452993933708 0 8.6731312211523162e-05 -0.026180705086498734 0 5.5699508627963155e-05 -0.026199165944151122 0 0.00010712968252021386 -0.026063336646649678 0 8.6731312211523162e-05 -0.026180705086498734 0 5.5699508627963155e-05 -0.026199165944151122 0 5.5699508627963155e-05 -0.026199165944151122 0 9.6261190794255034e-05 -0.026109702407329297 0 1.4565004248128698e-05 -0.026230147682924847 0 0.00010712968252021386 -0.026063336646649678 0 5.5699508627963155e-05 -0.026199165944151122 0 9.6261190794255034e-05 -0.026109702407329297 0 9.6261190794255034e-05 -0.026109702407329297 0 6.8623285878883673e-05 -0.026138572288533213 0 1.4565004248128698e-05 -0.026230147682924847 0 9.6261190794255034e-05 -0.026109702407329297 0 6.8623285878883673e-05 -0.026138572288533213 0 0.00014400274333102608 -0.026037403053204417 0 0.00016169176398206033 -0.025965881053573246 0 0.00014400274333102608 -0.026037403053204417 0 0.00011089274891605864 -0.026032478528505865 0 6.8623285878883673e-05 -0.026138572288533213 0 0.00014400274333102608 -0.026037403053204417 0 0.00011089274891605864 -0.026032478528505865 0 0.00016169176398206033 -0.025965881053573246 0 0.00011089274891605864 -0.026032478528505865 0 0.00013418291850733049 -0.025915314995147654 0 0.00011089274891605864 -0.026032478528505865 0 5.6316185454738406e-05 -0.02610205732052669 0 8.0745485194877453e-05 -0.025981774347846629 0 5.6316185454738406e-05 -0.02610205732052669 0 3.0175188856216098e-05 -0.026029971136077083 0 8.0745485194877453e-05 -0.025981774347846629 0 0.00011089274891605864 -0.026032478528505865 0 8.0745485194877453e-05 -0.025981774347846629 0 0.00013418291850733049 -0.025915314995147654 0 6.8623285878883673e-05 -0.026138572288533213 0 0.00011089274891605864 -0.026032478528505865 0 5.6316185454738406e-05 -0.02610205732052669 0 6.8623285878883673e-05 -0.026138572288533213 0 5.6316185454738406e-05 -0.02610205732052669 0 -1.2649419145704124e-05 -0.026260461178299006 0 5.6316185454738406e-05 -0.02610205732052669 0 1.7385748523938326e-06 -0.02615643974540454 0 -1.2649419145704124e-05 -0.026260461178299006 0 5.6316185454738406e-05 -0.02610205732052669 0 1.7385748523938326e-06 -0.02615643974540454 0 3.0175188856216098e-05 -0.026029971136077083 0 1.7385748523938326e-06 -0.02615643974540454 0 -1.6851207294760792e-05 -0.02605387292962854 0 3.0175188856216098e-05 -0.026029971136077083 0 1.7385748523938326e-06 -0.02615643974540454 0 -3.9034373481790029e-05 -0.026285142381715733 0 -5.829198688919584e-05 -0.026189350152438721 0 1.7385748523938326e-06 -0.02615643974540454 0 -5.829198688919584e-05 -0.026189350152438721 0 -1.6851207294760792e-05 -0.02605387292962854 0 -1.2649419145704124e-05 -0.026260461178299006 0 -3.9034373481790029e-05 -0.026285142381715733 0 -6.2546206729056854e-05 -0.026431541605780356 0 1.7385748523938326e-06 -0.02615643974540454 0 -1.2649419145704124e-05 -0.026260461178299006 0 -3.9034373481790029e-05 -0.026285142381715733 0 -1.2649419145704124e-05 -0.026260461178299006 0 1.4565004248128698e-05 -0.026230147682924847 0 -8.3990482119465323e-05 -0.026371636473697453 0 -1.2649419145704124e-05 -0.026260461178299006 0 -8.3990482119465323e-05 -0.026371636473697453 0 -6.2546206729056854e-05 -0.026431541605780356 0 6.8623285878883673e-05 -0.026138572288533213 0 -1.2649419145704124e-05 -0.026260461178299006 0 1.4565004248128698e-05 -0.026230147682924847 0 -0.00011539674541737113 -0.026361412907569867 0 -8.3990482119465323e-05 -0.026371636473697453 0 -4.2354901494144574e-05 -0.026750501948095858 0 -8.3990482119465323e-05 -0.026371636473697453 0 -6.2546206729056854e-05 -0.026431541605780356 0 -4.2354901494144574e-05 -0.026750501948095858 0 -3.9034373481790029e-05 -0.026285142381715733 0 -6.2546206729056854e-05 -0.026431541605780356 0 -9.249840892441368e-05 -0.026420847505991989 0 -3.9034373481790029e-05 -0.026285142381715733 0 -5.829198688919584e-05 -0.026189350152438721 0 -9.249840892441368e-05 -0.026420847505991989 0 -0.00011780388386378604 -0.026263005625420072 0 -5.829198688919584e-05 -0.026189350152438721 0 -9.249840892441368e-05 -0.026420847505991989 0 -0.00016180145401883448 -0.026370135749454533 0 -9.249840892441368e-05 -0.026420847505991989 0 -0.00016431006917718951 -0.026562562170888739 0 -0.00016180145401883448 -0.026370135749454533 0 -0.00016431006917718951 -0.026562562170888739 0 -0.0002687642996291809 -0.026384423201186984 0 -0.00011780388386378604 -0.026263005625420072 0 -0.00016180145401883448 -0.026370135749454533 0 -9.249840892441368e-05 -0.026420847505991989 0 -9.249840892441368e-05 -0.026420847505991989 0 -0.00016431006917718951 -0.026562562170888739 0 -4.2354901494144574e-05 -0.026750501948095858 0 -6.2546206729056854e-05 -0.026431541605780356 0 -9.249840892441368e-05 -0.026420847505991989 0 -4.2354901494144574e-05 -0.026750501948095858 0 -0.00021456474781230905 -0.026785896303294747 0 -0.00016431006917718951 -0.026562562170888739 0 -4.2354901494144574e-05 -0.026750501948095858 0 -0.00021456474781230905 -0.026785896303294747 0 -0.00025099315868171493 -0.027017171681540126 0 -4.2354901494144574e-05 -0.026750501948095858 0 -0.00039073502842117515 -0.027023699468135983 0 -0.00049947971232434116 -0.027188853962496519 0 -0.0002397419315099174 -0.026431307140121311 0 -0.00016431006917718951 -0.026562562170888739 0 -0.00024580203518370772 -0.026639090726745203 0 -0.0002687642996291809 -0.026384423201186984 0 -0.00021456474781230905 -0.026785896303294747 0 -0.00016431006917718951 -0.026562562170888739 0 -0.00024580203518370772 -0.026639090726745203 0 -0.00024580203518370772 -0.026639090726745203 0 -0.0002687642996291809 -0.026384423201186984 0 -0.0002397419315099174 -0.026431307140121311 0 -0.00039073502842117515 -0.027023699468135983 0 -0.00024580203518370772 -0.026639090726745203 0 -0.0002397419315099174 -0.026431307140121311 0 -0.00039073502842117515 -0.027023699468135983 0 -0.00021456474781230905 -0.026785896303294747 0 -0.00025099315868171493 -0.027017171681540126 0 -0.00039073502842117515 -0.027023699468135983 0 -0.00021456474781230905 -0.026785896303294747 0 -0.00024580203518370772 -0.026639090726745203 0 -0.00039073502842117515 -0.027023699468135983 0 -0.00025099315868171493 -0.027017171681540126 0 -0.00032576560496010582 -0.027494957529841837 0 -0.00020281418402777078 -0.027229629127240543 0 -5.0961231115326396e-05 -0.026804865466509072 0 -0.00025099315868171493 -0.027017171681540126 0 -4.2354901494144574e-05 -0.026750501948095858 0 -0.00032576560496010582 -0.027494957529841837 0 -0.00018634675743131992 -0.028141589217867521 0 -4.2354901494144574e-05 -0.026750501948095858 0 -0.00032576560496010582 -0.027494957529841837 0 -0.0005379429103050899 -0.025589746435495976 0 -0.00033789067141096446 -0.025720853254005367 0 -0.00035040533089335989 -0.025380664888420511 0 -0.0005379429103050899 -0.025589746435495976 0 -0.00048674634720097823 -0.025877948518979267 0 -0.00033789067141096446 -0.025720853254005367 0 -0.00072695041706426742 -0.025776814706783654 0 -0.0005379429103050899 -0.025589746435495976 0 -0.00048674634720097823 -0.025877948518979267 0 0.0010937399676417571 -0.028077874264926736 0 0.0011081379128761836 -0.027834136682349353 0 0.0013668514701986219 -0.02807755086396262 0 0.00019478462503007464 -0.026812151761949302 0 0.00029478117813798893 -0.02714762627671927 0 -0.00072695041706426742 -0.025776814706783654 0 -0.00048674634720097823 -0.025877948518979267 0 -0.00034428856783845149 -0.026308887787731862 0 -0.0002687642996291809 -0.026384423201186984 0 -0.00048674634720097823 -0.025877948518979267 0 -0.00029647158063143088 -0.026109576928870368 0 -0.0002687642996291809 -0.026384423201186984 0 -0.00048674634720097823 -0.025877948518979267 0 -0.00034428856783845149 -0.026308887787731862 0 0.00011620683561143229 -0.026968076878779525 0 0.00029478117813798893 -0.02714762627671927 0 -0.00048674634720097823 -0.025877948518979267 0 -0.00029647158063143088 -0.026109576928870368 0 -0.00026155577932875145 -0.02598197463644368 0 -0.00048674634720097823 -0.025877948518979267 0 -0.00026155577932875145 -0.02598197463644368 0 -0.00033789067141096446 -0.025720853254005367 0 -0.00026155577932875145 -0.02598197463644368 0 -0.0001773013448962165 -0.026044695732410344 0 -0.00015987709620855962 -0.025889357562325601 0 -0.00026155577932875145 -0.02598197463644368 0 -0.00015987709620855962 -0.025889357562325601 0 -0.00033789067141096446 -0.025720853254005367 0 -0.00029647158063143088 -0.026109576928870368 0 -0.00026155577932875145 -0.02598197463644368 0 -0.00018802851543282822 -0.026187226382448945 0 -0.0001773013448962165 -0.026044695732410344 0 -0.00018802851543282822 -0.026187226382448945 0 -0.00011475717775640555 -0.026121987820098044 0 -0.00026155577932875145 -0.02598197463644368 0 -0.0001773013448962165 -0.026044695732410344 0 -0.00018802851543282822 -0.026187226382448945 0 -0.00011780388386378604 -0.026263005625420072 0 -0.00018802851543282822 -0.026187226382448945 0 -0.00011475717775640555 -0.026121987820098044 0 -0.00011780388386378604 -0.026263005625420072 0 -0.00016180145401883448 -0.026370135749454533 0 -0.00018802851543282822 -0.026187226382448945 0 -0.0002687642996291809 -0.026384423201186984 0 -0.00029647158063143088 -0.026109576928870368 0 -0.00018802851543282822 -0.026187226382448945 0 -0.00016180145401883448 -0.026370135749454533 0 -0.0002687642996291809 -0.026384423201186984 0 -0.00018802851543282822 -0.026187226382448945 0 -0.00011475717775640555 -0.026121987820098044 0 -0.00015987709620855962 -0.025889357562325601 0 -6.7898534282681173e-05 -0.026011815313161591 0 -5.829198688919584e-05 -0.026189350152438721 0 -0.00011475717775640555 -0.026121987820098044 0 -6.7898534282681173e-05 -0.026011815313161591 0 -0.00011780388386378604 -0.026263005625420072 0 -5.829198688919584e-05 -0.026189350152438721 0 -0.00011475717775640555 -0.026121987820098044 0 -0.00015987709620855962 -0.025889357562325601 0 -0.00012853944193855037 -0.02576555691902821 0 -6.7136304135660276e-05 -0.025854239477785767 0 -0.00015987709620855962 -0.025889357562325601 0 -6.7136304135660276e-05 -0.025854239477785767 0 -6.7898534282681173e-05 -0.026011815313161591 0 -0.0001773013448962165 -0.026044695732410344 0 -0.00011475717775640555 -0.026121987820098044 0 -0.00015987709620855962 -0.025889357562325601 0 -0.00015987709620855962 -0.025889357562325601 0 -0.00012853944193855037 -0.02576555691902821 0 -0.00019653205439654751 -0.025611019554864698 0 -0.00033789067141096446 -0.025720853254005367 0 -0.00019653205439654751 -0.025611019554864698 0 -0.00035040533089335989 -0.025380664888420511 0 -0.00015987709620855962 -0.025889357562325601 0 -0.00033789067141096446 -0.025720853254005367 0 -0.00019653205439654751 -0.025611019554864698 0 -0.00019653205439654751 -0.025611019554864698 0 -7.6170030520218173e-05 -0.025564349414047106 0 -0.00017664310580321808 -0.025356352625669452 0 -7.6170030520218173e-05 -0.025564349414047106 0 6.3486095550808795e-06 -0.02552506380143044 0 -4.5045801627874744e-05 -0.025348609394306981 0 -7.6170030520218173e-05 -0.025564349414047106 0 -3.6756844616325935e-06 -0.02574585085715364 0 6.3486095550808795e-06 -0.02552506380143044 0 -7.6170030520218173e-05 -0.025564349414047106 0 -3.6756844616325935e-06 -0.02574585085715364 0 -6.6594024122385329e-05 -0.025719585609404485 0 -0.00012853944193855037 -0.02576555691902821 0 -0.00019653205439654751 -0.025611019554864698 0 -6.6594024122385329e-05 -0.025719585609404485 0 -3.6756844616325935e-06 -0.02574585085715364 0 -6.6594024122385329e-05 -0.025719585609404485 0 -6.7136304135660276e-05 -0.025854239477785767 0 -0.00019653205439654751 -0.025611019554864698 0 -7.6170030520218173e-05 -0.025564349414047106 0 -6.6594024122385329e-05 -0.025719585609404485 0 -0.00012853944193855037 -0.02576555691902821 0 -6.6594024122385329e-05 -0.025719585609404485 0 -6.7136304135660276e-05 -0.025854239477785767 0 -6.7136304135660276e-05 -0.025854239477785767 0 -6.7898534282681173e-05 -0.026011815313161591 0 -1.0764395122745472e-05 -0.025935900477530291 0 -6.7898534282681173e-05 -0.026011815313161591 0 -1.6851207294760792e-05 -0.02605387292962854 0 -1.0764395122745472e-05 -0.025935900477530291 0 -5.829198688919584e-05 -0.026189350152438721 0 -6.7898534282681173e-05 -0.026011815313161591 0 -1.6851207294760792e-05 -0.02605387292962854 0 -1.6851207294760792e-05 -0.02605387292962854 0 3.0175188856216098e-05 -0.026029971136077083 0 -1.0764395122745472e-05 -0.025935900477530291 0 3.0175188856216098e-05 -0.026029971136077083 0 -1.0764395122745472e-05 -0.025935900477530291 0 4.3552081508017687e-05 -0.025905751883578319 0 -3.6756844616325935e-06 -0.02574585085715364 0 -1.0764395122745472e-05 -0.025935900477530291 0 4.3552081508017687e-05 -0.025905751883578319 0 -3.6756844616325935e-06 -0.02574585085715364 0 4.3552081508017687e-05 -0.025905751883578319 0 6.6047408946225475e-05 -0.025795146646307124 0 -3.6756844616325935e-06 -0.02574585085715364 0 -6.7136304135660276e-05 -0.025854239477785767 0 -1.0764395122745472e-05 -0.025935900477530291 0 6.6047408946225475e-05 -0.025795146646307124 0 0.00012669381353606898 -0.025773019922395057 0 6.1051725536283581e-05 -0.025672577917135411 0 6.6047408946225475e-05 -0.025795146646307124 0 9.8334948358561004e-05 -0.025871117741498188 0 0.00012669381353606898 -0.025773019922395057 0 4.3552081508017687e-05 -0.025905751883578319 0 6.6047408946225475e-05 -0.025795146646307124 0 9.8334948358561004e-05 -0.025871117741498188 0 4.3552081508017687e-05 -0.025905751883578319 0 9.8334948358561004e-05 -0.025871117741498188 0 8.0745485194877453e-05 -0.025981774347846629 0 9.8334948358561004e-05 -0.025871117741498188 0 8.0745485194877453e-05 -0.025981774347846629 0 0.00013418291850733049 -0.025915314995147654 0 3.0175188856216098e-05 -0.026029971136077083 0 4.3552081508017687e-05 -0.025905751883578319 0 8.0745485194877453e-05 -0.025981774347846629 0 0.00016169176398206033 -0.025965881053573246 0 0.00013418291850733049 -0.025915314995147654 0 0.00019494004388667427 -0.025872101881108701 0 0.00013418291850733049 -0.025915314995147654 0 0.00016018066931015266 -0.02583751590121763 0 0.00019494004388667427 -0.025872101881108701 0 9.8334948358561004e-05 -0.025871117741498188 0 0.00013418291850733049 -0.025915314995147654 0 0.00016018066931015266 -0.02583751590121763 0 0.00016018066931015266 -0.02583751590121763 0 0.00012669381353606898 -0.025773019922395057 0 0.00020559862551892583 -0.02575825773104921 0 0.00012669381353606898 -0.025773019922395057 0 0.00015133042684561888 -0.025626983496712701 0 0.00020559862551892583 -0.02575825773104921 0 9.8334948358561004e-05 -0.025871117741498188 0 0.00016018066931015266 -0.02583751590121763 0 0.00012669381353606898 -0.025773019922395057 0 0.00015133042684561888 -0.025626983496712701 0 6.1051725536283581e-05 -0.025672577917135411 0 7.4193719482900747e-05 -0.025426357256586395 0 0.00012669381353606898 -0.025773019922395057 0 0.00015133042684561888 -0.025626983496712701 0 6.1051725536283581e-05 -0.025672577917135411 0 -3.6756844616325935e-06 -0.02574585085715364 0 6.1051725536283581e-05 -0.025672577917135411 0 6.3486095550808795e-06 -0.02552506380143044 0 -3.6756844616325935e-06 -0.02574585085715364 0 6.6047408946225475e-05 -0.025795146646307124 0 6.1051725536283581e-05 -0.025672577917135411 0 6.1051725536283581e-05 -0.025672577917135411 0 6.3486095550808795e-06 -0.02552506380143044 0 7.4193719482900747e-05 -0.025426357256586395 0 6.3486095550808795e-06 -0.02552506380143044 0 7.4193719482900747e-05 -0.025426357256586395 0 -4.5045801627874744e-05 -0.025348609394306981 0 0.00015133042684561888 -0.025626983496712701 0 7.4193719482900747e-05 -0.025426357256586395 0 0.00019349647852608701 -0.02545223510753037 0 7.4193719482900747e-05 -0.025426357256586395 0 3.1978044656682402e-05 -0.025149313292103806 0 0.00014964453350942343 -0.025217631388232326 0 7.4193719482900747e-05 -0.025426357256586395 0 0.00019349647852608701 -0.02545223510753037 0 0.00014964453350942343 -0.025217631388232326 0 7.4193719482900747e-05 -0.025426357256586395 0 3.1978044656682402e-05 -0.025149313292103806 0 -4.5045801627874744e-05 -0.025348609394306981 0 3.1978044656682402e-05 -0.025149313292103806 0 0.00014964453350942343 -0.025217631388232326 0 0.00014600229500085472 -0.024929948357985402 0 3.1978044656682402e-05 -0.025149313292103806 0 3.0306312959031039e-05 -0.024971734753306551 0 0.00014600229500085472 -0.024929948357985402 0 3.0306312959031039e-05 -0.024971734753306551 0 0.00014600229500085472 -0.024929948357985402 0 0.00016939322289725661 -0.02479080332360302 0 -4.469779700307398e-05 -0.02490202448674949 0 3.0306312959031039e-05 -0.024971734753306551 0 0.00016939322289725661 -0.02479080332360302 0 -4.469779700307398e-05 -0.02490202448674949 0 3.0306312959031039e-05 -0.024971734753306551 0 -0.00011056620449426185 -0.025102395467343167 0 3.1978044656682402e-05 -0.025149313292103806 0 3.0306312959031039e-05 -0.024971734753306551 0 -0.00011056620449426185 -0.025102395467343167 0 -0.00018411872678246823 -0.024966827897638186 0 -0.00025094892426983501 -0.025142748142550676 0 -0.00031999208710234347 -0.024945140409380388 0 -4.469779700307398e-05 -0.02490202448674949 0 -0.00011056620449426185 -0.025102395467343167 0 -0.00018411872678246823 -0.024966827897638186 0 -0.00011056620449426185 -0.025102395467343167 0 -0.00018411872678246823 -0.024966827897638186 0 -0.00025094892426983501 -0.025142748142550676 0 -0.00011056620449426185 -0.025102395467343167 0 -0.00017664310580321808 -0.025356352625669452 0 -0.00025094892426983501 -0.025142748142550676 0 3.1978044656682402e-05 -0.025149313292103806 0 -0.00011056620449426185 -0.025102395467343167 0 -4.5045801627874744e-05 -0.025348609394306981 0 -0.00011056620449426185 -0.025102395467343167 0 -4.5045801627874744e-05 -0.025348609394306981 0 -0.00017664310580321808 -0.025356352625669452 0 -7.6170030520218173e-05 -0.025564349414047106 0 -4.5045801627874744e-05 -0.025348609394306981 0 -0.00017664310580321808 -0.025356352625669452 0 -0.00019653205439654751 -0.025611019554864698 0 -0.00017664310580321808 -0.025356352625669452 0 -0.00035040533089335989 -0.025380664888420511 0 -0.00035040533089335989 -0.025380664888420511 0 -0.00025094892426983501 -0.025142748142550676 0 -0.00037446210422462323 -0.025127124254920183 0 -0.00035040533089335989 -0.025380664888420511 0 -0.00037446210422462323 -0.025127124254920183 0 -0.00045562842283720321 -0.025225104088482345 0 -0.00017664310580321808 -0.025356352625669452 0 -0.00035040533089335989 -0.025380664888420511 0 -0.00025094892426983501 -0.025142748142550676 0 -0.00037446210422462323 -0.025127124254920183 0 -0.0004837886900602486 -0.024979983980343599 0 -0.00031999208710234347 -0.024945140409380388 0 -0.00025094892426983501 -0.025142748142550676 0 -0.00037446210422462323 -0.025127124254920183 0 -0.00031999208710234347 -0.024945140409380388 0 -0.0004832056067971176 -0.02510912900710802 0 -0.00054478908929800004 -0.025185740628067287 0 -0.00045562842283720321 -0.025225104088482345 0 -0.00037446210422462323 -0.025127124254920183 0 -0.0004832056067971176 -0.02510912900710802 0 -0.00045562842283720321 -0.025225104088482345 0 -0.00037446210422462323 -0.025127124254920183 0 -0.0004832056067971176 -0.02510912900710802 0 -0.0004837886900602486 -0.024979983980343599 0 -0.0004832056067971176 -0.02510912900710802 0 -0.00055392078443429753 -0.025050140208591361 0 -0.0004837886900602486 -0.024979983980343599 0 -0.00063097063996426801 -0.025121870531998415 0 -0.00055392078443429753 -0.025050140208591361 0 -0.00054478908929800004 -0.025185740628067287 0 -0.0004832056067971176 -0.02510912900710802 0 -0.00055392078443429753 -0.025050140208591361 0 -0.00054478908929800004 -0.025185740628067287 0 -0.00054478908929800004 -0.025185740628067287 0 -0.00045562842283720321 -0.025225104088482345 0 -0.00053478418697073746 -0.025347192603706749 0 -0.00064605994643549881 -0.025271833599938398 0 -0.00054478908929800004 -0.025185740628067287 0 -0.00053478418697073746 -0.025347192603706749 0 -0.00035040533089335989 -0.025380664888420511 0 -0.00045562842283720321 -0.025225104088482345 0 -0.00053478418697073746 -0.025347192603706749 0 -0.0005379429103050899 -0.025589746435495976 0 -0.00035040533089335989 -0.025380664888420511 0 -0.00053478418697073746 -0.025347192603706749 0 -0.00068663229302016473 -0.025460123131976781 0 -0.0005379429103050899 -0.025589746435495976 0 -0.00053478418697073746 -0.025347192603706749 0 0.00035578526675034161 -0.025857616668339547 0 0.00043048245337565954 -0.02567190841752914 0 0.00060875112270419819 -0.025426894345408582 0 -0.00088531190287114618 -0.023137971222262584 0 -0.00074973434589889996 -0.023027019936414404 0 -0.00099998795655646699 -0.022783385761961324 0 -0.00014759057830753911 -0.022901751514137682 0 -0.00012224260016758528 -0.022816832916157891 0 -0.00015325782592450778 -0.023000781972168243 0 -0.00026326941359600028 -0.024576466490750085 0 -0.0001742764556446992 -0.023626705483159753 0 -0.00054918807062412714 -0.022778911373637484 0 -0.0001742764556446992 -0.023626705483159753 0 -0.00014759057830753911 -0.022901751514137682 0 -0.00015325782592450778 -0.023000781972168243 0 -0.00017904815211945485 -0.022975183295347559 0 -0.00014759057830753911 -0.022901751514137682 0 -9.5881751232366352e-05 -0.022829711013116663 0 -0.00015700482255815947 -0.022928962261624688 0 -0.00014759057830753911 -0.022901751514137682 0 -0.00015700482255815947 -0.022928962261624688 0 -0.00017904815211945485 -0.022975183295347559 0 -9.5881751232366352e-05 -0.022829711013116663 0 -0.00015700482255815947 -0.022928962261624688 0 -0.00010470221350945536 -0.022871914839092861 0 -9.5881751232366352e-05 -0.022829711013116663 0 -5.559207625424976e-05 -0.022805058842156702 0 -0.00010470221350945536 -0.022871914839092861 0 -5.2023487495792027e-06 -0.02274618682159139 0 1.8125726119496921e-05 -0.022736942736947513 0 -5.559207625424976e-05 -0.022805058842156702 0 -5.2023487495792027e-06 -0.02274618682159139 0 -9.5881751232366352e-05 -0.022829711013116663 0 -5.559207625424976e-05 -0.022805058842156702 0 -5.8273802859164061e-05 -0.022813000181760287 0 -5.2023487495792027e-06 -0.02274618682159139 0 -7.8415098358292242e-05 -0.02280299043046986 0 -5.2023487495792027e-06 -0.02274618682159139 0 -9.5881751232366352e-05 -0.022829711013116663 0 -7.8415098358292242e-05 -0.02280299043046986 0 -9.5881751232366352e-05 -0.022829711013116663 0 -7.8415098358292242e-05 -0.02280299043046986 0 -0.00012224260016758528 -0.022816832916157891 0 -0.00014759057830753911 -0.022901751514137682 0 -9.5881751232366352e-05 -0.022829711013116663 0 -0.00012224260016758528 -0.022816832916157891 0 -0.0003368283491590501 -0.023357476392542448 0 -0.00088531190287114618 -0.023137971222262584 0 -0.00074973434589889996 -0.023027019936414404 0 -5.8273802859164061e-05 -0.022813000181760287 0 -0.00010971157713005315 -0.022937197331211343 0 -0.00012224260016758528 -0.022816832916157891 0 -0.00017563617736403056 -0.023201399280182809 0 -0.00054918807062412714 -0.022778911373637484 0 -5.8273802859164061e-05 -0.022813000181760287 0 -7.8415098358292242e-05 -0.02280299043046986 0 -0.00012224260016758528 -0.022816832916157891 0 0.00035578526675034161 -0.025857616668339547 0 0.0003446154412164857 -0.025816600357025495 0 0.00043048245337565954 -0.02567190841752914 0 0.00035578526675034161 -0.025857616668339547 0 0.0003054432446779562 -0.02586093441736691 0 0.0003446154412164857 -0.025816600357025495 0 0.0002648091580088326 -0.025885927347222795 0 0.00027870239452132634 -0.025879758273973819 0 0.0003446154412164857 -0.025816600357025495 0 0.00027870239452132634 -0.025879758273973819 0 0.0003054432446779562 -0.02586093441736691 0 0.0003446154412164857 -0.025816600357025495 0 0.0002648091580088326 -0.025885927347222795 0 0.0003446154412164857 -0.025816600357025495 0 0.00030550774876145177 -0.025795968667731647 0 0.00035931121990152935 -0.025706966537567814 0 0.00030550774876145177 -0.025795968667731647 0 0.00028254298336304236 -0.025728538890574915 0 0.0003446154412164857 -0.025816600357025495 0 0.00035931121990152935 -0.025706966537567814 0 0.00030550774876145177 -0.025795968667731647 0 0.0003446154412164857 -0.025816600357025495 0 0.00035931121990152935 -0.025706966537567814 0 0.00043048245337565954 -0.02567190841752914 0 0.00021470329817100512 -0.025927780904320293 0 0.00019494004388667427 -0.025872101881108701 0 0.00024731785028745426 -0.025838204737798357 0 0.00019494004388667427 -0.025872101881108701 0 0.00024731785028745426 -0.025838204737798357 0 0.00020559862551892583 -0.02575825773104921 0 0.0002648091580088326 -0.025885927347222795 0 0.00030550774876145177 -0.025795968667731647 0 0.00024731785028745426 -0.025838204737798357 0 0.00030550774876145177 -0.025795968667731647 0 0.00024731785028745426 -0.025838204737798357 0 0.00028254298336304236 -0.025728538890574915 0 0.00024731785028745426 -0.025838204737798357 0 0.00028254298336304236 -0.025728538890574915 0 0.00020559862551892583 -0.02575825773104921 0 0.00016018066931015266 -0.02583751590121763 0 0.00019494004388667427 -0.025872101881108701 0 0.00020559862551892583 -0.02575825773104921 0 0.00028254298336304236 -0.025728538890574915 0 0.00020559862551892583 -0.02575825773104921 0 0.00024099128520840574 -0.025616278940487746 0 0.00015133042684561888 -0.025626983496712701 0 0.00024099128520840574 -0.025616278940487746 0 0.00019349647852608701 -0.02545223510753037 0 0.00015133042684561888 -0.025626983496712701 0 0.00020559862551892583 -0.02575825773104921 0 0.00024099128520840574 -0.025616278940487746 0 0.00035931121990152935 -0.025706966537567814 0 0.00028254298336304236 -0.025728538890574915 0 0.00032346566198191134 -0.02561462017004144 0 0.00024099128520840574 -0.025616278940487746 0 0.00032346566198191134 -0.02561462017004144 0 0.00029647705689506127 -0.025474709026344796 0 0.00028254298336304236 -0.025728538890574915 0 0.00024099128520840574 -0.025616278940487746 0 0.00032346566198191134 -0.02561462017004144 0 0.00029647705689506127 -0.025474709026344796 0 0.00041244320575739443 -0.025547975706300862 0 0.00036370201421784319 -0.025232007465741127 0 0.00032346566198191134 -0.02561462017004144 0 0.00029647705689506127 -0.025474709026344796 0 0.00041244320575739443 -0.025547975706300862 0 0.00029647705689506127 -0.025474709026344796 0 0.00019349647852608701 -0.02545223510753037 0 0.00025032622351127485 -0.025300782814542965 0 0.00024099128520840574 -0.025616278940487746 0 0.00029647705689506127 -0.025474709026344796 0 0.00019349647852608701 -0.02545223510753037 0 0.00035931121990152935 -0.025706966537567814 0 0.00043048245337565954 -0.02567190841752914 0 0.00041244320575739443 -0.025547975706300862 0 0.00035931121990152935 -0.025706966537567814 0 0.00032346566198191134 -0.02561462017004144 0 0.00041244320575739443 -0.025547975706300862 0 0.00041244320575739443 -0.025547975706300862 0 0.00060875112270419819 -0.025426894345408582 0 0.00036370201421784319 -0.025232007465741127 0 0.00043048245337565954 -0.02567190841752914 0 0.00041244320575739443 -0.025547975706300862 0 0.00060875112270419819 -0.025426894345408582 0 -0.00010581899232697735 -0.022679376722156565 0 -2.2102790591153073e-05 -0.02375960495466586 0 0.00034227866366313812 -0.024633747668360913 0 -0.0001742764556446992 -0.023626705483159753 0 -9.0058590145894389e-05 -0.023459262746696949 0 -0.0001742764556446992 -0.023626705483159753 0 0.00047540277781494151 -0.024671783675190521 0 0.00060875112270419819 -0.025426894345408582 0 0.00036370201421784319 -0.025232007465741127 0 0.00034227866366313812 -0.024633747668360913 0 -0.00015325782592450778 -0.023000781972168243 0 -2.2102790591153073e-05 -0.02375960495466586 0 -0.00032178554084491047 -0.023341968281807512 0 -2.2102790591153073e-05 -0.02375960495466586 0 -0.00032178554084491047 -0.023341968281807512 0 -2.3545790850794716e-05 -0.023948583503903515 0 0.00019349647852608701 -0.02545223510753037 0 0.00014964453350942343 -0.025217631388232326 0 0.00025032622351127485 -0.025300782814542965 0 0.00014964453350942343 -0.025217631388232326 0 0.00025032622351127485 -0.025300782814542965 0 0.00023317557599316155 -0.025069855208467745 0 0.00029647705689506127 -0.025474709026344796 0 0.00025032622351127485 -0.025300782814542965 0 0.00036370201421784319 -0.025232007465741127 0 0.00025032622351127485 -0.025300782814542965 0 0.00036370201421784319 -0.025232007465741127 0 0.00023317557599316155 -0.025069855208467745 0 0.00036370201421784319 -0.025232007465741127 0 0.00023317557599316155 -0.025069855208467745 0 0.00034227866366313812 -0.024633747668360913 0 0.00014964453350942343 -0.025217631388232326 0 0.00023317557599316155 -0.025069855208467745 0 0.00014600229500085472 -0.024929948357985402 0 0.00023317557599316155 -0.025069855208467745 0 0.00014600229500085472 -0.024929948357985402 0 0.00034227866366313812 -0.024633747668360913 0 0.00034227866366313812 -0.024633747668360913 0 0.00016939322289725661 -0.02479080332360302 0 0.00014650712927296797 -0.024613186042906722 0 0.00014600229500085472 -0.024929948357985402 0 0.00034227866366313812 -0.024633747668360913 0 0.00016939322289725661 -0.02479080332360302 0 -0.00038247748606820678 -0.023454253555322983 0 -0.00029850302056903512 -0.024069476991741574 0 -0.00032178554084491047 -0.023341968281807512 0 -0.00036193017035213138 -0.022885632858358349 0 -0.00064369445078083355 -0.022839512442421387 0 -0.00032178554084491047 -0.023341968281807512 0 -2.3545790850794716e-05 -0.023948583503903515 0 5.5154419388730428e-06 -0.024611485016384788 0 -2.2102790591153073e-05 -0.02375960495466586 0 0.00034227866366313812 -0.024633747668360913 0 -2.3545790850794716e-05 -0.023948583503903515 0 0.00034227866366313812 -0.024633747668360913 0 -2.3545790850794716e-05 -0.023948583503903515 0 0.00014650712927296797 -0.024613186042906722 0 -0.00013956291427934454 -0.024181994802617353 0 -0.00029850302056903512 -0.024069476991741574 0 -0.00036193017035213138 -0.022885632858358349 0 -0.00064369445078083355 -0.022839512442421387 0 -0.00040010540338586355 -0.022672738759073493 0 -0.00036193017035213138 -0.022885632858358349 0 -0.00024093610693997817 -0.022687885701090687 0 -0.00019661738846712815 -0.022947906934822966 0 -0.00036193017035213138 -0.022885632858358349 0 -0.00024093610693997817 -0.022687885701090687 0 -0.00040010540338586355 -0.022672738759073493 0 -0.00024093610693997817 -0.022687885701090687 0 -0.00019661738846712815 -0.022947906934822966 0 -9.0166640811813854e-05 -0.022711071512502578 0 -0.00012820339665757982 -0.022886812367960852 0 -0.00019661738846712815 -0.022947906934822966 0 -9.0166640811813854e-05 -0.022711071512502578 0 -0.00032178554084491047 -0.023341968281807512 0 -0.00036193017035213138 -0.022885632858358349 0 -0.00019661738846712815 -0.022947906934822966 0 -0.00032178554084491047 -0.023341968281807512 0 -0.00019661738846712815 -0.022947906934822966 0 -0.00023594465124849879 -0.023091729742933623 0 -0.00012820339665757982 -0.022886812367960852 0 -0.00023594465124849879 -0.023091729742933623 0 -0.00013528795407240481 -0.022935262923236881 0 -0.00012820339665757982 -0.022886812367960852 0 -0.00019661738846712815 -0.022947906934822966 0 -0.00023594465124849879 -0.023091729742933623 0 -0.00023594465124849879 -0.023091729742933623 0 -0.00013528795407240481 -0.022935262923236881 0 -0.00015700482255815947 -0.022928962261624688 0 -0.00013528795407240481 -0.022935262923236881 0 -0.00015700482255815947 -0.022928962261624688 0 -0.00010470221350945536 -0.022871914839092861 0 -0.00023594465124849879 -0.023091729742933623 0 -0.00015700482255815947 -0.022928962261624688 0 -0.00017904815211945485 -0.022975183295347559 0 -0.00015325782592450778 -0.023000781972168243 0 -0.00023594465124849879 -0.023091729742933623 0 -0.00017904815211945485 -0.022975183295347559 0 -0.00015325782592450778 -0.023000781972168243 0 -0.00032178554084491047 -0.023341968281807512 0 -0.00023594465124849879 -0.023091729742933623 0 1.8125726119496921e-05 -0.022736942736947513 0 -3.5654254769486142e-05 -0.022795330601584177 0 3.3703953092416532e-05 -0.022722781871936243 0 1.8125726119496921e-05 -0.022736942736947513 0 -5.559207625424976e-05 -0.022805058842156702 0 -3.5654254769486142e-05 -0.022795330601584177 0 -5.559207625424976e-05 -0.022805058842156702 0 -3.5654254769486142e-05 -0.022795330601584177 0 -0.00010470221350945536 -0.022871914839092861 0 -0.00013528795407240481 -0.022935262923236881 0 -0.00010470221350945536 -0.022871914839092861 0 -5.6181619384760484e-05 -0.02282104927410188 0 -3.5654254769486142e-05 -0.022795330601584177 0 -0.00010470221350945536 -0.022871914839092861 0 -5.6181619384760484e-05 -0.02282104927410188 0 -0.00012820339665757982 -0.022886812367960852 0 -5.6181619384760484e-05 -0.02282104927410188 0 1.971530135975061e-05 -0.022696539696665918 0 -0.00012820339665757982 -0.022886812367960852 0 -0.00013528795407240481 -0.022935262923236881 0 -5.6181619384760484e-05 -0.02282104927410188 0 -5.6181619384760484e-05 -0.02282104927410188 0 3.3703953092416532e-05 -0.022722781871936243 0 1.971530135975061e-05 -0.022696539696665918 0 -3.5654254769486142e-05 -0.022795330601584177 0 -5.6181619384760484e-05 -0.02282104927410188 0 3.3703953092416532e-05 -0.022722781871936243 0 -0.00012820339665757982 -0.022886812367960852 0 1.971530135975061e-05 -0.022696539696665918 0 -9.0166640811813854e-05 -0.022711071512502578 0 1.971530135975061e-05 -0.022696539696665918 0 -9.0166640811813854e-05 -0.022711071512502578 0 5.4018005217727201e-05 -0.022551606781980465 0 0.00011442879625500629 -0.022590584718038115 0 1.971530135975061e-05 -0.022696539696665918 0 5.4018005217727201e-05 -0.022551606781980465 0 5.4018005217727201e-05 -0.022551606781980465 0 -0.0001037195428052137 -0.022474017780120481 0 0.00012745193208056556 -0.022360770332508498 0 -0.0001037195428052137 -0.022474017780120481 0 -9.3674009219569875e-05 -0.022269933255226249 0 0.00012745193208056556 -0.022360770332508498 0 -9.0166640811813854e-05 -0.022711071512502578 0 5.4018005217727201e-05 -0.022551606781980465 0 -0.0001037195428052137 -0.022474017780120481 0 -9.3674009219569875e-05 -0.022269933255226249 0 4.7492667506934782e-05 -0.022072071612385353 0 0.00012745193208056556 -0.022360770332508498 0 -9.3674009219569875e-05 -0.022269933255226249 0 4.7492667506934782e-05 -0.022072071612385353 0 -0.00027975665710665098 -0.022124755103756555 0 -0.00026167434542630376 -0.022320881821992721 0 -0.00045680786969113149 -0.022318532181344625 0 -0.00027975665710665098 -0.022124755103756555 0 -9.3674009219569875e-05 -0.022269933255226249 0 -0.00026167434542630376 -0.022320881821992721 0 -0.00027975665710665098 -0.022124755103756555 0 -0.0001037195428052137 -0.022474017780120481 0 -9.3674009219569875e-05 -0.022269933255226249 0 -0.00026167434542630376 -0.022320881821992721 0 -0.00026167434542630376 -0.022320881821992721 0 -0.00032464171725422956 -0.022492201914801301 0 -0.00045680786969113149 -0.022318532181344625 0 -0.0001037195428052137 -0.022474017780120481 0 -0.00026167434542630376 -0.022320881821992721 0 -0.00032464171725422956 -0.022492201914801301 0 -0.00024093610693997817 -0.022687885701090687 0 -0.0001037195428052137 -0.022474017780120481 0 -0.00032464171725422956 -0.022492201914801301 0 -0.00024093610693997817 -0.022687885701090687 0 -9.0166640811813854e-05 -0.022711071512502578 0 -0.0001037195428052137 -0.022474017780120481 0 -0.00024093610693997817 -0.022687885701090687 0 -0.00032464171725422956 -0.022492201914801301 0 -0.00040010540338586355 -0.022672738759073493 0 -0.00064369445078083355 -0.022839512442421387 0 -0.00040010540338586355 -0.022672738759073493 0 -0.00050153509792781647 -0.022523507814892735 0 -0.00029850302056903512 -0.024069476991741574 0 -0.00067054734238443565 -0.023294743457396905 0 -0.00032464171725422956 -0.022492201914801301 0 -0.00040010540338586355 -0.022672738759073493 0 -0.00050153509792781647 -0.022523507814892735 0 -0.00064369445078083355 -0.022839512442421387 0 -0.00050153509792781647 -0.022523507814892735 0 -0.00064163276824006927 -0.022328745942307292 0 -0.00032464171725422956 -0.022492201914801301 0 -0.00050153509792781647 -0.022523507814892735 0 -0.00045680786969113149 -0.022318532181344625 0 -0.00029850302056903512 -0.024069476991741574 0 -0.00026196053413588737 -0.024733615619805065 0 0.00016939322289725661 -0.02479080332360302 0 0.00014650712927296797 -0.024613186042906722 0 0.00012089115714125467 -0.024797696454479098 0 -0.00054276323520563658 -0.024647244366452693 0 -0.00073939734632012322 -0.024465986479061785 0 -0.00061734108442210113 -0.024391931723079567 0 -0.00073939734632012322 -0.024465986479061785 0 -0.00061734108442210113 -0.024391931723079567 0 -0.00077076704321474689 -0.024257075382140815 0 -0.00045680786969113149 -0.022318532181344625 0 -0.00050957827776243903 -0.022147306144204362 0 -0.00027975665710665098 -0.022124755103756555 0 -0.00050153509792781647 -0.022523507814892735 0 -0.00064163276824006927 -0.022328745942307292 0 -0.00045680786969113149 -0.022318532181344625 0 -0.00064163276824006927 -0.022328745942307292 0 -0.00045680786969113149 -0.022318532181344625 0 -0.00050957827776243903 -0.022147306144204362 0 -0.00050957827776243903 -0.022147306144204362 0 -0.0004601037360923944 -0.021976629136807223 0 -0.00027975665710665098 -0.022124755103756555 0 -0.00050957827776243903 -0.022147306144204362 0 -0.0006589761722509916 -0.022033797722936163 0 -0.0004601037360923944 -0.021976629136807223 0 -0.00067054734238443565 -0.023294743457396905 0 -0.0006068360879054129 -0.023058900319189838 0 -0.00061734108442210113 -0.024391931723079567 0 -0.00054839282570842837 -0.02412905015346218 0 -0.00077076704321474689 -0.024257075382140815 0 -0.00064163276824006927 -0.022328745942307292 0 -0.00050957827776243903 -0.022147306144204362 0 -0.0006589761722509916 -0.022033797722936163 0 -0.0006068360879054129 -0.023058900319189838 0 -0.00077901735178409308 -0.022201010135053344 0 -0.0006589761722509916 -0.022033797722936163 0 -0.00077146964750852043 -0.022173892245457995 0 -0.00060910127744503322 -0.02195847924389624 0 -0.0004601037360923944 -0.021976629136807223 0 -0.00036518257661548542 -0.021758091159056261 0 -0.00060910127744503322 -0.02195847924389624 0 -0.0006589761722509916 -0.022033797722936163 0 -0.0004601037360923944 -0.021976629136807223 0 -0.00060910127744503322 -0.02195847924389624 0 -0.0004601037360923944 -0.021976629136807223 0 -0.00011539588202331134 -0.021819315691415445 0 -0.00036518257661548542 -0.021758091159056261 0 -0.00011539588202331134 -0.021819315691415445 0 9.2283564370904499e-05 -0.021576216311665373 0 0.0003024050256244958 -0.021652586347849008 0 -0.00011539588202331134 -0.021819315691415445 0 4.7492667506934782e-05 -0.022072071612385353 0 0.0003024050256244958 -0.021652586347849008 0 -0.00011539588202331134 -0.021819315691415445 0 4.7492667506934782e-05 -0.022072071612385353 0 -0.00027975665710665098 -0.022124755103756555 0 -0.0004601037360923944 -0.021976629136807223 0 -0.00011539588202331134 -0.021819315691415445 0 -0.00027975665710665098 -0.022124755103756555 0 -0.00057246608318422491 -0.024804074980368199 0 -0.00048373201113770953 -0.02483998027322832 0 -0.00053005927325281441 -0.024716661603523187 0 -0.00057246608318422491 -0.024804074980368199 0 -0.00055608412347116318 -0.024886032924883384 0 -0.00048373201113770953 -0.02483998027322832 0 -0.00055608412347116318 -0.024886032924883384 0 -0.0004837886900602486 -0.024979983980343599 0 -0.00048373201113770953 -0.02483998027322832 0 -0.00055392078443429753 -0.025050140208591361 0 -0.00056615485871065784 -0.024964260799833795 0 -0.0004837886900602486 -0.024979983980343599 0 -0.00055608412347116318 -0.024886032924883384 0 -0.00056615485871065784 -0.024964260799833795 0 -0.0004837886900602486 -0.024979983980343599 0 -0.00031999208710234347 -0.024945140409380388 0 -0.00036204941131464996 -0.024792195843526391 0 -0.00048373201113770953 -0.02483998027322832 0 -0.0004837886900602486 -0.024979983980343599 0 -0.00031999208710234347 -0.024945140409380388 0 -0.00048373201113770953 -0.02483998027322832 0 -0.00036204941131464996 -0.024792195843526391 0 -0.00048373201113770953 -0.02483998027322832 0 -0.00053005927325281441 -0.024716661603523187 0 -0.00019964061019847842 -0.024811640549157635 0 -2.4359997390064136e-05 -0.024815384680177785 0 -0.00018483103041840311 -0.02465347641606697 0 -0.00036204941131464996 -0.024792195843526391 0 -0.00018483103041840311 -0.02465347641606697 0 -0.00053005927325281441 -0.024716661603523187 0 -0.00036204941131464996 -0.024792195843526391 0 -0.00019964061019847842 -0.024811640549157635 0 -0.00018483103041840311 -0.02465347641606697 0 -0.00031999208710234347 -0.024945140409380388 0 -0.00036204941131464996 -0.024792195843526391 0 -0.00019964061019847842 -0.024811640549157635 0 -4.469779700307398e-05 -0.02490202448674949 0 -0.00018411872678246823 -0.024966827897638186 0 -0.00019964061019847842 -0.024811640549157635 0 -0.00018411872678246823 -0.024966827897638186 0 -0.00031999208710234347 -0.024945140409380388 0 -0.00019964061019847842 -0.024811640549157635 0 -4.469779700307398e-05 -0.02490202448674949 0 -0.00019964061019847842 -0.024811640549157635 0 -2.4359997390064136e-05 -0.024815384680177785 0 -4.469779700307398e-05 -0.02490202448674949 0 0.00016939322289725661 -0.02479080332360302 0 -2.4359997390064136e-05 -0.024815384680177785 0 0.00016939322289725661 -0.02479080332360302 0 0.00012089115714125467 -0.024797696454479098 0 -2.4359997390064136e-05 -0.024815384680177785 0 0.00012089115714125467 -0.024797696454479098 0 -2.4359997390064136e-05 -0.024815384680177785 0 -0.00018483103041840311 -0.02465347641606697 0 -0.00026196053413588737 -0.024733615619805065 0 -0.00060109757228736212 -0.02438960434209279 0 -0.00073939734632012322 -0.024465986479061785 0 -0.00077076704321474689 -0.024257075382140815 0 -0.00099913121230961032 -0.024124078485026922 0 -0.00077076704321474689 -0.024257075382140815 0 -0.000995332202028754 -0.02404701450775544 0 -0.00099913121230961032 -0.024124078485026922 0 -0.000995332202028754 -0.02404701450775544 0 -0.0009604639658221905 -0.024270342693897634 0 -0.00099913121230961032 -0.024124078485026922 0 -0.00054839282570842837 -0.02412905015346218 0 -0.00077076704321474689 -0.024257075382140815 0 -0.000995332202028754 -0.02404701450775544 0 -0.00054839282570842837 -0.02412905015346218 0 -0.0010918163158775815 -0.023702430042513864 0 -0.00077146964750852043 -0.022173892245457995 0 -0.000995332202028754 -0.02404701450775544 0 -0.0010918163158775815 -0.023702430042513864 0 -0.0009604639658221905 -0.024270342693897634 0 -0.00054839282570842837 -0.02412905015346218 0 -0.000995332202028754 -0.02404701450775544 0 -0.0010918163158775815 -0.023702430042513864 0 -0.0009604639658221905 -0.024270342693897634 0 -0.00099913121230961032 -0.024124078485026922 0 -0.00070583700269097544 -0.024477023964886886 0 -0.0009604639658221905 -0.024270342693897634 0 -0.00070583700269097544 -0.024477023964886886 0 -0.00093901503597861979 -0.02478333656445704 0 -0.00060109757228736212 -0.02438960434209279 0 -0.00067526648080778833 -0.024472717291425559 0 -0.00018483103041840311 -0.02465347641606697 0 -0.00053005927325281441 -0.024716661603523187 0 -0.00070583700269097544 -0.024477023964886886 0 -0.00053005927325281441 -0.024716661603523187 0 -0.00070583700269097544 -0.024477023964886886 0 -0.00062113543182769121 -0.024712805647167626 0 -0.00070583700269097544 -0.024477023964886886 0 -0.00063374013648764837 -0.024802600989472023 0 -0.00080334683624459411 -0.024949228668625898 0 -0.00070583700269097544 -0.024477023964886886 0 -0.00063374013648764837 -0.024802600989472023 0 -0.00062113543182769121 -0.024712805647167626 0 -0.00055021511400035099 -0.024858166073097005 0 -0.00063374013648764837 -0.024802600989472023 0 -0.00062113543182769121 -0.024712805647167626 0 -0.00055021511400035099 -0.024858166073097005 0 -0.00057246608318422491 -0.024804074980368199 0 -0.00062113543182769121 -0.024712805647167626 0 -0.00057246608318422491 -0.024804074980368199 0 -0.00053005927325281441 -0.024716661603523187 0 -0.00062113543182769121 -0.024712805647167626 0 -0.00053868385722535763 -0.025551368370841213 0 -0.00080334683624459411 -0.024949228668625898 0 -0.00090983836683288714 -0.025837194510976456 0 -0.00080334683624459411 -0.024949228668625898 0 -0.00083221239316383377 -0.024942346561918176 0 -0.00084572185317976687 -0.024941658904459135 0 -0.00085988387854469173 -0.024931163454375852 0 -0.00080748529112681714 -0.025603314721623395 0 -0.00053941119015147839 -0.026012245816568493 0 -0.00053868385722535763 -0.025551368370841213 0 -0.00090983836683288714 -0.025837194510976456 0 -0.00051409107801845069 -0.025145297403661331 0 -0.00053868385722535763 -0.025551368370841213 0 -0.00080334683624459411 -0.024949228668625898 0 -0.00051409107801845069 -0.025145297403661331 0 -0.00063374013648764837 -0.024802600989472023 0 -0.00080334683624459411 -0.024949228668625898 0 -0.00070583700269097544 -0.024477023964886886 0 -0.00080334683624459411 -0.024949228668625898 0 -0.00093901503597861979 -0.02478333656445704 0 -0.0013045546074495499 -0.023437799028294647 0 -0.0014257719078917437 -0.022738148780498589 0 -0.00080334683624459411 -0.024949228668625898 0 -0.00093901503597861979 -0.02478333656445704 0 -0.00083221239316383377 -0.024942346561918176 0 -0.0015881856344726083 -0.021305313014132389 0 -0.001857221227844399 -0.021900476886732606 0 -0.0017853541965058503 -0.021164964538365964 0 -0.0015881856344726083 -0.021305313014132389 0 -0.001857221227844399 -0.021900476886732606 0 -0.0012937306463352729 -0.02159606852451992 0 -0.0010918163158775815 -0.023702430042513864 0 -0.0009604639658221905 -0.024270342693897634 0 -0.00093901503597861979 -0.02478333656445704 0 -0.001857221227844399 -0.021900476886732606 0 -0.00077146964750852043 -0.022173892245457995 0 -0.0012937306463352729 -0.02159606852451992 0 -0.0010906111133346112 -0.02370301553214308 0 -0.0013045546074495499 -0.023437799028294647 0 -0.0010918163158775815 -0.023702430042513864 0 -0.001857221227844399 -0.021900476886732606 0 -0.00077146964750852043 -0.022173892245457995 0 -0.00077146964750852043 -0.022173892245457995 0 -0.0012937306463352729 -0.02159606852451992 0 -0.0009038138564630931 -0.021611236529563316 0 -0.0015881856344726083 -0.021305313014132389 0 -0.0012937306463352729 -0.02159606852451992 0 -0.0011782755525095617 -0.02127430770663901 0 -0.0012937306463352729 -0.02159606852451992 0 -0.0011782755525095617 -0.02127430770663901 0 -0.0009038138564630931 -0.021611236529563316 0 -0.0011782755525095617 -0.02127430770663901 0 -0.0014690413923403975 -0.021016479524669882 0 -0.0010329149486995859 -0.020925692665401553 0 -0.0015881856344726083 -0.021305313014132389 0 -0.0011782755525095617 -0.02127430770663901 0 -0.0014690413923403975 -0.021016479524669882 0 -0.0013436007135022396 -0.020811095053249132 0 -0.0010329149486995859 -0.020925692665401553 0 -0.0011570161830771731 -0.020541043437824223 0 -0.0013436007135022396 -0.020811095053249132 0 -0.0014690413923403975 -0.021016479524669882 0 -0.0010329149486995859 -0.020925692665401553 0 -0.0015440783912232187 -0.020894554354062202 0 -0.0016050667562436283 -0.020990813301112188 0 -0.0016162592579400874 -0.020992727817795463 0 -0.0015440783912232187 -0.020894554354062202 0 -0.0016050667562436283 -0.020990813301112188 0 -0.0014690413923403975 -0.021016479524669882 0 -0.0013436007135022396 -0.020811095053249132 0 -0.0015440783912232187 -0.020894554354062202 0 -0.0014690413923403975 -0.021016479524669882 0 -0.0016050667562436283 -0.020990813301112188 0 -0.0014690413923403975 -0.021016479524669882 0 -0.0016516078978263027 -0.021102625283576246 0 -0.0015881856344726083 -0.021305313014132389 0 -0.0014690413923403975 -0.021016479524669882 0 -0.0016516078978263027 -0.021102625283576246 0 -0.0015881856344726083 -0.021305313014132389 0 -0.0017853541965058503 -0.021164964538365964 0 -0.0016516078978263027 -0.021102625283576246 0 -0.0017853541965058503 -0.021164964538365964 0 -0.0016516078978263027 -0.021102625283576246 0 -0.0016498174005324128 -0.021014619175488372 0 -0.0016050667562436283 -0.020990813301112188 0 -0.0016516078978263027 -0.021102625283576246 0 -0.0016498174005324128 -0.021014619175488372 0 -0.0016050667562436283 -0.020990813301112188 0 -0.0016162592579400874 -0.020992727817795463 0 -0.0016498174005324128 -0.021014619175488372 0 -0.0016162592579400874 -0.020992727817795463 0 -0.0016498174005324128 -0.021014619175488372 0 -0.0014317324314384332 -0.020899974815183488 0 -0.0016162592579400874 -0.020992727817795463 0 -0.0014317324314384332 -0.020899974815183488 0 -0.0015206079553090847 -0.021110529697935171 0 -0.00091288272274561418 -0.024698284508057704 0 -0.00080748529112681714 -0.025603314721623395 0 -0.00083221239316383377 -0.024942346561918176 0 -0.00085957791611518918 -0.024881520005824786 0 -0.00084572185317976687 -0.024941658904459135 0 -0.0017853541965058503 -0.021164964538365964 0 -0.0016498174005324128 -0.021014619175488372 0 -0.0014317324314384332 -0.020899974815183488 0 -0.00053941119015147839 -0.026012245816568493 0 -0.00081399614098728423 -0.026602910445312065 0 -0.00090983836683288714 -0.025837194510976456 0 -0.0014257719078917437 -0.022738148780498589 0 -0.00091288272274561418 -0.024698284508057704 0 -0.00029537442680753733 -0.021461421298501742 0 2.8986569620438701e-05 -0.021389587276869203 0 -0.00013995916088164296 -0.021113952737958498 0 -0.00029537442680753733 -0.021461421298501742 0 -0.00061167938664229821 -0.021148589450580738 0 -0.00013995916088164296 -0.021113952737958498 0 -0.00029537442680753733 -0.021461421298501742 0 2.8986569620438701e-05 -0.021389587276869203 0 -0.00011550342437721186 -0.021603443737174377 0 2.8986569620438701e-05 -0.021389587276869203 0 -0.00013995916088164296 -0.021113952737958498 0 0.00016218246603108788 -0.021158275879922032 0 -0.00011539588202331134 -0.021819315691415445 0 -0.00011550342437721186 -0.021603443737174377 0 9.2283564370904499e-05 -0.021576216311665373 0 2.8986569620438701e-05 -0.021389587276869203 0 -0.00011550342437721186 -0.021603443737174377 0 9.2283564370904499e-05 -0.021576216311665373 0 -0.00011539588202331134 -0.021819315691415445 0 -0.00011550342437721186 -0.021603443737174377 0 -0.00036518257661548542 -0.021758091159056261 0 -0.00029537442680753733 -0.021461421298501742 0 -0.00011550342437721186 -0.021603443737174377 0 -0.00036518257661548542 -0.021758091159056261 0 -0.00029537442680753733 -0.021461421298501742 0 -0.00036518257661548542 -0.021758091159056261 0 -0.00060981750050568932 -0.021665668230077744 0 -0.00036518257661548542 -0.021758091159056261 0 -0.00060910127744503322 -0.02195847924389624 0 -0.00060981750050568932 -0.021665668230077744 0 -0.00077146964750852043 -0.022173892245457995 0 -0.00060910127744503322 -0.02195847924389624 0 -0.00060981750050568932 -0.021665668230077744 0 -0.00083732756199388395 -0.021349613262634765 0 -0.00060981750050568932 -0.021665668230077744 0 -0.00061167938664229821 -0.021148589450580738 0 -0.00077146964750852043 -0.022173892245457995 0 -0.0009038138564630931 -0.021611236529563316 0 -0.00060981750050568932 -0.021665668230077744 0 -0.0009038138564630931 -0.021611236529563316 0 -0.00083732756199388395 -0.021349613262634765 0 -0.00060981750050568932 -0.021665668230077744 0 -0.0011782755525095617 -0.02127430770663901 0 -0.0009038138564630931 -0.021611236529563316 0 -0.00083732756199388395 -0.021349613262634765 0 -0.00029537442680753733 -0.021461421298501742 0 -0.00060981750050568932 -0.021665668230077744 0 -0.00061167938664229821 -0.021148589450580738 0 -0.00061167938664229821 -0.021148589450580738 0 -0.0010329149486995859 -0.020925692665401553 0 -0.00068485350905871654 -0.02076219434980682 0 -0.00061167938664229821 -0.021148589450580738 0 -0.00068485350905871654 -0.02076219434980682 0 -0.00029131063399444828 -0.020748482987239976 0 -0.00083732756199388395 -0.021349613262634765 0 -0.00061167938664229821 -0.021148589450580738 0 -0.0010329149486995859 -0.020925692665401553 0 -0.0011782755525095617 -0.02127430770663901 0 -0.00083732756199388395 -0.021349613262634765 0 -0.0010329149486995859 -0.020925692665401553 0 -0.0010329149486995859 -0.020925692665401553 0 -0.00090336068043666315 -0.020549939897483049 0 -0.0011570161830771731 -0.020541043437824223 0 -0.0010329149486995859 -0.020925692665401553 0 -0.00090336068043666315 -0.020549939897483049 0 -0.00068485350905871654 -0.02076219434980682 0 -0.00068485350905871654 -0.02076219434980682 0 -0.00029131063399444828 -0.020748482987239976 0 -0.00060119504231458652 -0.0203441042074783 0 -0.00090336068043666315 -0.020549939897483049 0 -0.00068485350905871654 -0.02076219434980682 0 -0.00060119504231458652 -0.0203441042074783 0 -0.00029131063399444828 -0.020748482987239976 0 -0.00060119504231458652 -0.0203441042074783 0 0.00010082117283392076 -0.020329846431455811 0 -0.00061167938664229821 -0.021148589450580738 0 -0.00029131063399444828 -0.020748482987239976 0 -0.00013995916088164296 -0.021113952737958498 0 -0.00029131063399444828 -0.020748482987239976 0 -0.00013995916088164296 -0.021113952737958498 0 0.00012027366735993635 -0.020705737055156267 0 -0.00013995916088164296 -0.021113952737958498 0 0.00016218246603108788 -0.021158275879922032 0 0.00012027366735993635 -0.020705737055156267 0 -0.00029131063399444828 -0.020748482987239976 0 0.00012027366735993635 -0.020705737055156267 0 0.00010082117283392076 -0.020329846431455811 0 0.00012027366735993635 -0.020705737055156267 0 7.6140951728552561e-05 -0.020629102131301511 0 0.00010082117283392076 -0.020329846431455811 0 -0.0023588035468563723 -0.017457213410258323 0 -0.0012586441110462394 -0.018319305663270231 0 -0.0048290041794048126 -0.014230192035394973 0 -0.0048398580777216753 -0.015030755549064195 0 -0.0047488706328888798 -0.014334037318274396 0 -0.0023588035468563723 -0.017457213410258323 0 -0.0024623195513198736 -0.017390188189069858 0 -0.0048290041794048126 -0.014230192035394973 0 -0.0045342925329432725 -0.014104084158335908 0 -0.0047488706328888798 -0.014334037318274396 0 -0.0048290041794048126 -0.014230192035394973 0 -0.0045342925329432725 -0.014104084158335908 0 -0.0044486233972362774 -0.01443365779752912 0 -0.0045342925329432725 -0.014104084158335908 0 -0.0047488706328888798 -0.014334037318274396 0 -0.0044650896738173546 -0.01390271909954976 0 -0.0045342925329432725 -0.014104084158335908 0 -0.0041299869232359915 -0.013641057595543335 0 -0.0044650896738173546 -0.01390271909954976 0 -0.00049354976910419995 -0.020367473832899028 0 -2.9704483188314815e-05 -0.020216540742550065 0 -0.00064663877868045394 -0.019655958037934487 0 7.6140951728552561e-05 -0.020629102131301511 0 -0.00049354976910419995 -0.020367473832899028 0 -2.9704483188314815e-05 -0.020216540742550065 0 0.00012027366735993635 -0.020705737055156267 0 7.6140951728552561e-05 -0.020629102131301511 0 -2.9704483188314815e-05 -0.020216540742550065 0 0.00016218246603108788 -0.021158275879922032 0 0.00012027366735993635 -0.020705737055156267 0 0.0003427594054676667 -0.021168523589162869 0 9.0443025865232307e-05 -0.020680495441681414 0 0.00013850029751411304 -0.020690560573104051 0 -0.0028298198674096059 -0.013706925827528698 0 -0.0032005705060026927 -0.01336905084036146 0 -0.003909312949404299 -0.013902044013761434 0 -0.0028298198674096059 -0.013706925827528698 0 -0.0032005705060026927 -0.01336905084036146 0 -0.0026144317080917649 -0.013101195216865645 0 -0.0032005705060026927 -0.01336905084036146 0 -0.0026144317080917649 -0.013101195216865645 0 -0.0030083469642818582 -0.01286129413288321 0 -0.0032005705060026927 -0.01336905084036146 0 -0.003909312949404299 -0.013902044013761434 0 -0.0036042372686228784 -0.013212495544184832 0 -0.003909312949404299 -0.013902044013761434 0 -0.0041299869232359915 -0.013641057595543335 0 -0.0036042372686228784 -0.013212495544184832 0 -0.0045342925329432725 -0.014104084158335908 0 -0.003909312949404299 -0.013902044013761434 0 -0.0041299869232359915 -0.013641057595543335 0 -0.0045342925329432725 -0.014104084158335908 0 -0.0044486233972362774 -0.01443365779752912 0 -0.003909312949404299 -0.013902044013761434 0 -0.0024623195513198736 -0.017390188189069858 0 -0.0022465847801788671 -0.017653350609019416 0 -0.00049354976910419995 -0.020367473832899028 0 -0.0012497955543765435 -0.019928812992802809 0 -0.00064663877868045394 -0.019655958037934487 0 -0.0044486233972362774 -0.01443365779752912 0 -0.003909312949404299 -0.013902044013761434 0 -0.0032021293699268016 -0.015143924258013031 0 -0.003799554150183829 -0.013933331802881883 0 -0.0027455395542752181 -0.014698251631556835 0 -0.003909312949404299 -0.013902044013761434 0 -0.0032021293699268016 -0.015143924258013031 0 -0.0025532450446075087 -0.01511447360239747 0 -0.0028298198674096059 -0.013706925827528698 0 -0.003909312949404299 -0.013902044013761434 0 -0.0026579976891029622 -0.014408702678634864 0 -0.0012497955543765435 -0.019928812992802809 0 -0.00064663877868045394 -0.019655958037934487 0 -0.0013992892306735755 -0.019097021737725185 0 -0.0012497955543765435 -0.019928812992802809 0 -0.0013992892306735755 -0.019097021737725185 0 -0.0017285425595118835 -0.019280818005527847 0 -0.00019430068432019009 -0.020411372563258021 0 -0.00042369773131991782 -0.020917188297071811 0 0.00038836027821394556 -0.021364124981165602 0 0.00036274745846431503 -0.021450787066093664 0 0.00034039950679131201 -0.021406025718192695 0 0.00036274745846431503 -0.021450787066093664 0 0.00034039950679131201 -0.021406025718192695 0 0.00031985852272420112 -0.021378237534739133 0 0.00016218246603108788 -0.021158275879922032 0 0.0003427594054676667 -0.021168523589162869 0 0.00029245163589960966 -0.021413879779925971 0 2.8986569620438701e-05 -0.021389587276869203 0 0.00016218246603108788 -0.021158275879922032 0 0.00029245163589960966 -0.021413879779925971 0 0.0003427594054676667 -0.021168523589162869 0 0.00038836027821394556 -0.021364124981165602 0 0.00029245163589960966 -0.021413879779925971 0 0.00013850029751411304 -0.020690560573104051 0 -0.00019430068432019009 -0.020411372563258021 0 0.00038836027821394556 -0.021364124981165602 0 0.00036274745846431503 -0.021450787066093664 0 0.00029245163589960966 -0.021413879779925971 0 0.00036274745846431503 -0.021450787066093664 0 0.00029245163589960966 -0.021413879779925971 0 0.0003024050256244958 -0.021652586347849008 0 9.2283564370904499e-05 -0.021576216311665373 0 0.00029245163589960966 -0.021413879779925971 0 0.0003024050256244958 -0.021652586347849008 0 2.8986569620438701e-05 -0.021389587276869203 0 9.2283564370904499e-05 -0.021576216311665373 0 0.00029245163589960966 -0.021413879779925971 0 0.0003024050256244958 -0.021652586347849008 0 0.0003205380268618201 -0.021410233489166815 0 0.00034428370242901174 -0.021370821071026471 0 0.00036274745846431503 -0.021450787066093664 0 0.0003024050256244958 -0.021652586347849008 0 0.0003205380268618201 -0.021410233489166815 0 4.7492667506934782e-05 -0.022072071612385353 0 0.0003024050256244958 -0.021652586347849008 0 0.00040273184187262275 -0.022203610856302278 0 0.00030649352024125786 -0.021647909389366265 0 0.00035551434665392028 -0.021776547397452196 0 0.00036274745846431503 -0.021450787066093664 0 0.00031985852272420112 -0.021378237534739133 0 0.0003205380268618201 -0.021410233489166815 0 0.0003205380268618201 -0.021410233489166815 0 0.00031616050116746181 -0.021336666519660964 0 0.00028782870435649306 -0.021312917811433088 0 0.00031985852272420112 -0.021378237534739133 0 0.0003205380268618201 -0.021410233489166815 0 0.00028782870435649306 -0.021312917811433088 0 0.00031616050116746181 -0.021336666519660964 0 0.00032969743338862528 -0.021291630057078046 0 0.00034428370242901174 -0.021370821071026471 0 0.0003205380268618201 -0.021410233489166815 0 0.00031616050116746181 -0.021336666519660964 0 0.00034428370242901174 -0.021370821071026471 0 0.00031616050116746181 -0.021336666519660964 0 0.00027443539559086032 -0.021270393389308404 0 0.00028782870435649306 -0.021312917811433088 0 0.00028201186501864139 -0.021141046325879091 0 0.00027443539559086032 -0.021270393389308404 0 0.00032969743338862528 -0.021291630057078046 0 -0.00030046432693466913 -0.017222612497149296 0 -0.00064527510301837113 -0.013803169136612435 0 0.00032969743338862528 -0.021291630057078046 0 0.00025717102051049548 -0.02134908919455196 0 0.00034428370242901174 -0.021370821071026471 0 0.00031616050116746181 -0.021336666519660964 0 0.00027443539559086032 -0.021270393389308404 0 0.00032969743338862528 -0.021291630057078046 0 0.00031751886648062497 -0.021925018668240568 0 0.00035551434665392028 -0.021776547397452196 0 0.00034454900688693697 -0.022469784313388315 0 0.00030933769815030208 -0.022372867578259598 0 0.00040273184187262275 -0.022203610856302278 0 0.00034454900688693697 -0.022469784313388315 0 0.00031983224843682481 -0.022451146482771557 0 0.00030933769815030208 -0.022372867578259598 0 0.00030933769815030208 -0.022372867578259598 0 0.00028159317626107525 -0.022462204906981562 0 0.00019379933356990765 -0.02249887843405839 0 0.00031983224843682481 -0.022451146482771557 0 0.00030933769815030208 -0.022372867578259598 0 0.00028159317626107525 -0.022462204906981562 0 0.00030933769815030208 -0.022372867578259598 0 0.00019379933356990765 -0.02249887843405839 0 0.00012745193208056556 -0.022360770332508498 0 5.4018005217727201e-05 -0.022551606781980465 0 0.00019379933356990765 -0.02249887843405839 0 0.00012745193208056556 -0.022360770332508498 0 4.7492667506934782e-05 -0.022072071612385353 0 0.00012745193208056556 -0.022360770332508498 0 0.00040273184187262275 -0.022203610856302278 0 0.00030933769815030208 -0.022372867578259598 0 0.00012745193208056556 -0.022360770332508498 0 0.00040273184187262275 -0.022203610856302278 0 0.0014445868243199058 -0.006250676570941859 0 0.0017407353375714582 -0.0068834803800214587 0 0.00078637288262112845 -0.0068260059557069706 0 0.0014445868243199058 -0.006250676570941859 0 0.0021561273859383796 -0.0062846122323471773 0 0.0017407353375714582 -0.0068834803800214587 0 0.0021561273859383796 -0.0062846122323471773 0 0.0024157612494201319 -0.0068115494407228758 0 0.0025967100390596591 -0.0061685346066225272 0 0.0021561273859383796 -0.0062846122323471773 0 0.0024157612494201319 -0.0068115494407228758 0 0.0017407353375714582 -0.0068834803800214587 0 0.0024157612494201319 -0.0068115494407228758 0 0.002189818507645614 -0.0074873216351665798 0 0.0028770331631316781 -0.0074411579616206567 0 0.0024157612494201319 -0.0068115494407228758 0 0.002189818507645614 -0.0074873216351665798 0 0.0017407353375714582 -0.0068834803800214587 0 0.0012421804369279637 -0.0078883910962803047 0 0.0017407353375714582 -0.0068834803800214587 0 0.00078637288262112845 -0.0068260059557069706 0 0.0012421804369279637 -0.0078883910962803047 0 0.002189818507645614 -0.0074873216351665798 0 0.0017407353375714582 -0.0068834803800214587 0 0.0012421804369279637 -0.0078883910962803047 0 -0.0001596321492937086 -0.007475835826097091 0 0.00078637288262112845 -0.0068260059557069706 0 -0.0001596321492937086 -0.007475835826097091 0 -9.5502832699179325e-05 -0.0066209311940322218 0 0.00078637288262112845 -0.0068260059557069706 0 -0.0013929611920429237 -0.0070391278461960968 0 -0.0001596321492937086 -0.007475835826097091 0 -9.5502832699179325e-05 -0.0066209311940322218 0 -0.0012452190195120973 -0.0081883383186180068 0 -0.0013929611920429237 -0.0070391278461960968 0 -0.0001596321492937086 -0.007475835826097091 0 -9.5502832699179325e-05 -0.0066209311940322218 0 0.00054842022950898016 -0.0061111532775989024 0 -0.00033093644687532531 -0.0058287964986812168 0 -0.00064527510301837113 -0.013803169136612435 0 5.0420240996026759e-05 -0.013417059360188664 0 -0.0013929611920429237 -0.0070391278461960968 0 -9.5502832699179325e-05 -0.0066209311940322218 0 -0.00033093644687532531 -0.0058287964986812168 0 0.0014445868243199058 -0.006250676570941859 0 0.00078637288262112845 -0.0068260059557069706 0 0.00054842022950898016 -0.0061111532775989024 0 -9.5502832699179325e-05 -0.0066209311940322218 0 0.00078637288262112845 -0.0068260059557069706 0 0.00054842022950898016 -0.0061111532775989024 0 0.00054842022950898016 -0.0061111532775989024 0 0.00044331504783663885 -0.0054701356796859118 0 0.001204341414072664 -0.0056962272179452789 0 0.00054842022950898016 -0.0061111532775989024 0 -0.00033093644687532531 -0.0058287964986812168 0 0.00044331504783663885 -0.0054701356796859118 0 -0.00033093644687532531 -0.0058287964986812168 0 0.00044331504783663885 -0.0054701356796859118 0 0.00036885245206148988 -0.0049831199745245455 0 0.00031985852272420112 -0.021378237534739133 0 0.00028782870435649306 -0.021312917811433088 0 0.00028343691172093066 -0.021331201083898008 0 5.0420240996026759e-05 -0.013417059360188664 0 -7.8368062370540596e-05 -0.014328784689714047 0 0.00084151100666051424 -0.0053110997563519512 0 0.00044331504783663885 -0.0054701356796859118 0 0.00057414869111337098 -0.0051607426019711 0 0.00084151100666051424 -0.0053110997563519512 0 0.00044331504783663885 -0.0054701356796859118 0 0.001204341414072664 -0.0056962272179452789 0 0.00044331504783663885 -0.0054701356796859118 0 0.00043178609753118243 -0.0050174725873533338 0 0.00036885245206148988 -0.0049831199745245455 0 0.00044331504783663885 -0.0054701356796859118 0 0.00057414869111337098 -0.0051607426019711 0 0.00043178609753118243 -0.0050174725873533338 0 0.00057414869111337098 -0.0051607426019711 0 0.00056143715908070274 -0.0050475768061353727 0 0.00068816817060407293 -0.0050352101551779001 0 0.00057414869111337098 -0.0051607426019711 0 0.00043178609753118243 -0.0050174725873533338 0 0.00056143715908070274 -0.0050475768061353727 0 0.00043178609753118243 -0.0050174725873533338 0 0.00056143715908070274 -0.0050475768061353727 0 0.00055833690907723579 -0.0049782742541120565 0 0.00056143715908070274 -0.0050475768061353727 0 0.00068816817060407293 -0.0050352101551779001 0 0.00055833690907723579 -0.0049782742541120565 0 0.00057414869111337098 -0.0051607426019711 0 0.00078156031051563864 -0.0051239390968312966 0 0.00068816817060407293 -0.0050352101551779001 0 0.00078156031051563864 -0.0051239390968312966 0 0.00068816817060407293 -0.0050352101551779001 0 0.00086958098742859766 -0.0050002901812439002 0 0.00084151100666051424 -0.0053110997563519512 0 0.00057414869111337098 -0.0051607426019711 0 0.00078156031051563864 -0.0051239390968312966 0 0.00084151100666051424 -0.0053110997563519512 0 0.00078156031051563864 -0.0051239390968312966 0 0.00094320707583692934 -0.0051207016019539729 0 0.00078156031051563864 -0.0051239390968312966 0 0.00094320707583692934 -0.0051207016019539729 0 0.00086958098742859766 -0.0050002901812439002 0 0.00094320707583692934 -0.0051207016019539729 0 0.0011391426961088556 -0.0052453393514807975 0 0.0010194416632798191 -0.0049208866541711471 0 0.00094320707583692934 -0.0051207016019539729 0 0.0010194416632798191 -0.0049208866541711471 0 0.00086958098742859766 -0.0050002901812439002 0 0.00084151100666051424 -0.0053110997563519512 0 0.00094320707583692934 -0.0051207016019539729 0 0.0011391426961088556 -0.0052453393514807975 0 0.00053807601365710644 -0.010730745728637256 0 0.00030629299203490512 -0.010286100447558531 0 0.00010093127081495628 -0.010170533280536468 0 0.0013927604620193449 -0.0066307553333583126 0 0.00037592984054833959 -0.0073811528904921941 0 0.0011391426961088556 -0.0052453393514807975 0 0.0015093208357826811 -0.0053084107106464553 0 0.0010194416632798191 -0.0049208866541711471 0 0.00053807601365710644 -0.010730745728637256 0 0.00051391971682042132 -0.010291444877561173 0 0.00030629299203490512 -0.010286100447558531 0 0.0011391426961088556 -0.0052453393514807975 0 0.001204341414072664 -0.0056962272179452789 0 0.0015093208357826811 -0.0053084107106464553 0 0.001556109734657001 -0.0054412138694850815 0 0.0013927604620193449 -0.0066307553333583126 0 0.00084151100666051424 -0.0053110997563519512 0 0.0011391426961088556 -0.0052453393514807975 0 0.001204341414072664 -0.0056962272179452789 0 0.0014445868243199058 -0.006250676570941859 0 0.00054842022950898016 -0.0061111532775989024 0 0.001204341414072664 -0.0056962272179452789 0 0.001204341414072664 -0.0056962272179452789 0 0.0019656787657886671 -0.0058105479701508192 0 0.0020100346424026263 -0.0052641454570435042 0 0.0014445868243199058 -0.006250676570941859 0 0.0021561273859383796 -0.0062846122323471773 0 0.0019656787657886671 -0.0058105479701508192 0 0.0014445868243199058 -0.006250676570941859 0 0.001204341414072664 -0.0056962272179452789 0 0.0019656787657886671 -0.0058105479701508192 0 0.0021561273859383796 -0.0062846122323471773 0 0.0023518190159912194 -0.0058793437048785943 0 0.0025967100390596591 -0.0061685346066225272 0 0.0021561273859383796 -0.0062846122323471773 0 0.0023518190159912194 -0.0058793437048785943 0 0.0019656787657886671 -0.0058105479701508192 0 0.0019656787657886671 -0.0058105479701508192 0 0.0023048795147497607 -0.005651275017736641 0 0.0022152417680705631 -0.0054451162698582918 0 0.0023518190159912194 -0.0058793437048785943 0 0.0019656787657886671 -0.0058105479701508192 0 0.0023048795147497607 -0.005651275017736641 0 0.0023518190159912194 -0.0058793437048785943 0 0.0024659699342276537 -0.0056638777874960574 0 0.0025913011507405627 -0.005769625097492969 0 0.0023048795147497607 -0.005651275017736641 0 0.0024659699342276537 -0.0056638777874960574 0 0.0024549000787854229 -0.0055288863287239658 0 0.0023518190159912194 -0.0058793437048785943 0 0.0023048795147497607 -0.005651275017736641 0 0.0024659699342276537 -0.0056638777874960574 0 0.0024659699342276537 -0.0056638777874960574 0 0.0024549000787854229 -0.0055288863287239658 0 0.0025853657899406416 -0.0055590246175877701 0 0.0024549000787854229 -0.0055288863287239658 0 0.0023635060407227963 -0.0054697980028694587 0 0.0025674542384005218 -0.0055406088888899788 0 0.0024549000787854229 -0.0055288863287239658 0 0.0025505112159093907 -0.0055241208773229664 0 0.0025674542384005218 -0.0055406088888899788 0 0.0024549000787854229 -0.0055288863287239658 0 0.0025505112159093907 -0.0055241208773229664 0 0.0025853657899406416 -0.0055590246175877701 0 0.0019656787657886671 -0.0058105479701508192 0 0.0022152417680705631 -0.0054451162698582918 0 0.0020100346424026263 -0.0052641454570435042 0 0.0023048795147497607 -0.005651275017736641 0 0.0024549000787854229 -0.0055288863287239658 0 0.0022152417680705631 -0.0054451162698582918 0 0.0024549000787854229 -0.0055288863287239658 0 0.0022152417680705631 -0.0054451162698582918 0 0.0023635060407227963 -0.0054697980028694587 0 0.0022152417680705631 -0.0054451162698582918 0 0.0023635060407227963 -0.0054697980028694587 0 0.0022297221649607117 -0.0053880985934126255 0 0.0014789937690434382 -0.00635305168694903 0 0.0013927604620193449 -0.0066307553333583126 0 0.00053807601365710644 -0.010730745728637256 0 0.00075271106321720728 -0.010321581104877946 0 0.0011881782117068814 -0.010076975077337713 0 0.00053807601365710644 -0.010730745728637256 0 0.00075271106321720728 -0.010321581104877946 0 0.00051391971682042132 -0.010291444877561173 0 0.0023635060407227963 -0.0054697980028694587 0 0.0022297221649607117 -0.0053880985934126255 0 0.0025674542384005218 -0.0055406088888899788 0 0.0013927604620193449 -0.0066307553333583126 0 0.0018592319184496742 -0.008181232449887707 0 0.0022297221649607117 -0.0053880985934126255 0 0.0025674542384005218 -0.0055406088888899788 0 0.0028826677017455928 -0.0057599147631530066 0 0.0025674542384005218 -0.0055406088888899788 0 0.0026095831191343417 -0.0055029629079310204 0 0.0028826677017455928 -0.0057599147631530066 0 0.0025505112159093907 -0.0055241208773229664 0 0.0025674542384005218 -0.0055406088888899788 0 0.0026095831191343417 -0.0055029629079310204 0 0.00076307475970890601 -0.010185523305178192 0 0.00075271106321720728 -0.010321581104877946 0 0.0011881782117068814 -0.010076975077337713 0 0.00084408257050423209 -0.0099750157040244848 0 0.00076307475970890601 -0.010185523305178192 0 0.0011881782117068814 -0.010076975077337713 0 0.00084408257050423209 -0.0099750157040244848 0 0.0011288707956571232 -0.0095907765503263631 0 0.00089718830932687785 -0.0096535844078629654 0 0.00084408257050423209 -0.0099750157040244848 0 0.0011288707956571232 -0.0095907765503263631 0 0.0011881782117068814 -0.010076975077337713 0 0.00084408257050423209 -0.0099750157040244848 0 0.00066948745650943851 -0.0097295103303419207 0 0.00089718830932687785 -0.0096535844078629654 0 0.00084408257050423209 -0.0099750157040244848 0 0.00063652424872503966 -0.010099537519386416 0 0.00066948745650943851 -0.0097295103303419207 0 0.00063652424872503966 -0.010099537519386416 0 0.00076307475970890601 -0.010185523305178192 0 0.00051391971682042132 -0.010291444877561173 0 0.00084408257050423209 -0.0099750157040244848 0 0.00063652424872503966 -0.010099537519386416 0 0.00076307475970890601 -0.010185523305178192 0 0.00076307475970890601 -0.010185523305178192 0 0.00075271106321720728 -0.010321581104877946 0 0.00051391971682042132 -0.010291444877561173 0 0.00030629299203490512 -0.010286100447558531 0 4.4700819453188522e-05 -0.010382056983259518 0 0.00041752364791935147 -0.010166385995853792 0 0.00051391971682042132 -0.010291444877561173 0 0.00030629299203490512 -0.010286100447558531 0 0.00041752364791935147 -0.010166385995853792 0 0.00063652424872503966 -0.010099537519386416 0 0.00051391971682042132 -0.010291444877561173 0 0.00041752364791935147 -0.010166385995853792 0 0.00010093127081495628 -0.010170533280536468 0 4.4700819453188522e-05 -0.010382056983259518 0 0.0004416128793971762 -0.010967335043733647 0 0.00030629299203490512 -0.010286100447558531 0 0.00010093127081495628 -0.010170533280536468 0 4.4700819453188522e-05 -0.010382056983259518 0 4.4700819453188522e-05 -0.010382056983259518 0 0.00016541111014714772 -0.011990727193124258 0 0.0004416128793971762 -0.010967335043733647 0 4.4700819453188522e-05 -0.010382056983259518 0 0.00041752364791935147 -0.010166385995853792 0 0.00066948745650943851 -0.0097295103303419207 0 0.00063652424872503966 -0.010099537519386416 0 0.00041752364791935147 -0.010166385995853792 0 0.00066948745650943851 -0.0097295103303419207 0 4.4700819453188522e-05 -0.010382056983259518 0 0.00016541111014714772 -0.011990727193124258 0 -0.00060784681306251987 -0.013231831122212333 0 4.4700819453188522e-05 -0.010382056983259518 0 0.00066948745650943851 -0.0097295103303419207 0 0.00069069827203708091 -0.0090886911297332219 0 4.9635601336383657e-05 -0.010450165094513828 0 0.00010287669768284828 -0.011133403529613076 0 0.00066948745650943851 -0.0097295103303419207 0 0.00093854937785442689 -0.0093105320208464303 0 0.00069069827203708091 -0.0090886911297332219 0 0.00093854937785442689 -0.0093105320208464303 0 0.0011288707956571232 -0.0095907765503263631 0 0.0011762784043994284 -0.0091862725512866714 0 0.00093854937785442689 -0.0093105320208464303 0 0.0011288707956571232 -0.0095907765503263631 0 0.00089718830932687785 -0.0096535844078629654 0 0.00066948745650943851 -0.0097295103303419207 0 0.00093854937785442689 -0.0093105320208464303 0 0.00089718830932687785 -0.0096535844078629654 0 -0.00042369773131991782 -0.020917188297071811 0 -7.8368062370540596e-05 -0.014328784689714047 0 -0.0013992892306735755 -0.019097021737725185 0 -0.0019781055810711144 -0.019059972489356997 0 -0.0022115503459153541 -0.018536568640087431 0 0.00034039950679131201 -0.021406025718192695 0 0.00031985852272420112 -0.021378237534739133 0 0.00028343691172093066 -0.021331201083898008 0 -0.0013992892306735755 -0.019097021737725185 0 -0.0019781055810711144 -0.019059972489356997 0 -0.0017285425595118835 -0.019280818005527847 0 -0.0019781055810711144 -0.019059972489356997 0 -0.0024449727893830569 -0.019093630017834949 0 -0.0022115503459153541 -0.018536568640087431 0 0.00057139995590434027 -0.0046404969811539524 0 0.00058506733233528569 -0.004864171349633668 0 0.00073710486161116147 -0.0048989937166316532 0 -0.00011870872716645809 -0.012953247195921634 0 -7.8368062370540596e-05 -0.014328784689714047 0 0.00057139995590434027 -0.0046404969811539524 0 0.00039067254914702018 -0.0050075705899004152 0 0.00058506733233528569 -0.004864171349633668 0 0.00039067254914702018 -0.0050075705899004152 0 0.00055833690907723579 -0.0049782742541120565 0 0.00058506733233528569 -0.004864171349633668 0 0.00043178609753118243 -0.0050174725873533338 0 0.00039067254914702018 -0.0050075705899004152 0 0.00055833690907723579 -0.0049782742541120565 0 -0.00044751309385818747 -0.013739972164895585 0 -7.8368062370540596e-05 -0.014328784689714047 0 0.00055833690907723579 -0.0049782742541120565 0 0.00058506733233528569 -0.004864171349633668 0 0.00073710486161116147 -0.0048989937166316532 0 0.0010194416632798191 -0.0049208866541711471 0 0.00057139995590434027 -0.0046404969811539524 0 0.00073710486161116147 -0.0048989937166316532 0 0.0010194416632798191 -0.0049208866541711471 0 0.00073710486161116147 -0.0048989937166316532 0 0.00086958098742859766 -0.0050002901812439002 0 0.00068816817060407293 -0.0050352101551779001 0 0.00055833690907723579 -0.0049782742541120565 0 0.00073710486161116147 -0.0048989937166316532 0 0.00068816817060407293 -0.0050352101551779001 0 0.00073710486161116147 -0.0048989937166316532 0 0.00086958098742859766 -0.0050002901812439002 0 0.00037592984054833959 -0.0073811528904921941 0 -0.00011870872716645809 -0.012953247195921634 0 0.00010093127081495628 -0.010170533280536468 0 0.0013009510196635096 -0.01127219526309264 0 0.0004416128793971762 -0.010967335043733647 0 0.00016541111014714772 -0.011990727193124258 0 0.0013009510196635096 -0.01127219526309264 0 -0.00035381633885497838 -0.013563041241968754 0 -0.001207786082018667 -0.015876116233539735 0 -0.0012419814734022454 -0.014081182269048514 0 -0.00035381633885497838 -0.013563041241968754 0 -0.00011870872716645809 -0.012953247195921634 0 -0.00027190270046656558 -0.013794267543497309 0 -0.001207786082018667 -0.015876116233539735 0 -0.0016856735822152367 -0.014700167278385377 0 -0.0012419814734022454 -0.014081182269048514 0 0.00016541111014714772 -0.011990727193124258 0 0.0013009510196635096 -0.01127219526309264 0 0.0004416128793971762 -0.010967335043733647 0 -0.001207786082018667 -0.015876116233539735 0 -0.0019223249127831542 -0.015163171896665292 0 -0.0016856735822152367 -0.014700167278385377 0 -0.00011870872716645809 -0.012953247195921634 0 -0.0015969463197590278 -0.016613534496051033 0 -0.0032021293699268016 -0.015143924258013031 0 -0.0017860393472141577 -0.015846739369025926 0 -0.0025532450446075087 -0.01511447360239747 0 -0.0022465847801788671 -0.017653350609019416 0 -0.0015969463197590278 -0.016613534496051033 0 -0.0012497955543765435 -0.019928812992802809 0 -0.0020807170303019725 -0.019461988693996603 0 -0.0017285425595118835 -0.019280818005527847 0 -0.0019781055810711144 -0.019059972489356997 0 -0.0020807170303019725 -0.019461988693996603 0 -0.0017285425595118835 -0.019280818005527847 0 -0.0019781055810711144 -0.019059972489356997 0 -0.0024449727893830569 -0.019093630017834949 0 -0.0020807170303019725 -0.019461988693996603 0 -0.0019223249127831542 -0.015163171896665292 0 -0.0016856735822152367 -0.014700167278385377 0 -0.0026579976891029622 -0.014408702678634864 0 -0.0015969463197590278 -0.016613534496051033 0 -0.0027455395542752181 -0.014698251631556835 0 -0.0028298198674096059 -0.013706925827528698 0 -0.0023183913925171177 -0.013900250113555888 0 -0.0026579976891029622 -0.014408702678634864 0 -0.0023183913925171177 -0.013900250113555888 0 -0.0026579976891029622 -0.014408702678634864 0 -0.0019522717156537906 -0.014154636820197278 0 -0.0016856735822152367 -0.014700167278385377 0 -0.0026579976891029622 -0.014408702678634864 0 -0.0019522717156537906 -0.014154636820197278 0 -0.0023183913925171177 -0.013900250113555888 0 -0.0019522717156537906 -0.014154636820197278 0 -0.0017394768888393188 -0.013680695778757832 0 -0.0019522717156537906 -0.014154636820197278 0 -0.0017394768888393188 -0.013680695778757832 0 -0.0012419814734022454 -0.014081182269048514 0 -0.0017394768888393188 -0.013680695778757832 0 -0.0012419814734022454 -0.014081182269048514 0 -0.00098067163543931078 -0.0134045813408076 0 -0.0016856735822152367 -0.014700167278385377 0 -0.0019522717156537906 -0.014154636820197278 0 -0.0012419814734022454 -0.014081182269048514 0 -0.0012419814734022454 -0.014081182269048514 0 -0.00098067163543931078 -0.0134045813408076 0 -0.00035381633885497838 -0.013563041241968754 0 -0.00098067163543931078 -0.0134045813408076 0 -0.0013224086466276698 -0.012710321098569928 0 -0.00031009984772231903 -0.013122562991408198 0 -0.0017394768888393188 -0.013680695778757832 0 -0.00098067163543931078 -0.0134045813408076 0 -0.0013224086466276698 -0.012710321098569928 0 -0.0023183913925171177 -0.013900250113555888 0 -0.0017394768888393188 -0.013680695778757832 0 -0.0021462701637903962 -0.013306579497925465 0 -0.0017394768888393188 -0.013680695778757832 0 -0.0013224086466276698 -0.012710321098569928 0 -0.0021462701637903962 -0.013306579497925465 0 -0.0013224086466276698 -0.012710321098569928 0 -0.0021462701637903962 -0.013306579497925465 0 -0.0020509101270436546 -0.012723343942103133 0 -0.0021462701637903962 -0.013306579497925465 0 -0.0026144317080917649 -0.013101195216865645 0 -0.0020509101270436546 -0.012723343942103133 0 -0.0028298198674096059 -0.013706925827528698 0 -0.0023183913925171177 -0.013900250113555888 0 -0.0021462701637903962 -0.013306579497925465 0 -0.0028298198674096059 -0.013706925827528698 0 -0.0021462701637903962 -0.013306579497925465 0 -0.0026144317080917649 -0.013101195216865645 0 0.00093854937785442689 -0.0093105320208464303 0 0.0011423971398207664 -0.0089914194409566901 0 0.0011762784043994284 -0.0091862725512866714 0 0.00093854937785442689 -0.0093105320208464303 0 0.0011423971398207664 -0.0089914194409566901 0 0.00069069827203708091 -0.0090886911297332219 0 0.0011423971398207664 -0.0089914194409566901 0 0.00069069827203708091 -0.0090886911297332219 0 0.001303833548948839 -0.0090611001356414901 0 0.00016541111014714772 -0.011990727193124258 0 -0.00060784681306251987 -0.013231831122212333 0 -0.00035381633885497838 -0.013563041241968754 0 -0.00060784681306251987 -0.013231831122212333 0 -0.00035381633885497838 -0.013563041241968754 0 -0.00031009984772231903 -0.013122562991408198 0 0.00010287669768284828 -0.011133403529613076 0 0.00078099948132122224 -0.010877469274799753 0 -0.00031009984772231903 -0.013122562991408198 0 0.00040821157927445941 -0.012790315125424671 0 -0.00035469822502401518 -0.011761350094868844 0 -0.0013224086466276698 -0.012710321098569928 0 -0.00031009984772231903 -0.013122562991408198 0 -0.00035469822502401518 -0.011761350094868844 0 -0.00060784681306251987 -0.013231831122212333 0 -0.00031009984772231903 -0.013122562991408198 0 0.00040821157927445941 -0.012790315125424671 0 -0.00098067163543931078 -0.0134045813408076 0 -0.00035381633885497838 -0.013563041241968754 0 -0.00031009984772231903 -0.013122562991408198 0 0.0011423971398207664 -0.0089914194409566901 0 0.001303833548948839 -0.0090611001356414901 0 0.0012251201959172326 -0.0092115418538798351 0 0.00078099948132122224 -0.010877469274799753 0 0.0010354354940111446 -0.0099515172002896807 0 0.001303833548948839 -0.0090611001356414901 0 0.0010132260467046214 -0.0098694334073579342 0 0.0012251201959172326 -0.0092115418538798351 0 0.00040821157927445941 -0.012790315125424671 0 -0.00035469822502401518 -0.011761350094868844 0 0.0010132260467046214 -0.0098694334073579342 0 -0.00035469822502401518 -0.011761350094868844 0 -0.00027101812920658926 -0.010277701132874274 0 0.0010132260467046214 -0.0098694334073579342 0 -0.00035469822502401518 -0.011761350094868844 0 -0.00027101812920658926 -0.010277701132874274 0 -0.0011589453776909325 -0.011338726225653894 0 -0.00027101812920658926 -0.010277701132874274 0 0.0010132260467046214 -0.0098694334073579342 0 0.00020792271415377334 -0.0088147129496921849 0 0.0010132260467046214 -0.0098694334073579342 0 0.00020792271415377334 -0.0088147129496921849 0 0.0012332475449068924 -0.0089213320048075768 0 0.00020792271415377334 -0.0088147129496921849 0 -0.0008572520051868983 -0.0080863362549402837 0 -0.0011586789119908685 -0.0099035169939385697 0 -0.00027101812920658926 -0.010277701132874274 0 0.00020792271415377334 -0.0088147129496921849 0 -0.0011586789119908685 -0.0099035169939385697 0 0.00020792271415377334 -0.0088147129496921849 0 -0.0008572520051868983 -0.0080863362549402837 0 -5.2542796604864408e-05 -0.0075467381268605116 0 0.00020792271415377334 -0.0088147129496921849 0 -5.2542796604864408e-05 -0.0075467381268605116 0 0.00048222471994608502 -0.0072989923111323263 0 0.00020792271415377334 -0.0088147129496921849 0 0.0012332475449068924 -0.0089213320048075768 0 0.00048222471994608502 -0.0072989923111323263 0 -0.00092713432994590895 -0.0086565895272757206 0 -0.0011467446184943145 -0.0097814807382367499 0 -0.0021856573512096054 -0.0095262071660242743 0 -0.0010345719290785313 -0.0091257860979996486 0 -0.0011586789119908685 -0.0099035169939385697 0 -0.0021856573512096054 -0.0095262071660242743 0 -0.0010345719290785313 -0.0091257860979996486 0 -0.0017956706570532797 -0.008345315068566117 0 -0.0011586789119908685 -0.0099035169939385697 0 -0.0021039661388167234 -0.010472757766052774 0 -0.0018390494886495535 -0.011162527510037752 0 -0.0021856573512096054 -0.0095262071660242743 0 -0.0011586789119908685 -0.0099035169939385697 0 -0.0021039661388167234 -0.010472757766052774 0 -0.0021856573512096054 -0.0095262071660242743 0 -0.0021039661388167234 -0.010472757766052774 0 -0.0032087065996319769 -0.010861142839399774 0 -0.0021039661388167234 -0.010472757766052774 0 -0.0025539347259815955 -0.011394275493833702 0 -0.0032087065996319769 -0.010861142839399774 0 -0.0021039661388167234 -0.010472757766052774 0 -0.0025539347259815955 -0.011394275493833702 0 -0.0018390494886495535 -0.011162527510037752 0 -0.0018390494886495535 -0.011162527510037752 0 -0.0022949702145501792 -0.011836518078634551 0 -0.0018318462350776184 -0.012034983969373093 0 -0.0025539347259815955 -0.011394275493833702 0 -0.0018390494886495535 -0.011162527510037752 0 -0.0022949702145501792 -0.011836518078634551 0 -0.0025539347259815955 -0.011394275493833702 0 -0.0022949702145501792 -0.011836518078634551 0 -0.0028001131983087907 -0.012139727010707778 0 -0.0011586789119908685 -0.0099035169939385697 0 -0.0018390494886495535 -0.011162527510037752 0 -0.0011589453776909325 -0.011338726225653894 0 -0.00027101812920658926 -0.010277701132874274 0 -0.0011586789119908685 -0.0099035169939385697 0 -0.0011589453776909325 -0.011338726225653894 0 -0.0018390494886495535 -0.011162527510037752 0 -0.0011589453776909325 -0.011338726225653894 0 -0.0018318462350776184 -0.012034983969373093 0 -0.0013224086466276698 -0.012710321098569928 0 -0.0011589453776909325 -0.011338726225653894 0 -0.0018318462350776184 -0.012034983969373093 0 -0.0013224086466276698 -0.012710321098569928 0 -0.00035469822502401518 -0.011761350094868844 0 -0.0011589453776909325 -0.011338726225653894 0 -0.0022949702145501792 -0.011836518078634551 0 -0.0024433402006986574 -0.012440105211979831 0 -0.0028001131983087907 -0.012139727010707778 0 -0.0022949702145501792 -0.011836518078634551 0 -0.0018318462350776184 -0.012034983969373093 0 -0.0024433402006986574 -0.012440105211979831 0 -0.0018318462350776184 -0.012034983969373093 0 -0.0020509101270436546 -0.012723343942103133 0 -0.0024433402006986574 -0.012440105211979831 0 -0.0013224086466276698 -0.012710321098569928 0 -0.0018318462350776184 -0.012034983969373093 0 -0.0020509101270436546 -0.012723343942103133 0 -0.0026144317080917649 -0.013101195216865645 0 -0.0020509101270436546 -0.012723343942103133 0 -0.0024433402006986574 -0.012440105211979831 0 -0.0026144317080917649 -0.013101195216865645 0 -0.0024433402006986574 -0.012440105211979831 0 -0.0030083469642818582 -0.01286129413288321 0 -0.0030083469642818582 -0.01286129413288321 0 -0.0028001131983087907 -0.012139727010707778 0 -0.0032792695372314655 -0.012545702216876474 0 -0.0028001131983087907 -0.012139727010707778 0 -0.0032792695372314655 -0.012545702216876474 0 -0.0030964615182133446 -0.011901112446002763 0 -0.0024433402006986574 -0.012440105211979831 0 -0.0030083469642818582 -0.01286129413288321 0 -0.0028001131983087907 -0.012139727010707778 0 -0.0032792695372314655 -0.012545702216876474 0 -0.0039524395860261064 -0.012828869907231982 0 -0.0034931304111715999 -0.012242251309322475 0 -0.0032792695372314655 -0.012545702216876474 0 -0.0036042372686228784 -0.013212495544184832 0 -0.0039524395860261064 -0.012828869907231982 0 -0.0030083469642818582 -0.01286129413288321 0 -0.0032792695372314655 -0.012545702216876474 0 -0.0036042372686228784 -0.013212495544184832 0 -0.0032005705060026927 -0.01336905084036146 0 -0.0030083469642818582 -0.01286129413288321 0 -0.0036042372686228784 -0.013212495544184832 0 -0.0041299869232359915 -0.013641057595543335 0 -0.0036042372686228784 -0.013212495544184832 0 -0.0039524395860261064 -0.012828869907231982 0 -0.0041299869232359915 -0.013641057595543335 0 -0.0039524395860261064 -0.012828869907231982 0 -0.0044650896738173546 -0.01390271909954976 0 -0.0039524395860261064 -0.012828869907231982 0 -0.0039213415671101948 -0.012766846076412266 0 -0.0034931304111715999 -0.012242251309322475 0 -0.0039524395860261064 -0.012828869907231982 0 -0.0039213415671101948 -0.012766846076412266 0 -0.0028182646380668212 -0.012757701601869863 0 -0.0039213415671101948 -0.012766846076412266 0 -0.0034421924838992876 -0.013436731622845208 0 -0.00339963297408218 -0.014175674794092818 0 -0.0039213415671101948 -0.012766846076412266 0 -0.0034931304111715999 -0.012242251309322475 0 -0.0032087065996319769 -0.010861142839399774 0 -0.0030964615182133446 -0.011901112446002763 0 -0.0034931304111715999 -0.012242251309322475 0 -0.0032087065996319769 -0.010861142839399774 0 -0.0025539347259815955 -0.011394275493833702 0 -0.0030964615182133446 -0.011901112446002763 0 -0.0032087065996319769 -0.010861142839399774 0 -0.0025539347259815955 -0.011394275493833702 0 -0.0028001131983087907 -0.012139727010707778 0 -0.0030964615182133446 -0.011901112446002763 0 -0.0032792695372314655 -0.012545702216876474 0 -0.0030964615182133446 -0.011901112446002763 0 -0.0034931304111715999 -0.012242251309322475 0 -0.0048398580777216753 -0.015030755549064195 0 -0.0046563229636379568 -0.014013753126920681 0 -0.0053893322269771785 -0.014279976273896466 0 -0.0047905073424893063 -0.015383603487928631 0 -0.0045969762203075977 -0.015891928170346289 0 -0.0039952235633301143 -0.015685707289253378 0 -0.0048398580777216753 -0.015030755549064195 0 -0.0038239753552693333 -0.017949392906287415 0 -0.0048290041794048126 -0.014230192035394973 0 -0.0039952235633301143 -0.015685707289253378 0 -0.0048398580777216753 -0.015030755549064195 0 -0.0048398580777216753 -0.015030755549064195 0 -0.0046347058185648602 -0.014178650267651674 0 -0.0047488706328888798 -0.014334037318274396 0 -0.0048398580777216753 -0.015030755549064195 0 -0.0046347058185648602 -0.014178650267651674 0 -0.0046563229636379568 -0.014013753126920681 0 -0.003819570524366378 -0.01306372309718328 0 -0.0037681478874743266 -0.01293821766675558 0 -0.0039524395860261064 -0.012828869907231982 0 -0.0046347058185648602 -0.014178650267651674 0 -0.0046563229636379568 -0.014013753126920681 0 -0.0039524395860261064 -0.012828869907231982 0 -0.0046347058185648602 -0.014178650267651674 0 -0.0044650896738173546 -0.01390271909954976 0 -0.0046347058185648602 -0.014178650267651674 0 -0.0047488706328888798 -0.014334037318274396 0 -0.0044650896738173546 -0.01390271909954976 0 -0.0034421924838992876 -0.013436731622845208 0 -0.0028182646380668212 -0.012757701601869863 0 -0.0031906603319685001 -0.01453360985082716 0 -0.0039213415671101948 -0.012766846076412266 0 -0.0034421924838992876 -0.013436731622845208 0 -0.0028182646380668212 -0.012757701601869863 0 -0.0028182646380668212 -0.012757701601869863 0 -0.0011853384324442286 -0.014896412080176927 0 -0.0031906603319685001 -0.01453360985082716 0 -0.0037681478874743266 -0.01293821766675558 0 -0.0021943298597584876 -0.016610482034565718 0 -0.0028182646380668212 -0.012757701601869863 0 -0.0011853384324442286 -0.014896412080176927 0 0.0010795898934239643 -0.013706660111354303 0 -0.0046563229636379568 -0.014013753126920681 0 -0.0053893322269771785 -0.014279976273896466 0 -0.0057591488253808639 -0.013872940457953668 0 -0.00054854514820263398 -0.016644555347977496 0 -0.0011853384324442286 -0.014896412080176927 0 -0.0018015276896238418 -0.016912086161389842 0 -0.0011853384324442286 -0.014896412080176927 0 -0.0031906603319685001 -0.01453360985082716 0 -0.0018015276896238418 -0.016912086161389842 0 -0.0034421924838992876 -0.013436731622845208 0 -0.0031906603319685001 -0.01453360985082716 0 -0.00339963297408218 -0.014175674794092818 0 -0.0031906603319685001 -0.01453360985082716 0 -0.0032595764096227859 -0.014438918576731147 0 -0.00339963297408218 -0.014175674794092818 0 -0.0032595764096227859 -0.014438918576731147 0 -0.0031824027705190648 -0.014455187772025018 0 -0.0032464444174135532 -0.014464657985571632 0 -0.0032321856959317075 -0.014771372893170697 0 -0.0030753877967564913 -0.017090622701838223 0 -0.0031906603319685001 -0.01453360985082716 0 -0.0032595764096227859 -0.014438918576731147 0 -0.0031824027705190648 -0.014455187772025018 0 -0.0031906603319685001 -0.01453360985082716 0 -0.0031042169237280146 -0.01995424150312532 0 -0.0018015276896238418 -0.016912086161389842 0 -0.0031042169237280146 -0.01995424150312532 0 -0.0018015276896238418 -0.016912086161389842 0 -0.0018951629823567471 -0.018990367646448986 0 -0.00054854514820263398 -0.016644555347977496 0 -0.0018015276896238418 -0.016912086161389842 0 -0.0009348851080321635 -0.018047752476854736 0 -0.0018015276896238418 -0.016912086161389842 0 -0.0018951629823567471 -0.018990367646448986 0 -0.0009348851080321635 -0.018047752476854736 0 -0.0021856573512096054 -0.0095262071660242743 0 -0.0032087065996319769 -0.010861142839399774 0 -0.0037460767257935226 -0.0098688433879187965 0 -0.0039213415671101948 -0.012766846076412266 0 -0.0036365672690748525 -0.014423328567830509 0 -0.00339963297408218 -0.014175674794092818 0 -0.0039213415671101948 -0.012766846076412266 0 -0.0032087065996319769 -0.010861142839399774 0 -0.0037460767257935226 -0.0098688433879187965 0 -0.0032595764096227859 -0.014438918576731147 0 -0.0036365672690748525 -0.014423328567830509 0 -0.00339963297408218 -0.014175674794092818 0 -0.0039083576608887165 -0.012697028932869501 0 -0.0036231089046758289 -0.012116013654530147 0 -0.0032595764096227859 -0.014438918576731147 0 -0.0036365672690748525 -0.014423328567830509 0 -0.0032464444174135532 -0.014464657985571632 0 -0.0036365672690748525 -0.014423328567830509 0 -0.0032464444174135532 -0.014464657985571632 0 -0.003107409036363857 -0.014409881407514907 0 -0.0036231089046758289 -0.012116013654530147 0 -0.0034721130478573836 -0.011318481477988746 0 -0.0021856573512096054 -0.0095262071660242743 0 -0.0037460767257935226 -0.0098688433879187965 0 -0.0032166130472374246 -0.0082371757120218922 0 -0.0032464444174135532 -0.014464657985571632 0 -0.003107409036363857 -0.014409881407514907 0 -0.003095676529835232 -0.014417665322483933 0 -0.003107409036363857 -0.014409881407514907 0 -0.0030203871993555649 -0.014349885351889262 0 -0.003095676529835232 -0.014417665322483933 0 -0.0030203871993555649 -0.014349885351889262 0 -0.003095676529835232 -0.014417665322483933 0 -0.0029365645007500903 -0.014332292917465595 0 -0.003107409036363857 -0.014409881407514907 0 -0.0030203871993555649 -0.014349885351889262 0 -0.0029647337108285039 -0.014304883820219952 0 -0.0034721130478573836 -0.011318481477988746 0 -0.00086454124995049533 -0.010712089645783967 0 -0.0032166130472374246 -0.0082371757120218922 0 -0.00284623578065697 -0.0068175872227515906 0 -0.0022828322149773639 -0.0075862160183897149 0 -0.0030753877967564913 -0.017090622701838223 0 -0.002818782736409205 -0.016757823749918053 0 -0.0031042169237280146 -0.01995424150312532 0 -0.0028380774269896945 -0.020163029950150919 0 -0.0024804934619157295 -0.019266363543556632 0 -0.0032290508543781995 -0.019923893213770524 0 -0.0028380774269896945 -0.020163029950150919 0 -0.0024804934619157295 -0.019266363543556632 0 -0.002884231425223518 -0.020321213108399683 0 -0.0017220161950434059 -0.0203634032347122 0 -0.0018951629823567471 -0.018990367646448986 0 -0.0028380774269896945 -0.020163029950150919 0 0.0011037310683238758 -0.019004257151019232 0 -0.0028380774269896945 -0.020163029950150919 0 -0.0049824851124205078 -0.021906919093620938 0 -0.0039639471464830902 -0.020643913067089622 0 -0.0032290508543781995 -0.019923893213770524 0 -0.0028380774269896945 -0.020163029950150919 0 -0.0039639471464830902 -0.020643913067089622 0 -0.0032290508543781995 -0.019923893213770524 0 -0.0037885959344076525 -0.019795064711803406 0 -0.0039639471464830902 -0.020643913067089622 0 -0.0031042169237280146 -0.01995424150312532 0 -0.0018951629823567471 -0.018990367646448986 0 -0.0028380774269896945 -0.020163029950150919 0 -0.0031824027705190648 -0.014455187772025018 0 -0.003095676529835232 -0.014417665322483933 0 -0.0030141049800512625 -0.014446418749730903 0 -0.0031824027705190648 -0.014455187772025018 0 -0.0032464444174135532 -0.014464657985571632 0 -0.003095676529835232 -0.014417665322483933 0 -0.003095676529835232 -0.014417665322483933 0 -0.0029365645007500903 -0.014332292917465595 0 -0.0030141049800512625 -0.014446418749730903 0 -0.0024804934619157295 -0.019266363543556632 0 -0.0037885959344076525 -0.019795064711803406 0 -0.0045605637070199436 -0.017579284430116512 0 -0.0032290508543781995 -0.019923893213770524 0 -0.0024804934619157295 -0.019266363543556632 0 -0.0037885959344076525 -0.019795064711803406 0 -0.0024804934619157295 -0.019266363543556632 0 -0.0031510095781258625 -0.014120011329375601 0 -0.0045605637070199436 -0.017579284430116512 0 -0.002818782736409205 -0.016757823749918053 0 -0.0031023612840453338 -0.014307566951957392 0 -0.0030141049800512625 -0.014446418749730903 0 -0.002708461313752335 -0.014196280859450874 0 -0.0031510095781258625 -0.014120011329375601 0 -0.0029675141828189111 -0.014347216176407187 0 -0.0048556637393918165 -0.017589198391532491 0 -0.002708461313752335 -0.014196280859450874 0 -0.0015279436232369767 -0.012853792411091913 0 -0.00065850809774503898 -0.013957014565361104 0 -0.0029365645007500903 -0.014332292917465595 0 -0.0030141049800512625 -0.014446418749730903 0 -0.002708461313752335 -0.014196280859450874 0 -0.0029365645007500903 -0.014332292917465595 0 -0.002708461313752335 -0.014196280859450874 0 -0.0029725624976709511 -0.014337729213907427 0 -0.0026782486519415808 -0.014153078972797609 0 -0.0017958244487648969 -0.014195503182118712 0 -0.002708461313752335 -0.014196280859450874 0 -0.0024527009851715571 -0.012303878376731405 0 -0.0031510095781258625 -0.014120011329375601 0 -0.002708461313752335 -0.014196280859450874 0 -0.0015279436232369767 -0.012853792411091913 0 -0.0024527009851715571 -0.012303878376731405 0 -0.0015279436232369767 -0.012853792411091913 0 -0.0024527009851715571 -0.012303878376731405 0 -0.00081585063738407826 -0.011144356787122927 0 -0.0020121544305634863 -0.011677752083958739 0 -0.0029675141828189111 -0.014347216176407187 0 -0.0042795904198636922 -0.012786907235262657 0 -0.0031510095781258625 -0.014120011329375601 0 -0.0045605637070199436 -0.017579284430116512 0 -0.0024527009851715571 -0.012303878376731405 0 -0.0042795904198636922 -0.012786907235262657 0 -0.0031510095781258625 -0.014120011329375601 0 -0.00086454124995049533 -0.010712089645783967 0 -0.0017958244487648969 -0.014195503182118712 0 0.0012410019950605746 -0.013968012979804902 0 -0.00065850809774503898 -0.013957014565361104 0 0.00031068920961927892 -0.012237802263787467 0 -0.0030203871993555649 -0.014349885351889262 0 -0.0029647337108285039 -0.014304883820219952 0 -0.0029725624976709511 -0.014337729213907427 0 -0.0030203871993555649 -0.014349885351889262 0 -0.0029365645007500903 -0.014332292917465595 0 -0.0029725624976709511 -0.014337729213907427 0 -0.0015279436232369767 -0.012853792411091913 0 0.00031068920961927892 -0.012237802263787467 0 -0.00081585063738407826 -0.011144356787122927 0 -0.0015279436232369767 -0.012853792411091913 0 -0.00065850809774503898 -0.013957014565361104 0 0.00031068920961927892 -0.012237802263787467 0 -0.00086454124995049533 -0.010712089645783967 0 0.0014707778377058103 -0.0095308212287048329 0 0.0012410019950605746 -0.013968012979804902 0 0.00031068920961927892 -0.012237802263787467 0 0.0014894168655286309 -0.010985727655922619 0 0.0010103870775880425 -0.0079372914760244499 0 0.00097029418044524654 -0.0079558887962559496 0 0.0010391842024412522 -0.007999878890133828 0 -0.00086454124995049533 -0.010712089645783967 0 -0.00043706822249102776 -0.0072024058596942952 0 -0.00284623578065697 -0.0068175872227515906 0 -0.0017403097972757489 -0.006911978065718128 0 -0.0022828322149773639 -0.0075862160183897149 0 0.0010103870775880425 -0.0079372914760244499 0 0.00097029418044524654 -0.0079558887962559496 0 0.00095530432716486857 -0.0079139925597876484 0 -0.0017403097972757489 -0.006911978065718128 0 -0.00061939866359067704 -0.0070255718977452163 0 -0.0012954615490718181 -0.0074979124340793209 0 -0.00043706822249102776 -0.0072024058596942952 0 0.00011892743902073464 -0.0071536263640508595 0 0.00095530432716486857 -0.0079139925597876484 0 0.00093095372820223049 -0.0079354021325464038 0 0.00090717778312230215 -0.0079046111929468293 0 0.00097029418044524654 -0.0079558887962559496 0 0.00095530432716486857 -0.0079139925597876484 0 0.00093095372820223049 -0.0079354021325464038 0 0.00097029418044524654 -0.0079558887962559496 0 0.00093095372820223049 -0.0079354021325464038 0 0.00092845269860501462 -0.0079572502819927407 0 0.00077695192526318108 -0.0076191006053853072 0 0.00011892743902073464 -0.0071536263640508595 0 0.00093095372820223049 -0.0079354021325464038 0 0.00091807642807667956 -0.0079485164349923781 0 0.00090717778312230215 -0.0079046111929468293 0 0.00093095372820223049 -0.0079354021325464038 0 0.00092845269860501462 -0.0079572502819927407 0 0.00091807642807667956 -0.0079485164349923781 0 0.0005867733233648945 -0.0071411641970891213 0 0.00024582361855112931 -0.0070308726031313535 0 0.00028567937218501003 -0.0069208800398124328 0 0.00028567937218501003 -0.0069208800398124328 0 0.00017702170920318194 -0.006848857443061275 0 0.00028191751194883865 -0.0068807913340050144 0 -2.0456932979207603e-06 -0.0034382623215754413 0 -3.5534635371562752e-05 -0.0049838010171509789 0 0.00063451032899902271 -0.0041628630658742073 0 0.00014141366238971194 -0.0052381878133625059 0 0.00015555255801655624 -0.0059772443798185972 0 0.00024582361855112931 -0.0070308726031313535 0 0.00028567937218501003 -0.0069208800398124328 0 0.00028191751194883865 -0.0068807913340050144 0 0.0005867733233648945 -0.0071411641970891213 0 0.00028567937218501003 -0.0069208800398124328 0 0.00020550691671583412 -0.0068416857018509655 0 0.00028567937218501003 -0.0069208800398124328 0 0.00017702170920318194 -0.006848857443061275 0 0.00020550691671583412 -0.0068416857018509655 0 0.00017702170920318194 -0.006848857443061275 0 0.00011963170804073506 -0.0068366544123445398 0 0.00010862822811880215 -0.0069998655026443585 0 0.00012686140698412859 -0.0071321334252736129 0 0.00011892743902073464 -0.0071536263640508595 0 -0.00061939866359067704 -0.0070255718977452163 0 -0.00082902605134728478 -0.008085322660179535 0 -0.0012954615490718181 -0.0074979124340793209 0 0.00011892743902073464 -0.0071536263640508595 0 -0.00060626388978735134 -0.0076154472503270577 0 0.00011963170804073506 -0.0068366544123445398 0 0.00010862822811880215 -0.0069998655026443585 0 -0.00033899151555467233 -0.0071469545162588452 0 0.00015555255801655624 -0.0059772443798185972 0 0.00043456379433412593 -0.0072061979238762803 0 0.00010862822811880215 -0.0069998655026443585 0 0.00028191751194883865 -0.0068807913340050144 0 0.00048222471994608502 -0.0072989923111323263 0 0.00017702170920318194 -0.006848857443061275 0 0.00010862822811880215 -0.0069998655026443585 0 0.00028191751194883865 -0.0068807913340050144 0 0.00010862822811880215 -0.0069998655026443585 0 -5.2542796604864408e-05 -0.0075467381268605116 0 0.00048222471994608502 -0.0072989923111323263 0 0.00010862822811880215 -0.0069998655026443585 0 -5.2542796604864408e-05 -0.0075467381268605116 0 -0.00033899151555467233 -0.0071469545162588452 0 -0.00092713432994590895 -0.0086565895272757206 0 -0.00060626388978735134 -0.0076154472503270577 0 -0.0008572520051868983 -0.0080863362549402837 0 -5.2542796604864408e-05 -0.0075467381268605116 0 -0.00033899151555467233 -0.0071469545162588452 0 -0.0010345719290785313 -0.0091257860979996486 0 -0.00082902605134728478 -0.008085322660179535 0 -0.0017956706570532797 -0.008345315068566117 0 -0.0021856573512096054 -0.0095262071660242743 0 -0.0032166130472374246 -0.0082371757120218922 0 -0.0017956706570532797 -0.008345315068566117 0 -0.0017956706570532797 -0.008345315068566117 0 -0.0022828322149773639 -0.0075862160183897149 0 -0.0012954615490718181 -0.0074979124340793209 0 -0.0017403097972757489 -0.006911978065718128 0 -0.0022828322149773639 -0.0075862160183897149 0 -0.0012954615490718181 -0.0074979124340793209 0 -0.0032166130472374246 -0.0082371757120218922 0 -0.0017956706570532797 -0.008345315068566117 0 -0.0022828322149773639 -0.0075862160183897149 0 -0.00082902605134728478 -0.008085322660179535 0 -0.0017956706570532797 -0.008345315068566117 0 -0.0012954615490718181 -0.0074979124340793209 0 -0.0014452542221114546 -0.023544090112037539 0 -0.00241224608409206 -0.023978775664058503 0 -0.001677351924889769 -0.024913882596734202 0 -0.00074985748859160699 -0.025038854686291072 0 -0.0014452542221114546 -0.023544090112037539 0 -0.001677351924889769 -0.024913882596734202 0 -0.0014452542221114546 -0.023544090112037539 0 -0.00241224608409206 -0.023978775664058503 0 -0.0021816883187354584 -0.023141466290122939 0 -0.00241224608409206 -0.023978775664058503 0 -0.0030289948766438839 -0.022954019087483138 0 -0.0029907810362336841 -0.023806409208103594 0 -0.00241224608409206 -0.023978775664058503 0 -0.0029907810362336841 -0.023806409208103594 0 -0.0028289801556277113 -0.024396014843078535 0 -0.0021816883187354584 -0.023141466290122939 0 -0.0017780977600550243 -0.021899369856026172 0 -0.0030289948766438839 -0.022954019087483138 0 -0.0017724697812422326 -0.021830956565882229 0 -0.0022013010081431113 -0.021897477197991021 0 -0.00241224608409206 -0.023978775664058503 0 -0.0021816883187354584 -0.023141466290122939 0 -0.0030289948766438839 -0.022954019087483138 0 -0.0017780977600550243 -0.021899369856026172 0 -0.0016208404316915596 -0.021024689338765785 0 -0.0015868644523302437 -0.020866228354044943 0 -0.0014452542221114546 -0.023544090112037539 0 -0.0017780977600550243 -0.021899369856026172 0 -0.0010513455592733481 -0.022154755474688575 0 -0.0014452542221114546 -0.023544090112037539 0 -0.0021816883187354584 -0.023141466290122939 0 -0.0017780977600550243 -0.021899369856026172 0 -0.0017780977600550243 -0.021899369856026172 0 -0.0014159054285859706 -0.021480700980916419 0 -0.0016638611425948511 -0.0212821295862257 0 -0.0017780977600550243 -0.021899369856026172 0 -0.0010513455592733481 -0.022154755474688575 0 -0.0014159054285859706 -0.021480700980916419 0 -0.0014159054285859706 -0.021480700980916419 0 -0.0015206079553090847 -0.021110529697935171 0 -0.0016638611425948511 -0.0212821295862257 0 -0.0008023363721227591 -0.021242689387350005 0 -0.0010513455592733481 -0.022154755474688575 0 -0.0014159054285859706 -0.021480700980916419 0 -0.0008023363721227591 -0.021242689387350005 0 -0.0014159054285859706 -0.021480700980916419 0 -0.0015206079553090847 -0.021110529697935171 0 -0.0008023363721227591 -0.021242689387350005 0 -0.0014317324314384332 -0.020899974815183488 0 -0.0015206079553090847 -0.021110529697935171 0 -0.0016162592579400874 -0.020992727817795463 0 -0.0015206079553090847 -0.021110529697935171 0 -0.001630498757059457 -0.020983989910738604 0 -0.0015206079553090847 -0.021110529697935171 0 -0.0016638611425948511 -0.0212821295862257 0 -0.001630498757059457 -0.020983989910738604 0 -0.0017780977600550243 -0.021899369856026172 0 -0.0016638611425948511 -0.0212821295862257 0 -0.0016208404316915596 -0.021024689338765785 0 -0.0016638611425948511 -0.0212821295862257 0 -0.0016208404316915596 -0.021024689338765785 0 -0.001630498757059457 -0.020983989910738604 0 -0.0016208404316915596 -0.021024689338765785 0 -0.0014466193362832908 -0.020734761543410883 0 -0.0014901634961478317 -0.020683331951784609 0 -0.0016208404316915596 -0.021024689338765785 0 -0.001630498757059457 -0.020983989910738604 0 -0.0014466193362832908 -0.020734761543410883 0 -0.0015440783912232187 -0.020894554354062202 0 -0.0016162592579400874 -0.020992727817795463 0 -0.001630498757059457 -0.020983989910738604 0 -0.0015440783912232187 -0.020894554354062202 0 -0.001630498757059457 -0.020983989910738604 0 -0.0013925434427371612 -0.020725686580563021 0 -0.001630498757059457 -0.020983989910738604 0 -0.0013925434427371612 -0.020725686580563021 0 -0.0014466193362832908 -0.020734761543410883 0 -0.0013436007135022396 -0.020811095053249132 0 -0.0013925434427371612 -0.020725686580563021 0 -0.0011570161830771731 -0.020541043437824223 0 -0.0013436007135022396 -0.020811095053249132 0 -0.0015440783912232187 -0.020894554354062202 0 -0.0013925434427371612 -0.020725686580563021 0 -0.0013925434427371612 -0.020725686580563021 0 -0.0011727933890088766 -0.020460495934812372 0 -0.0014466193362832908 -0.020734761543410883 0 -0.0013925434427371612 -0.020725686580563021 0 -0.0011727933890088766 -0.020460495934812372 0 -0.0011570161830771731 -0.020541043437824223 0 -0.0011727933890088766 -0.020460495934812372 0 -0.0014466193362832908 -0.020734761543410883 0 -0.0012127651590070807 -0.020434058181552427 0 -0.0014466193362832908 -0.020734761543410883 0 -0.0012127651590070807 -0.020434058181552427 0 -0.0014901634961478317 -0.020683331951784609 0 -0.0012127651590070807 -0.020434058181552427 0 -0.0014901634961478317 -0.020683331951784609 0 -0.0010254902501488105 -0.020118477059262597 0 -0.0014901634961478317 -0.020683331951784609 0 -0.0014960890290109049 -0.020682104322374734 0 -0.0015047472806762419 -0.020679083212171899 0 -0.0027771557395750018 -0.022153363940771515 0 -0.0016078107573380001 -0.020256062437737716 0 -0.0013399666552908411 -0.020632642226239666 0 -0.0016078107573380001 -0.020256062437737716 0 -0.0022013010081431113 -0.021897477197991021 0 -0.0027771557395750018 -0.022153363940771515 0 -0.0014901634961478317 -0.020683331951784609 0 -0.0015868644523302437 -0.020866228354044943 0 -0.0014960890290109049 -0.020682104322374734 0 -0.0030289948766438839 -0.022954019087483138 0 -0.0033337299687889129 -0.023567737546375103 0 -0.0037433301035304694 -0.023444514777347884 0 -0.0016208404316915596 -0.021024689338765785 0 -0.0014901634961478317 -0.020683331951784609 0 -0.0015868644523302437 -0.020866228354044943 0 -0.0033337299687889129 -0.023567737546375103 0 -0.0035635507390832074 -0.023759700304549554 0 -0.0036377677351618933 -0.02342089967688981 0 -0.0032888723545003921 -0.022918623349452341 0 -0.0027771557395750018 -0.022153363940771515 0 -0.0030289948766438839 -0.022954019087483138 0 -0.0033337299687889129 -0.023567737546375103 0 -0.0029907810362336841 -0.023806409208103594 0 -0.0029907810362336841 -0.023806409208103594 0 -0.0032820394857771833 -0.024027182885378237 0 -0.0028289801556277113 -0.024396014843078535 0 -0.0033337299687889129 -0.023567737546375103 0 -0.0029907810362336841 -0.023806409208103594 0 -0.0032820394857771833 -0.024027182885378237 0 -0.0033337299687889129 -0.023567737546375103 0 -0.0032820394857771833 -0.024027182885378237 0 -0.0035635507390832074 -0.023759700304549554 0 -0.0035635507390832074 -0.023759700304549554 0 -0.0038333645990057097 -0.023713906449389408 0 -0.0036547409270972749 -0.024065387630107325 0 -0.0032820394857771833 -0.024027182885378237 0 -0.0035635507390832074 -0.023759700304549554 0 -0.0036547409270972749 -0.024065387630107325 0 -0.0025724405809307528 -0.021201436169227327 0 -0.0025669193738855943 -0.021194014550725625 0 -0.0025630863901945334 -0.021195570552567499 0 -0.0027771557395750018 -0.022153363940771515 0 -0.0034173018482821448 -0.022339221882482045 0 -0.0035635507390832074 -0.023759700304549554 0 -0.0038333645990057097 -0.023713906449389408 0 -0.0036377677351618933 -0.02342089967688981 0 -0.0038333645990057097 -0.023713906449389408 0 -0.0036377677351618933 -0.02342089967688981 0 -0.0042339901581560039 -0.023498093273014775 0 -0.0038333645990057097 -0.023713906449389408 0 -0.0042339901581560039 -0.023498093273014775 0 -0.0040236896191597898 -0.023839367197310585 0 -0.0034173018482821448 -0.022339221882482045 0 -0.003917104907011539 -0.022464784749165349 0 -0.0025669193738855943 -0.021194014550725625 0 -0.0025630863901945334 -0.021195570552567499 0 -0.0025535806114420881 -0.021184293161175701 0 -0.0042339901581560039 -0.023498093273014775 0 -0.004629687643237403 -0.023311307526756232 0 -0.0044635966710303713 -0.023494417387387754 0 -0.0025669193738855943 -0.021194014550725625 0 -0.0025535806114420881 -0.021184293161175701 0 -0.0025627308753559761 -0.021189174172009998 0 -0.0016078107573380001 -0.020256062437737716 0 -0.0015772076775873625 -0.01968132467175629 0 -0.0050257154920055509 -0.022191020867886969 0 -0.0050636857280451355 -0.02223704310004997 0 -0.0047891884893220922 -0.022359165071032406 0 -0.0015772076775873625 -0.01968132467175629 0 -0.003917104907011539 -0.022464784749165349 0 -0.0013191037189070347 -0.018927166468907651 0 -0.00097259968275546262 -0.019058527506401843 0 -0.0013744010622027444 -0.019190834925605672 0 -0.0008994532947209907 -0.019773233850694672 0 -0.0016078107573380001 -0.020256062437737716 0 -0.00079095549322269292 -0.020161000527574611 0 -0.0010254902501488105 -0.020118477059262597 0 -0.00089226161849963203 -0.020163355693384163 0 -0.0012127651590070807 -0.020434058181552427 0 -0.0010254902501488105 -0.020118477059262597 0 -0.00089226161849963203 -0.020163355693384163 0 -0.0011727933890088766 -0.020460495934812372 0 -0.00089226161849963203 -0.020163355693384163 0 -0.00095234725199379452 -0.020160758429094372 0 -0.0011727933890088766 -0.020460495934812372 0 -0.0012127651590070807 -0.020434058181552427 0 -0.00089226161849963203 -0.020163355693384163 0 -0.0011727933890088766 -0.020460495934812372 0 -0.00095234725199379452 -0.020160758429094372 0 -0.0011570161830771731 -0.020541043437824223 0 -0.00090336068043666315 -0.020549939897483049 0 -0.00095234725199379452 -0.020160758429094372 0 -0.0011570161830771731 -0.020541043437824223 0 -0.00090336068043666315 -0.020549939897483049 0 -0.00095234725199379452 -0.020160758429094372 0 -0.00060119504231458652 -0.0203441042074783 0 -0.00095234725199379452 -0.020160758429094372 0 -0.00060119504231458652 -0.0203441042074783 0 -0.00065879333144479529 -0.019482661394203564 0 -0.00079095549322269292 -0.020161000527574611 0 -0.00089226161849963203 -0.020163355693384163 0 -0.00065879333144479529 -0.019482661394203564 0 -0.00089226161849963203 -0.020163355693384163 0 -0.00095234725199379452 -0.020160758429094372 0 -0.00065879333144479529 -0.019482661394203564 0 -0.00079095549322269292 -0.020161000527574611 0 -0.0016939578653465265 -0.018688500118895991 0 -0.002585377172485118 -0.019609183826782665 0 -0.00079095549322269292 -0.020161000527574611 0 -0.00065879333144479529 -0.019482661394203564 0 -0.0016939578653465265 -0.018688500118895991 0 -0.00074977510112820699 -0.019225527537074703 0 -0.0012586441110462394 -0.018319305663270231 0 -0.00060119504231458652 -0.0203441042074783 0 -0.00065879333144479529 -0.019482661394203564 0 0.00010082117283392076 -0.020329846431455811 0 -0.00065879333144479529 -0.019482661394203564 0 -0.0016939578653465265 -0.018688500118895991 0 -0.0023468079862346294 -0.016261276563160631 0 -0.0016939578653465265 -0.018688500118895991 0 -0.0023468079862346294 -0.016261276563160631 0 -0.0038239753552693333 -0.017949392906287415 0 -0.0048290041794048126 -0.014230192035394973 0 -0.0039952235633301143 -0.015685707289253378 0 -0.0023468079862346294 -0.016261276563160631 0 -0.0039952235633301143 -0.015685707289253378 0 -0.0023468079862346294 -0.016261276563160631 0 -0.0038239753552693333 -0.017949392906287415 0 -0.0016939578653465265 -0.018688500118895991 0 -0.0038239753552693333 -0.017949392906287415 0 -0.002585377172485118 -0.019609183826782665 0 -0.0045969762203075977 -0.015891928170346289 0 -0.0021943298597584876 -0.016610482034565718 0 -0.0011853384324442286 -0.014896412080176927 0 0.0010795898934239643 -0.013706660111354303 0 0.00077456931407057132 -0.015993626975441714 0 -0.00054854514820263398 -0.016644555347977496 0 -0.0011853384324442286 -0.014896412080176927 0 0.00077456931407057132 -0.015993626975441714 0 -0.00054854514820263398 -0.016644555347977496 0 0.00077456931407057132 -0.015993626975441714 0 0.00043663975867271466 -0.017405499630204498 0 0.00077456931407057132 -0.015993626975441714 0 0.0028252116548353303 -0.015690465883293508 0 0.0018868692567703292 -0.01725306094013548 0 0.0010795898934239643 -0.013706660111354303 0 0.00077456931407057132 -0.015993626975441714 0 0.0028252116548353303 -0.015690465883293508 0 -0.0021943298597584876 -0.016610482034565718 0 0.00073047176692650842 -0.017659619167528253 0 -0.0013191037189070347 -0.018927166468907651 0 -0.0015366366360640858 -0.018991307577006088 0 -0.0013744010622027444 -0.019190834925605672 0 -0.0008994532947209907 -0.019773233850694672 0 -0.0021943298597584876 -0.016610482034565718 0 -0.0013191037189070347 -0.018927166468907651 0 -0.0017059656273847082 -0.018762857721935786 0 -0.0015366366360640858 -0.018991307577006088 0 0.00073047176692650842 -0.017659619167528253 0 -0.0015772076775873625 -0.01968132467175629 0 0.0044553611865201619 -0.017700839639901836 0 0.0011037310683238758 -0.019004257151019232 0 0.0018868692567703292 -0.01725306094013548 0 0.0028252116548353303 -0.015690465883293508 0 0.0044553611865201619 -0.017700839639901836 0 0.0018868692567703292 -0.01725306094013548 0 -0.0050257154920055509 -0.022191020867886969 0 -0.0050636857280451355 -0.02223704310004997 0 -0.0049824851124205078 -0.021906919093620938 0 -0.0015772076775873625 -0.01968132467175629 0 -0.0017220161950434059 -0.0203634032347122 0 -0.0018951629823567471 -0.018990367646448986 0 -0.0009348851080321635 -0.018047752476854736 0 0.0011037310683238758 -0.019004257151019232 0 -0.0009348851080321635 -0.018047752476854736 0 0.0011037310683238758 -0.019004257151019232 0 0.00043663975867271466 -0.017405499630204498 0 -0.00054854514820263398 -0.016644555347977496 0 -0.0009348851080321635 -0.018047752476854736 0 0.00043663975867271466 -0.017405499630204498 0 0.00077456931407057132 -0.015993626975441714 0 0.00043663975867271466 -0.017405499630204498 0 0.0018868692567703292 -0.01725306094013548 0 0.0011037310683238758 -0.019004257151019232 0 0.00043663975867271466 -0.017405499630204498 0 0.0018868692567703292 -0.01725306094013548 0 -0.0037885959344076525 -0.019795064711803406 0 -0.0050034790552030564 -0.021081181152696631 0 -0.0039639471464830902 -0.020643913067089622 0 -0.0037885959344076525 -0.019795064711803406 0 -0.0050034790552030564 -0.021081181152696631 0 -0.0047462133639578673 -0.019529589341218269 0 -0.0049824851124205078 -0.021906919093620938 0 -0.0050034790552030564 -0.021081181152696631 0 -0.0039639471464830902 -0.020643913067089622 0 -0.0049824851124205078 -0.021906919093620938 0 -0.0050034790552030564 -0.021081181152696631 0 -0.0051359153518070683 -0.02223790773189338 0 -0.0050034790552030564 -0.021081181152696631 0 -0.0051359153518070683 -0.02223790773189338 0 -0.0051473187401496652 -0.023739668566230696 0 -0.0049253756170505418 -0.021257694723012754 0 -0.0057543623323220413 -0.021257761555453374 0 -0.0050636857280451355 -0.02223704310004997 0 -0.0049824851124205078 -0.021906919093620938 0 -0.0051359153518070683 -0.02223790773189338 0 -0.0050636857280451355 -0.02223704310004997 0 -0.0051359153518070683 -0.02223790773189338 0 -0.0049851885893938521 -0.022537777115280839 0 -0.0051359153518070683 -0.02223790773189338 0 -0.0048896081525515072 -0.023233497218821161 0 -0.0049851885893938521 -0.022537777115280839 0 -0.0054247574763753876 -0.018772203135230675 0 -0.0060402275454637345 -0.018023855157089722 0 -0.0065825788619579134 -0.018769484942865962 0 -0.0050034790552030564 -0.021081181152696631 0 -0.0054247574763753876 -0.018772203135230675 0 -0.0065825788619579134 -0.018769484942865962 0 -0.0050034790552030564 -0.021081181152696631 0 -0.0054247574763753876 -0.018772203135230675 0 -0.0047462133639578673 -0.019529589341218269 0 -0.0037885959344076525 -0.019795064711803406 0 -0.0047462133639578673 -0.019529589341218269 0 -0.0045605637070199436 -0.017579284430116512 0 -0.0054247574763753876 -0.018772203135230675 0 -0.0047462133639578673 -0.019529589341218269 0 -0.0045605637070199436 -0.017579284430116512 0 -0.0044884079607608171 -0.016823030637363564 0 -0.0045605637070199436 -0.017579284430116512 0 -0.0049049760036491887 -0.01730276651058232 0 -0.0054247574763753876 -0.018772203135230675 0 -0.0045605637070199436 -0.017579284430116512 0 -0.0052563788815820182 -0.017712546399316742 0 -0.0052563788815820182 -0.017712546399316742 0 -0.0049049760036491887 -0.01730276651058232 0 -0.0054560658990618878 -0.017060211903997639 0 -0.0045605637070199436 -0.017579284430116512 0 -0.0052563788815820182 -0.017712546399316742 0 -0.0049049760036491887 -0.01730276651058232 0 -0.0044884079607608171 -0.016823030637363564 0 -0.0049049760036491887 -0.01730276651058232 0 -0.0054560658990618878 -0.017060211903997639 0 -0.00033257428317417977 -0.016740017373386595 0 -0.0023002149471100125 -0.017284091038151587 0 -0.0014634267554116944 -0.015523355215638749 0 -0.0029675141828189111 -0.014347216176407187 0 -0.0038362061620470103 -0.017360911919515241 0 -0.0038362061620470103 -0.017360911919515241 0 -0.0054194964757959142 -0.017701803781983529 0 -0.0023002149471100125 -0.017284091038151587 0 -0.0043861356108001719 -0.01778680899146445 0 -0.003013024323346704 -0.016084968585350145 0 -0.0054560658990618878 -0.017060211903997639 0 -0.0060402275454637345 -0.018023855157089722 0 -0.006497311417455502 -0.017722220379832902 0 -0.0052563788815820182 -0.017712546399316742 0 -0.0054560658990618878 -0.017060211903997639 0 -0.0060402275454637345 -0.018023855157089722 0 -0.0054247574763753876 -0.018772203135230675 0 -0.0052563788815820182 -0.017712546399316742 0 -0.0060402275454637345 -0.018023855157089722 0 -0.0060402275454637345 -0.018023855157089722 0 -0.0064992013444948125 -0.0181548770527762 0 -0.0065825788619579134 -0.018769484942865962 0 -0.0064992013444948125 -0.0181548770527762 0 -0.006497311417455502 -0.017722220379832902 0 -0.0066098571707435116 -0.018104818212083859 0 -0.0064992013444948125 -0.0181548770527762 0 -0.0066098571707435116 -0.018104818212083859 0 -0.0065825788619579134 -0.018769484942865962 0 -0.0060402275454637345 -0.018023855157089722 0 -0.0064992013444948125 -0.0181548770527762 0 -0.006497311417455502 -0.017722220379832902 0 -0.0043861356108001719 -0.01778680899146445 0 -0.0045188864616191463 -0.016386615127311235 0 -0.003013024323346704 -0.016084968585350145 0 -0.0043861356108001719 -0.01778680899146445 0 -0.005549609640988341 -0.016710735193502791 0 -0.0045188864616191463 -0.016386615127311235 0 -0.0043861356108001719 -0.01778680899146445 0 -0.005549609640988341 -0.016710735193502791 0 -0.0060312151581339906 -0.017377488975256237 0 -0.0043861356108001719 -0.01778680899146445 0 -0.0060312151581339906 -0.017377488975256237 0 -0.0065922203073387848 -0.017970594724815277 0 -0.0065287241651810456 -0.016661036414065473 0 -0.005549609640988341 -0.016710735193502791 0 -0.0060312151581339906 -0.017377488975256237 0 -0.0060312151581339906 -0.017377488975256237 0 -0.0065922203073387848 -0.017970594724815277 0 -0.0067485924021564638 -0.017783904665103042 0 -0.0065287241651810456 -0.016661036414065473 0 -0.0060312151581339906 -0.017377488975256237 0 -0.0067485924021564638 -0.017783904665103042 0 -0.0054194964757959142 -0.017701803781983529 0 -0.006472932425461886 -0.017962834906093194 0 -0.006497311417455502 -0.017722220379832902 0 -0.0065922203073387848 -0.017970594724815277 0 -0.0066098571707435116 -0.018104818212083859 0 -0.0065922203073387848 -0.017970594724815277 0 -0.0066098571707435116 -0.018104818212083859 0 -0.0067485924021564638 -0.017783904665103042 0 -0.0042957437946214349 -0.025390989933518057 0 -0.0041055780155903991 -0.024787392403023391 0 -0.0038936342497472962 -0.025319673606679555 0 -0.0042957437946214349 -0.025390989933518057 0 -0.0041055780155903991 -0.024787392403023391 0 -0.0045133795548317895 -0.024089604251226627 0 -0.0041055780155903991 -0.024787392403023391 0 -0.0042402956385670619 -0.02421496436888141 0 -0.0040153771117028272 -0.024313823584339266 0 -0.0041055780155903991 -0.024787392403023391 0 -0.0042402956385670619 -0.02421496436888141 0 -0.0045133795548317895 -0.024089604251226627 0 -0.0042402956385670619 -0.02421496436888141 0 -0.0045133795548317895 -0.024089604251226627 0 -0.0043636690440630411 -0.023822343331079299 0 -0.0052300321913512924 -0.021960376400889145 0 -0.0057543623323220413 -0.021257761555453374 0 -0.0042957437946214349 -0.025390989933518057 0 -0.0045133795548317895 -0.024089604251226627 0 -0.0051473187401496652 -0.023739668566230696 0 -0.0045133795548317895 -0.024089604251226627 0 -0.0051473187401496652 -0.023739668566230696 0 -0.0048896081525515072 -0.023233497218821161 0 -0.0045133795548317895 -0.024089604251226627 0 -0.0045739857502056875 -0.023530364486282811 0 -0.0048896081525515072 -0.023233497218821161 0 -0.0045739857502056875 -0.023530364486282811 0 -0.0048896081525515072 -0.023233497218821161 0 -0.0047836885028918362 -0.023011282637126949 0 -0.0048896081525515072 -0.023233497218821161 0 -0.0049851885893938521 -0.022537777115280839 0 -0.0047836885028918362 -0.023011282637126949 0 -0.0051359153518070683 -0.02223790773189338 0 -0.0051473187401496652 -0.023739668566230696 0 -0.0048896081525515072 -0.023233497218821161 0 -0.0050636857280451355 -0.02223704310004997 0 -0.0049851885893938521 -0.022537777115280839 0 -0.0047891884893220922 -0.022359165071032406 0 -0.0049851885893938521 -0.022537777115280839 0 -0.0047836885028918362 -0.023011282637126949 0 -0.0047110217429980087 -0.022906212192032298 0 -0.0049364738497413886 -0.022744201560201731 0 -0.003917104907011539 -0.022464784749165349 0 -0.0045830059924734014 -0.023281874193205817 0 -0.004629687643237403 -0.023311307526756232 0 -0.0044635966710303713 -0.023494417387387754 0 -0.0045739857502056875 -0.023530364486282811 0 -0.0045830059924734014 -0.023281874193205817 0 -0.0044635966710303713 -0.023494417387387754 0 -0.0045739857502056875 -0.023530364486282811 0 -0.0047836885028918362 -0.023011282637126949 0 -0.0045830059924734014 -0.023281874193205817 0 -0.0047836885028918362 -0.023011282637126949 0 -0.0045830059924734014 -0.023281874193205817 0 -0.0047110217429980087 -0.022906212192032298 0 -0.0040663303873773836 -0.02267125027714945 0 -0.003917104907011539 -0.022464784749165349 0 -0.0042339901581560039 -0.023498093273014775 0 -0.0044635966710303713 -0.023494417387387754 0 -0.0042423443965630041 -0.02370768596235466 0 -0.0044635966710303713 -0.023494417387387754 0 -0.0042423443965630041 -0.02370768596235466 0 -0.0043636690440630411 -0.023822343331079299 0 -0.0042339901581560039 -0.023498093273014775 0 -0.0042423443965630041 -0.02370768596235466 0 -0.0040236896191597898 -0.023839367197310585 0 -0.0042423443965630041 -0.02370768596235466 0 -0.0041326446606634766 -0.023989800258566094 0 -0.0040236896191597898 -0.023839367197310585 0 -0.0042423443965630041 -0.02370768596235466 0 -0.0041326446606634766 -0.023989800258566094 0 -0.0043636690440630411 -0.023822343331079299 0 -0.0042402956385670619 -0.02421496436888141 0 -0.0041326446606634766 -0.023989800258566094 0 -0.0040153771117028272 -0.024313823584339266 0 -0.0042402956385670619 -0.02421496436888141 0 -0.0041326446606634766 -0.023989800258566094 0 -0.0043636690440630411 -0.023822343331079299 0 -0.0045133795548317895 -0.024089604251226627 0 -0.0045739857502056875 -0.023530364486282811 0 -0.0043636690440630411 -0.023822343331079299 0 -0.0045739857502056875 -0.023530364486282811 0 -0.0044635966710303713 -0.023494417387387754 0 -0.0043636690440630411 -0.023822343331079299 0 -0.0036020637748855936 -0.024515040711970807 0 -0.0036547409270972749 -0.024065387630107325 0 -0.0031850615341533881 -0.024525562532646355 0 -0.0036020637748855936 -0.024515040711970807 0 -0.0038827988699495779 -0.024149597866051475 0 -0.0036547409270972749 -0.024065387630107325 0 -0.0036020637748855936 -0.024515040711970807 0 -0.0038827988699495779 -0.024149597866051475 0 -0.0040153771117028272 -0.024313823584339266 0 -0.0041326446606634766 -0.023989800258566094 0 -0.0038827988699495779 -0.024149597866051475 0 -0.0040153771117028272 -0.024313823584339266 0 -0.0041326446606634766 -0.023989800258566094 0 -0.0038827988699495779 -0.024149597866051475 0 -0.0040236896191597898 -0.023839367197310585 0 -0.0038827988699495779 -0.024149597866051475 0 -0.0040236896191597898 -0.023839367197310585 0 -0.0036547409270972749 -0.024065387630107325 0 -0.0038333645990057097 -0.023713906449389408 0 -0.0040236896191597898 -0.023839367197310585 0 -0.0036547409270972749 -0.024065387630107325 0 -0.0032820394857771833 -0.024027182885378237 0 -0.0036547409270972749 -0.024065387630107325 0 -0.0031850615341533881 -0.024525562532646355 0 -0.0032820394857771833 -0.024027182885378237 0 -0.0028289801556277113 -0.024396014843078535 0 -0.0031850615341533881 -0.024525562532646355 0 -0.0028289801556277113 -0.024396014843078535 0 -0.0031850615341533881 -0.024525562532646355 0 -0.0025136763436034884 -0.025186157354437883 0 -0.0031850615341533881 -0.024525562532646355 0 -0.0031232328994270772 -0.025021030235006438 0 -0.0025136763436034884 -0.025186157354437883 0 -0.0036020637748855936 -0.024515040711970807 0 -0.0031850615341533881 -0.024525562532646355 0 -0.0031232328994270772 -0.025021030235006438 0 -0.0031232328994270772 -0.025021030235006438 0 -0.0027169158958121049 -0.025484356543026124 0 -0.0025136763436034884 -0.025186157354437883 0 -0.0027169158958121049 -0.025484356543026124 0 -0.0032148692490455823 -0.025383173852596252 0 -0.0027835641842648392 -0.025956829507292931 0 -0.0031232328994270772 -0.025021030235006438 0 -0.0027169158958121049 -0.025484356543026124 0 -0.0032148692490455823 -0.025383173852596252 0 -0.0031232328994270772 -0.025021030235006438 0 -0.0032148692490455823 -0.025383173852596252 0 -0.0034794308612771663 -0.024963331013866462 0 -0.0032148692490455823 -0.025383173852596252 0 -0.0036633908011872956 -0.025184569408081135 0 -0.0034794308612771663 -0.024963331013866462 0 -0.0036633908011872956 -0.025184569408081135 0 -0.0034794308612771663 -0.024963331013866462 0 -0.0037943489995624358 -0.024733811117813191 0 -0.0036020637748855936 -0.024515040711970807 0 -0.0031232328994270772 -0.025021030235006438 0 -0.0034794308612771663 -0.024963331013866462 0 -0.0036020637748855936 -0.024515040711970807 0 -0.0034794308612771663 -0.024963331013866462 0 -0.0037943489995624358 -0.024733811117813191 0 -0.0036020637748855936 -0.024515040711970807 0 -0.0040153771117028272 -0.024313823584339266 0 -0.0037943489995624358 -0.024733811117813191 0 -0.0041055780155903991 -0.024787392403023391 0 -0.0040153771117028272 -0.024313823584339266 0 -0.0037943489995624358 -0.024733811117813191 0 -0.0041055780155903991 -0.024787392403023391 0 -0.0036633908011872956 -0.025184569408081135 0 -0.0038936342497472962 -0.025319673606679555 0 -0.0041055780155903991 -0.024787392403023391 0 -0.0036633908011872956 -0.025184569408081135 0 -0.0037943489995624358 -0.024733811117813191 0 -0.0066098571707435116 -0.018104818212083859 0 -0.0067485924021564638 -0.017783904665103042 0 -0.0070890538291925103 -0.017712332394905932 0 -0.0042957437946214349 -0.025390989933518057 0 -0.0035107469840092577 -0.025774804651063785 0 -0.0031986982139965187 -0.026586985003102276 0 -0.0036633908011872956 -0.025184569408081135 0 -0.0038936342497472962 -0.025319673606679555 0 -0.0035107469840092577 -0.025774804651063785 0 -0.0042957437946214349 -0.025390989933518057 0 -0.0038936342497472962 -0.025319673606679555 0 -0.0035107469840092577 -0.025774804651063785 0 -0.0052300321913512924 -0.021960376400889145 0 -0.0059089508006964385 -0.021102517040286907 0 -0.0032148692490455823 -0.025383173852596252 0 -0.0036633908011872956 -0.025184569408081135 0 -0.0035107469840092577 -0.025774804651063785 0 -0.0075729461139539241 -0.017763109756902373 0 -0.0059089508006964385 -0.021102517040286907 0 -0.0072605892924352995 -0.01681628766323107 0 -0.0081116503686149647 -0.017516000249767717 0 -0.0076436347832432357 -0.015324020948341522 0 -0.0067485924021564638 -0.017783904665103042 0 -0.0072605892924352995 -0.01681628766323107 0 -0.0081116503686149647 -0.017516000249767717 0 -0.0065287241651810456 -0.016661036414065473 0 -0.0067485924021564638 -0.017783904665103042 0 -0.0072605892924352995 -0.01681628766323107 0 -0.0059089508006964385 -0.021102517040286907 0 -0.0048355107448667112 -0.021141738311798042 0 -0.0081116503686149647 -0.017516000249767717 0 -0.009539500307661616 -0.016652551941438269 0 -0.0076436347832432357 -0.015324020948341522 0 -0.0031986982139965187 -0.026586985003102276 0 -0.0027835641842648392 -0.025956829507292931 0 -0.0022585812797424605 -0.02640955183201419 0 -0.0035107469840092577 -0.025774804651063785 0 -0.0031986982139965187 -0.026586985003102276 0 -0.0027835641842648392 -0.025956829507292931 0 -0.0032148692490455823 -0.025383173852596252 0 -0.0035107469840092577 -0.025774804651063785 0 -0.0027835641842648392 -0.025956829507292931 0 -0.0022585812797424605 -0.02640955183201419 0 -0.0019119476921412182 -0.027050409726158485 0 -0.0015815861348644005 -0.026474531468543186 0 -0.0027835641842648392 -0.025956829507292931 0 -0.0022585812797424605 -0.02640955183201419 0 -0.0019929106891541774 -0.025958845637553338 0 -0.0022585812797424605 -0.02640955183201419 0 -0.0015815861348644005 -0.026474531468543186 0 -0.0019929106891541774 -0.025958845637553338 0 -0.0059089508006964385 -0.021102517040286907 0 -0.0025211155734169103 -0.026479993230919832 0 -0.0031986982139965187 -0.026586985003102276 0 -0.0022585812797424605 -0.02640955183201419 0 -0.0019119476921412182 -0.027050409726158485 0 -0.0061354869192309968 -0.022572031520584929 0 -0.003140080566758519 -0.023119535492351379 0 -0.0041793160650563889 -0.023757834018085493 0 -0.0025211155734169103 -0.026479993230919832 0 -0.0048355107448667112 -0.021141738311798042 0 -0.00089441869619465381 -0.027476437995269515 0 -0.0025211155734169103 -0.026479993230919832 0 -0.0011121903334405474 -0.027839111516116007 0 -0.00083938119081279346 -0.028537415618812036 0 -0.0019461949369799579 -0.028337187029744301 0 -0.0015512569800678817 -0.028252027074751482 0 -0.0025211155734169103 -0.026479993230919832 0 -0.00087615361298096163 -0.026780452875905619 0 -0.0015815861348644005 -0.026474531468543186 0 -0.0011276640940229453 -0.026122148091789879 0 -0.00087615361298096163 -0.026780452875905619 0 -0.0019119476921412182 -0.027050409726158485 0 -0.0015815861348644005 -0.026474531468543186 0 -0.0015815861348644005 -0.026474531468543186 0 -0.0011276640940229453 -0.026122148091789879 0 -0.0019929106891541774 -0.025958845637553338 0 -0.0011276640940229453 -0.026122148091789879 0 -0.0018663444127094754 -0.025487756545906827 0 -0.0019929106891541774 -0.025958845637553338 0 -0.0027169158958121049 -0.025484356543026124 0 -0.0027835641842648392 -0.025956829507292931 0 -0.0019929106891541774 -0.025958845637553338 0 -0.0027169158958121049 -0.025484356543026124 0 -0.0019929106891541774 -0.025958845637553338 0 -0.0025136763436034884 -0.025186157354437883 0 -0.0018663444127094754 -0.025487756545906827 0 -0.0019929106891541774 -0.025958845637553338 0 -0.0025136763436034884 -0.025186157354437883 0 -0.0018663444127094754 -0.025487756545906827 0 -0.0025136763436034884 -0.025186157354437883 0 -0.0022759829211179416 -0.024842348992183932 0 -0.0018663444127094754 -0.025487756545906827 0 -0.0022759829211179416 -0.024842348992183932 0 -0.001677351924889769 -0.024913882596734202 0 -0.0028289801556277113 -0.024396014843078535 0 -0.0025136763436034884 -0.025186157354437883 0 -0.0022759829211179416 -0.024842348992183932 0 -0.00241224608409206 -0.023978775664058503 0 -0.0028289801556277113 -0.024396014843078535 0 -0.0022759829211179416 -0.024842348992183932 0 -0.00241224608409206 -0.023978775664058503 0 -0.0022759829211179416 -0.024842348992183932 0 -0.001677351924889769 -0.024913882596734202 0 -0.00074985748859160699 -0.025038854686291072 0 -0.0011276640940229453 -0.026122148091789879 0 -0.001677351924889769 -0.024913882596734202 0 -0.0011276640940229453 -0.026122148091789879 0 -0.0018663444127094754 -0.025487756545906827 0 -0.001677351924889769 -0.024913882596734202 0 -0.00033357148972819241 -0.014251734011359056 0 -0.00077921778253815387 -0.013900859285448031 0 -0.00030445091460683363 -0.013591807091161248 0 -0.00033357148972819241 -0.014251734011359056 0 -0.00077921778253815387 -0.013900859285448031 0 -0.00066357968639229356 -0.014777338472244323 0 0.00010371457543039371 -0.014074569613937124 0 -0.00033357148972819241 -0.014251734011359056 0 -0.00030445091460683363 -0.013591807091161248 0 0.00010371457543039371 -0.014074569613937124 0 -0.00033357148972819241 -0.014251734011359056 0 -4.5699777454877248e-05 -0.014953377132899157 0 -0.00077921778253815387 -0.013900859285448031 0 -0.000849340938631745 -0.013336592027758404 0 -0.0011359219089211645 -0.013568230671770119 0 -0.00077921778253815387 -0.013900859285448031 0 -0.0011359219089211645 -0.013568230671770119 0 -0.00093649201867479254 -0.014368851204510938 0 -0.000849340938631745 -0.013336592027758404 0 -0.00030445091460683363 -0.013591807091161248 0 -0.00050492463273993404 -0.013062507135519113 0 -0.00077921778253815387 -0.013900859285448031 0 -0.000849340938631745 -0.013336592027758404 0 -0.00030445091460683363 -0.013591807091161248 0 0.00034262964745372128 -0.0135433735751743 0 -0.00030445091460683363 -0.013591807091161248 0 -8.3280904451610329e-05 -0.013151019806378278 0 -0.00030445091460683363 -0.013591807091161248 0 -8.3280904451610329e-05 -0.013151019806378278 0 -0.00050492463273993404 -0.013062507135519113 0 -8.3280904451610329e-05 -0.013151019806378278 0 -0.00050492463273993404 -0.013062507135519113 0 -0.00027092295153755474 -0.012628487745276773 0 -0.0022503680633646421 -0.02757781050253557 0 -0.0032304395520301871 -0.027283389776070345 0 -0.0028648617422789668 -0.027912911886418621 0 -0.0032441307266765067 -0.017165675474280839 0 -0.0034172468862190253 -0.017058208445052517 0 -0.0032178223024524146 -0.016956432882335511 0 -0.0048355107448667112 -0.021141738311798042 0 -0.0015188527611436483 -0.019747345917870279 0 -0.0032304395520301871 -0.027283389776070345 0 -0.0035518689479824509 -0.027451720199155944 0 -0.0028648617422789668 -0.027912911886418621 0 -0.0015188527611436483 -0.019747345917870279 0 -0.0020342130610781634 -0.014438748536712599 0 -0.000849340938631745 -0.013336592027758404 0 -0.00050492463273993404 -0.013062507135519113 0 -0.00094421009686353576 -0.012792306001401098 0 -0.00050492463273993404 -0.013062507135519113 0 -0.00027092295153755474 -0.012628487745276773 0 -0.00094421009686353576 -0.012792306001401098 0 -0.0020342130610781634 -0.014438748536712599 0 -0.0020027216950961003 -0.014890040049727181 0 -0.000849340938631745 -0.013336592027758404 0 -0.00094421009686353576 -0.012792306001401098 0 -0.0012571202433245407 -0.013161366367463883 0 -0.00094421009686353576 -0.012792306001401098 0 -0.0014030218180098532 -0.012875334998659107 0 -0.0012571202433245407 -0.013161366367463883 0 -0.0032178223024524146 -0.016956432882335511 0 -0.0030012016902722276 -0.016954024320767338 0 -0.0029870629925247581 -0.016827091142094072 0 -0.0032441307266765067 -0.017165675474280839 0 -0.0032178223024524146 -0.016956432882335511 0 -0.0030012016902722276 -0.016954024320767338 0 -0.0048355107448667112 -0.021141738311798042 0 -0.0056336729322294613 -0.015725579785612235 0 -0.0065287241651810456 -0.016661036414065473 0 -0.0076436347832432357 -0.015324020948341522 0 -0.0056847982061784446 -0.015557673865250223 0 -0.0065287241651810456 -0.016661036414065473 0 -0.0072605892924352995 -0.01681628766323107 0 -0.0076436347832432357 -0.015324020948341522 0 -0.0020027216950961003 -0.014890040049727181 0 -0.0033023556962864264 -0.01439370528396933 0 -0.0014030218180098532 -0.012875334998659107 0 -0.0014885426734361487 -0.012989139427130024 0 -0.0016208007788034349 -0.012857909669099185 0 -0.0030012016902722276 -0.016954024320767338 0 -0.0029870629925247581 -0.016827091142094072 0 -0.0027106948841736428 -0.01668412682650695 0 -0.0056336729322294613 -0.015725579785612235 0 -0.0033023556962864264 -0.01439370528396933 0 -0.0014885426734361487 -0.012989139427130024 0 -0.0012571202433245407 -0.013161366367463883 0 -0.001425838188152816 -0.013198259021284291 0 -0.0014885426734361487 -0.012989139427130024 0 -0.001425838188152816 -0.013198259021284291 0 -0.00158403992329648 -0.012892396008547311 0 -0.0014030218180098532 -0.012875334998659107 0 -0.0014885426734361487 -0.012989139427130024 0 -0.0012571202433245407 -0.013161366367463883 0 -0.000849340938631745 -0.013336592027758404 0 -0.0012571202433245407 -0.013161366367463883 0 -0.0011359219089211645 -0.013568230671770119 0 -0.0011359219089211645 -0.013568230671770119 0 -0.001425838188152816 -0.013198259021284291 0 -0.0011676962256819447 -0.01375765615346047 0 -0.0012571202433245407 -0.013161366367463883 0 -0.0011359219089211645 -0.013568230671770119 0 -0.001425838188152816 -0.013198259021284291 0 -0.001425838188152816 -0.013198259021284291 0 -0.0015982984128144054 -0.012776326622996024 0 -0.00158403992329648 -0.012892396008547311 0 -0.001425838188152816 -0.013198259021284291 0 -0.0015982984128144054 -0.012776326622996024 0 -0.0014020668125936803 -0.013149714412959526 0 -0.0015982984128144054 -0.012776326622996024 0 -0.0016496903265157299 -0.012708990780524789 0 -0.00158403992329648 -0.012892396008547311 0 -0.0015982984128144054 -0.012776326622996024 0 -0.00165842281708527 -0.012419959702148646 0 -0.0016496903265157299 -0.012708990780524789 0 -0.00165842281708527 -0.012419959702148646 0 -0.0016496903265157299 -0.012708990780524789 0 -0.001653841953069962 -0.012454335505401407 0 -0.0024735788857310746 -0.012880137164218959 0 -0.0033431731144133812 -0.013447718019506722 0 -0.0023001785532649846 -0.01315243025086991 0 -0.0016496903265157299 -0.012708990780524789 0 -0.0016388424415403669 -0.012692493482272905 0 -0.0016208007788034349 -0.012857909669099185 0 -0.0018472738741334685 -0.012610118120667781 0 -0.0033023556962864264 -0.01439370528396933 0 -0.0016496903265157299 -0.012708990780524789 0 -0.0016388424415403669 -0.012692493482272905 0 -0.001653841953069962 -0.012454335505401407 0 -0.0014885426734361487 -0.012989139427130024 0 -0.00158403992329648 -0.012892396008547311 0 -0.0016208007788034349 -0.012857909669099185 0 -0.0016496903265157299 -0.012708990780524789 0 -0.00158403992329648 -0.012892396008547311 0 -0.0016208007788034349 -0.012857909669099185 0 -0.0055641098343421781 -0.013859877403060284 0 -0.0056847982061784446 -0.015557673865250223 0 -0.0044049869945234138 -0.015281084492885195 0 -0.0076436347832432357 -0.015324020948341522 0 -0.0055641098343421781 -0.013859877403060284 0 -0.0056847982061784446 -0.015557673865250223 0 -0.005549609640988341 -0.016710735193502791 0 -0.0056847982061784446 -0.015557673865250223 0 -0.0045188864616191463 -0.016386615127311235 0 -0.0065287241651810456 -0.016661036414065473 0 -0.005549609640988341 -0.016710735193502791 0 -0.0056847982061784446 -0.015557673865250223 0 -0.0044049869945234138 -0.015281084492885195 0 -0.0034324679664512175 -0.014505763596805584 0 -0.003013024323346704 -0.016084968585350145 0 -0.0045188864616191463 -0.016386615127311235 0 -0.0044049869945234138 -0.015281084492885195 0 -0.003013024323346704 -0.016084968585350145 0 -0.0056847982061784446 -0.015557673865250223 0 -0.0045188864616191463 -0.016386615127311235 0 -0.0044049869945234138 -0.015281084492885195 0 -0.0055641098343421781 -0.013859877403060284 0 -0.0044049869945234138 -0.015281084492885195 0 -0.0034324679664512175 -0.014505763596805584 0 -0.0055641098343421781 -0.013859877403060284 0 -0.0034324679664512175 -0.014505763596805584 0 -0.0035531345410915881 -0.013303816627224546 0 -0.0033023556962864264 -0.01439370528396933 0 -0.0031074629704515608 -0.013224977282179758 0 -0.0023063172219081629 -0.013951751207716032 0 -0.0034324679664512175 -0.014505763596805584 0 -0.0035531345410915881 -0.013303816627224546 0 -0.0023063172219081629 -0.013951751207716032 0 -0.0022443966009129258 -0.014927773223518587 0 -0.0034324679664512175 -0.014505763596805584 0 -0.0022443966009129258 -0.014927773223518587 0 -0.0034324679664512175 -0.014505763596805584 0 -0.003013024323346704 -0.016084968585350145 0 -0.0023002149471100125 -0.017284091038151587 0 -0.003013024323346704 -0.016084968585350145 0 -0.0014634267554116944 -0.015523355215638749 0 -0.0022443966009129258 -0.014927773223518587 0 -0.003013024323346704 -0.016084968585350145 0 -0.0014634267554116944 -0.015523355215638749 0 -0.0012844881739396982 -0.01420234149977395 0 -0.0014091779895665537 -0.012921268841880749 0 3.3488846542891344e-05 -0.014082930325669697 0 -0.0014634267554116944 -0.015523355215638749 0 -0.0012844881739396982 -0.01420234149977395 0 3.3488846542891344e-05 -0.014082930325669697 0 -0.0023063172219081629 -0.013951751207716032 0 -0.0022443966009129258 -0.014927773223518587 0 -0.0012844881739396982 -0.01420234149977395 0 -0.0022443966009129258 -0.014927773223518587 0 -0.0014634267554116944 -0.015523355215638749 0 -0.0012844881739396982 -0.01420234149977395 0 -0.0023063172219081629 -0.013951751207716032 0 -0.0012844881739396982 -0.01420234149977395 0 -0.0014091779895665537 -0.012921268841880749 0 -0.0008578134130199955 -0.01252398304357322 0 -0.0014091779895665537 -0.012921268841880749 0 3.3488846542891344e-05 -0.014082930325669697 0 -0.0008578134130199955 -0.01252398304357322 0 -0.0014091779895665537 -0.012921268841880749 0 -0.0016120901176200051 -0.01235418367891058 0 -0.0023063172219081629 -0.013951751207716032 0 -0.0014091779895665537 -0.012921268841880749 0 -0.0035531345410915881 -0.013303816627224546 0 -0.0016388424415403669 -0.012692493482272905 0 -0.0016120901176200051 -0.01235418367891058 0 -0.001653841953069962 -0.012454335505401407 0 -0.0024735788857310746 -0.012880137164218959 0 -0.0023001785532649846 -0.01315243025086991 0 -0.0016120901176200051 -0.01235418367891058 0 -0.0014091779895665537 -0.012921268841880749 0 -0.0023001785532649846 -0.01315243025086991 0 -0.0016120901176200051 -0.01235418367891058 0 -0.0014758265841792733 -0.012923440496797388 0 -0.0031074629704515608 -0.013224977282179758 0 -0.0018472738741334685 -0.012610118120667781 0 -0.0017410030098631191 -0.012480647073953764 0 -0.0016120901176200051 -0.01235418367891058 0 -0.001653841953069962 -0.012454335505401407 0 -0.0015914266364379108 -0.011988691965269454 0 -0.00165842281708527 -0.012419959702148646 0 -0.001653841953069962 -0.012454335505401407 0 -0.0015914266364379108 -0.011988691965269454 0 -0.0008578134130199955 -0.01252398304357322 0 -0.0016120901176200051 -0.01235418367891058 0 -0.0011285924418413598 -0.011551793073332749 0 -0.0016120901176200051 -0.01235418367891058 0 -0.0015914266364379108 -0.011988691965269454 0 -0.0011285924418413598 -0.011551793073332749 0 -0.0015914266364379108 -0.011988691965269454 0 -0.0011285924418413598 -0.011551793073332749 0 -0.0013377457345396181 -0.0110229472993134 0 -0.0011285924418413598 -0.011551793073332749 0 -0.0013377457345396181 -0.0110229472993134 0 -0.00067453953872437429 -0.010285304563798543 0 -0.0015914266364379108 -0.011988691965269454 0 -0.0016220655906197443 -0.01195763882816449 0 -0.0013377457345396181 -0.0110229472993134 0 -0.00165842281708527 -0.012419959702148646 0 -0.0015914266364379108 -0.011988691965269454 0 -0.0016220655906197443 -0.01195763882816449 0 -0.0016220655906197443 -0.01195763882816449 0 -0.0013377457345396181 -0.0110229472993134 0 -0.0016300563767725782 -0.011595097629843636 0 -0.0013377457345396181 -0.0110229472993134 0 -0.00067453953872437429 -0.010285304563798543 0 -0.00051120380693797684 -0.0092713164945221853 0 -0.0013377457345396181 -0.0110229472993134 0 -0.0016300563767725782 -0.011595097629843636 0 -0.00051120380693797684 -0.0092713164945221853 0 -0.00082541240602251311 -0.010863096376009407 0 -0.00048843927078555936 -0.0095532593364278939 0 -0.00026839848941675971 -0.0094443012944519077 0 -0.00051120380693797684 -0.0092713164945221853 0 -0.00022005273951787718 -0.008565982481081846 0 -0.00026839848941675971 -0.0094443012944519077 0 -0.00014213756591345103 -0.010156661718552328 0 -0.00051120380693797684 -0.0092713164945221853 0 -0.00026839848941675971 -0.0094443012944519077 0 -0.00022005273951787718 -0.008565982481081846 0 -6.0970639567857246e-07 -0.0086696949610627679 0 -0.00026839848941675971 -0.0094443012944519077 0 -3.9537372944104487e-07 -0.010577416544210093 0 -6.0970639567857246e-07 -0.0086696949610627679 0 -0.00026839848941675971 -0.0094443012944519077 0 -3.9537372944104487e-07 -0.010577416544210093 0 -0.00014213756591345103 -0.010156661718552328 0 -3.9537372944104487e-07 -0.010577416544210093 0 -0.00014213756591345103 -0.010156661718552328 0 -3.5335991679347716e-05 -0.0113581256846235 0 -0.0016300563767725782 -0.011595097629843636 0 -0.0014024834510182752 -0.013440533415947751 0 -0.0015897051863681545 -0.012481348005598152 0 -0.00082541240602251311 -0.010863096376009407 0 -0.00073197501207861138 -0.012750605406003753 0 -0.00014213756591345103 -0.010156661718552328 0 -3.5335991679347716e-05 -0.0113581256846235 0 1.4041827799352552e-05 -0.012054228880179946 0 -3.9537372944104487e-07 -0.010577416544210093 0 -3.5335991679347716e-05 -0.0113581256846235 0 3.7223015689777877e-07 -0.012484665798024756 0 3.7223015689777877e-07 -0.012484665798024756 0 1.4041827799352552e-05 -0.012054228880179946 0 -0.00026104178568064294 -0.014378214888834628 0 -3.5335991679347716e-05 -0.0113581256846235 0 3.7223015689777877e-07 -0.012484665798024756 0 1.4041827799352552e-05 -0.012054228880179946 0 -0.0014024834510182752 -0.013440533415947751 0 -0.0014095275128791676 -0.013003914093434071 0 -0.0010578669046800626 -0.013639075163098539 0 -0.0014095275128791676 -0.013003914093434071 0 -0.0014020668125936803 -0.013149714412959526 0 -0.0010578669046800626 -0.013639075163098539 0 -0.0014024834510182752 -0.013440533415947751 0 -0.0014095275128791676 -0.013003914093434071 0 -0.0015897051863681545 -0.012481348005598152 0 -0.0014095275128791676 -0.013003914093434071 0 -0.0015897051863681545 -0.012481348005598152 0 -0.0015867830685262624 -0.012611514607711774 0 -0.0016220655906197443 -0.01195763882816449 0 -0.0016300563767725782 -0.011595097629843636 0 -0.0015897051863681545 -0.012481348005598152 0 -0.0016220655906197443 -0.01195763882816449 0 -0.0015897051863681545 -0.012481348005598152 0 -0.0015867830685262624 -0.012611514607711774 0 -0.00165842281708527 -0.012419959702148646 0 -0.0016220655906197443 -0.01195763882816449 0 -0.0015867830685262624 -0.012611514607711774 0 -0.0015982984128144054 -0.012776326622996024 0 -0.00165842281708527 -0.012419959702148646 0 -0.0015867830685262624 -0.012611514607711774 0 -0.0015982984128144054 -0.012776326622996024 0 -0.0015867830685262624 -0.012611514607711774 0 -0.0014020668125936803 -0.013149714412959526 0 -0.0014095275128791676 -0.013003914093434071 0 -0.0015867830685262624 -0.012611514607711774 0 -0.0014020668125936803 -0.013149714412959526 0 -0.0014020668125936803 -0.013149714412959526 0 -0.0011676962256819447 -0.01375765615346047 0 -0.0010578669046800626 -0.013639075163098539 0 -0.001425838188152816 -0.013198259021284291 0 -0.0014020668125936803 -0.013149714412959526 0 -0.0011676962256819447 -0.01375765615346047 0 -0.0011359219089211645 -0.013568230671770119 0 -0.0011676962256819447 -0.01375765615346047 0 -0.00093649201867479254 -0.014368851204510938 0 -0.0011676962256819447 -0.01375765615346047 0 -0.00075871271992183334 -0.014682814105008591 0 -0.00093649201867479254 -0.014368851204510938 0 -0.0011676962256819447 -0.01375765615346047 0 -0.00075871271992183334 -0.014682814105008591 0 -0.0010578669046800626 -0.013639075163098539 0 -0.0014024834510182752 -0.013440533415947751 0 -0.0010578669046800626 -0.013639075163098539 0 -0.00088917986555935773 -0.01387516619420319 0 -0.0014024834510182752 -0.013440533415947751 0 -0.00088917986555935773 -0.01387516619420319 0 -0.00026104178568064294 -0.014378214888834628 0 -0.0010578669046800626 -0.013639075163098539 0 -0.00088917986555935773 -0.01387516619420319 0 -0.00065575255784290881 -0.014315855873185256 0 -0.00088917986555935773 -0.01387516619420319 0 -0.00026104178568064294 -0.014378214888834628 0 -0.00065575255784290881 -0.014315855873185256 0 -0.00073197501207861138 -0.012750605406003753 0 -0.00032966705153576384 -0.014115390127426264 0 3.7223015689777877e-07 -0.012484665798024756 0 -9.8210700829242213e-07 -0.014393084625978245 0 -0.00026104178568064294 -0.014378214888834628 0 -9.8210700829242213e-07 -0.014393084625978245 0 -0.00026104178568064294 -0.014378214888834628 0 -0.00039477243247324276 -0.015025044710036932 0 -9.8210700829242213e-07 -0.014393084625978245 0 -0.00039477243247324276 -0.015025044710036932 0 -4.4379223547622107e-07 -0.016300424413755663 0 -0.00075871271992183334 -0.014682814105008591 0 -0.00039477243247324276 -0.015025044710036932 0 -0.00065575255784290881 -0.014315855873185256 0 -0.00075871271992183334 -0.014682814105008591 0 -0.0010578669046800626 -0.013639075163098539 0 -0.00065575255784290881 -0.014315855873185256 0 -0.00026104178568064294 -0.014378214888834628 0 -0.00039477243247324276 -0.015025044710036932 0 -0.00065575255784290881 -0.014315855873185256 0 -0.00075871271992183334 -0.014682814105008591 0 -0.00039477243247324276 -0.015025044710036932 0 -4.7603851607761853e-05 -0.015841427683962211 0 -0.00075573354814329743 -0.014952873577797532 0 -0.0004390619160155859 -0.016307487384588221 0 -0.00039477243247324276 -0.015025044710036932 0 -4.4379223547622107e-07 -0.016300424413755663 0 -4.7603851607761853e-05 -0.015841427683962211 0 -4.4379223547622107e-07 -0.016300424413755663 0 -6.6271701096460207e-06 -0.01695560239598904 0 -4.7603851607761853e-05 -0.015841427683962211 0 2.5547254460914498e-07 -0.018207680811761086 0 -4.4379223547622107e-07 -0.016300424413755663 0 -6.6271701096460207e-06 -0.01695560239598904 0 -0.0002832173369340655 -0.017316883746952477 0 -0.00089194261881255182 -0.016765668313323708 0 -0.00060635738660660531 -0.01606464694349978 0 -0.0002280198102329905 -0.016339591139290267 0 -0.00060635738660660531 -0.01606464694349978 0 -0.00066357968639229356 -0.014777338472244323 0 -0.00060635738660660531 -0.01606464694349978 0 -0.00081140147944004648 -0.015299775678206586 0 -0.00066357968639229356 -0.014777338472244323 0 -0.00089194261881255182 -0.016765668313323708 0 -0.00060635738660660531 -0.01606464694349978 0 -0.00081140147944004648 -0.015299775678206586 0 -0.00075871271992183334 -0.014682814105008591 0 -0.00081140147944004648 -0.015299775678206586 0 -0.00093649201867479254 -0.014368851204510938 0 -0.00075871271992183334 -0.014682814105008591 0 -0.00089194261881255182 -0.016765668313323708 0 -0.00081140147944004648 -0.015299775678206586 0 -0.00081140147944004648 -0.015299775678206586 0 -0.00066357968639229356 -0.014777338472244323 0 -0.00093649201867479254 -0.014368851204510938 0 -0.00077921778253815387 -0.013900859285448031 0 -0.00066357968639229356 -0.014777338472244323 0 -0.00093649201867479254 -0.014368851204510938 0 3.0477028790907998e-05 -0.015862163056136015 0 -0.00068584523455317845 -0.014916120136481097 0 0.0004202104163205591 -0.015483556060231251 0 -0.00066357968639229356 -0.014777338472244323 0 -4.5699777454877248e-05 -0.014953377132899157 0 -0.00033357148972819241 -0.014251734011359056 0 -0.00066357968639229356 -0.014777338472244323 0 -4.5699777454877248e-05 -0.014953377132899157 0 0.0010288016432939832 -0.0079277144351709624 0 0.0010336406510317538 -0.0079430092459526151 0 0.0011774354066023966 -0.0076994956067310879 0 0.0010288016432939832 -0.0079277144351709624 0 0.0010336406510317538 -0.0079430092459526151 0 0.00095924198536009311 -0.0081147089524067247 0 0.00054372024642551739 -0.0069147085676805071 0 0.0009931928324351713 -0.0083339248335342932 0 1.1744139423846964e-05 -0.0074977017115727997 0 0.0010288016432939832 -0.0079277144351709624 0 0.00054372024642551739 -0.0069147085676805071 0 0.0009931928324351713 -0.0083339248335342932 0 0.0008671247388265757 -0.0064516737705598258 0 0.00066342455645241412 -0.0059002542497870484 0 0.00092605747612837424 -0.0052495835396647881 0 0.00054372024642551739 -0.0069147085676805071 0 0.0008671247388265757 -0.0064516737705598258 0 0.00066342455645241412 -0.0059002542497870484 0 0.0010288016432939832 -0.0079277144351709624 0 0.00054372024642551739 -0.0069147085676805071 0 0.0011774354066023966 -0.0076994956067310879 0 0.00040363534364575151 -0.0068400433840251369 0 0.0012259863981988551 -0.0073416252596480783 0 0.0015148409092026198 -0.0036446739040204251 0 0.00096810186747757487 -0.0043398360023757963 0 0.0008671247388265757 -0.0064516737705598258 0 0.0019585645555143948 -0.0057354203937038557 0 0.00092605747612837424 -0.0052495835396647881 0 0.0008671247388265757 -0.0064516737705598258 0 0.0019585645555143948 -0.0057354203937038557 0 0.0021183116372130721 -0.0068383917367137673 0 0.0011853925602548646 -0.0015755337393683715 0 0.00064665905753556155 -0.0013625803671727177 0 0.00081307977234413252 -0.0012252631168423774 0 0.00064665905753556155 -0.0013625803671727177 0 0.00072742998047626282 -0.0018910931865129277 0 0.0004576249278524977 -0.0012814101123228712 0 0.0011853925602548646 -0.0015755337393683715 0 0.00064665905753556155 -0.0013625803671727177 0 0.00072742998047626282 -0.0018910931865129277 0 0.00064665905753556155 -0.0013625803671727177 0 0.00081307977234413252 -0.0012252631168423774 0 0.00049663582981682305 -0.0014211565142452922 0 0.00096810186747757487 -0.0043398360023757963 0 0.00041248336491533786 -0.0012438652603993922 0 -0.00010186744574355499 -0.0014112254371000221 0 0.00031167056573848162 -0.0019183106255543541 0 0.00073464466833109772 -0.0016613841949483928 0 0.0012259863981988551 -0.0073416252596480783 0 0.00096810186747757487 -0.0043398360023757963 0 0.0010336406510317538 -0.0079430092459526151 0 0.0011774354066023966 -0.0076994956067310879 0 0.00098345799776024733 -0.0079244979054779608 0 0.0011774354066023966 -0.0076994956067310879 0 0.001020250666076734 -0.0079104765132944049 0 0.00098345799776024733 -0.0079244979054779608 0 0.0010336406510317538 -0.0079430092459526151 0 0.00098345799776024733 -0.0079244979054779608 0 0.00096909656562025616 -0.0079802376939518468 0 0.00098345799776024733 -0.0079244979054779608 0 0.00085523161923649349 -0.0078725776109519335 0 0.00070481870600164448 -0.007837712569449205 0 0.00098345799776024733 -0.0079244979054779608 0 0.00085523161923649349 -0.0078725776109519335 0 0.00096909656562025616 -0.0079802376939518468 0 0.00085523161923649349 -0.0078725776109519335 0 0.00096909656562025616 -0.0079802376939518468 0 0.00092093638644510478 -0.0079402701411127753 0 0.001020250666076734 -0.0079104765132944049 0 0.00098345799776024733 -0.0079244979054779608 0 0.00070481870600164448 -0.007837712569449205 0 0.00096810186747757487 -0.0043398360023757963 0 0.00029119742756138011 -0.0051380860595065256 0 -0.00010186744574355499 -0.0014112254371000221 0 0.00031167056573848162 -0.0019183106255543541 0 8.8522769658783555e-06 -0.0023671535030216455 0 0.00031167056573848162 -0.0019183106255543541 0 8.8522769658783555e-06 -0.0023671535030216455 0 0.00061413638377860638 -0.002245206671046759 0 -2.0456932979207603e-06 -0.0034382623215754413 0 8.8522769658783555e-06 -0.0023671535030216455 0 0.0004697167539791518 -0.0027952000809338853 0 0.00014141366238971194 -0.0052381878133625059 0 0.00029119742756138011 -0.0051380860595065256 0 0.0005867733233648945 -0.0071411641970891213 0 0.00024582361855112931 -0.0070308726031313535 0 0.00070481870600164448 -0.007837712569449205 0 8.8522769658783555e-06 -0.0023671535030216455 0 0.0004697167539791518 -0.0027952000809338853 0 0.00061413638377860638 -0.002245206671046759 0 0.00077695192526318108 -0.0076191006053853072 0 0.00081646282724253739 -0.007853616647028383 0 0.00091807642807667956 -0.0079485164349923781 0 0.00085523161923649349 -0.0078725776109519335 0 0.00092093638644510478 -0.0079402701411127753 0 0.0005867733233648945 -0.0071411641970891213 0 0.00085523161923649349 -0.0078725776109519335 0 0.00070481870600164448 -0.007837712569449205 0 0.00092845269860501462 -0.0079572502819927407 0 0.00091807642807667956 -0.0079485164349923781 0 0.00092093638644510478 -0.0079402701411127753 0 0.00092845269860501462 -0.0079572502819927407 0 0.00092093638644510478 -0.0079402701411127753 0 0.00094467324414358961 -0.0079995782081716295 0 0.00097029418044524654 -0.0079558887962559496 0 0.00092845269860501462 -0.0079572502819927407 0 0.00094467324414358961 -0.0079995782081716295 0 0.00096909656562025616 -0.0079802376939518468 0 0.00092093638644510478 -0.0079402701411127753 0 0.00094467324414358961 -0.0079995782081716295 0 0.00096909656562025616 -0.0079802376939518468 0 0.00094467324414358961 -0.0079995782081716295 0 0.00095924198536009311 -0.0081147089524067247 0 0.0010336406510317538 -0.0079430092459526151 0 0.00096909656562025616 -0.0079802376939518468 0 0.00095924198536009311 -0.0081147089524067247 0 0.0010288016432939832 -0.0079277144351709624 0 0.00095924198536009311 -0.0081147089524067247 0 0.0009931928324351713 -0.0083339248335342932 0 0.001001779878964921 -0.0084604080408900127 0 0.0014707778377058103 -0.0095308212287048329 0 0.00095924198536009311 -0.0081147089524067247 0 0.0009931928324351713 -0.0083339248335342932 0 0.0010391842024412522 -0.007999878890133828 0 0.00097029418044524654 -0.0079558887962559496 0 0.00094467324414358961 -0.0079995782081716295 0 0.0010391842024412522 -0.007999878890133828 0 0.00094467324414358961 -0.0079995782081716295 0 0.00095924198536009311 -0.0081147089524067247 0 0.0010391842024412522 -0.007999878890133828 0 0.00031068920961927892 -0.012237802263787467 0 0.0014894168655286309 -0.010985727655922619 0 9.1815629407519635e-05 -0.0097661507984771259 0 0.0009931928324351713 -0.0083339248335342932 0 9.1815629407519635e-05 -0.0097661507984771259 0 -0.00061196054810919577 -0.0085272588421303492 0 0.00031068920961927892 -0.012237802263787467 0 -0.00081585063738407826 -0.011144356787122927 0 9.1815629407519635e-05 -0.0097661507984771259 0 -0.00081585063738407826 -0.011144356787122927 0 9.1815629407519635e-05 -0.0097661507984771259 0 -0.0011702305881325864 -0.0099520970891492609 0 9.1815629407519635e-05 -0.0097661507984771259 0 -0.0011702305881325864 -0.0099520970891492609 0 -0.00061196054810919577 -0.0085272588421303492 0 0.0009931928324351713 -0.0083339248335342932 0 0.0014894168655286309 -0.010985727655922619 0 9.1815629407519635e-05 -0.0097661507984771259 0 -0.00033257428317417977 -0.016740017373386595 0 -0.0014634267554116944 -0.015523355215638749 0 3.3488846542891344e-05 -0.014082930325669697 0 -0.001672427607933343 -0.011099646551967591 0 -0.0027320949252662981 -0.011371473152852722 0 -0.0021966822926067597 -0.0093623887661155574 0 -0.0029675141828189111 -0.014347216176407187 0 -0.00085914354859744789 -0.01166823206356048 0 -0.001672427607933343 -0.011099646551967591 0 -0.00081585063738407826 -0.011144356787122927 0 -0.0011702305881325864 -0.0099520970891492609 0 -0.0020121544305634863 -0.011677752083958739 0 -0.00087139291040684 -0.011247653792974011 0 -0.001672427607933343 -0.011099646551967591 0 -0.0011702305881325864 -0.0099520970891492609 0 -0.0021966822926067597 -0.0093623887661155574 0 -0.0011702305881325864 -0.0099520970891492609 0 -0.0021966822926067597 -0.0093623887661155574 0 -0.00061196054810919577 -0.0085272588421303492 0 -0.00085914354859744789 -0.01166823206356048 0 -0.00048031315134252896 -0.0099245977958388326 0 -0.0008578134130199955 -0.01252398304357322 0 3.3488846542891344e-05 -0.014082930325669697 0 0.00025008675785131263 -0.012000023721836752 0 -0.0021966822926067597 -0.0093623887661155574 0 -0.0011213255153063686 -0.0076655717710296979 0 -0.00061196054810919577 -0.0085272588421303492 0 -0.0011213255153063686 -0.0076655717710296979 0 -0.0005447479361878481 -0.0076903464556492907 0 -0.00052321657688109006 -0.0077957427175684504 0 -0.0011213255153063686 -0.0076655717710296979 0 -0.00061196054810919577 -0.0085272588421303492 0 -0.0005447479361878481 -0.0076903464556492907 0 -0.0011285924418413598 -0.011551793073332749 0 0.00025008675785131263 -0.012000023721836752 0 -0.00067453953872437429 -0.010285304563798543 0 -0.0008578134130199955 -0.01252398304357322 0 -0.0011285924418413598 -0.011551793073332749 0 0.00025008675785131263 -0.012000023721836752 0 0.0009931928324351713 -0.0083339248335342932 0 -0.00061196054810919577 -0.0085272588421303492 0 1.1744139423846964e-05 -0.0074977017115727997 0 -0.00061196054810919577 -0.0085272588421303492 0 -0.0005447479361878481 -0.0076903464556492907 0 1.1744139423846964e-05 -0.0074977017115727997 0 -0.0005447479361878481 -0.0076903464556492907 0 1.1744139423846964e-05 -0.0074977017115727997 0 -0.00022402159619969164 -0.0072343177340004521 0 1.1744139423846964e-05 -0.0074977017115727997 0 0.00011342626074193607 -0.0067603641595951232 0 -0.00022402159619969164 -0.0072343177340004521 0 0.00054372024642551739 -0.0069147085676805071 0 1.1744139423846964e-05 -0.0074977017115727997 0 0.00011342626074193607 -0.0067603641595951232 0 0.00011342626074193607 -0.0067603641595951232 0 0.00010389745973296212 -0.0064156135337635799 0 0.0003612894625521023 -0.0059724589289576867 0 0.00011342626074193607 -0.0067603641595951232 0 -0.00022402159619969164 -0.0072343177340004521 0 0.00010389745973296212 -0.0064156135337635799 0 -0.0005447479361878481 -0.0076903464556492907 0 -0.00022402159619969164 -0.0072343177340004521 0 -0.00052321657688109006 -0.0077957427175684504 0 -0.00022402159619969164 -0.0072343177340004521 0 -0.00013331775977290525 -0.0071698342746127144 0 -0.00052321657688109006 -0.0077957427175684504 0 -0.00022402159619969164 -0.0072343177340004521 0 -0.00013331775977290525 -0.0071698342746127144 0 0.00010389745973296212 -0.0064156135337635799 0 -0.00013331775977290525 -0.0071698342746127144 0 -0.00052321657688109006 -0.0077957427175684504 0 -6.2950215875966339e-05 -0.0078423278903250702 0 -0.00013331775977290525 -0.0071698342746127144 0 -6.2950215875966339e-05 -0.0078423278903250702 0 3.3945670821796096e-05 -0.0070669401883109726 0 -0.00013331775977290525 -0.0071698342746127144 0 0.00011353975937303646 -0.0065093493661520377 0 3.3945670821796096e-05 -0.0070669401883109726 0 -0.00013331775977290525 -0.0071698342746127144 0 0.00010389745973296212 -0.0064156135337635799 0 0.00011353975937303646 -0.0065093493661520377 0 0.00010389745973296212 -0.0064156135337635799 0 0.00023953776437446545 -0.0060097764166338261 0 0.00035692618960597017 -0.0055877413115661715 0 0.00010389745973296212 -0.0064156135337635799 0 0.00023953776437446545 -0.0060097764166338261 0 0.00011353975937303646 -0.0065093493661520377 0 0.00025008675785131263 -0.012000023721836752 0 -0.00067453953872437429 -0.010285304563798543 0 2.9480447647115362e-05 -0.0086606457019559029 0 -0.0011213255153063686 -0.0076655717710296979 0 -0.00052321657688109006 -0.0077957427175684504 0 2.9480447647115362e-05 -0.0086606457019559029 0 -0.00048031315134252896 -0.0099245977958388326 0 -2.530895579059041e-05 -0.0087922510940800259 0 2.9480447647115362e-05 -0.0086606457019559029 0 -6.2950215875966339e-05 -0.0078423278903250702 0 -7.248400681181849e-05 -0.0080124591394752365 0 -0.00052321657688109006 -0.0077957427175684504 0 2.9480447647115362e-05 -0.0086606457019559029 0 -6.2950215875966339e-05 -0.0078423278903250702 0 -0.00067453953872437429 -0.010285304563798543 0 2.9480447647115362e-05 -0.0086606457019559029 0 -0.00051120380693797684 -0.0092713164945221853 0 2.9480447647115362e-05 -0.0086606457019559029 0 -0.00051120380693797684 -0.0092713164945221853 0 -7.248400681181849e-05 -0.0080124591394752365 0 -0.00051120380693797684 -0.0092713164945221853 0 -0.00022005273951787718 -0.008565982481081846 0 -7.248400681181849e-05 -0.0080124591394752365 0 -0.00022005273951787718 -0.008565982481081846 0 -7.248400681181849e-05 -0.0080124591394752365 0 -7.3750565344112606e-05 -0.0075557954786687111 0 -6.2950215875966339e-05 -0.0078423278903250702 0 -7.248400681181849e-05 -0.0080124591394752365 0 -2.5943892390290839e-06 -0.0074679748352578651 0 -7.248400681181849e-05 -0.0080124591394752365 0 2.5741059569477118e-05 -0.0072257036804633896 0 -7.3750565344112606e-05 -0.0075557954786687111 0 -7.248400681181849e-05 -0.0080124591394752365 0 -2.5943892390290839e-06 -0.0074679748352578651 0 2.5741059569477118e-05 -0.0072257036804633896 0 4.9967573313163308e-08 -0.0067624827572571981 0 -7.3750565344112606e-05 -0.0075557954786687111 0 -6.0970639567857246e-07 -0.0086696949610627679 0 2.5741059569477118e-05 -0.0072257036804633896 0 2.9242245815646737e-05 -0.0070390431658259476 0 -7.3750565344112606e-05 -0.0075557954786687111 0 4.9967573313163308e-08 -0.0067624827572571981 0 1.4525976295351087e-05 -0.0067977173394470894 0 -7.3750565344112606e-05 -0.0075557954786687111 0 2.9242245815646737e-05 -0.0070390431658259476 0 1.4525976295351087e-05 -0.0067977173394470894 0 -7.3750565344112606e-05 -0.0075557954786687111 0 -0.00022005273951787718 -0.008565982481081846 0 -7.3750565344112606e-05 -0.0075557954786687111 0 -6.0970639567857246e-07 -0.0086696949610627679 0 0.00018039535099819408 -0.0064621528887998728 0 0.00019804311440493912 -0.0064573611197264432 0 0.00027582720513339543 -0.0060725553788322341 0 0.00018039535099819408 -0.0064621528887998728 0 0.0002617118204047188 -0.006018204348163741 0 0.00027582720513339543 -0.0060725553788322341 0 0.00034198197025272825 -0.0057128348259827752 0 0.0002617118204047188 -0.006018204348163741 0 0.00036445638816896527 -0.0055473719842938822 0 0.00034198197025272825 -0.0057128348259827752 0 0.0002617118204047188 -0.006018204348163741 0 0.00027582720513339543 -0.0060725553788322341 0 0.0002617118204047188 -0.006018204348163741 0 0.00023953776437446545 -0.0060097764166338261 0 0.00036445638816896527 -0.0055473719842938822 0 0.0002617118204047188 -0.006018204348163741 0 0.00023953776437446545 -0.0060097764166338261 0 0.00011353975937303646 -0.0065093493661520377 0 0.00018039535099819408 -0.0064621528887998728 0 0.0002617118204047188 -0.006018204348163741 0 0.00011353975937303646 -0.0065093493661520377 0 0.00018039535099819408 -0.0064621528887998728 0 0.00011353975937303646 -0.0065093493661520377 0 3.3945670821796096e-05 -0.0070669401883109726 0 -2.5943892390290839e-06 -0.0074679748352578651 0 3.3945670821796096e-05 -0.0070669401883109726 0 9.3351243260623485e-05 -0.0069102485295610633 0 -6.2950215875966339e-05 -0.0078423278903250702 0 -2.5943892390290839e-06 -0.0074679748352578651 0 3.3945670821796096e-05 -0.0070669401883109726 0 2.5741059569477118e-05 -0.0072257036804633896 0 9.3351243260623485e-05 -0.0069102485295610633 0 0.00011091994029065202 -0.0068117238767203677 0 -2.5943892390290839e-06 -0.0074679748352578651 0 2.5741059569477118e-05 -0.0072257036804633896 0 9.3351243260623485e-05 -0.0069102485295610633 0 0.00018039535099819408 -0.0064621528887998728 0 9.3351243260623485e-05 -0.0069102485295610633 0 0.00019804311440493912 -0.0064573611197264432 0 0.00018039535099819408 -0.0064621528887998728 0 3.3945670821796096e-05 -0.0070669401883109726 0 9.3351243260623485e-05 -0.0069102485295610633 0 9.3351243260623485e-05 -0.0069102485295610633 0 0.00019804311440493912 -0.0064573611197264432 0 0.00011091994029065202 -0.0068117238767203677 0 0.00013365774124493931 -0.0066591612699288824 0 0.00013352982288971661 -0.0065715608866345546 0 0.0003429657857038809 -0.0058638158171513211 0 -1.7752825419134104e-05 -0.0065466962944479351 0 0.0001240863840748079 -0.0052453937108106041 0 1.4525976295351087e-05 -0.0067977173394470894 0 0.00013352982288971661 -0.0065715608866345546 0 0.0003429657857038809 -0.0058638158171513211 0 4.9967573313163308e-08 -0.0067624827572571981 0 1.4525976295351087e-05 -0.0067977173394470894 0 3.7596111735756687e-07 -0.0048539267029145301 0 0.00019804311440493912 -0.0064573611197264432 0 0.00013365774124493931 -0.0066591612699288824 0 0.00011091994029065202 -0.0068117238767203677 0 2.5741059569477118e-05 -0.0072257036804633896 0 2.9242245815646737e-05 -0.0070390431658259476 0 0.00013365774124493931 -0.0066591612699288824 0 2.5741059569477118e-05 -0.0072257036804633896 0 0.00013365774124493931 -0.0066591612699288824 0 0.00011091994029065202 -0.0068117238767203677 0 2.9242245815646737e-05 -0.0070390431658259476 0 0.00013365774124493931 -0.0066591612699288824 0 0.00013352982288971661 -0.0065715608866345546 0 2.9242245815646737e-05 -0.0070390431658259476 0 1.4525976295351087e-05 -0.0067977173394470894 0 0.00013352982288971661 -0.0065715608866345546 0 1.4525976295351087e-05 -0.0067977173394470894 0 3.7596111735756687e-07 -0.0048539267029145301 0 5.4429886121982074e-06 -0.0045948697723602414 0 0.00019804311440493912 -0.0064573611197264432 0 0.00013365774124493931 -0.0066591612699288824 0 0.0003429657857038809 -0.0058638158171513211 0 0.00019804311440493912 -0.0064573611197264432 0 0.00027582720513339543 -0.0060725553788322341 0 0.0003429657857038809 -0.0058638158171513211 0 0.00034198197025272825 -0.0057128348259827752 0 0.00027582720513339543 -0.0060725553788322341 0 0.0003429657857038809 -0.0058638158171513211 0 0.0003429657857038809 -0.0058638158171513211 0 0.00046381561170006394 -0.0051416672329713115 0 0.00061464028085975804 -0.0043145013001375885 0 3.7596111735756687e-07 -0.0048539267029145301 0 5.4429886121982074e-06 -0.0045948697723602414 0 -1.1372665778699093e-06 -0.0029452889516961441 0 0.0001240863840748079 -0.0052453937108106041 0 0.00028622465513251667 -0.003451925662913823 0 5.4429886121982074e-06 -0.0045948697723602414 0 -1.1372665778699093e-06 -0.0029452889516961441 0 -0.00011248867641402271 -0.0026093617669884195 0 0.00034198197025272825 -0.0057128348259827752 0 0.0003429657857038809 -0.0058638158171513211 0 0.00046381561170006394 -0.0051416672329713115 0 -1.1372665778699093e-06 -0.0029452889516961441 0 -0.00011248867641402271 -0.0026093617669884195 0 2.2346481028589007e-06 -0.0010420954141999543 0 0.00046381561170006394 -0.0051416672329713115 0 0.00061464028085975804 -0.0043145013001375885 0 0.00057670548151457339 -0.0045253092476011938 0 0.00061464028085975804 -0.0043145013001375885 0 0.00061945993834402622 -0.0039468496701838144 0 0.00059155003708141816 -0.0032657997571899741 0 0.00061464028085975804 -0.0043145013001375885 0 0.00061945993834402622 -0.0039468496701838144 0 0.00057670548151457339 -0.0045253092476011938 0 0.00061945993834402622 -0.0039468496701838144 0 0.0006281113116822914 -0.0042949514857924314 0 0.0007071754245518108 -0.0035227707529022355 0 0.00061945993834402622 -0.0039468496701838144 0 0.00057670548151457339 -0.0045253092476011938 0 0.0006281113116822914 -0.0042949514857924314 0 0.00057670548151457339 -0.0045253092476011938 0 0.0006281113116822914 -0.0042949514857924314 0 0.00049427250966245474 -0.0049747366616521684 0 0.0006281113116822914 -0.0042949514857924314 0 0.00049427250966245474 -0.0049747366616521684 0 0.00055803311025703168 -0.0048370670736306255 0 0.0006281113116822914 -0.0042949514857924314 0 0.00055803311025703168 -0.0048370670736306255 0 0.00081745364753400579 -0.0039734672923525515 0 0.0006281113116822914 -0.0042949514857924314 0 0.00081745364753400579 -0.0039734672923525515 0 0.0007071754245518108 -0.0035227707529022355 0 0.00034198197025272825 -0.0057128348259827752 0 0.00046381561170006394 -0.0051416672329713115 0 0.00036445638816896527 -0.0055473719842938822 0 0.00046381561170006394 -0.0051416672329713115 0 0.00049427250966245474 -0.0049747366616521684 0 0.00036445638816896527 -0.0055473719842938822 0 0.00046381561170006394 -0.0051416672329713115 0 0.00057670548151457339 -0.0045253092476011938 0 0.00049427250966245474 -0.0049747366616521684 0 0.00049427250966245474 -0.0049747366616521684 0 0.00035692618960597017 -0.0055877413115661715 0 0.00055803311025703168 -0.0048370670736306255 0 0.00023953776437446545 -0.0060097764166338261 0 0.00036445638816896527 -0.0055473719842938822 0 0.00035692618960597017 -0.0055877413115661715 0 0.00049427250966245474 -0.0049747366616521684 0 0.00036445638816896527 -0.0055473719842938822 0 0.00035692618960597017 -0.0055877413115661715 0 0.00035692618960597017 -0.0055877413115661715 0 0.00055803311025703168 -0.0048370670736306255 0 0.0003612894625521023 -0.0059724589289576867 0 0.00010389745973296212 -0.0064156135337635799 0 0.00035692618960597017 -0.0055877413115661715 0 0.0003612894625521023 -0.0059724589289576867 0 0.00055803311025703168 -0.0048370670736306255 0 0.00067509871658903654 -0.0048419327309602569 0 0.0003612894625521023 -0.0059724589289576867 0 0.00055803311025703168 -0.0048370670736306255 0 0.00067509871658903654 -0.0048419327309602569 0 0.00081745364753400579 -0.0039734672923525515 0 0.00067509871658903654 -0.0048419327309602569 0 0.00066342455645241412 -0.0059002542497870484 0 0.0003612894625521023 -0.0059724589289576867 0 0.00067509871658903654 -0.0048419327309602569 0 0.00066342455645241412 -0.0059002542497870484 0 0.00092605747612837424 -0.0052495835396647881 0 0.00054372024642551739 -0.0069147085676805071 0 0.00011342626074193607 -0.0067603641595951232 0 0.0003612894625521023 -0.0059724589289576867 0 0.00054372024642551739 -0.0069147085676805071 0 0.00066342455645241412 -0.0059002542497870484 0 0.0003612894625521023 -0.0059724589289576867 0 0.00072742998047626282 -0.0018910931865129277 0 0.0007422530002299749 -0.0022224220062170329 0 0.0004576249278524977 -0.0012814101123228712 0 0.0011853925602548646 -0.0015755337393683715 0 0.00072742998047626282 -0.0018910931865129277 0 0.001329673140586414 -0.0034609390151645932 0 0.00072742998047626282 -0.0018910931865129277 0 0.001329673140586414 -0.0034609390151645932 0 0.0007422530002299749 -0.0022224220062170329 0 0.00067509871658903654 -0.0048419327309602569 0 0.00092605747612837424 -0.0052495835396647881 0 0.001329673140586414 -0.0034609390151645932 0 0.0015148409092026198 -0.0036446739040204251 0 0.0014036577824223558 -0.0034930062643425291 0 0.0019585645555143948 -0.0057354203937038557 0 0.00092605747612837424 -0.0052495835396647881 0 0.001329673140586414 -0.0034609390151645932 0 0.00067509871658903654 -0.0048419327309602569 0 0.001329673140586414 -0.0034609390151645932 0 0.00081745364753400579 -0.0039734672923525515 0 0.001329673140586414 -0.0034609390151645932 0 0.00081745364753400579 -0.0039734672923525515 0 0.00093678129553904617 -0.0031032303420910293 0 0.00093678129553904617 -0.0031032303420910293 0 0.0007422530002299749 -0.0022224220062170329 0 0.00078071393641625307 -0.0022031703972369161 0 0.001329673140586414 -0.0034609390151645932 0 0.00093678129553904617 -0.0031032303420910293 0 0.0007422530002299749 -0.0022224220062170329 0 0.00078071393641625307 -0.0022031703972369161 0 0.00070353172198437189 -0.0027260091790457827 0 0.00079242878571668754 -0.0021376057703241772 0 0.00078071393641625307 -0.0022031703972369161 0 0.00079242878571668754 -0.0021376057703241772 0 0.0007974416470313008 -0.0014607546535231875 0 0.00093678129553904617 -0.0031032303420910293 0 0.00078071393641625307 -0.0022031703972369161 0 0.00070353172198437189 -0.0027260091790457827 0 0.00070353172198437189 -0.0027260091790457827 0 0.00079242878571668754 -0.0021376057703241772 0 0.00045796860848000776 -0.0019816183112519271 0 0.00081745364753400579 -0.0039734672923525515 0 0.00093678129553904617 -0.0031032303420910293 0 0.0007071754245518108 -0.0035227707529022355 0 0.00093678129553904617 -0.0031032303420910293 0 0.00070353172198437189 -0.0027260091790457827 0 0.0007071754245518108 -0.0035227707529022355 0 0.00070353172198437189 -0.0027260091790457827 0 0.00059155003708141816 -0.0032657997571899741 0 0.00045796860848000776 -0.0019816183112519271 0 0.00070353172198437189 -0.0027260091790457827 0 0.0007071754245518108 -0.0035227707529022355 0 0.00059155003708141816 -0.0032657997571899741 0 0.00061945993834402622 -0.0039468496701838144 0 0.0007071754245518108 -0.0035227707529022355 0 0.00059155003708141816 -0.0032657997571899741 0 0.00028622465513251667 -0.003451925662913823 0 0.0005201857105416593 -0.0022205492654398021 0 -0.00011248867641402271 -0.0026093617669884195 0 0.00045796860848000776 -0.0019816183112519271 0 2.2346481028589007e-06 -0.0010420954141999543 0 0.00061464028085975804 -0.0043145013001375885 0 0.00059155003708141816 -0.0032657997571899741 0 0.00045796860848000776 -0.0019816183112519271 0 2.2346481028589007e-06 -0.0010420954141999543 0 0.0009632263663239849 -0.0018427116721133744 0 0.00164766607938498 -0.0017736069726400081 0 1.3037747912576042e-06 -0.0010389354910662844 0 1.5227354353215949e-05 0.000389873057204206 0 0.00079242878571668754 -0.0021376057703241772 0 0.00045796860848000776 -0.0019816183112519271 0 0.0009632263663239849 -0.0018427116721133744 0 0.00045796860848000776 -0.0019816183112519271 0 2.2346481028589007e-06 -0.0010420954141999543 0 0.0009632263663239849 -0.0018427116721133744 0 2.0520759965129165e-07 -0.0010374259863330652 0 -1.0892460259080589e-07 0.00093926770903122656 0 1.2723635570928179e-05 0.00099239085257643361 0 0.001123274172881294 -0.00099384122770805627 0 1.5227354353215949e-05 0.000389873057204206 0 0.0009632263663239849 -0.0018427116721133744 0 0.00077777815403734356 -0.0014350600485350067 0 0.0007974416470313008 -0.0014607546535231875 0 1.5227354353215949e-05 0.000389873057204206 0 -0.00072686120689651075 0.0031254044454820909 0 -1.0892460259080589e-07 0.00093926770903122656 0 1.2723635570928179e-05 0.00099239085257643361 0 -2.2027159863761478e-05 0.0023578098174501382 0 -1.0892460259080589e-07 0.00093926770903122656 0 -3.6616164913662155e-08 0.0029167031678000747 0 -2.2027159863761478e-05 0.0023578098174501382 0 1.5227354353215949e-05 0.000389873057204206 0 -0.00042095582404528935 0.0014094995491753736 0 -0.0023600375201301991 0.003343938477284791 0 -0.0012724419441453524 0.0029432276551691204 0 -0.00078247129317645574 0.0035468244381653695 0 0.00077777815403734356 -0.0014350600485350067 0 0.00068216470158737454 -0.00081935432236864469 0 0.00048392897746739197 -0.00033759186529057063 0 0.00068216470158737454 -0.00081935432236864469 0 0.00048392897746739197 -0.00033759186529057063 0 0.00057322139724633821 -0.00014578516679861894 0 0.00048392897746739197 -0.00033759186529057063 0 0.00057322139724633821 -0.00014578516679861894 0 0.00045231257611258701 0.00078757714214999688 0 0.00057322139724633821 -0.00014578516679861894 0 0.00045231257611258701 0.00078757714214999688 0 0.0004853831655819939 -4.2669040786810433e-05 0 0.00057322139724633821 -0.00014578516679861894 0 0.00063555729242626986 -0.0007449598479539254 0 0.0004853831655819939 -4.2669040786810433e-05 0 0.00068216470158737454 -0.00081935432236864469 0 0.00057322139724633821 -0.00014578516679861894 0 0.00063555729242626986 -0.0007449598479539254 0 0.00068216470158737454 -0.00081935432236864469 0 0.00063555729242626986 -0.0007449598479539254 0 0.0007974416470313008 -0.0014607546535231875 0 0.00063555729242626986 -0.0007449598479539254 0 0.0007974416470313008 -0.0014607546535231875 0 0.00059351848778809943 -0.001267765354131198 0 0.00078071393641625307 -0.0022031703972369161 0 0.0007974416470313008 -0.0014607546535231875 0 0.00059351848778809943 -0.001267765354131198 0 0.00079242878571668754 -0.0021376057703241772 0 0.0009632263663239849 -0.0018427116721133744 0 0.0007974416470313008 -0.0014607546535231875 0 0.00077777815403734356 -0.0014350600485350067 0 0.00068216470158737454 -0.00081935432236864469 0 0.0007974416470313008 -0.0014607546535231875 0 6.1574052606860088e-05 0.0041398064563050339 0 -0.00072686120689651075 0.0031254044454820909 0 0.00013068720645608692 0.0040824601696040838 0 -9.1892564904584191e-05 0.0032757631424325945 0 -0.00078247129317645574 0.0035468244381653695 0 5.9162961584428909e-06 0.0040511065054130036 0 -3.6616164913662155e-08 0.0029167031678000747 0 -5.2147946471026784e-08 0.0048943038287067196 0 0.00013068720645608692 0.0040824601696040838 0 -9.1892564904584191e-05 0.0032757631424325945 0 0.00013490238534566188 0.0035136822239207745 0 5.9162961584428909e-06 0.0040511065054130036 0 -3.6616164913662155e-08 0.0029167031678000747 0 -2.2027159863761478e-05 0.0023578098174501382 0 -9.1892564904584191e-05 0.0032757631424325945 0 -0.00078247129317645574 0.0035468244381653695 0 -0.00051343835097053135 0.0030403325212114275 0 -0.0012724419441453524 0.0029432276551691204 0 -0.00078247129317645574 0.0035468244381653695 0 -0.00051343835097053135 0.0030403325212114275 0 -0.00042095582404528935 0.0014094995491753736 0 0.00020008003179172515 0.0017999820836225762 0 0.00048392897746739197 -0.00033759186529057063 0 0.00045231257611258701 0.00078757714214999688 0 9.7180573424386114e-05 0.002162933792006817 0 -0.0012724419441453524 0.0029432276551691204 0 9.7180573424386114e-05 0.002162933792006817 0 -0.00051343835097053135 0.0030403325212114275 0 0.00045231257611258701 0.00078757714214999688 0 9.7180573424386114e-05 0.002162933792006817 0 0.00073025047574120435 0.0015992149481444584 0 -9.1892564904584191e-05 0.0032757631424325945 0 9.7180573424386114e-05 0.002162933792006817 0 -0.00051343835097053135 0.0030403325212114275 0 9.7180573424386114e-05 0.002162933792006817 0 0.00013490238534566188 0.0035136822239207745 0 0.00017939290478613754 0.0028852112935423006 0 -9.1892564904584191e-05 0.0032757631424325945 0 9.7180573424386114e-05 0.002162933792006817 0 0.00013490238534566188 0.0035136822239207745 0 9.7180573424386114e-05 0.002162933792006817 0 0.00017939290478613754 0.0028852112935423006 0 0.00073025047574120435 0.0015992149481444584 0 0.00017939290478613754 0.0028852112935423006 0 0.00073025047574120435 0.0015992149481444584 0 0.00031510620935989265 0.0042253362563704705 0 0.00045231257611258701 0.00078757714214999688 0 0.00073025047574120435 0.0015992149481444584 0 0.0004853831655819939 -4.2669040786810433e-05 0 0.00073025047574120435 0.0015992149481444584 0 0.00062211188441016474 1.2343800115007398e-05 0 0.0004853831655819939 -4.2669040786810433e-05 0 0.00073025047574120435 0.0015992149481444584 0 0.00062211188441016474 1.2343800115007398e-05 0 0.0023457092046363127 -0.00059221022172734788 0 0.00062211188441016474 1.2343800115007398e-05 0 0.0023457092046363127 -0.00059221022172734788 0 0.00078116963494003779 -0.00084586972771214907 0 0.00078304247752010046 0.0017022201382417476 0 0.0013063329211380752 0.0017842384599231968 0 0.0007422530002299749 -0.0022224220062170329 0 0.00078071393641625307 -0.0022031703972369161 0 0.00059351848778809943 -0.001267765354131198 0 0.00063555729242626986 -0.0007449598479539254 0 0.00059351848778809943 -0.001267765354131198 0 0.0004853831655819939 -4.2669040786810433e-05 0 0.00059351848778809943 -0.001267765354131198 0 0.0004853831655819939 -4.2669040786810433e-05 0 0.0004942360620541666 -0.00064513658067832914 0 0.00062211188441016474 1.2343800115007398e-05 0 0.0004853831655819939 -4.2669040786810433e-05 0 0.0004942360620541666 -0.00064513658067832914 0 0.0004942360620541666 -0.00064513658067832914 0 0.0004576249278524977 -0.0012814101123228712 0 0.00078116963494003779 -0.00084586972771214907 0 0.00062211188441016474 1.2343800115007398e-05 0 0.0004942360620541666 -0.00064513658067832914 0 0.00078116963494003779 -0.00084586972771214907 0 0.00059351848778809943 -0.001267765354131198 0 0.0004942360620541666 -0.00064513658067832914 0 0.0004576249278524977 -0.0012814101123228712 0 0.0007422530002299749 -0.0022224220062170329 0 0.00059351848778809943 -0.001267765354131198 0 0.0004576249278524977 -0.0012814101123228712 0 0.00064665905753556155 -0.0013625803671727177 0 0.0004576249278524977 -0.0012814101123228712 0 0.00049663582981682305 -0.0014211565142452922 0 0.0004576249278524977 -0.0012814101123228712 0 0.00049663582981682305 -0.0014211565142452922 0 0.00070647590736680997 -0.0013463168382924545 0 0.00041248336491533786 -0.0012438652603993922 0 0.0014305407651871913 -0.0020119669721758789 0 0.00049663582981682305 -0.0014211565142452922 0 0.00070647590736680997 -0.0013463168382924545 0 0.001019381705026129 -0.0019720176891241579 0 0.0004576249278524977 -0.0012814101123228712 0 0.00070647590736680997 -0.0013463168382924545 0 0.00078116963494003779 -0.00084586972771214907 0 0.0023457092046363127 -0.00059221022172734788 0 0.00078116963494003779 -0.00084586972771214907 0 0.00187641151803176 -0.0015520644475402526 0 0.00070647590736680997 -0.0013463168382924545 0 0.00078116963494003779 -0.00084586972771214907 0 0.00187641151803176 -0.0015520644475402526 0 0.0023457092046363127 -0.00059221022172734788 0 0.00187641151803176 -0.0015520644475402526 0 0.0031680195185904876 -0.0016094182214105995 0 0.00187641151803176 -0.0015520644475402526 0 0.002749494332068423 -0.0021450827076484468 0 0.0031680195185904876 -0.0016094182214105995 0 0.00070647590736680997 -0.0013463168382924545 0 0.00187641151803176 -0.0015520644475402526 0 0.001019381705026129 -0.0019720176891241579 0 0.00187641151803176 -0.0015520644475402526 0 0.0022897944122127903 -0.0023326725491161137 0 0.001019381705026129 -0.0019720176891241579 0 0.0022897944122127903 -0.0023326725491161137 0 0.0018201252679751613 -0.0025040177824503106 0 0.0016656808875214909 -0.0019886917575284036 0 0.0021781810617270891 -0.0022884762108415211 0 0.0014305407651871913 -0.0020119669721758789 0 0.0022897944122127903 -0.0023326725491161137 0 0.0029972419998748959 -0.0026545888593138725 0 0.002749494332068423 -0.0021450827076484468 0 0.00187641151803176 -0.0015520644475402526 0 0.0022897944122127903 -0.0023326725491161137 0 0.002749494332068423 -0.0021450827076484468 0 0.0022897944122127903 -0.0023326725491161137 0 0.0029972419998748959 -0.0026545888593138725 0 0.0027409965722567753 -0.0030320494691660391 0 0.0022897944122127903 -0.0023326725491161137 0 0.0020671261630041847 -0.0030130215356256695 0 0.0027409965722567753 -0.0030320494691660391 0 0.0022897944122127903 -0.0023326725491161137 0 0.0018201252679751613 -0.0025040177824503106 0 0.0020671261630041847 -0.0030130215356256695 0 0.0018201252679751613 -0.0025040177824503106 0 0.0010635202820678197 -0.0027393448196128749 0 0.0020671261630041847 -0.0030130215356256695 0 0.0004697167539791518 -0.0027952000809338853 0 0.0010635202820678197 -0.0027393448196128749 0 0.00068165200376061501 -0.0033440463562569743 0 0.0004697167539791518 -0.0027952000809338853 0 0.0010635202820678197 -0.0027393448196128749 0 0.00061413638377860638 -0.002245206671046759 0 0.00073464466833109772 -0.0016613841949483928 0 0.00061413638377860638 -0.002245206671046759 0 0.0016656808875214909 -0.0019886917575284036 0 0.00031167056573848162 -0.0019183106255543541 0 0.00073464466833109772 -0.0016613841949483928 0 0.00061413638377860638 -0.002245206671046759 0 0.0018201252679751613 -0.0025040177824503106 0 0.0010635202820678197 -0.0027393448196128749 0 0.0016656808875214909 -0.0019886917575284036 0 0.0010635202820678197 -0.0027393448196128749 0 0.00061413638377860638 -0.002245206671046759 0 0.0016656808875214909 -0.0019886917575284036 0 0.0001568347714045467 0.0056994456373131372 0 -0.00014344634488442276 0.0055494316350868577 0 0.00012061099672888969 0.0060699287529829985 0 0.0001568347714045467 0.0056994456373131372 0 -0.00014344634488442276 0.0055494316350868577 0 -0.00012554074465537981 0.0056173885162865448 0 0.0001568347714045467 0.0056994456373131372 0 0.00012061099672888969 0.0060699287529829985 0 0.00039760237261881606 0.0062059491219166544 0 0.00086289258684433374 0.0061182745180743611 0 0.00060240182177702102 0.0057993779974426438 0 0.00039760237261881606 0.0062059491219166544 0 0.0001568347714045467 0.0056994456373131372 0 0.00060240182177702102 0.0057993779974426438 0 0.00039760237261881606 0.0062059491219166544 0 0.00086849535804173835 0.0058590447786686754 0 0.00060240182177702102 0.0057993779974426438 0 0.00088427392391407392 0.0056334397809677623 0 0.00086289258684433374 0.0061182745180743611 0 0.00086849535804173835 0.0058590447786686754 0 0.00060240182177702102 0.0057993779974426438 0 0.0014097440158226046 0.0043306160670266089 0 -0.0010453362411578183 0.011840295874348159 0 0.0001568347714045467 0.0056994456373131372 0 0.00060240182177702102 0.0057993779974426438 0 0.00038289438693286319 0.0053691298102012839 0 0.00038289438693286319 0.0053691298102012839 0 0.00088427392391407392 0.0056334397809677623 0 0.0010035461613046126 0.0051852284670424473 0 0.00060240182177702102 0.0057993779974426438 0 0.00038289438693286319 0.0053691298102012839 0 0.00088427392391407392 0.0056334397809677623 0 0.0014097440158226046 0.0043306160670266089 0 0.0023721429995239396 0.0012453179901550659 0 0.0023721429995239396 0.0012453179901550659 0 0.0035183551684855974 0.00014262043196219042 0 0.0001568347714045467 0.0056994456373131372 0 0.00038289438693286319 0.0053691298102012839 0 -0.00012554074465537981 0.0056173885162865448 0 0.0017591245646032883 0.0038821660749571471 0 0.0038690326580476564 0.0029744960622548255 0 0.0024508197877116974 0.005170497723174336 0 0.0034450376223565094 -0.0028295253095279886 0 0.0035404123716068808 -0.0026197412117269928 0 0.0033105799196561998 -0.0023990255302378323 0 0.0034450376223565094 -0.0028295253095279886 0 0.0035404123716068808 -0.0026197412117269928 0 0.0034955702083003929 -0.0029454072956776422 0 0.0034450376223565094 -0.0028295253095279886 0 0.0029972419998748959 -0.0026545888593138725 0 0.0033235637888248053 -0.0030567057710126026 0 0.0034450376223565094 -0.0028295253095279886 0 0.0029972419998748959 -0.0026545888593138725 0 0.0033105799196561998 -0.0023990255302378323 0 0.002749494332068423 -0.0021450827076484468 0 0.0033105799196561998 -0.0023990255302378323 0 0.0031680195185904876 -0.0016094182214105995 0 0.0029972419998748959 -0.0026545888593138725 0 0.002749494332068423 -0.0021450827076484468 0 0.0033105799196561998 -0.0023990255302378323 0 0.0023721429995239396 0.0012453179901550659 0 0.001601235690235869 0.0016801164188586892 0 -0.00014344634488442276 0.0055494316350868577 0 -0.00012554074465537981 0.0056173885162865448 0 0.00026062873855493384 0.0048015379508070249 0 0.0037837207024414275 -0.0025833395249818029 0 0.0033105799196561998 -0.0023990255302378323 0 0.0031680195185904876 -0.0016094182214105995 0 0.0023721429995239396 0.0012453179901550659 0 0.0041596441954267135 -0.0022077181752444305 0 -0.00014344634488442276 0.0055494316350868577 0 -2.8195486219355427e-05 0.0048129840482842448 0 0.00026062873855493384 0.0048015379508070249 0 -2.8195486219355427e-05 0.0048129840482842448 0 9.7336363333458214e-06 0.0044912413068533084 0 -0.00028155983527485603 0.004531500627386391 0 -2.8195486219355427e-05 0.0048129840482842448 0 0.00026062873855493384 0.0048015379508070249 0 9.7336363333458214e-06 0.0044912413068533084 0 0.0013063329211380752 0.0017842384599231968 0 0.001601235690235869 0.0016801164188586892 0 0.00031510620935989265 0.0042253362563704705 0 0.00026062873855493384 0.0048015379508070249 0 9.7336363333458214e-06 0.0044912413068533084 0 0.00031510620935989265 0.0042253362563704705 0 9.7336363333458214e-06 0.0044912413068533084 0 -0.00012601983486729457 0.0042304082229727129 0 -8.9913949250553437e-05 0.0043632462254857389 0 9.7336363333458214e-06 0.0044912413068533084 0 -0.00012601983486729457 0.0042304082229727129 0 -8.9913949250553437e-05 0.0043632462254857389 0 9.7336363333458214e-06 0.0044912413068533084 0 -0.00028155983527485603 0.004531500627386391 0 -8.9913949250553437e-05 0.0043632462254857389 0 -0.00028155983527485603 0.004531500627386391 0 0.00017153802917277839 0.0043557316061398994 0 0.00022865670138939306 0.0070973499947843159 0 2.6625630772134713e-05 0.0069068531357438321 0 0.00030700078767787408 0.007241135409707119 0 -8.8997970353071442e-05 0.0057175884324662434 0 0.00019276861043630348 0.0058279702594656955 0 0.00022865670138939306 0.0070973499947843159 0 2.6625630772134713e-05 0.0069068531357438321 0 0.00036353066917169162 0.0067088334219780089 0 -0.00014344634488442276 0.0055494316350868577 0 0.00012061099672888969 0.0060699287529829985 0 2.6625630772134713e-05 0.0069068531357438321 0 0.00012061099672888969 0.0060699287529829985 0 2.6625630772134713e-05 0.0069068531357438321 0 0.00039760237261881606 0.0062059491219166544 0 -0.00014344634488442276 0.0055494316350868577 0 -2.8195486219355427e-05 0.0048129840482842448 0 -0.00028155983527485603 0.004531500627386391 0 -0.00015248776424489925 0.0055679680965445011 0 -8.8997970353071442e-05 0.0057175884324662434 0 2.6625630772134713e-05 0.0069068531357438321 0 0.00036353066917169162 0.0067088334219780089 0 0.00039760237261881606 0.0062059491219166544 0 0.00086289258684433374 0.0061182745180743611 0 0.00039760237261881606 0.0062059491219166544 0 0.00079266778353986791 0.0065516054056936456 0 0.00036353066917169162 0.0067088334219780089 0 0.00039760237261881606 0.0062059491219166544 0 0.00079266778353986791 0.0065516054056936456 0 0.00022865670138939306 0.0070973499947843159 0 0.00036353066917169162 0.0067088334219780089 0 0.00079266778353986791 0.0065516054056936456 0 0.00022865670138939306 0.0070973499947843159 0 0.00025334590284319987 0.007277595073127619 0 0.00021503682892739002 0.0072260151161519905 0 0.00014910602776274222 0.0072658953833667122 0 0.00068333512479074065 0.006363083716565519 0 0.00022865670138939306 0.0070973499947843159 0 0.00021503682892739002 0.0072260151161519905 0 0.00021694602692832468 0.0071878334481722218 0 0.00022865670138939306 0.0070973499947843159 0 0.00021694602692832468 0.0071878334481722218 0 0.00030700078767787408 0.007241135409707119 0 0.00021503682892739002 0.0072260151161519905 0 0.00021694602692832468 0.0071878334481722218 0 0.00010057805004464903 0.0070823485261035891 0 0.00021694602692832468 0.0071878334481722218 0 0.00012865550199358842 0.0070793802065085105 0 0.00010057805004464903 0.0070823485261035891 0 0.00021694602692832468 0.0071878334481722218 0 0.00030700078767787408 0.007241135409707119 0 0.00012865550199358842 0.0070793802065085105 0 -8.9913949250553437e-05 0.0043632462254857389 0 0.00017153802917277839 0.0043557316061398994 0 -0.00012601983486729457 0.0042304082229727129 0 0.00017153802917277839 0.0043557316061398994 0 -0.0001559002063486336 0.0046920803286611273 0 0.00021271313676731517 0.0064717136687996836 0 0.00019276861043630348 0.0058279702594656955 0 0.00023781788830925786 0.0063972806024554059 0 0.00012865550199358842 0.0070793802065085105 0 0.00010057805004464903 0.0070823485261035891 0 4.9984226221845267e-05 0.0070590770618998962 0 0.00030700078767787408 0.007241135409707119 0 0.00012865550199358842 0.0070793802065085105 0 0.00021271313676731517 0.0064717136687996836 0 0.00012865550199358842 0.0070793802065085105 0 0.00021271313676731517 0.0064717136687996836 0 4.9984226221845267e-05 0.0070590770618998962 0 0.00017939290478613754 0.0028852112935423006 0 0.00031510620935989265 0.0042253362563704705 0 -9.8675189384186379e-05 0.0038941640941035382 0 0.00031510620935989265 0.0042253362563704705 0 -0.00012601983486729457 0.0042304082229727129 0 -9.8675189384186379e-05 0.0038941640941035382 0 0.00017153802917277839 0.0043557316061398994 0 -0.00012601983486729457 0.0042304082229727129 0 -0.0001559002063486336 0.0046920803286611273 0 -0.0001559002063486336 0.0046920803286611273 0 -9.8675189384186379e-05 0.0038941640941035382 0 -3.206003951550449e-05 0.0041069341150293398 0 -0.00012601983486729457 0.0042304082229727129 0 -0.0001559002063486336 0.0046920803286611273 0 -9.8675189384186379e-05 0.0038941640941035382 0 0.00017939290478613754 0.0028852112935423006 0 -9.8675189384186379e-05 0.0038941640941035382 0 -3.206003951550449e-05 0.0041069341150293398 0 0.00013490238534566188 0.0035136822239207745 0 0.00017939290478613754 0.0028852112935423006 0 -3.206003951550449e-05 0.0041069341150293398 0 0.00013490238534566188 0.0035136822239207745 0 -3.206003951550449e-05 0.0041069341150293398 0 2.8175113542000922e-05 0.0046075168272424871 0 -0.0001559002063486336 0.0046920803286611273 0 -3.206003951550449e-05 0.0041069341150293398 0 -4.5533084520273822e-05 0.0056741073009010812 0 -3.206003951550449e-05 0.0041069341150293398 0 -4.5533084520273822e-05 0.0056741073009010812 0 2.8175113542000922e-05 0.0046075168272424871 0 -5.3390592406531715e-06 0.0056971578574554586 0 -5.2147946471026784e-08 0.0048943038287067196 0 6.9811630333670284e-08 0.0068715691291890944 0 -4.5533084520273822e-05 0.0056741073009010812 0 -5.3390592406531715e-06 0.0056971578574554586 0 2.8175113542000922e-05 0.0046075168272424871 0 -4.5533084520273822e-05 0.0056741073009010812 0 -5.3390592406531715e-06 0.0056971578574554586 0 6.9811630333670284e-08 0.0068715691291890944 0 6.1574052606860088e-05 0.0041398064563050339 0 2.6870340083697547e-05 0.0053461908304747053 0 0.00013068720645608692 0.0040824601696040838 0 -5.3390592406531715e-06 0.0056971578574554586 0 2.8175113542000922e-05 0.0046075168272424871 0 5.9162961584428909e-06 0.0040511065054130036 0 -5.3390592406531715e-06 0.0056971578574554586 0 -5.2147946471026784e-08 0.0048943038287067196 0 0.00013068720645608692 0.0040824601696040838 0 0.00013490238534566188 0.0035136822239207745 0 2.8175113542000922e-05 0.0046075168272424871 0 5.2961891134401192e-05 0.0075353553704581222 0 0.00021271313676731517 0.0064717136687996836 0 5.1744521901281758e-05 0.0070667245712026042 0 5.2961891134401192e-05 0.0075353553704581222 0 0.00021271313676731517 0.0064717136687996836 0 4.9984226221845267e-05 0.0070590770618998962 0 -0.0001559002063486336 0.0046920803286611273 0 -4.5533084520273822e-05 0.0056741073009010812 0 0.00021271313676731517 0.0064717136687996836 0 -4.5533084520273822e-05 0.0056741073009010812 0 0.00021271313676731517 0.0064717136687996836 0 5.1744521901281758e-05 0.0070667245712026042 0 -4.5533084520273822e-05 0.0056741073009010812 0 6.9811630333670284e-08 0.0068715691291890944 0 5.1744521901281758e-05 0.0070667245712026042 0 5.2961891134401192e-05 0.0075353553704581222 0 5.1744521901281758e-05 0.0070667245712026042 0 -4.2731087572390552e-07 0.0088493455829761931 0 6.9811630333670284e-08 0.0068715691291890944 0 5.1744521901281758e-05 0.0070667245712026042 0 -4.2731087572390552e-07 0.0088493455829761931 0 -4.2731087572390552e-07 0.0088493455829761931 0 0.00013257405126289505 0.0086124543957815311 0 2.2808030961245673e-06 0.010825168324741471 0 5.2961891134401192e-05 0.0075353553704581222 0 -4.2731087572390552e-07 0.0088493455829761931 0 0.00013257405126289505 0.0086124543957815311 0 5.2961891134401192e-05 0.0075353553704581222 0 0.00013257405126289505 0.0086124543957815311 0 0.00020248195072764582 0.0076485016521960335 0 0.00020248195072764582 0.0076485016521960335 0 0.00062881320801159892 0.008390714536783089 0 0.00039782336336936417 0.0070397842016639497 0 0.00013257405126289505 0.0086124543957815311 0 0.00020248195072764582 0.0076485016521960335 0 0.00062881320801159892 0.008390714536783089 0 0.00050095634047795073 0.0074449218005496302 0 0.00037793811381909865 0.0090964672651676712 0 0.00020248195072764582 0.0076485016521960335 0 4.9984226221845267e-05 0.0070590770618998962 0 0.00026512248503588126 0.0071760368870860229 0 5.2961891134401192e-05 0.0075353553704581222 0 0.00020248195072764582 0.0076485016521960335 0 4.9984226221845267e-05 0.0070590770618998962 0 0.00062806212721886042 0.012019115851321422 0 0.00028635117576943027 0.012687142145048801 0 0.00086058679339937017 0.012519391391688502 0 0.00054697382561609727 0.01027296818386526 0 0.00037793811381909865 0.0090964672651676712 0 0.00013257405126289505 0.0086124543957815311 0 0.00062881320801159892 0.008390714536783089 0 2.2808030961245673e-06 0.010825168324741471 0 0.00054697382561609727 0.01027296818386526 0 1.9619497891185208e-07 0.010827099415209372 0 1.583900650689657e-06 0.010830650475578988 0 -1.3888647368724756e-06 0.012781419366441726 0 -0.0001159834731250729 0.012282166086207344 0 0.00062806212721886042 0.012019115851321422 0 1.583900650689657e-06 0.010830650475578988 0 -0.0001159834731250729 0.012282166086207344 0 -1.3888647368724756e-06 0.012781419366441726 0 -0.0001159834731250729 0.012282166086207344 0 -3.253181202213547e-05 0.012830991437424777 0 -0.0001159834731250729 0.012282166086207344 0 -0.00016866748982995771 0.012735231348527956 0 -3.253181202213547e-05 0.012830991437424777 0 -0.0001159834731250729 0.012282166086207344 0 0.00028635117576943027 0.012687142145048801 0 -0.00016866748982995771 0.012735231348527956 0 0.00062806212721886042 0.012019115851321422 0 -0.0001159834731250729 0.012282166086207344 0 0.00028635117576943027 0.012687142145048801 0 0.00028635117576943027 0.012687142145048801 0 -0.00016866748982995771 0.012735231348527956 0 0.00012379068161281901 0.013268953861850773 0 0.001419267609726759 0.01644993542967043 0 0.0018380400653682152 0.017728177557008548 0 0.0030541534431109967 0.020383089582209871 0 0.0033473906138574427 0.021360765795037019 0 0.0024459613395353182 0.021210095064856722 0 0.00028635117576943027 0.012687142145048801 0 0.00012379068161281901 0.013268953861850773 0 0.00067055194576874774 0.013173186818314832 0 0.00028187259155007559 0.007334338601923153 0 0.00022505421733861938 0.0073549250992217749 0 0.00025045304925746197 0.0072809391251728289 0 0.00024695171935924077 0.0073215629906356276 0 5.7428546061875201e-05 0.0069468198654477967 0 0.00021503682892739002 0.0072260151161519905 0 0.00022505421733861938 0.0073549250992217749 0 0.00025045304925746197 0.0072809391251728289 0 5.7428546061875201e-05 0.0069468198654477967 0 0.00037793811381909865 0.0090964672651676712 0 0.00028187259155007559 0.007334338601923153 0 0.00022505421733861938 0.0073549250992217749 0 0.0002682615457920692 0.0074631813496605576 0 0.00010057805004464903 0.0070823485261035891 0 4.9984226221845267e-05 0.0070590770618998962 0 0.00026512248503588126 0.0071760368870860229 0 0.00028635117576943027 0.012687142145048801 0 0.00067055194576874774 0.013173186818314832 0 0.00086058679339937017 0.012519391391688502 0 0.00039848655763800688 0.0095306776025599459 0 0.00037793811381909865 0.0090964672651676712 0 0.0002091516016183332 0.020254771171974811 0 0.00016239598999270551 0.019821378418005724 0 0.00028408798618899823 0.020075080079047795 0 0.00018034859574211364 0.020387859797819149 0 0.0002091516016183332 0.020254771171974811 0 0.00016239598999270551 0.019821378418005724 0 0.00016239598999270551 0.019821378418005724 0 0.000202873748864176 0.020055618896519637 0 0.00011772562571457788 0.019843420442180942 0 0.00016239598999270551 0.019821378418005724 0 0.00011772562571457788 0.019843420442180942 0 0.00012755204604345124 0.019258987807149869 0 0.00018034859574211364 0.020387859797819149 0 0.00016239598999270551 0.019821378418005724 0 0.000202873748864176 0.020055618896519637 0 0.00018034859574211364 0.020387859797819149 0 0.000202873748864176 0.020055618896519637 0 0.00021667392919272175 0.020296017572633746 0 0.000202873748864176 0.020055618896519637 0 0.00022460790431646396 0.020157107856311991 0 0.00021667392919272175 0.020296017572633746 0 0.00022460790431646396 0.020157107856311991 0 0.00011772562571457788 0.019843420442180942 0 0.0003302218684459187 0.020379971654427235 0 -2.3821965494385241e-06 0.01641973432324003 0 -7.7627821361843808e-05 0.016800663233049608 0 5.3722607594944564e-07 0.018105999502005671 0 0.00010484710190030443 0.018329211681350131 0 3.8965821916200028e-05 0.019175546224020956 0 0.000202873748864176 0.020055618896519637 0 0.00022460790431646396 0.020157107856311991 0 0.00011772562571457788 0.019843420442180942 0 -2.3821965494385241e-06 0.01641973432324003 0 -7.7627821361843808e-05 0.016800663233049608 0 0.00020151372443465531 0.017508862926074852 0 0.00010484710190030443 0.018329211681350131 0 0.00034835792451748306 0.017727350241895503 0 0.00011772562571457788 0.019843420442180942 0 0.00012755204604345124 0.019258987807149869 0 0.00020151372443465531 0.017508862926074852 0 -2.3821965494385241e-06 0.01641973432324003 0 5.2021121322075994e-06 0.014741266907112069 0 0.00020151372443465531 0.017508862926074852 0 0.00012755204604345124 0.019258987807149869 0 0.00045005599217040176 0.019390116432454627 0 0.00020151372443465531 0.017508862926074852 0 0.00016239598999270551 0.019821378418005724 0 0.00012755204604345124 0.019258987807149869 0 0.00028408798618899823 0.020075080079047795 0 0.00012755204604345124 0.019258987807149869 0 0.00045005599217040176 0.019390116432454627 0 0.00028408798618899823 0.020075080079047795 0 0.0013750752570954844 0.019760359355716926 0 0.00020151372443465531 0.017508862926074852 0 0.0026845079310760106 0.018559642732225972 0 0.00045005599217040176 0.019390116432454627 0 0.0013750752570954844 0.019760359355716926 0 0.00020151372443465531 0.017508862926074852 0 5.2021121322075994e-06 0.014741266907112069 0 0.00020151372443465531 0.017508862926074852 0 0.0026845079310760106 0.018559642732225972 0 -1.3888647368724756e-06 0.012781419366441726 0 1.3208236763660292e-06 0.014733131007358798 0 -3.253181202213547e-05 0.012830991437424777 0 2.6031366053095733e-07 0.014735460154570872 0 0.0012059875104547548 0.015693030062516166 0 0.0013750752570954844 0.019760359355716926 0 0.0026845079310760106 0.018559642732225972 0 0.0022626634699067553 0.020292343034761615 0 0.001419267609726759 0.01644993542967043 0 0.0012059875104547548 0.015693030062516166 0 0.0030541534431109967 0.020383089582209871 0 0.0026845079310760106 0.018559642732225972 0 0.0022626634699067553 0.020292343034761615 0 0.0030541534431109967 0.020383089582209871 0 0.0022626634699067553 0.020292343034761615 0 0.0024459613395353182 0.021210095064856722 0 0.0022626634699067553 0.020292343034761615 0 0.0024459613395353182 0.021210095064856722 0 0.0016690383853929988 0.020932055513684506 0 0.0024459613395353182 0.021210095064856722 0 0.0016690383853929988 0.020932055513684506 0 0.001655886206174803 0.021964810422433492 0 0.0016690383853929988 0.020932055513684506 0 0.00084648103271177356 0.02047801829853365 0 0.0010682022244876391 0.021393274333721769 0 0.0016690383853929988 0.020932055513684506 0 0.0010682022244876391 0.021393274333721769 0 0.001655886206174803 0.021964810422433492 0 0.0013750752570954844 0.019760359355716926 0 0.0016690383853929988 0.020932055513684506 0 0.00084648103271177356 0.02047801829853365 0 0.0013750752570954844 0.019760359355716926 0 0.0022626634699067553 0.020292343034761615 0 0.0016690383853929988 0.020932055513684506 0 0.00045005599217040176 0.019390116432454627 0 0.0013750752570954844 0.019760359355716926 0 0.00084648103271177356 0.02047801829853365 0 0.00045005599217040176 0.019390116432454627 0 0.00028408798618899823 0.020075080079047795 0 0.00084648103271177356 0.02047801829853365 0 0.00028408798618899823 0.020075080079047795 0 0.00053006628604446279 0.020980583957023173 0 0.00084648103271177356 0.02047801829853365 0 0.00053006628604446279 0.020980583957023173 0 0.00084648103271177356 0.02047801829853365 0 0.0010682022244876391 0.021393274333721769 0 0.00053006628604446279 0.020980583957023173 0 0.0010682022244876391 0.021393274333721769 0 0.00057794702218944558 0.021718999462050258 0 0.00053006628604446279 0.020980583957023173 0 0.00057794702218944558 0.021718999462050258 0 0.00032838886270783582 0.021363149637894881 0 0.00057794702218944558 0.021718999462050258 0 0.00032838886270783582 0.021363149637894881 0 0.0002468981097599262 0.021966378911248287 0 0.00032838886270783582 0.021363149637894881 0 0.00016240726240326854 0.021109088412847143 0 0.00010180226181785102 0.021573313148022601 0 0.00032838886270783582 0.021363149637894881 0 0.0002468981097599262 0.021966378911248287 0 0.00010180226181785102 0.021573313148022601 0 0.00032838886270783582 0.021363149637894881 0 0.00023343544662094695 0.020738117693497003 0 0.00016240726240326854 0.021109088412847143 0 0.00053006628604446279 0.020980583957023173 0 0.00032838886270783582 0.021363149637894881 0 0.00023343544662094695 0.020738117693497003 0 0.0002091516016183332 0.020254771171974811 0 0.00028408798618899823 0.020075080079047795 0 0.00023343544662094695 0.020738117693497003 0 0.00028408798618899823 0.020075080079047795 0 0.00053006628604446279 0.020980583957023173 0 0.00023343544662094695 0.020738117693497003 0 0.00018034859574211364 0.020387859797819149 0 0.00023343544662094695 0.020738117693497003 0 0.00013906999038422861 0.02086488853547994 0 0.00023343544662094695 0.020738117693497003 0 0.00013906999038422861 0.02086488853547994 0 0.00016240726240326854 0.021109088412847143 0 0.00018034859574211364 0.020387859797819149 0 0.0002091516016183332 0.020254771171974811 0 0.00023343544662094695 0.020738117693497003 0 0.00023306312234912946 0.02292138638199925 0 0.00042541101316495111 0.02231562501378543 0 0.00075107860999632447 0.022944918499524465 0 0.00023306312234912946 0.02292138638199925 0 0.00042541101316495111 0.02231562501378543 0 7.3184936956912944e-05 0.022575565802665832 0 0.0002468981097599262 0.021966378911248287 0 0.00042541101316495111 0.02231562501378543 0 7.3184936956912944e-05 0.022575565802665832 0 0.00057794702218944558 0.021718999462050258 0 0.0002468981097599262 0.021966378911248287 0 0.00042541101316495111 0.02231562501378543 0 0.00057794702218944558 0.021718999462050258 0 0.00042541101316495111 0.02231562501378543 0 0.00098938047672866131 0.02222193985192062 0 0.0010682022244876391 0.021393274333721769 0 0.00057794702218944558 0.021718999462050258 0 0.00098938047672866131 0.02222193985192062 0 0.00042541101316495111 0.02231562501378543 0 0.00098938047672866131 0.02222193985192062 0 0.00075107860999632447 0.022944918499524465 0 0.00098938047672866131 0.02222193985192062 0 0.00075107860999632447 0.022944918499524465 0 0.0013376707504267882 0.022632998140771583 0 0.0013376707504267882 0.022632998140771583 0 0.001655886206174803 0.021964810422433492 0 0.0019044883328070662 0.022620395143014151 0 0.0013376707504267882 0.022632998140771583 0 0.0019044883328070662 0.022620395143014151 0 0.0013939066025094179 0.023233406404697787 0 0.0010682022244876391 0.021393274333721769 0 0.00098938047672866131 0.02222193985192062 0 0.001655886206174803 0.021964810422433492 0 0.00098938047672866131 0.02222193985192062 0 0.0013376707504267882 0.022632998140771583 0 0.001655886206174803 0.021964810422433492 0 0.0024459613395353182 0.021210095064856722 0 0.001655886206174803 0.021964810422433492 0 0.0023969213443875148 0.022069323454895338 0 0.001655886206174803 0.021964810422433492 0 0.0023969213443875148 0.022069323454895338 0 0.0019044883328070662 0.022620395143014151 0 0.0023969213443875148 0.022069323454895338 0 0.0019044883328070662 0.022620395143014151 0 0.0025831630215128066 0.022812468048556588 0 0.0019044883328070662 0.022620395143014151 0 0.0020507024293089952 0.023117154665954431 0 0.0025831630215128066 0.022812468048556588 0 0.0020507024293089952 0.023117154665954431 0 0.0017125480660025092 0.023912098615204932 0 0.002554390830555398 0.023328550446653443 0 0.0017928641948013052 0.023804511189197745 0 0.0023864312767299099 0.023376634270440025 0 0.0013760793206726437 0.02367138424345951 0 0.002554390830555398 0.023328550446653443 0 0.0023146158552201108 0.023731889336275867 0 0.0017125480660025092 0.023912098615204932 0 0.0013939066025094179 0.023233406404697787 0 0.0011696465396767461 0.023783478091734086 0 0.0020507024293089952 0.023117154665954431 0 0.0017125480660025092 0.023912098615204932 0 0.0013939066025094179 0.023233406404697787 0 0.0019044883328070662 0.022620395143014151 0 0.0020507024293089952 0.023117154665954431 0 0.0013939066025094179 0.023233406404697787 0 0.00075107860999632447 0.022944918499524465 0 0.0013376707504267882 0.022632998140771583 0 0.0013939066025094179 0.023233406404697787 0 0.00075107860999632447 0.022944918499524465 0 0.0013939066025094179 0.023233406404697787 0 0.00076139987904088756 0.023643079484792925 0 0.0011696465396767461 0.023783478091734086 0 0.00076139987904088756 0.023643079484792925 0 0.00081758907763114313 0.024337803077299654 0 0.0013939066025094179 0.023233406404697787 0 0.0011696465396767461 0.023783478091734086 0 0.00076139987904088756 0.023643079484792925 0 0.00076139987904088756 0.023643079484792925 0 0.00021533856803379229 0.024118343600514108 0 0.00013831617380344894 0.023469566774130857 0 0.00023306312234912946 0.02292138638199925 0 0.00075107860999632447 0.022944918499524465 0 0.00013831617380344894 0.023469566774130857 0 0.00075107860999632447 0.022944918499524465 0 0.00076139987904088756 0.023643079484792925 0 0.00013831617380344894 0.023469566774130857 0 0.004187118612573845 0.018361820510933456 0 0.0035360464910656111 0.020811749054268365 0 0.0049801098418994676 0.020540652682928456 0 0.004187118612573845 0.018361820510933456 0 0.0049801098418994676 0.020540652682928456 0 0.0060876435784894302 0.020926030076097293 0 0.00025953822962800294 0.0073327364448985584 0 0.00025817365489371244 0.0073123750187539431 0 0.00026679174959603488 0.0073616311425892776 0 0.0023857756881251061 0.015419716802674132 0 0.0034210122168282253 0.02269411110152068 0 0.0023857756881251061 0.015419716802674132 0 0.0020104879410777136 0.011297933113504551 0 0.00025334590284319987 0.007277595073127619 0 0.00025817365489371244 0.0073123750187539431 0 0.00026679174959603488 0.0073616311425892776 0 0.00068333512479074065 0.006363083716565519 0 0.0020104879410777136 0.011297933113504551 0 0.00025334590284319987 0.007277595073127619 0 0.00025817365489371244 0.0073123750187539431 0 0.00025045304925746197 0.0072809391251728289 0 0.00025334590284319987 0.007277595073127619 0 0.00021503682892739002 0.0072260151161519905 0 0.00025045304925746197 0.0072809391251728289 0 0.00028187259155007559 0.007334338601923153 0 0.00025953822962800294 0.0073327364448985584 0 0.00025045304925746197 0.0072809391251728289 0 0.00039848655763800688 0.0095306776025599459 0 0.0023857756881251061 0.015419716802674132 0 0.00012379068161281901 0.013268953861850773 0 0.00067055194576874774 0.013173186818314832 0 0.00052756112984922064 0.013821570986554826 0 0.00025953822962800294 0.0073327364448985584 0 0.00025817365489371244 0.0073123750187539431 0 0.00025045304925746197 0.0072809391251728289 0 0.0018380400653682152 0.017728177557008548 0 0.0023857756881251061 0.015419716802674132 0 0.0033473906138574427 0.021360765795037019 0 0.00371932918386844 0.02209604062014928 0 0.0030260796936366842 0.022214368385070602 0 0.0033473906138574427 0.021360765795037019 0 0.0024459613395353182 0.021210095064856722 0 0.0023969213443875148 0.022069323454895338 0 0.0033473906138574427 0.021360765795037019 0 0.0023969213443875148 0.022069323454895338 0 0.0030260796936366842 0.022214368385070602 0 0.0030260796936366842 0.022214368385070602 0 0.0030628386863691733 0.022652802985169904 0 0.0025831630215128066 0.022812468048556588 0 0.0023969213443875148 0.022069323454895338 0 0.0030260796936366842 0.022214368385070602 0 0.0025831630215128066 0.022812468048556588 0 0.00371932918386844 0.02209604062014928 0 0.0030260796936366842 0.022214368385070602 0 0.0030628386863691733 0.022652802985169904 0 0.00371932918386844 0.02209604062014928 0 0.0030628386863691733 0.022652802985169904 0 0.0034302851363301324 0.022820405654709098 0 0.0034302851363301324 0.022820405654709098 0 0.0029502751878315693 0.023068814737412974 0 0.0031814667473198258 0.023306643583404733 0 0.0034210122168282253 0.02269411110152068 0 0.0032657281040582935 0.022826205998812424 0 0.0035360464910656111 0.020811749054268365 0 0.0031814667473198258 0.023306643583404733 0 0.0040224213535120434 0.022251801339029813 0 0.0030628386863691733 0.022652802985169904 0 0.0034302851363301324 0.022820405654709098 0 0.0029502751878315693 0.023068814737412974 0 0.0029502751878315693 0.023068814737412974 0 0.0025831630215128066 0.022812468048556588 0 0.002554390830555398 0.023328550446653443 0 0.0020507024293089952 0.023117154665954431 0 0.0025831630215128066 0.022812468048556588 0 0.002554390830555398 0.023328550446653443 0 0.0030628386863691733 0.022652802985169904 0 0.0029502751878315693 0.023068814737412974 0 0.0025831630215128066 0.022812468048556588 0 0.0029502751878315693 0.023068814737412974 0 0.002554390830555398 0.023328550446653443 0 0.0028207481056704898 0.023474422564244202 0 0.0023146158552201108 0.023731889336275867 0 0.0028207481056704898 0.023474422564244202 0 0.0027156267233492924 0.023957576439566718 0 0.002554390830555398 0.023328550446653443 0 0.0023146158552201108 0.023731889336275867 0 0.0028207481056704898 0.023474422564244202 0 0.0029502751878315693 0.023068814737412974 0 0.0028207481056704898 0.023474422564244202 0 0.0031814667473198258 0.023306643583404733 0 0.0028207481056704898 0.023474422564244202 0 0.0031814667473198258 0.023306643583404733 0 0.0034458802048053785 0.023853587742498666 0 0.0031814667473198258 0.023306643583404733 0 0.0040224213535120434 0.022251801339029813 0 0.0034458802048053785 0.023853587742498666 0 -9.6468858465227289e-05 0.016742145315808716 0 0.0002646624920929819 0.015227399843668074 0 -0.0015594901095186311 0.017268481150284249 0 0.0040224213535120434 0.022251801339029813 0 0.0055160406948764453 0.021692333933693794 0 0.0034458802048053785 0.023853587742498666 0 0.0023093376891393826 0.01483442249562008 0 0.001124839508933178 0.021316502619138342 0 0.0035360464910656111 0.020811749054268365 0 0.0040224213535120434 0.022251801339029813 0 0.0045167568440869594 0.021332029456180634 0 0.0045167568440869594 0.021332029456180634 0 0.0049801098418994676 0.020540652682928456 0 0.0055160406948764453 0.021692333933693794 0 0.0040224213535120434 0.022251801339029813 0 0.0045167568440869594 0.021332029456180634 0 0.0055160406948764453 0.021692333933693794 0 0.0055636420881422762 0.021384620197307504 0 0.0023093376891393826 0.01483442249562008 0 0.0035360464910656111 0.020811749054268365 0 0.0045167568440869594 0.021332029456180634 0 0.0049801098418994676 0.020540652682928456 0 0.00086289258684433374 0.0061182745180743611 0 0.0012305566747796901 0.0060252954324355014 0 0.001121889274942168 0.0058928600891290216 0 0.00086289258684433374 0.0061182745180743611 0 0.00079266778353986791 0.0065516054056936456 0 0.0012305566747796901 0.0060252954324355014 0 0.0049801098418994676 0.020540652682928456 0 0.0060876435784894302 0.020926030076097293 0 0.0055201336335343396 0.021515905844917204 0 0.0020104879410777136 0.011297933113504551 0 0.00062369092639800051 0.0084275942289133623 0 0.0012355292738863916 0.0060709711352500513 0 0.0013970607625030116 0.0058845310189038899 0 0.001121889274942168 0.0058928600891290216 0 0.0020104879410777136 0.011297933113504551 0 0.0023093376891393826 0.01483442249562008 0 0.0013970607625030116 0.0058845310189038899 0 0.001121889274942168 0.0058928600891290216 0 0.00088427392391407392 0.0056334397809677623 0 0.00086289258684433374 0.0061182745180743611 0 0.00086849535804173835 0.0058590447786686754 0 0.001121889274942168 0.0058928600891290216 0 0.00086849535804173835 0.0058590447786686754 0 0.001121889274942168 0.0058928600891290216 0 0.00088427392391407392 0.0056334397809677623 0 0.0023093376891393826 0.01483442249562008 0 -0.0010453362411578183 0.011840295874348159 0 0.0013970607625030116 0.0058845310189038899 0 0.00088427392391407392 0.0056334397809677623 0 0.0010035461613046126 0.0051852284670424473 0 -9.6468858465227289e-05 0.016742145315808716 0 0.0002646624920929819 0.015227399843668074 0 0.0013321925143615979 0.017268530989680852 0 -0.0046144251491949118 0.019913560156767443 0 -0.0042493204191160552 0.019079780145806465 0 -0.0057041240797344366 0.018437409098277568 0 -0.0046144251491949118 0.019913560156767443 0 -0.0042493204191160552 0.019079780145806465 0 -0.0035521290449442204 0.019294060435124268 0 -0.0042493204191160552 0.019079780145806465 0 -0.0044231557132300174 0.0181070326716051 0 -0.0057041240797344366 0.018437409098277568 0 -0.0042493204191160552 0.019079780145806465 0 -0.0044231557132300174 0.0181070326716051 0 -0.0036268133968645217 0.019170648663844873 0 -0.0036268133968645217 0.019170648663844873 0 -0.0039663245821821222 0.019693857141262632 0 -0.0039504300193675098 0.020083357962093117 0 -0.0044231557132300174 0.0181070326716051 0 -0.0036268133968645217 0.019170648663844873 0 -0.0027443353832926308 0.01689128401347097 0 -0.0035974988241171961 0.019225922264117956 0 -0.003305779396926908 0.018128036840301724 0 -0.0036268133968645217 0.019170648663844873 0 -0.0035521290449442204 0.019294060435124268 0 -0.0039663245821821222 0.019693857141262632 0 -9.6468858465227289e-05 0.016742145315808716 0 0.0013321925143615979 0.017268530989680852 0 -0.0010166660237996867 0.018300659596219106 0 -0.0042493204191160552 0.019079780145806465 0 -0.0036268133968645217 0.019170648663844873 0 -0.0035521290449442204 0.019294060435124268 0 -0.0010453362411578183 0.011840295874348159 0 -0.0029634998467050421 0.019628254655197595 0 -9.6468858465227289e-05 0.016742145315808716 0 -0.0010166660237996867 0.018300659596219106 0 -0.0015594901095186311 0.017268481150284249 0 0.0028207481056704898 0.023474422564244202 0 0.0034458802048053785 0.023853587742498666 0 0.0027156267233492924 0.023957576439566718 0 -0.0010166660237996867 0.018300659596219106 0 -0.0015594901095186311 0.017268481150284249 0 -0.0033652899649767335 0.019327532274587295 0 0.001124839508933178 0.021316502619138342 0 -0.0021651207061368872 0.020517791159406114 0 0.0034458802048053785 0.023853587742498666 0 0.0027156267233492924 0.023957576439566718 0 0.0025852753195666216 0.024627299705307071 0 0.0023146158552201108 0.023731889336275867 0 0.0027156267233492924 0.023957576439566718 0 0.0019993349067076822 0.024193018099688657 0 0.0027156267233492924 0.023957576439566718 0 0.0023171098052989182 0.024415151789768077 0 0.0019993349067076822 0.024193018099688657 0 0.0027156267233492924 0.023957576439566718 0 0.0023171098052989182 0.024415151789768077 0 0.0025852753195666216 0.024627299705307071 0 0.0023171098052989182 0.024415151789768077 0 0.0025852753195666216 0.024627299705307071 0 0.0020955983133317557 0.02483583713791836 0 0.0023171098052989182 0.024415151789768077 0 0.0019993349067076822 0.024193018099688657 0 0.0020955983133317557 0.02483583713791836 0 -0.0021651207061368872 0.020517791159406114 0 -0.0029405888903975851 0.020660632251995392 0 -0.0042696329958759778 0.019940211089387143 0 -0.0043847498795856615 0.02016308927070572 0 -0.0044747442422442179 0.019910909053023389 0 -0.0043865801888927219 0.019723261379645089 0 -0.0042696329958759778 0.019940211089387143 0 -0.0044747442422442179 0.019910909053023389 0 -0.0043847498795856615 0.02016308927070572 0 -0.0044747442422442179 0.019910909053023389 0 -0.0048658876688201097 0.019963232620750331 0 -0.0043847498795856615 0.02016308927070572 0 -0.0043261858467295595 0.020416133878920668 0 -0.0043082658601140888 0.020572489903979186 0 -0.004302750261241212 0.019724785990286032 0 -0.0044747442422442179 0.019910909053023389 0 -0.0048658876688201097 0.019963232620750331 0 -0.0047582160822472351 0.020297183541214864 0 -0.002452666227350811 0.021584906396428492 0 -0.0021651207061368872 0.020517791159406114 0 -0.002452666227350811 0.021584906396428492 0 -0.0029634998467050421 0.019628254655197595 0 -0.0021651207061368872 0.020517791159406114 0 -0.0035521290449442204 0.019294060435124268 0 -0.0043865801888927219 0.019723261379645089 0 -0.0039663245821821222 0.019693857141262632 0 -0.0043865801888927219 0.019723261379645089 0 -0.0042696329958759778 0.019940211089387143 0 -0.0039663245821821222 0.019693857141262632 0 -0.0042696329958759778 0.019940211089387143 0 -0.0039663245821821222 0.019693857141262632 0 -0.0042037442138893591 0.020067744220688879 0 -0.0042037442138893591 0.020067744220688879 0 -0.0041880777121677797 0.020115006609104508 0 -0.0039504300193675098 0.020083357962093117 0 -0.0039663245821821222 0.019693857141262632 0 -0.0042037442138893591 0.020067744220688879 0 -0.0039504300193675098 0.020083357962093117 0 -0.0042037442138893591 0.020067744220688879 0 -0.0042804581540595637 0.02016391972771293 0 -0.0041880777121677797 0.020115006609104508 0 -0.0043847498795856615 0.02016308927070572 0 -0.0043261858467295595 0.020416133878920668 0 -0.004334130831366384 0.020258021334247738 0 -0.0043261858467295595 0.020416133878920668 0 -0.004334130831366384 0.020258021334247738 0 -0.0042749555925164877 0.020382136404959787 0 -0.0042696329958759778 0.019940211089387143 0 -0.0043847498795856615 0.02016308927070572 0 -0.0042037442138893591 0.020067744220688879 0 -0.0043847498795856615 0.02016308927070572 0 -0.0042037442138893591 0.020067744220688879 0 -0.004334130831366384 0.020258021334247738 0 -0.0042037442138893591 0.020067744220688879 0 -0.0042804581540595637 0.02016391972771293 0 -0.004334130831366384 0.020258021334247738 0 -0.0042804581540595637 0.02016391972771293 0 -0.004334130831366384 0.020258021334247738 0 -0.0042967409265088291 0.020203844584884251 0 -0.004334130831366384 0.020258021334247738 0 -0.0042967409265088291 0.020203844584884251 0 -0.0042749555925164877 0.020382136404959787 0 -0.0042967409265088291 0.020203844584884251 0 -0.0042517858424113838 0.020052344177850907 0 -0.0041948947070096967 0.02019136383079272 0 -0.0042967409265088291 0.020203844584884251 0 -0.0042749555925164877 0.020382136404959787 0 -0.0041948947070096967 0.02019136383079272 0 -0.0042804581540595637 0.02016391972771293 0 -0.0042967409265088291 0.020203844584884251 0 -0.0042886901432786159 0.020101896365866088 0 -0.0042967409265088291 0.020203844584884251 0 -0.0042886901432786159 0.020101896365866088 0 -0.0042517858424113838 0.020052344177850907 0 -0.0042886901432786159 0.020101896365866088 0 -0.0042517858424113838 0.020052344177850907 0 -0.0042879172650633268 0.01998403979751761 0 -0.0042517858424113838 0.020052344177850907 0 -0.0041948947070096967 0.02019136383079272 0 -0.0041630110790106057 0.019942772122119576 0 -0.0041880777121677797 0.020115006609104508 0 -0.0042872334594252224 0.020065484939441457 0 -0.004399017752486821 0.019996266779634366 0 -0.0042804581540595637 0.02016391972771293 0 -0.0042886901432786159 0.020101896365866088 0 -0.0042872334594252224 0.020065484939441457 0 -0.0042804581540595637 0.02016391972771293 0 -0.0041880777121677797 0.020115006609104508 0 -0.0042872334594252224 0.020065484939441457 0 -0.0042886901432786159 0.020101896365866088 0 -0.0042872334594252224 0.020065484939441457 0 -0.0042879172650633268 0.01998403979751761 0 -0.0042872334594252224 0.020065484939441457 0 -0.0043286081000293896 0.01994037510670723 0 -0.0042879172650633268 0.01998403979751761 0 -0.0042872334594252224 0.020065484939441457 0 -0.004399017752486821 0.019996266779634366 0 -0.0043286081000293896 0.01994037510670723 0 -0.0027443353832926308 0.01689128401347097 0 -0.0033055075654416888 0.013940351269876337 0 -0.0021112121706087319 0.014183878414828297 0 -0.0041880777121677797 0.020115006609104508 0 -0.0039504300193675098 0.020083357962093117 0 -0.004399017752486821 0.019996266779634366 0 -0.0047721492351594898 0.016437534933414773 0 -0.0027443353832926308 0.01689128401347097 0 -0.0033055075654416888 0.013940351269876337 0 -0.003305779396926908 0.018128036840301724 0 -0.0036819852545551873 0.018434761445042431 0 0.0046503100322698235 0.00027778511489544847 0 0.0047858896708182601 0.00014046851110262817 0 0.0047764176616737009 0.00013649237116043522 0 0.0046503100322698235 0.00027778511489544847 0 0.0047858896708182601 0.00014046851110262817 0 0.0043677915058851309 0.00041364273576236334 0 -0.00042115521872171353 0.0090141864205951199 0 0.00088737342776363864 0.0065019445091105618 0 0.0046503100322698235 0.00027778511489544847 0 0.0047602363876112349 0.00027477322540984576 0 0.0047764176616737009 0.00013649237116043522 0 -0.0044231557132300174 0.0181070326716051 0 -0.0047721492351594898 0.016437534933414773 0 -0.0057041240797344366 0.018437409098277568 0 -0.0044231557132300174 0.0181070326716051 0 -0.0047721492351594898 0.016437534933414773 0 -0.0027443353832926308 0.01689128401347097 0 -0.0018814870640385341 0.022472968496502106 0 -0.0023436596455270074 0.02315066395292922 0 -0.0007751279140990262 0.023184569735026649 0 -0.0018814870640385341 0.022472968496502106 0 -0.0016625378296004655 0.021271545085961061 0 -0.0007751279140990262 0.023184569735026649 0 -0.0016742536582452501 0.023659257623755852 0 -0.0007751279140990262 0.023184569735026649 0 -0.0007597460452741533 0.02365220064067582 0 0.00076139987904088756 0.023643079484792925 0 0.00021533856803379229 0.024118343600514108 0 0.00081758907763114313 0.024337803077299654 0 -0.00070621637577736828 0.02378524784664339 0 -0.0013002975818088931 0.023124297501341071 0 -0.00033512868468824758 0.024019144390855385 0 -0.00070621637577736828 0.02378524784664339 0 -0.00098869442284267258 0.02390107467695193 0 -0.0016742536582452501 0.023659257623755852 0 -0.0007597460452741533 0.02365220064067582 0 -0.00070621637577736828 0.02378524784664339 0 -0.0010379643567635394 0.023626168011957695 0 -0.0023436596455270074 0.02315066395292922 0 -0.0027373242211589138 0.022193484192334644 0 -0.0035849504513860882 0.022405841942911377 0 -0.0018814870640385341 0.022472968496502106 0 -0.0023436596455270074 0.02315066395292922 0 -0.0027373242211589138 0.022193484192334644 0 -0.0018814870640385341 0.022472968496502106 0 -0.0022513056707734076 0.021815873327323189 0 -0.0027373242211589138 0.022193484192334644 0 -0.0022513056707734076 0.021815873327323189 0 -0.0027373242211589138 0.022193484192334644 0 -0.0026143669041132399 0.02124925251016636 0 -0.0035849504513860882 0.022405841942911377 0 -0.0040555576260444042 0.021135933252691339 0 -0.0034495278219472073 0.02121205945778401 0 -0.0027373242211589138 0.022193484192334644 0 -0.0035849504513860882 0.022405841942911377 0 -0.0034495278219472073 0.02121205945778401 0 0.0013760793206726437 0.02367138424345951 0 0.00021102180715496096 0.024141962305049659 0 0.0011822215785322508 0.024511740799652827 0 0.0017928641948013052 0.023804511189197745 0 -0.00070621637577736828 0.02378524784664339 0 0.0017125480660025092 0.023912098615204932 0 0.0011696465396767461 0.023783478091734086 0 0.00081758907763114313 0.024337803077299654 0 0.0013760793206726437 0.02367138424345951 0 0.0011822215785322508 0.024511740799652827 0 0.0019993349067076822 0.024193018099688657 0 0.0013760793206726437 0.02367138424345951 0 0.0023146158552201108 0.023731889336275867 0 0.0019993349067076822 0.024193018099688657 0 -0.0035849504513860882 0.022405841942911377 0 -0.0052045750375185216 0.021621714486485109 0 -0.0040555576260444042 0.021135933252691339 0 -0.0010379643567635394 0.023626168011957695 0 -0.002452666227350811 0.021584906396428492 0 0.0011822215785322508 0.024511740799652827 0 0.0019993349067076822 0.024193018099688657 0 0.0020955983133317557 0.02483583713791836 0 -0.002452666227350811 0.021584906396428492 0 -0.0045896173321876592 0.021365139742101216 0 -0.0043261858467295595 0.020416133878920668 0 -0.0042147102057448127 0.020673836319001673 0 -0.0042749555925164877 0.020382136404959787 0 -0.0043082658601140888 0.020572489903979186 0 -0.0042147102057448127 0.020673836319001673 0 -0.0040555576260444042 0.021135933252691339 0 -0.0043261858467295595 0.020416133878920668 0 -0.0043082658601140888 0.020572489903979186 0 -0.0042147102057448127 0.020673836319001673 0 -0.0042147102057448127 0.020673836319001673 0 -0.0040555576260444042 0.021135933252691339 0 -0.0039780085320486117 0.020680123900601002 0 -0.0042147102057448127 0.020673836319001673 0 -0.0039780085320486117 0.020680123900601002 0 -0.0041474898514662134 0.020444351642692715 0 -0.0039780085320486117 0.020680123900601002 0 -0.0041474898514662134 0.020444351642692715 0 -0.0039891462909021902 0.020341457162088898 0 -0.0041474898514662134 0.020444351642692715 0 -0.0042749555925164877 0.020382136404959787 0 -0.0041948947070096967 0.02019136383079272 0 -0.0042147102057448127 0.020673836319001673 0 -0.0041474898514662134 0.020444351642692715 0 -0.0042749555925164877 0.020382136404959787 0 -0.0041948947070096967 0.02019136383079272 0 -0.0040460158721861116 0.020024364134549933 0 -0.0041630110790106057 0.019942772122119576 0 -0.0040460158721861116 0.020024364134549933 0 -0.0039891462909021902 0.020341457162088898 0 -0.0037678300903522281 0.020309735846156914 0 -0.0041948947070096967 0.02019136383079272 0 -0.0040460158721861116 0.020024364134549933 0 -0.0039891462909021902 0.020341457162088898 0 -0.0041474898514662134 0.020444351642692715 0 -0.0041948947070096967 0.02019136383079272 0 -0.0039891462909021902 0.020341457162088898 0 -0.0040460158721861116 0.020024364134549933 0 -0.0037678300903522281 0.020309735846156914 0 -0.0037921684721409664 0.019842538320015427 0 -0.0029391512500302856 0.022001187678908733 0 -0.0041567353505876621 0.019708195993067387 0 -0.0037678300903522281 0.020309735846156914 0 -0.0031919284980584319 0.020103918458175347 0 -0.0037921684721409664 0.019842538320015427 0 -0.0032971337510177938 0.02051457967972576 0 -0.0029391512500302856 0.022001187678908733 0 -0.0037678300903522281 0.020309735846156914 0 -0.0034495278219472073 0.02121205945778401 0 -0.0031919284980584319 0.020103918458175347 0 -0.0039780085320486117 0.020680123900601002 0 -0.0037678300903522281 0.020309735846156914 0 -0.0034495278219472073 0.02121205945778401 0 -0.0039780085320486117 0.020680123900601002 0 -0.0039891462909021902 0.020341457162088898 0 -0.0037678300903522281 0.020309735846156914 0 -0.0040555576260444042 0.021135933252691339 0 -0.0039780085320486117 0.020680123900601002 0 -0.0034495278219472073 0.02121205945778401 0 -0.0026143669041132399 0.02124925251016636 0 -0.0028808695040779555 0.020239617706773714 0 -0.0016625378296004655 0.021271545085961061 0 -0.0034495278219472073 0.02121205945778401 0 -0.0026143669041132399 0.02124925251016636 0 -0.0028808695040779555 0.020239617706773714 0 -0.0027373242211589138 0.022193484192334644 0 -0.0034495278219472073 0.02121205945778401 0 -0.0026143669041132399 0.02124925251016636 0 -0.0022513056707734076 0.021815873327323189 0 -0.0026143669041132399 0.02124925251016636 0 -0.0016625378296004655 0.021271545085961061 0 -0.0029391512500302856 0.022001187678908733 0 -0.0018841175786966837 0.023768471839973902 0 -0.0025648290132302323 0.025778180649045947 0 -0.0023012151660918518 0.025785278373303744 0 -0.0022797958730559472 0.025932929219063514 0 -0.0023012151660918518 0.025785278373303744 0 -0.0022797958730559472 0.025932929219063514 0 -0.0020417951687709212 0.025869432892048867 0 -0.0018814870640385341 0.022472968496502106 0 -0.0022513056707734076 0.021815873327323189 0 -0.0016625378296004655 0.021271545085961061 0 -0.0025946034388240947 0.025612303164215269 0 -0.0028997105206115198 0.02541266921813605 0 -0.0026038646081978311 0.025594602668457575 0 -0.0025946034388240947 0.025612303164215269 0 -0.0023157184612498803 0.025755910754806845 0 -0.0026038646081978311 0.025594602668457575 0 -0.0032057251876414627 0.022802942649149185 0 -0.0032750993529218771 0.022295807558824311 0 -0.0023012151660918518 0.025785278373303744 0 -0.0025946034388240947 0.025612303164215269 0 -0.0023157184612498803 0.025755910754806845 0 -0.0029391512500302856 0.022001187678908733 0 -0.0032057251876414627 0.022802942649149185 0 -0.0025648290132302323 0.025778180649045947 0 -0.0023012151660918518 0.025785278373303744 0 -0.0025946034388240947 0.025612303164215269 0 -0.0037045078354009152 0.019923277080738835 0 -0.0036795796631852234 0.019642735781682227 0 -0.0037921684721409664 0.019842538320015427 0 -0.0036795796631852234 0.019642735781682227 0 -0.0039032520266702357 0.019440109313889519 0 -0.0038656871400792759 0.019256505127137748 0 -0.0036795796631852234 0.019642735781682227 0 -0.0039032520266702357 0.019440109313889519 0 -0.0039032847450671485 0.019620462486220479 0 -0.0039032520266702357 0.019440109313889519 0 -0.0039032847450671485 0.019620462486220479 0 -0.0040435172461806348 0.019420884059300949 0 -0.0039032847450671485 0.019620462486220479 0 -0.0037921684721409664 0.019842538320015427 0 -0.0040798875080626353 0.019766326742343149 0 -0.0036795796631852234 0.019642735781682227 0 -0.0039032847450671485 0.019620462486220479 0 -0.0037921684721409664 0.019842538320015427 0 -0.0040460158721861116 0.020024364134549933 0 -0.0037921684721409664 0.019842538320015427 0 -0.0040798875080626353 0.019766326742343149 0 -0.0041630110790106057 0.019942772122119576 0 -0.0040798875080626353 0.019766326742343149 0 -0.0042245162594781952 0.019840416351908547 0 -0.0040460158721861116 0.020024364134549933 0 -0.0041630110790106057 0.019942772122119576 0 -0.0040798875080626353 0.019766326742343149 0 -0.0040798875080626353 0.019766326742343149 0 -0.0040893583415276651 0.01956103145053285 0 -0.0042375393124414878 0.019602454343003679 0 -0.0039032847450671485 0.019620462486220479 0 -0.0040798875080626353 0.019766326742343149 0 -0.0040893583415276651 0.01956103145053285 0 -0.0039032847450671485 0.019620462486220479 0 -0.0040893583415276651 0.01956103145053285 0 -0.0040435172461806348 0.019420884059300949 0 -0.0040893583415276651 0.01956103145053285 0 -0.0041599605879944013 0.019405981115466393 0 -0.0042375393124414878 0.019602454343003679 0 -0.0040893583415276651 0.01956103145053285 0 -0.0041599605879944013 0.019405981115466393 0 -0.0040435172461806348 0.019420884059300949 0 -0.0041599605879944013 0.019405981115466393 0 -0.0040435172461806348 0.019420884059300949 0 -0.0041300797419424043 0.01925234212167137 0 -0.0041599605879944013 0.019405981115466393 0 -0.0041300797419424043 0.01925234212167137 0 -0.0042250243119674614 0.019238083714617996 0 -0.0040435172461806348 0.019420884059300949 0 -0.0041300797419424043 0.01925234212167137 0 -0.0040228388442985989 0.019256404303960056 0 -0.0041300797419424043 0.01925234212167137 0 -0.0042049781182143375 0.019128463521776749 0 -0.0042250243119674614 0.019238083714617996 0 -0.0041300797419424043 0.01925234212167137 0 -0.0042049781182143375 0.019128463521776749 0 -0.0041423453350823009 0.019111214529053695 0 -0.0042049781182143375 0.019128463521776749 0 -0.004227507311690186 0.019019421823988528 0 -0.0041423453350823009 0.019111214529053695 0 -0.004227507311690186 0.019019421823988528 0 -0.0041423453350823009 0.019111214529053695 0 -0.0041999608230979101 0.018972696556036738 0 -0.0041300797419424043 0.01925234212167137 0 -0.0041423453350823009 0.019111214529053695 0 -0.0040228388442985989 0.019256404303960056 0 -0.0041423453350823009 0.019111214529053695 0 -0.0040547458676366867 0.019085773560634272 0 -0.0040228388442985989 0.019256404303960056 0 -0.0040547458676366867 0.019085773560634272 0 -0.0040228388442985989 0.019256404303960056 0 -0.0038656871400792759 0.019256505127137748 0 -0.0041423453350823009 0.019111214529053695 0 -0.0040547458676366867 0.019085773560634272 0 -0.0041999608230979101 0.018972696556036738 0 -0.0039032520266702357 0.019440109313889519 0 -0.0040228388442985989 0.019256404303960056 0 -0.0038656871400792759 0.019256505127137748 0 -0.0039032520266702357 0.019440109313889519 0 -0.0040435172461806348 0.019420884059300949 0 -0.0040228388442985989 0.019256404303960056 0 -0.0036795796631852234 0.019642735781682227 0 -0.0038656871400792759 0.019256505127137748 0 -0.0036730281851149573 0.019309126656760146 0 -0.0038656871400792759 0.019256505127137748 0 -0.0037912549623126813 0.019105613214469241 0 -0.003954929284868367 0.019005437855715943 0 -0.0040547458676366867 0.019085773560634272 0 -0.0038656871400792759 0.019256505127137748 0 -0.003954929284868367 0.019005437855715943 0 -0.0038656871400792759 0.019256505127137748 0 -0.0037912549623126813 0.019105613214469241 0 -0.0036730281851149573 0.019309126656760146 0 -0.0032750993529218771 0.022295807558824311 0 -0.0035827834793019722 0.021909068213088974 0 -0.0037912549623126813 0.019105613214469241 0 -0.0036730281851149573 0.019309126656760146 0 -0.0037432005023527279 0.019011658310947865 0 0.0044520048809503941 0.0010343260203635924 0 0.0043677915058851309 0.00041364273576236334 0 0.0040147898431230076 0.0012594687184353409 0 0.0044520048809503941 0.0010343260203635924 0 0.0040147898431230076 0.0012594687184353409 0 0.0044919502839954632 0.0016173938585846617 0 0.0044520048809503941 0.0010343260203635924 0 0.0047138204381365432 0.0012879546921982811 0 0.0044919502839954632 0.0016173938585846617 0 0.0047138204381365432 0.0012879546921982811 0 0.0046345005223446135 0.00062844547163565809 0 0.0048155833326677605 0.00071252427585635162 0 0.0044520048809503941 0.0010343260203635924 0 0.0047138204381365432 0.0012879546921982811 0 0.0046345005223446135 0.00062844547163565809 0 0.0044520048809503941 0.0010343260203635924 0 0.0046345005223446135 0.00062844547163565809 0 0.0043677915058851309 0.00041364273576236334 0 0.0046345005223446135 0.00062844547163565809 0 0.0048155833326677605 0.00071252427585635162 0 0.0047602363876112349 0.00027477322540984576 0 0.0046503100322698235 0.00027778511489544847 0 0.0046345005223446135 0.00062844547163565809 0 0.0047602363876112349 0.00027477322540984576 0 0.0046503100322698235 0.00027778511489544847 0 0.0046345005223446135 0.00062844547163565809 0 0.0043677915058851309 0.00041364273576236334 0 -0.0033055075654416888 0.013940351269876337 0 -0.0021112121706087319 0.014183878414828297 0 -0.0015680627753096197 0.011184667756771061 0 -0.0036819852545551873 0.018434761445042431 0 0.00040892402941328151 0.0090320439606688119 0 0.00088737342776363864 0.0065019445091105618 0 0.00040892402941328151 0.0090320439606688119 0 -0.004399017752486821 0.019996266779634366 0 -0.0043750108760075099 0.019790048390340841 0 -0.0045039077339225665 0.019494770261706273 0 -0.004399017752486821 0.019996266779634366 0 -0.0043286081000293896 0.01994037510670723 0 -0.0043750108760075099 0.019790048390340841 0 -0.0043286081000293896 0.01994037510670723 0 -0.0043138125025866348 0.019851245962921659 0 -0.0043750108760075099 0.019790048390340841 0 -0.0043286081000293896 0.01994037510670723 0 -0.0043138125025866348 0.019851245962921659 0 -0.0042879172650633268 0.01998403979751761 0 -0.0043138125025866348 0.019851245962921659 0 -0.0043750108760075099 0.019790048390340841 0 -0.0043541385821399096 0.019633187289267794 0 -0.0042517858424113838 0.020052344177850907 0 -0.0041630110790106057 0.019942772122119576 0 -0.0042245162594781952 0.019840416351908547 0 -0.0043138125025866348 0.019851245962921659 0 -0.0042245162594781952 0.019840416351908547 0 -0.0042879172650633268 0.01998403979751761 0 -0.0042517858424113838 0.020052344177850907 0 -0.0042245162594781952 0.019840416351908547 0 -0.0042879172650633268 0.01998403979751761 0 -0.0043138125025866348 0.019851245962921659 0 -0.0042375393124414878 0.019602454343003679 0 -0.0043541385821399096 0.019633187289267794 0 -0.0043138125025866348 0.019851245962921659 0 -0.0042245162594781952 0.019840416351908547 0 -0.0042375393124414878 0.019602454343003679 0 -0.0040798875080626353 0.019766326742343149 0 -0.0042245162594781952 0.019840416351908547 0 -0.0042375393124414878 0.019602454343003679 0 -0.0042375393124414878 0.019602454343003679 0 -0.0043541385821399096 0.019633187289267794 0 -0.0043643248149308035 0.019426249215744294 0 -0.0042375393124414878 0.019602454343003679 0 -0.0043643248149308035 0.019426249215744294 0 -0.0042830562090137815 0.019377220860615833 0 -0.0041599605879944013 0.019405981115466393 0 -0.0042375393124414878 0.019602454343003679 0 -0.0042830562090137815 0.019377220860615833 0 -0.0043750108760075099 0.019790048390340841 0 -0.0043541385821399096 0.019633187289267794 0 -0.0045039077339225665 0.019494770261706273 0 -0.0043541385821399096 0.019633187289267794 0 -0.0043643248149308035 0.019426249215744294 0 -0.0045039077339225665 0.019494770261706273 0 0.0037368937974314015 0.001991335255309909 0 0.0037737933288709657 0.0017659163434407005 0 0.0018318837458980463 0.0037695855088553118 0 0.00040892402941328151 0.0090320439606688119 0 -0.00091213205460730985 0.01145787441134175 0 0.0041336085045142147 0.0016446245609887525 0 0.0037737933288709657 0.0017659163434407005 0 0.0040770359299959541 0.0018383220399691227 0 -0.0043643248149308035 0.019426249215744294 0 -0.0045039077339225665 0.019494770261706273 0 -0.0043771708436505866 0.019231838845703484 0 0.00040892402941328151 0.0090320439606688119 0 0.0042734441399868012 -0.00061514692855094599 0 -0.0043643248149308035 0.019426249215744294 0 -0.0043771708436505866 0.019231838845703484 0 -0.0043286175506015261 0.019317737156506781 0 0.0037368937974314015 0.001991335255309909 0 0.0040200040571277242 0.0020672359437510766 0 0.0036526180177327713 0.0024602304474068684 0 0.0037368937974314015 0.001991335255309909 0 0.0037737933288709657 0.0017659163434407005 0 0.0040200040571277242 0.0020672359437510766 0 0.0040200040571277242 0.0020672359437510766 0 0.0040770359299959541 0.0018383220399691227 0 0.0046212951318272428 0.0022378877390956376 0 0.0037737933288709657 0.0017659163434407005 0 0.0040200040571277242 0.0020672359437510766 0 0.0040770359299959541 0.0018383220399691227 0 -0.0043771708436505866 0.019231838845703484 0 -0.0042950717597105403 0.019240654838244289 0 -0.0042853009592818446 0.019028157417780224 0 -0.0041599605879944013 0.019405981115466393 0 -0.0042830562090137815 0.019377220860615833 0 -0.0042250243119674614 0.019238083714617996 0 -0.0043643248149308035 0.019426249215744294 0 -0.0042830562090137815 0.019377220860615833 0 -0.0043286175506015261 0.019317737156506781 0 -0.0042830562090137815 0.019377220860615833 0 -0.0043286175506015261 0.019317737156506781 0 -0.0042950717597105403 0.019240654838244289 0 -0.0042830562090137815 0.019377220860615833 0 -0.0042950717597105403 0.019240654838244289 0 -0.0042250243119674614 0.019238083714617996 0 -0.0043771708436505866 0.019231838845703484 0 -0.0043286175506015261 0.019317737156506781 0 -0.0042950717597105403 0.019240654838244289 0 -0.0042950717597105403 0.019240654838244289 0 -0.0042250243119674614 0.019238083714617996 0 -0.0042853009592818446 0.019028157417780224 0 -0.00091213205460730985 0.01145787441134175 0 0.00030067306396831263 0.0073285988171204403 0 -0.0042049781182143375 0.019128463521776749 0 -0.0042250243119674614 0.019238083714617996 0 -0.0042853009592818446 0.019028157417780224 0 0.0043407637408593496 0.00092597644387193943 0 0.00030067306396831263 0.0073285988171204403 0 0.0024388085008523767 0.0027580785225010764 0 0.0036544435299806716 0.0031970185600880166 0 0.0025951665725002654 0.0042817231579846552 0 -0.0042049781182143375 0.019128463521776749 0 -0.004227507311690186 0.019019421823988528 0 -0.0042853009592818446 0.019028157417780224 0 0.0042261486689647264 0.0024887667641456824 0 0.0048041167082036743 0.0030247126024592042 0 0.0046212951318272428 0.0022378877390956376 0 0.0040200040571277242 0.0020672359437510766 0 0.0042261486689647264 0.0024887667641456824 0 0.0046212951318272428 0.0022378877390956376 0 0.0042261486689647264 0.0024887667641456824 0 0.0036526180177327713 0.0024602304474068684 0 0.0036544435299806716 0.0031970185600880166 0 0.0040200040571277242 0.0020672359437510766 0 0.0042261486689647264 0.0024887667641456824 0 0.0036526180177327713 0.0024602304474068684 0 0.0037368937974314015 0.001991335255309909 0 0.0024388085008523767 0.0027580785225010764 0 0.0036526180177327713 0.0024602304474068684 0 0.0024388085008523767 0.0027580785225010764 0 0.0036526180177327713 0.0024602304474068684 0 0.0036544435299806716 0.0031970185600880166 0 0.0042261486689647264 0.0024887667641456824 0 0.0036544435299806716 0.0031970185600880166 0 0.0048041167082036743 0.0030247126024592042 0 0.0052487666543414276 0.0027937884650133271 0 0.0046212951318272428 0.0022378877390956376 0 0.0049448455187610773 0.002180307443665621 0 0.0048041167082036743 0.0030247126024592042 0 0.0052487666543414276 0.0027937884650133271 0 0.0046212951318272428 0.0022378877390956376 0 0.0046212951318272428 0.0022378877390956376 0 0.0044919502839954632 0.0016173938585846617 0 0.0049448455187610773 0.002180307443665621 0 0.0040770359299959541 0.0018383220399691227 0 0.0046212951318272428 0.0022378877390956376 0 0.0044919502839954632 0.0016173938585846617 0 0.0040147898431230076 0.0012594687184353409 0 0.0040770359299959541 0.0018383220399691227 0 0.0044919502839954632 0.0016173938585846617 0 0.0047138204381365432 0.0012879546921982811 0 0.0049448455187610773 0.002180307443665621 0 0.0050408295596786248 0.0017033219730927848 0 0.0047138204381365432 0.0012879546921982811 0 0.0044919502839954632 0.0016173938585846617 0 0.0049448455187610773 0.002180307443665621 0 0.0049448455187610773 0.002180307443665621 0 0.0050175545933588452 0.0022623285214735884 0 0.0051143571910032019 0.0026654800051798869 0 0.0052487666543414276 0.0027937884650133271 0 0.0049448455187610773 0.002180307443665621 0 0.0051143571910032019 0.0026654800051798869 0 0.0050175545933588452 0.0022623285214735884 0 0.0052755479667625027 0.0022148493229447661 0 0.0050408295596786248 0.0017033219730927848 0 0.0050175545933588452 0.0022623285214735884 0 0.0052755479667625027 0.0022148493229447661 0 0.0048800341243868933 0.0023621487618566547 0 0.0050175545933588452 0.0022623285214735884 0 0.0048800341243868933 0.0023621487618566547 0 0.0051143571910032019 0.0026654800051798869 0 0.0056652809126079198 -0.0056757823025558535 0 0.0054957113215918377 -0.003398271411180515 0 0.0041077556608686856 -0.004369149275103807 0 0.0055598312656994844 -0.0018876331766768668 0 0.0053988061621016974 -0.0011440361817524791 0 0.0052755479667625027 0.0022148493229447661 0 0.0050408295596786248 0.0017033219730927848 0 0.0055478276906518404 0.0010436787638874007 0 0.0049448455187610773 0.002180307443665621 0 0.0050175545933588452 0.0022623285214735884 0 0.0050408295596786248 0.0017033219730927848 0 0.0047138204381365432 0.0012879546921982811 0 0.0050408295596786248 0.0017033219730927848 0 0.0048155833326677605 0.00071252427585635162 0 0.0048155833326677605 0.00071252427585635162 0 0.0055478276906518404 0.0010436787638874007 0 0.0049907918571112436 0.00035074680479067245 0 0.0050408295596786248 0.0017033219730927848 0 0.0048155833326677605 0.00071252427585635162 0 0.0055478276906518404 0.0010436787638874007 0 0.0055478276906518404 0.0010436787638874007 0 0.0048664614285950526 -0.0001154050782702251 0 0.0049907918571112436 0.00035074680479067245 0 0.0055478276906518404 0.0010436787638874007 0 0.0048664614285950526 -0.0001154050782702251 0 0.0046124219404081804 -0.00087048887752936535 0 0.0054957113215918377 -0.003398271411180515 0 0.0046124219404081804 -0.00087048887752936535 0 0.0044760676244442891 -0.0011045221697843514 0 0.0054957113215918377 -0.003398271411180515 0 0.0044760676244442891 -0.0011045221697843514 0 0.0043881540912171016 -0.0022107975211110818 0 0.0053988061621016974 -0.0011440361817524791 0 0.0047993752219620952 -0.00085897561153150902 0 0.0048664614285950526 -0.0001154050782702251 0 0.0048178507039333225 -0.00020111701961855735 0 0.00476228059499914 -0.00042928074706547956 0 0.0048664614285950526 -0.0001154050782702251 0 0.0046124219404081804 -0.00087048887752936535 0 0.00476228059499914 -0.00042928074706547956 0 0.0048178507039333225 -0.00020111701961855735 0 0.0048489846516904514 0.00012654784432995108 0 0.0048254834381728949 5.7671569378961155e-06 0 0.0048664614285950526 -0.0001154050782702251 0 0.0048178507039333225 -0.00020111701961855735 0 0.0048489846516904514 0.00012654784432995108 0 0.0048489846516904514 0.00012654784432995108 0 0.0047602363876112349 0.00027477322540984576 0 0.0048254834381728949 5.7671569378961155e-06 0 0.0048155833326677605 0.00071252427585635162 0 0.0048489846516904514 0.00012654784432995108 0 0.0047602363876112349 0.00027477322540984576 0 0.0048155833326677605 0.00071252427585635162 0 0.0049907918571112436 0.00035074680479067245 0 0.0048489846516904514 0.00012654784432995108 0 0.0048664614285950526 -0.0001154050782702251 0 0.0049907918571112436 0.00035074680479067245 0 0.0048489846516904514 0.00012654784432995108 0 0.0027732407702945874 -0.0043671708512674004 0 0.0036281010029627918 -0.0028037718755313484 0 0.0038218347764438923 -0.0025368518542298363 0 0.0026074163232561133 -0.0033980960812076745 0 0.0038933037589430246 -0.0014791685457335696 0 0.0028403877430801814 -0.0052840433661869319 0 0.0028096590578594923 -0.0044770831872872072 0 0.0034718077908602735 -0.004021012427535095 0 0.0041223358008431943 -0.001593741325754123 0 0.0040673563894763169 -0.0019693931100050249 0 0.0038933037589430246 -0.0014791685457335696 0 0.0040673563894763169 -0.0019693931100050249 0 0.0038218347764438923 -0.0025368518542298363 0 0.0038933037589430246 -0.0014791685457335696 0 0.0041223358008431943 -0.001593741325754123 0 0.0042525653945175964 -0.0016239373363334589 0 0.0040673563894763169 -0.0019693931100050249 0 0.0044760676244442891 -0.0011045221697843514 0 0.0042525653945175964 -0.0016239373363334589 0 0.0043881540912171016 -0.0022107975211110818 0 0.0044760676244442891 -0.0011045221697843514 0 0.0042331574949384387 -0.0014486458742307637 0 0.0042525653945175964 -0.0016239373363334589 0 0.0041223358008431943 -0.001593741325754123 0 0.0042331574949384387 -0.0014486458742307637 0 0.0042525653945175964 -0.0016239373363334589 0 0.0042525653945175964 -0.0016239373363334589 0 0.0043881540912171016 -0.0022107975211110818 0 0.0040673563894763169 -0.0019693931100050249 0 0.0043881540912171016 -0.0022107975211110818 0 0.0040673563894763169 -0.0019693931100050249 0 0.0038218347764438923 -0.0025368518542298363 0 0.0043881540912171016 -0.0022107975211110818 0 0.0038218347764438923 -0.0025368518542298363 0 0.0042640473180281264 -0.0031898020115908197 0 0.0054957113215918377 -0.003398271411180515 0 0.0042640473180281264 -0.0031898020115908197 0 0.0041077556608686856 -0.004369149275103807 0 0.0038218347764438923 -0.0025368518542298363 0 0.0042640473180281264 -0.0031898020115908197 0 0.0036462270599938551 -0.0035486377506042648 0 0.0054957113215918377 -0.003398271411180515 0 0.0043881540912171016 -0.0022107975211110818 0 0.0042640473180281264 -0.0031898020115908197 0 0.0042640473180281264 -0.0031898020115908197 0 0.0036462270599938551 -0.0035486377506042648 0 0.0041077556608686856 -0.004369149275103807 0 0.0036462270599938551 -0.0035486377506042648 0 0.0026074163232561133 -0.0033980960812076745 0 0.0032871190021319867 -0.0040985556209554175 0 0.0038218347764438923 -0.0025368518542298363 0 0.0036462270599938551 -0.0035486377506042648 0 0.0026074163232561133 -0.0033980960812076745 0 0.0026074163232561133 -0.0033980960812076745 0 0.0029663422238253197 -0.0050077555279589066 0 0.0022807788395173972 -0.0062972821917803359 0 0.0029663422238253197 -0.0050077555279589066 0 0.0041077556608686856 -0.004369149275103807 0 0.0039823915050005406 -0.0058150711742773397 0 0.0026074163232561133 -0.0033980960812076745 0 0.0032871190021319867 -0.0040985556209554175 0 0.0029663422238253197 -0.0050077555279589066 0 0.0032871190021319867 -0.0040985556209554175 0 0.0029663422238253197 -0.0050077555279589066 0 0.0041077556608686856 -0.004369149275103807 0 0.0036462270599938551 -0.0035486377506042648 0 0.0032871190021319867 -0.0040985556209554175 0 0.0041077556608686856 -0.004369149275103807 0 0.0056652809126079198 -0.0056757823025558535 0 0.0041077556608686856 -0.004369149275103807 0 0.0039823915050005406 -0.0058150711742773397 0 0.0039823915050005406 -0.0058150711742773397 0 0.0030357620898983405 -0.0068941305848662345 0 0.0042099376703817696 -0.007060430486597759 0 0.0056652809126079198 -0.0056757823025558535 0 0.0039823915050005406 -0.0058150711742773397 0 0.0042099376703817696 -0.007060430486597759 0 0.0029663422238253197 -0.0050077555279589066 0 0.0022807788395173972 -0.0062972821917803359 0 0.0030357620898983405 -0.0068941305848662345 0 0.0029663422238253197 -0.0050077555279589066 0 0.0039823915050005406 -0.0058150711742773397 0 0.0030357620898983405 -0.0068941305848662345 0 0.0022807788395173972 -0.0062972821917803359 0 0.0014443831169582923 -0.0062292728185570313 0 0.0020425507226520755 -0.0059182460870541246 0 0.0022807788395173972 -0.0062972821917803359 0 0.0014443831169582923 -0.0062292728185570313 0 0.0020021978953919388 -0.0072848154858888804 0 0.0022807788395173972 -0.0062972821917803359 0 0.0020021978953919388 -0.0072848154858888804 0 0.0030357620898983405 -0.0068941305848662345 0 0.0014443831169582923 -0.0062292728185570313 0 0.0020425507226520755 -0.0059182460870541246 0 0.0019723696331073993 -0.0054164148553314043 0 0.0020425507226520755 -0.0059182460870541246 0 0.0022068595606346878 -0.0055660468731472488 0 0.0019723696331073993 -0.0054164148553314043 0 0.0014860969405957804 -0.0077503601050920579 0 0.0020090189092812675 -0.0071301284230081011 0 0.0014415604149170416 -0.0092595731530167435 0 0.0015723456641218018 -0.0091635122249275145 0 0.0020845433138184165 -0.0088722296102476325 0 0.0025399347526456778 -0.0055818903044796567 0 0.0020425507226520755 -0.0059182460870541246 0 0.0022068595606346878 -0.0055660468731472488 0 0.0022807788395173972 -0.0062972821917803359 0 0.0025399347526456778 -0.0055818903044796567 0 0.0020425507226520755 -0.0059182460870541246 0 0.0028403877430801814 -0.0052840433661869319 0 0.0022807788395173972 -0.0062972821917803359 0 0.0025399347526456778 -0.0055818903044796567 0 0.0027732407702945874 -0.0043671708512674004 0 0.0022905533918986501 -0.0061578724723062427 0 0.0013373951928106363 -0.0093522885719061789 0 0.0012251201959172326 -0.0092115418538798351 0 0.0013428977655021957 -0.0089281571252303581 0 0.0010132260467046214 -0.0098694334073579342 0 0.0013373951928106363 -0.0093522885719061789 0 0.0012251201959172326 -0.0092115418538798351 0 0.0014415604149170416 -0.0092595731530167435 0 0.0013373951928106363 -0.0093522885719061789 0 0.0014322359317281578 -0.0089117492584274306 0 0.0013373951928106363 -0.0093522885719061789 0 0.0014322359317281578 -0.0089117492584274306 0 0.0013428977655021957 -0.0089281571252303581 0 0.0014415604149170416 -0.0092595731530167435 0 0.0013373951928106363 -0.0093522885719061789 0 0.0015723456641218018 -0.0091635122249275145 0 0.0013373951928106363 -0.0093522885719061789 0 0.0015723456641218018 -0.0091635122249275145 0 0.0012332475449068924 -0.0089213320048075768 0 0.0010132260467046214 -0.0098694334073579342 0 0.0013373951928106363 -0.0093522885719061789 0 0.0012332475449068924 -0.0089213320048075768 0 0.0015723456641218018 -0.0091635122249275145 0 0.0012332475449068924 -0.0089213320048075768 0 0.0020845433138184165 -0.0088722296102476325 0 0.0012332475449068924 -0.0089213320048075768 0 0.0014482294628494271 -0.0076874260889426864 0 0.0020845433138184165 -0.0088722296102476325 0 0.0014482294628494271 -0.0076874260889426864 0 0.0020845433138184165 -0.0088722296102476325 0 0.0025207042302819796 -0.007269493718825612 0 0.0012332475449068924 -0.0089213320048075768 0 0.0014482294628494271 -0.0076874260889426864 0 0.00048222471994608502 -0.0072989923111323263 0 0.0028403877430801814 -0.0052840433661869319 0 0.0025399347526456778 -0.0055818903044796567 0 0.0028096590578594923 -0.0044770831872872072 0 0.0025399347526456778 -0.0055818903044796567 0 0.0023182057567917216 -0.0053845051724708366 0 0.0025494313876371962 -0.0052081184986808981 0 0.0025640651713550928 -0.0055520735549681446 0 0.0026934971915191811 -0.0048607047124257976 0 0.0025399347526456778 -0.0055818903044796567 0 0.0023182057567917216 -0.0053845051724708366 0 0.0022068595606346878 -0.0055660468731472488 0 0.0023182057567917216 -0.0053845051724708366 0 0.0022068595606346878 -0.0055660468731472488 0 0.0019723696331073993 -0.0054164148553314043 0 0.0023182057567917216 -0.0053845051724708366 0 0.0019723696331073993 -0.0054164148553314043 0 0.0023361062826699175 -0.0052236401507022769 0 0.0019723696331073993 -0.0054164148553314043 0 0.0023361062826699175 -0.0052236401507022769 0 0.0022666055975473351 -0.0050947902904620902 0 0.0020090189092812675 -0.0071301284230081011 0 0.0023493375482967829 -0.0061549774843875464 0 0.0023361062826699175 -0.0052236401507022769 0 0.0025361675712709669 -0.0050563077599629115 0 0.0022666055975473351 -0.0050947902904620902 0 0.0023361062826699175 -0.0052236401507022769 0 0.0025494313876371962 -0.0052081184986808981 0 0.0025361675712709669 -0.0050563077599629115 0 0.0023182057567917216 -0.0053845051724708366 0 0.0023361062826699175 -0.0052236401507022769 0 0.0025494313876371962 -0.0052081184986808981 0 0.0026934971915191811 -0.0048607047124257976 0 0.0029613258315325944 -0.0041048456207874746 0 0.0025494313876371962 -0.0052081184986808981 0 0.0025361675712709669 -0.0050563077599629115 0 0.0028737328079328091 -0.004839382027008148 0 0.0025361675712709669 -0.0050563077599629115 0 0.0022666055975473351 -0.0050947902904620902 0 0.002274778402614763 -0.0047949472198937628 0 0.0023493375482967829 -0.0061549774843875464 0 0.0023023986795419941 -0.0048927524769222649 0 0.0029613258315325944 -0.0041048456207874746 0 0.003083219200541542 -0.0034641226442309304 0 0.0025361675712709669 -0.0050563077599629115 0 0.002274778402614763 -0.0047949472198937628 0 0.0028737328079328091 -0.004839382027008148 0 0.002274778402614763 -0.0047949472198937628 0 0.0028737328079328091 -0.004839382027008148 0 0.003104892403903753 -0.0034333586866019923 0 0.0014482294628494271 -0.0076874260889426864 0 0.00048222471994608502 -0.0072989923111323263 0 0.0012207244025914973 -0.0055866223813524629 0 0.0014482294628494271 -0.0076874260889426864 0 0.0025207042302819796 -0.007269493718825612 0 0.0012207244025914973 -0.0055866223813524629 0 0.0025207042302819796 -0.007269493718825612 0 0.002274778402614763 -0.0047949472198937628 0 0.0012207244025914973 -0.0055866223813524629 0 -3.5534635371562752e-05 -0.0049838010171509789 0 0.0012207244025914973 -0.0055866223813524629 0 0.00063451032899902271 -0.0041628630658742073 0 -3.5534635371562752e-05 -0.0049838010171509789 0 0.00048222471994608502 -0.0072989923111323263 0 0.0012207244025914973 -0.0055866223813524629 0 0.0012207244025914973 -0.0055866223813524629 0 0.00063451032899902271 -0.0041628630658742073 0 0.001467481714477778 -0.0037803763265829016 0 0.002274778402614763 -0.0047949472198937628 0 0.0012207244025914973 -0.0055866223813524629 0 0.001467481714477778 -0.0037803763265829016 0 0.0010635202820678197 -0.0027393448196128749 0 0.001467481714477778 -0.0037803763265829016 0 0.0020671261630041847 -0.0030130215356256695 0 0.0010635202820678197 -0.0027393448196128749 0 0.001467481714477778 -0.0037803763265829016 0 0.00068165200376061501 -0.0033440463562569743 0 0.00063451032899902271 -0.0041628630658742073 0 0.001467481714477778 -0.0037803763265829016 0 0.00068165200376061501 -0.0033440463562569743 0 -2.0456932979207603e-06 -0.0034382623215754413 0 0.0004697167539791518 -0.0027952000809338853 0 0.00068165200376061501 -0.0033440463562569743 0 -2.0456932979207603e-06 -0.0034382623215754413 0 0.00063451032899902271 -0.0041628630658742073 0 0.00068165200376061501 -0.0033440463562569743 0 0.002274778402614763 -0.0047949472198937628 0 0.003104892403903753 -0.0034333586866019923 0 0.0023860474305839935 -0.0035567999617313723 0 0.002274778402614763 -0.0047949472198937628 0 0.001467481714477778 -0.0037803763265829016 0 0.0023860474305839935 -0.0035567999617313723 0 0.001467481714477778 -0.0037803763265829016 0 0.0020671261630041847 -0.0030130215356256695 0 0.0023860474305839935 -0.0035567999617313723 0 0.0020671261630041847 -0.0030130215356256695 0 0.0023860474305839935 -0.0035567999617313723 0 0.0027409965722567753 -0.0030320494691660391 0 0.003104892403903753 -0.0034333586866019923 0 0.0027409965722567753 -0.0030320494691660391 0 0.0033235637888248053 -0.0030567057710126026 0 0.003104892403903753 -0.0034333586866019923 0 0.0023860474305839935 -0.0035567999617313723 0 0.0027409965722567753 -0.0030320494691660391 0 0.0029972419998748959 -0.0026545888593138725 0 0.0027409965722567753 -0.0030320494691660391 0 0.0033235637888248053 -0.0030567057710126026 0 0.003104892403903753 -0.0034333586866019923 0 0.0033235637888248053 -0.0030567057710126026 0 0.0037389171451824499 -0.002920819717000808 0 0.0033235637888248053 -0.0030567057710126026 0 0.0035142983594498756 -0.0029560695754672394 0 0.0037389171451824499 -0.002920819717000808 0 0.0035142983594498756 -0.0029560695754672394 0 0.0034920389878435798 -0.0027990524874743055 0 0.0037389171451824499 -0.002920819717000808 0 0.0034450376223565094 -0.0028295253095279886 0 0.0033235637888248053 -0.0030567057710126026 0 0.0035142983594498756 -0.0029560695754672394 0 0.0034450376223565094 -0.0028295253095279886 0 0.0035142983594498756 -0.0029560695754672394 0 0.0034955702083003929 -0.0029454072956776422 0 0.0035142983594498756 -0.0029560695754672394 0 0.0034955702083003929 -0.0029454072956776422 0 0.0034920389878435798 -0.0027990524874743055 0 0.0017591245646032883 0.0038821660749571471 0 -0.00033862663648115648 0.0047997431271205775 0 0.0011307641778134884 0.0052093019523009 0 -0.00033862663648115648 0.0047997431271205775 0 0.0011307641778134884 0.0052093019523009 0 0.0010315923857018787 0.0073345773612582084 0 0.0024508197877116974 0.005170497723174336 0 0.0011307641778134884 0.0052093019523009 0 0.0010315923857018787 0.0073345773612582084 0 0.0035183551684855974 0.00014262043196219042 0 0.0011083826783922326 0.0064839741252055612 0 -0.0010453362411578183 0.011840295874348159 0 0.0011083826783922326 0.0064839741252055612 0 0.0017591245646032883 0.0038821660749571471 0 0.0024508197877116974 0.005170497723174336 0 0.0011307641778134884 0.0052093019523009 0 0.0034955702083003929 -0.0029454072956776422 0 0.0031745438955723695 -0.0027557229570130239 0 0.0034920389878435798 -0.0027990524874743055 0 0.0034920389878435798 -0.0027990524874743055 0 0.003299405753406333 -0.0022445268392429973 0 0.0038286147975665468 -0.00218359165101726 0 0.0031745438955723695 -0.0027557229570130239 0 0.0034920389878435798 -0.0027990524874743055 0 0.003299405753406333 -0.0022445268392429973 0 0.0011083826783922326 0.0064839741252055612 0 0.0039895210695526451 -0.0022997278633131069 0 0.0047858896708182601 0.00014046851110262817 0 0.0047370757436598259 0.00038919492644874345 0 0.004760907105921702 0.00027214697817932109 0 -0.00042115521872171353 0.0090141864205951199 0 0.0011083826783922326 0.0064839741252055612 0 0.0047858896708182601 0.00014046851110262817 0 0.004760907105921702 0.00027214697817932109 0 0.0048255068953977024 7.0594669850951476e-05 0 0.0047858896708182601 0.00014046851110262817 0 0.0048255068953977024 7.0594669850951476e-05 0 0.0047764176616737009 0.00013649237116043522 0 0.004760907105921702 0.00027214697817932109 0 0.0048255068953977024 7.0594669850951476e-05 0 0.0048172483832781346 -0.00013842316492024165 0 0.0048178507039333225 -0.00020111701961855735 0 0.0048254834381728949 5.7671569378961155e-06 0 0.0048172483832781346 -0.00013842316492024165 0 0.0048255068953977024 7.0594669850951476e-05 0 0.0048254834381728949 5.7671569378961155e-06 0 0.0048172483832781346 -0.00013842316492024165 0 0.0047602363876112349 0.00027477322540984576 0 0.0048254834381728949 5.7671569378961155e-06 0 0.0047764176616737009 0.00013649237116043522 0 0.0048255068953977024 7.0594669850951476e-05 0 0.0048254834381728949 5.7671569378961155e-06 0 0.0047764176616737009 0.00013649237116043522 0 0.0045163342762896633 -0.00060912974769014973 0 0.0039895210695526451 -0.0022997278633131069 0 0.0046124219404081804 -0.00087048887752936535 0 0.004760907105921702 0.00027214697817932109 0 0.0048172483832781346 -0.00013842316492024165 0 0.003299405753406333 -0.0022445268392429973 0 0.0041157251135592104 -0.0016049144635818455 0 0.0038286147975665468 -0.00218359165101726 0 0.0044760676244442891 -0.0011045221697843514 0 0.003299405753406333 -0.0022445268392429973 0 0.0041157251135592104 -0.0016049144635818455 0 0.0046124219404081804 -0.00087048887752936535 0 0.0044760676244442891 -0.0011045221697843514 0 0.004760907105921702 0.00027214697817932109 0 0.0046124219404081804 -0.00087048887752936535 0 0.0048172483832781346 -0.00013842316492024165 0 0.00476228059499914 -0.00042928074706547956 0 0.0048178507039333225 -0.00020111701961855735 0 0.0048172483832781346 -0.00013842316492024165 0 0.00476228059499914 -0.00042928074706547956 0 0.0041157251135592104 -0.0016049144635818455 0 0.0038933037589430246 -0.0014791685457335696 0 0.0038286147975665468 -0.00218359165101726 0 0.0041223358008431943 -0.001593741325754123 0 0.0041157251135592104 -0.0016049144635818455 0 0.0038933037589430246 -0.0014791685457335696 0 0.0044760676244442891 -0.0011045221697843514 0 0.0042331574949384387 -0.0014486458742307637 0 0.0041157251135592104 -0.0016049144635818455 0 0.0041223358008431943 -0.001593741325754123 0 0.0042331574949384387 -0.0014486458742307637 0 0.0041157251135592104 -0.0016049144635818455 0 0.0036281010029627918 -0.0028037718755313484 0 0.0037393746624260313 -0.002900664403540679 0 0.0028096590578594923 -0.0044770831872872072 0 0.0030792800080212596 -0.0034074641615677178 0 0.0034718077908602735 -0.004021012427535095 0 0.0030792800080212596 -0.0034074641615677178 0 0.003104892403903753 -0.0034333586866019923 0 0.0037389171451824499 -0.002920819717000808 0 0.0030792800080212596 -0.0034074641615677178 0 0.0034718077908602735 -0.004021012427535095 0 0.0037389171451824499 -0.002920819717000808 0 0.0038933037589430246 -0.0014791685457335696 0 0.0037389171451824499 -0.002920819717000808 0 0.0038286147975665468 -0.00218359165101726 0 0.0034920389878435798 -0.0027990524874743055 0 0.0037389171451824499 -0.002920819717000808 0 0.0038286147975665468 -0.00218359165101726 0 -3.1804738125145263e-05 0.034989832893652838 0 -1.9534555497231191e-05 0.035000672037772969 0 -1.2538173044511477e-05 0.034988059240141429 0 -6.0176456827325542e-05 0.033600269898544644 0 9.7359117827353425e-05 0.034542220503000709 0 -3.4905455963483589e-05 0.033669623716969493 0 -0.00012307049935017446 0.033555899020869646 0 -1.7076062226372862e-05 0.033514308795040942 0 9.7359117827353425e-05 0.034542220503000709 0 6.4788336116572643e-06 0.032511853350311912 0 -6.0176456827325542e-05 0.033600269898544644 0 6.4788336116572643e-06 0.032511853350311912 0 -1.9534555497231191e-05 0.035000672037772969 0 1.1206719787359589e-08 0.035000013582619914 0 -1.2538173044511477e-05 0.034988059240141429 0 1.7536851302224915e-06 0.034997220838103721 0 6.3817396951786287e-10 0.034999998701851026 0 1.1592365757200152e-09 0.034999998231076024 0 9.7359117827353425e-05 0.034542220503000709 0 -2.6581500394138094e-07 0.03500022190368722 0 -1.2538173044511477e-05 0.034988059240141429 0 -3.0691352894058669e-05 0.03495457801157751 0 -4.1537303361413339e-08 0.034999934636420323 0 1.1206719787359589e-08 0.035000013582619914 0 -1.2538173044511477e-05 0.034988059240141429 0 -4.1537303361413339e-08 0.034999934636420323 0 -3.1804738125145263e-05 0.034989832893652838 0 -1.2538173044511477e-05 0.034988059240141429 0 -3.0691352894058669e-05 0.03495457801157751 0 -6.0176456827325542e-05 0.033600269898544644 0 -6.311416694265247e-05 0.035455515672183212 0 -6.0176456827325542e-05 0.033600269898544644 0 -0.00015714742210832662 0.030926365041533756 0 -8.44239238026348e-05 0.030634859189289623 0 -0.00019415746885909514 0.030640123447456251 0 -0.00020676626491627101 0.030469798621899538 0 -2.5647872294868539e-05 0.03484831746093274 0 1.9637073813190554e-05 0.034930508960088064 0 -3.0691352894058669e-05 0.03495457801157751 0 -0.0022641691514175845 0.026251281829338252 0 -0.0022623637839180913 0.026272195149647491 0 -0.0023274909957809757 0.026318508762033621 0 -0.00019415746885909514 0.030640123447456251 0 -0.00031797588523000997 0.030589990356645357 0 -0.00020676626491627101 0.030469798621899538 0 -0.0013102747187878378 0.028261555493592293 0 -0.00015714742210832662 0.030926365041533756 0 -0.00019415746885909514 0.030640123447456251 0 -0.00028615729909213874 0.030694160626506282 0 -0.00031797588523000997 0.030589990356645357 0 -0.00019415746885909514 0.030640123447456251 0 -0.0001818624211878239 0.030742593891725144 0 -0.00028615729909213874 0.030694160626506282 0 -8.44239238026348e-05 0.030634859189289623 0 -0.00019415746885909514 0.030640123447456251 0 -9.3796967114850274e-05 0.030723252252107473 0 -0.00019415746885909514 0.030640123447456251 0 -0.0001818624211878239 0.030742593891725144 0 -9.3796967114850274e-05 0.030723252252107473 0 -0.0001818624211878239 0.030742593891725144 0 -9.97471255910593e-05 0.030897613209204519 0 -8.778726457748788e-05 0.030723018922420055 0 4.0408738717775451e-05 0.030917030144714232 0 6.4788336116572643e-06 0.032511853350311912 0 0.00030772454557807111 0.032895305756530449 0 6.4788336116572643e-06 0.032511853350311912 0 -0.0001818624211878239 0.030742593891725144 0 -0.00029894416102408679 0.030794106885460516 0 -0.00020441143204013985 0.030843465745003865 0 -0.0001818624211878239 0.030742593891725144 0 -0.00029894416102408679 0.030794106885460516 0 -0.00028615729909213874 0.030694160626506282 0 -0.00029894416102408679 0.030794106885460516 0 -0.00020441143204013985 0.030843465745003865 0 -0.0002599268640087678 0.030943990476269459 0 -0.00020441143204013985 0.030843465745003865 0 -0.00016837892109187471 0.030922651362817456 0 -0.0002599268640087678 0.030943990476269459 0 -0.0001818624211878239 0.030742593891725144 0 -0.00020441143204013985 0.030843465745003865 0 -9.97471255910593e-05 0.030897613209204519 0 -0.00020441143204013985 0.030843465745003865 0 -0.00016837892109187471 0.030922651362817456 0 -9.97471255910593e-05 0.030897613209204519 0 0.00068884015930793471 0.034602741864466706 0 0.00021277903600728373 0.03475540649880262 0 0.00015471541335471074 0.034070733010287686 0 0.00021277903600728373 0.03475540649880262 0 0.00040273298050935052 0.034938017659222123 0 0.00010329571968556084 0.035008378100368741 0 0.00068884015930793471 0.034602741864466706 0 0.00021277903600728373 0.03475540649880262 0 0.00040273298050935052 0.034938017659222123 0 0.00068884015930793471 0.034602741864466706 0 0.00040273298050935052 0.034938017659222123 0 0.00054897500333706895 0.035264251712829701 0 0.00040273298050935052 0.034938017659222123 0 0.00038377424646933884 0.035137769773655292 0 0.00010329571968556084 0.035008378100368741 0 9.7359117827353425e-05 0.034542220503000709 0 0.00010410829812068795 0.035083212528803247 0 0.00033049965431243864 0.035327678035824095 0 0.00038377424646933884 0.035137769773655292 0 0.00010329571968556084 0.035008378100368741 0 0.00040273298050935052 0.034938017659222123 0 0.00054897500333706895 0.035264251712829701 0 0.00038377424646933884 0.035137769773655292 0 0.00033049965431243864 0.035327678035824095 0 0.00054897500333706895 0.035264251712829701 0 0.00038377424646933884 0.035137769773655292 0 1.7536851302224915e-06 0.034997220838103721 0 1.1592365757200152e-09 0.034999998231076024 0 7.0746053310605867e-07 0.034999399394246858 0 1.1592365757200152e-09 0.034999998231076024 0 7.0746053310605867e-07 0.034999399394246858 0 -2.2576774311588682e-10 0.035000000472805354 0 0.00021277903600728373 0.03475540649880262 0 -4.3346865375661632e-07 0.034996804667773565 0 0.00015471541335471074 0.034070733010287686 0 0.00010410829812068795 0.035083212528803247 0 -3.9289113827367755e-08 0.034999911428659047 0 0.00021277903600728373 0.03475540649880262 0 0.00010329571968556084 0.035008378100368741 0 -4.3346865375661632e-07 0.034996804667773565 0 -4.3346865375661632e-07 0.034996804667773565 0 0.00010936099371869881 0.033739962541514373 0 1.7549174859502885e-07 0.034996920980135696 0 -4.3346865375661632e-07 0.034996804667773565 0 0.00015471541335471074 0.034070733010287686 0 0.00010936099371869881 0.033739962541514373 0 0.00068884015930793471 0.034602741864466706 0 0.00015471541335471074 0.034070733010287686 0 0.00080970328645683638 0.03377599596689921 0 0.00015471541335471074 0.034070733010287686 0 0.00054770231255182617 0.032406031455582157 0 0.00080970328645683638 0.03377599596689921 0 0.00015471541335471074 0.034070733010287686 0 0.00010936099371869881 0.033739962541514373 0 0.00054770231255182617 0.032406031455582157 0 0.00010936099371869881 0.033739962541514373 0 1.7549174859502885e-07 0.034996920980135696 0 0.00019688384013193013 0.03201222815359165 0 1.7549174859502885e-07 0.034996920980135696 0 7.4880095880904523e-07 0.030703268862520585 0 0.00019688384013193013 0.03201222815359165 0 7.4880095880904523e-07 0.030703268862520585 0 0.00019688384013193013 0.03201222815359165 0 0.00014014169396651919 0.030386263406722871 0 0.00019688384013193013 0.03201222815359165 0 0.00016826909224047369 0.03080934143284093 0 0.00014014169396651919 0.030386263406722871 0 0.00010936099371869881 0.033739962541514373 0 0.00019688384013193013 0.03201222815359165 0 0.00054770231255182617 0.032406031455582157 0 0.00019688384013193013 0.03201222815359165 0 0.00016826909224047369 0.03080934143284093 0 0.00054770231255182617 0.032406031455582157 0 0.00016826909224047369 0.03080934143284093 0 0.00054770231255182617 0.032406031455582157 0 0.00025732277468980996 0.031117419192289539 0 0.00029389355936436731 0.031986442891404593 0 -2.4460363186414726e-05 0.030729864000361807 0 -0.00016837892109187471 0.030922651362817456 0 -0.0001062642173149236 0.031008458018122617 0 -0.0002599268640087678 0.030943990476269459 0 0.00083816469175636288 0.030976548675677989 0 0.00025732277468980996 0.031117419192289539 0 -4.6112051647617439e-05 0.030330568536587253 0 0.00051258823997045368 0.032478822377736867 0 0.00029389355936436731 0.031986442891404593 0 0.00054770231255182617 0.032406031455582157 0 0.00083816469175636288 0.030976548675677989 0 0.00025732277468980996 0.031117419192289539 0 0.00030772454557807111 0.032895305756530449 0 0.00029389355936436731 0.031986442891404593 0 -0.00016837892109187471 0.030922651362817456 0 -9.97471255910593e-05 0.030897613209204519 0 -0.0001062642173149236 0.031008458018122617 0 0.00016826909224047369 0.03080934143284093 0 0.00025732277468980996 0.031117419192289539 0 -4.6112051647617439e-05 0.030330568536587253 0 0.00016826909224047369 0.03080934143284093 0 -4.6112051647617439e-05 0.030330568536587253 0 0.00035769525792355404 0.029410789348142809 0 -2.4460363186414726e-05 0.030729864000361807 0 -0.00028443280708368568 0.028550497651464956 0 -4.6112051647617439e-05 0.030330568536587253 0 0.00035769525792355404 0.029410789348142809 0 0.00062007879213042585 0.030297260700716297 0 0.00048841199755876618 0.029493839353342315 0 -0.00028443280708368568 0.028550497651464956 0 0.00035769525792355404 0.029410789348142809 0 -0.00011195604245239517 0.027967633804796041 0 0.0005130473546482373 0.027616624484973661 0 0.00035769525792355404 0.029410789348142809 0 -0.00011195604245239517 0.027967633804796041 0 -5.5634566564440324e-05 0.028855788676522283 0 0.00016826909224047369 0.03080934143284093 0 0.00035769525792355404 0.029410789348142809 0 0.00014014169396651919 0.030386263406722871 0 0.00035769525792355404 0.029410789348142809 0 0.00014014169396651919 0.030386263406722871 0 -5.5634566564440324e-05 0.028855788676522283 0 7.4880095880904523e-07 0.030703268862520585 0 -5.5634566564440324e-05 0.028855788676522283 0 -1.414273645280457e-06 0.027422134103515371 0 7.4880095880904523e-07 0.030703268862520585 0 0.00014014169396651919 0.030386263406722871 0 -5.5634566564440324e-05 0.028855788676522283 0 -5.5634566564440324e-05 0.028855788676522283 0 -1.414273645280457e-06 0.027422134103515371 0 -0.00035438028705516599 0.02731760216652988 0 -1.414273645280457e-06 0.027422134103515371 0 -0.00035438028705516599 0.02731760216652988 0 -0.00055566801106961272 0.026134539576124445 0 -0.00011195604245239517 0.027967633804796041 0 -5.5634566564440324e-05 0.028855788676522283 0 -0.00035438028705516599 0.02731760216652988 0 -0.00011195604245239517 0.027967633804796041 0 -0.00035438028705516599 0.02731760216652988 0 -0.00046009242253405603 0.026699362434731755 0 -0.00011195604245239517 0.027967633804796041 0 -0.00046009242253405603 0.026699362434731755 0 -0.00014813728599368615 0.026644736117093597 0 -0.00035438028705516599 0.02731760216652988 0 -0.00046009242253405603 0.026699362434731755 0 -0.0009196771531507186 0.025703213806044397 0 -0.00046009242253405603 0.026699362434731755 0 -0.00065586617886570682 0.025695632659436699 0 -0.0009196771531507186 0.025703213806044397 0 -0.0017037064227032677 0.024892412739791314 0 -0.0020609015465052742 0.025115252671199368 0 -0.0016276870811823762 0.025352416836626559 0 -0.0017037064227032677 0.024892412739791314 0 -0.0020609015465052742 0.025115252671199368 0 -0.0020698956982668458 0.024869919085971338 0 -0.0020609015465052742 0.025115252671199368 0 -0.0020698956982668458 0.024869919085971338 0 -0.0021287377943215095 0.02489725533986346 0 -0.00046009242253405603 0.026699362434731755 0 -0.00065586617886570682 0.025695632659436699 0 -0.00014813728599368615 0.026644736117093597 0 -0.0011663649561416986 0.02531974459694096 0 -0.0013444914904241715 0.025520765158916162 0 -0.0020698956982668458 0.024869919085971338 0 -0.0021287377943215095 0.02489725533986346 0 -0.0022572564217968249 0.024872412877524626 0 -0.00011195604245239517 0.027967633804796041 0 -0.00014813728599368615 0.026644736117093597 0 0.0005130473546482373 0.027616624484973661 0 -0.0013444914904241715 0.025520765158916162 0 -0.00028443280708368568 0.028550497651464956 0 -0.0021287377943215095 0.02489725533986346 0 -0.0022572564217968249 0.024872412877524626 0 -0.0022185751687551986 0.025055571993820247 0 -0.00029894416102408679 0.030794106885460516 0 -0.00040807565111047867 0.030875322709377141 0 -0.00044156037234807693 0.03070810325889246 0 -0.00028443280708368568 0.028550497651464956 0 -0.0020667467636277439 0.026927251486999128 0 -0.00029894416102408679 0.030794106885460516 0 -0.0002599268640087678 0.030943990476269459 0 -0.00040807565111047867 0.030875322709377141 0 -0.00029894416102408679 0.030794106885460516 0 -0.00028615729909213874 0.030694160626506282 0 -0.00044156037234807693 0.03070810325889246 0 -0.0020609015465052742 0.025115252671199368 0 -0.0021287377943215095 0.02489725533986346 0 -0.0023487755424172539 0.025100172794933387 0 -0.0018939015409616309 0.024540286343684013 0 -0.0020667467636277439 0.026927251486999128 0 -0.0020609015465052742 0.025115252671199368 0 -0.0023487755424172539 0.025100172794933387 0 -0.0023140051432072599 0.025563033268201477 0 -0.0020667467636277439 0.026927251486999128 0 -0.0023237680211496124 0.025621164479451654 0 -0.0022410243847789607 0.026240160405606276 0 -0.0022641691514175845 0.026251281829338252 0 -0.0022333692716251306 0.026242406159024945 0 -0.00028615729909213874 0.030694160626506282 0 -0.00044156037234807693 0.03070810325889246 0 -0.00031797588523000997 0.030589990356645357 0 -0.0020667467636277439 0.026927251486999128 0 -0.0013102747187878378 0.028261555493592293 0 -0.0022641691514175845 0.026251281829338252 0 -0.0022333692716251306 0.026242406159024945 0 -0.0022623637839180913 0.026272195149647491 0 -0.0023140051432072599 0.025563033268201477 0 -0.001908809904672542 0.02578193902983594 0 -0.0021675505226861013 0.026209347130005591 0 -0.0023140051432072599 0.025563033268201477 0 -0.001908809904672542 0.02578193902983594 0 -0.001978033182783679 0.02544437644099929 0 -0.001908809904672542 0.02578193902983594 0 -0.0016276870811823762 0.025352416836626559 0 -0.0014891707160630506 0.025981444170725829 0 -0.001908809904672542 0.02578193902983594 0 -0.0016276870811823762 0.025352416836626559 0 -0.001978033182783679 0.02544437644099929 0 -0.0020609015465052742 0.025115252671199368 0 -0.0023140051432072599 0.025563033268201477 0 -0.001978033182783679 0.02544437644099929 0 -0.0020609015465052742 0.025115252671199368 0 -0.0016276870811823762 0.025352416836626559 0 -0.001978033182783679 0.02544437644099929 0 -0.001465051544230432 0.025271511707615244 0 -0.0011969410668308739 0.024770114214691673 0 -0.0012621786033684137 0.024951873859800452 0 -0.0016276870811823762 0.025352416836626559 0 -0.001465051544230432 0.025271511707615244 0 -0.0012621786033684137 0.024951873859800452 0 -0.0016276870811823762 0.025352416836626559 0 -0.001465051544230432 0.025271511707615244 0 -0.0017316324036019254 0.02556841783740349 0 -0.0016368737618123492 0.025386812769848954 0 -0.0016109789875609656 0.025773406351816547 0 -0.001465051544230432 0.025271511707615244 0 -0.0012958487010889441 0.025367725129683907 0 -0.0014409238624308474 0.02565277093553027 0 -0.0012958487010889441 0.025367725129683907 0 -0.0012277639107457774 0.02543768783502575 0 -0.0013401429296147822 0.025588398147385158 0 -0.0011969410668308739 0.024770114214691673 0 -0.00085762174199088901 0.024122685704614514 0 -0.00077369174653815266 0.024101343828452648 0 -0.0012299169448722021 0.024722454974786104 0 -0.001065146681242693 0.024761827396073847 0 -0.0012958487010889441 0.025367725129683907 0 -0.0011969410668308739 0.024770114214691673 0 -0.0012277639107457774 0.02543768783502575 0 -0.001465051544230432 0.025271511707615244 0 -0.0012958487010889441 0.025367725129683907 0 -0.0011969410668308739 0.024770114214691673 0 -0.0011969410668308739 0.024770114214691673 0 -0.00085762174199088901 0.024122685704614514 0 -0.0012362028153997107 0.024626005410546846 0 -0.00085762174199088901 0.024122685704614514 0 -0.0012362028153997107 0.024626005410546846 0 -0.00078973241241656869 0.023684467052866174 0 -0.0012362028153997107 0.024626005410546846 0 -0.0011448533432290601 0.024864414497266195 0 -0.00078973241241656869 0.023684467052866174 0 -0.0012362028153997107 0.024626005410546846 0 -0.0009196771531507186 0.025703213806044397 0 -0.0011448533432290601 0.024864414497266195 0 -0.0012362028153997107 0.024626005410546846 0 -0.0012621786033684137 0.024951873859800452 0 -0.0009196771531507186 0.025703213806044397 0 -0.0011969410668308739 0.024770114214691673 0 -0.0012362028153997107 0.024626005410546846 0 -0.0012621786033684137 0.024951873859800452 0 -0.0011663649561416986 0.02531974459694096 0 -0.0013123152355511965 0.025007264491916658 0 -0.0017037064227032677 0.024892412739791314 0 -0.0016276870811823762 0.025352416836626559 0 -0.0012621786033684137 0.024951873859800452 0 -0.00065586617886570682 0.025695632659436699 0 -0.0012621786033684137 0.024951873859800452 0 -0.0009196771531507186 0.025703213806044397 0 -1.414273645280457e-06 0.027422134103515371 0 -0.00055566801106961272 0.026134539576124445 0 4.1549003158799066e-07 0.023017320198584237 0 -0.0009196771531507186 0.025703213806044397 0 -0.0011448533432290601 0.024864414497266195 0 -0.00055566801106961272 0.026134539576124445 0 -0.0011448533432290601 0.024864414497266195 0 -0.00055566801106961272 0.026134539576124445 0 -0.00016490076254142532 0.025525723410375421 0 -0.00035438028705516599 0.02731760216652988 0 -0.0009196771531507186 0.025703213806044397 0 -0.00055566801106961272 0.026134539576124445 0 -7.361709198167474e-07 0.023008301292314733 0 -0.00046438519865587505 0.022166255242339745 0 -7.9956871658897838e-07 0.021402085279439081 0 -1.9068534143547286e-07 0.023012329376051365 0 -0.00052106319985059223 0.02403063100765971 0 -0.00055566801106961272 0.026134539576124445 0 4.1549003158799066e-07 0.023017320198584237 0 -0.00016490076254142532 0.025525723410375421 0 -7.361709198167474e-07 0.023008301292314733 0 -0.00081597732477053095 0.022491310559961807 0 -0.00046438519865587505 0.022166255242339745 0 -0.00081597732477053095 0.022491310559961807 0 -0.00046438519865587505 0.022166255242339745 0 -0.00068110643213626872 0.02329207485434082 0 -0.00046438519865587505 0.022166255242339745 0 -0.00068110643213626872 0.02329207485434082 0 -0.00056686981121626767 0.022895549416032043 0 -0.0010445157449172524 0.024743540425972304 0 -0.00052106319985059223 0.02403063100765971 0 -0.0011448533432290601 0.024864414497266195 0 -0.00081597732477053095 0.022491310559961807 0 -0.00068110643213626872 0.02329207485434082 0 -0.0011448533432290601 0.024864414497266195 0 -0.00068110643213626872 0.02329207485434082 0 -0.00078973241241656869 0.023684467052866174 0 -0.00068110643213626872 0.02329207485434082 0 -0.00078973241241656869 0.023684467052866174 0 -0.00056686981121626767 0.022895549416032043 0 -0.00078973241241656869 0.023684467052866174 0 -0.00048008932110429192 0.022924449501530178 0 -0.00056686981121626767 0.022895549416032043 0 -0.00048008932110429192 0.022924449501530178 0 -0.00035936209100141659 0.022222183110411065 0 -0.00056686981121626767 0.022895549416032043 0 -0.00048008932110429192 0.022924449501530178 0 -0.00027554962370608205 0.02225737919248582 0 -0.00035936209100141659 0.022222183110411065 0 -0.00048008932110429192 0.022924449501530178 0 -0.00027554962370608205 0.02225737919248582 0 -0.00025222502813986334 0.02250472189761115 0 -0.00027554962370608205 0.02225737919248582 0 -0.00035936209100141659 0.022222183110411065 0 -0.00013271118485360265 0.021588580182152615 0 -0.00046438519865587505 0.022166255242339745 0 -0.00035936209100141659 0.022222183110411065 0 -0.00056686981121626767 0.022895549416032043 0 -0.00046438519865587505 0.022166255242339745 0 -0.00035936209100141659 0.022222183110411065 0 -0.00019933211410173805 0.021234008756039049 0 -0.00035936209100141659 0.022222183110411065 0 -0.00013271118485360265 0.021588580182152615 0 -0.00019933211410173805 0.021234008756039049 0 -0.00019933211410173805 0.021234008756039049 0 3.9603222671142039e-07 0.019794589729350234 0 0.00016939534728833627 0.020505825643550551 0 -0.00019933211410173805 0.021234008756039049 0 3.9603222671142039e-07 0.019794589729350234 0 -7.9956871658897838e-07 0.021402085279439081 0 -0.00046438519865587505 0.022166255242339745 0 -0.00019933211410173805 0.021234008756039049 0 -7.9956871658897838e-07 0.021402085279439081 0 -7.7627821361843808e-05 0.016800663233049608 0 5.3722607594944564e-07 0.018105999502005671 0 1.1406798833189839e-05 0.018085936293812031 0 0.00024193373781136038 0.020475372825725393 0 0.0003302218684459187 0.020379971654427235 0 0.00016939534728833627 0.020505825643550551 0 0.00024193373781136038 0.020475372825725393 0 0.00025095140553289033 0.020312158518855157 0 0.0003302218684459187 0.020379971654427235 0 0.00024193373781136038 0.020475372825725393 0 0.00025095140553289033 0.020312158518855157 0 0.00021667392919272175 0.020296017572633746 0 0.00022460790431646396 0.020157107856311991 0 0.00025095140553289033 0.020312158518855157 0 0.0003302218684459187 0.020379971654427235 0 0.00022460790431646396 0.020157107856311991 0 0.00025095140553289033 0.020312158518855157 0 0.00021667392919272175 0.020296017572633746 0 3.9603222671142039e-07 0.019794589729350234 0 0.0003302218684459187 0.020379971654427235 0 0.00016939534728833627 0.020505825643550551 0 -2.9036227896062967e-07 0.019790960130563272 0 3.8965821916200028e-05 0.019175546224020956 0 -1.727269769830603e-07 0.019790754698600942 0 5.3722607594944564e-07 0.018105999502005671 0 1.1406798833189839e-05 0.018085936293812031 0 -0.00019933211410173805 0.021234008756039049 0 0.00016939534728833627 0.020505825643550551 0 8.1230848260870121e-05 0.020952672220762646 0 0.00024193373781136038 0.020475372825725393 0 0.00016939534728833627 0.020505825643550551 0 8.1230848260870121e-05 0.020952672220762646 0 -0.00013271118485360265 0.021588580182152615 0 -0.00019933211410173805 0.021234008756039049 0 8.1230848260870121e-05 0.020952672220762646 0 -0.00013271118485360265 0.021588580182152615 0 8.1230848260870121e-05 0.020952672220762646 0 4.7899586210812968e-05 0.021197618703300017 0 8.1230848260870121e-05 0.020952672220762646 0 0.00016811015799957055 0.020689415424512823 0 4.7899586210812968e-05 0.021197618703300017 0 0.00016811015799957055 0.020689415424512823 0 0.00013906999038422861 0.02086488853547994 0 4.7899586210812968e-05 0.021197618703300017 0 0.00024193373781136038 0.020475372825725393 0 8.1230848260870121e-05 0.020952672220762646 0 0.00016811015799957055 0.020689415424512823 0 0.00024193373781136038 0.020475372825725393 0 0.00016811015799957055 0.020689415424512823 0 0.00021667392919272175 0.020296017572633746 0 0.00018034859574211364 0.020387859797819149 0 0.00016811015799957055 0.020689415424512823 0 0.00021667392919272175 0.020296017572633746 0 0.00018034859574211364 0.020387859797819149 0 0.00016811015799957055 0.020689415424512823 0 0.00013906999038422861 0.02086488853547994 0 0.00013906999038422861 0.02086488853547994 0 5.3601880544282045e-05 0.021377465799581104 0 4.7899586210812968e-05 0.021197618703300017 0 5.3601880544282045e-05 0.021377465799581104 0 0.00016240726240326854 0.021109088412847143 0 0.00010180226181785102 0.021573313148022601 0 0.00013906999038422861 0.02086488853547994 0 5.3601880544282045e-05 0.021377465799581104 0 0.00016240726240326854 0.021109088412847143 0 -0.00013271118485360265 0.021588580182152615 0 4.7899586210812968e-05 0.021197618703300017 0 -0.00010668511344080718 0.021817728310297581 0 5.3601880544282045e-05 0.021377465799581104 0 -0.00010668511344080718 0.021817728310297581 0 -4.3522977304018489e-05 0.021910632485177595 0 5.3601880544282045e-05 0.021377465799581104 0 4.7899586210812968e-05 0.021197618703300017 0 -0.00010668511344080718 0.021817728310297581 0 -0.00027554962370608205 0.02225737919248582 0 -0.00013271118485360265 0.021588580182152615 0 -0.00010668511344080718 0.021817728310297581 0 -0.00027554962370608205 0.02225737919248582 0 -0.00010668511344080718 0.021817728310297581 0 -0.00025222502813986334 0.02250472189761115 0 -0.00010668511344080718 0.021817728310297581 0 -0.00025222502813986334 0.02250472189761115 0 -4.3522977304018489e-05 0.021910632485177595 0 -0.00025222502813986334 0.02250472189761115 0 -4.3522977304018489e-05 0.021910632485177595 0 9.2605172091216506e-06 0.02219552829124018 0 5.3601880544282045e-05 0.021377465799581104 0 -4.3522977304018489e-05 0.021910632485177595 0 0.00010180226181785102 0.021573313148022601 0 -4.3522977304018489e-05 0.021910632485177595 0 0.00010180226181785102 0.021573313148022601 0 9.2605172091216506e-06 0.02219552829124018 0 0.0002468981097599262 0.021966378911248287 0 0.00010180226181785102 0.021573313148022601 0 9.2605172091216506e-06 0.02219552829124018 0 0.0002468981097599262 0.021966378911248287 0 9.2605172091216506e-06 0.02219552829124018 0 7.3184936956912944e-05 0.022575565802665832 0 9.2605172091216506e-06 0.02219552829124018 0 7.3184936956912944e-05 0.022575565802665832 0 -0.00021841296039414536 0.022866249180941146 0 0.00023306312234912946 0.02292138638199925 0 7.3184936956912944e-05 0.022575565802665832 0 -0.00013135935351735715 0.023188718549806166 0 7.3184936956912944e-05 0.022575565802665832 0 -0.00013135935351735715 0.023188718549806166 0 -0.00021841296039414536 0.022866249180941146 0 -0.00013135935351735715 0.023188718549806166 0 -0.0003746656288964295 0.02332599164498388 0 -0.00021841296039414536 0.022866249180941146 0 -0.00025222502813986334 0.02250472189761115 0 9.2605172091216506e-06 0.02219552829124018 0 -0.00021841296039414536 0.022866249180941146 0 -0.00048008932110429192 0.022924449501530178 0 -0.00025222502813986334 0.02250472189761115 0 -0.00054157499473872354 0.023374742471235485 0 -0.00025222502813986334 0.02250472189761115 0 -0.00021841296039414536 0.022866249180941146 0 -0.00054157499473872354 0.023374742471235485 0 -0.00078973241241656869 0.023684467052866174 0 -0.00048008932110429192 0.022924449501530178 0 -0.00054157499473872354 0.023374742471235485 0 -0.00085762174199088901 0.024122685704614514 0 -0.00078973241241656869 0.023684467052866174 0 -0.00054157499473872354 0.023374742471235485 0 -0.00085762174199088901 0.024122685704614514 0 -0.00054157499473872354 0.023374742471235485 0 -0.00068898334411890264 0.023867902412918619 0 -0.0003746656288964295 0.02332599164498388 0 -0.00054157499473872354 0.023374742471235485 0 -0.00051618265211730028 0.023713211664983219 0 -0.0003746656288964295 0.02332599164498388 0 -0.00021841296039414536 0.022866249180941146 0 -0.00054157499473872354 0.023374742471235485 0 -0.00054157499473872354 0.023374742471235485 0 -0.00051618265211730028 0.023713211664983219 0 -0.00068898334411890264 0.023867902412918619 0 -0.00051618265211730028 0.023713211664983219 0 -0.00068898334411890264 0.023867902412918619 0 -0.00058465360628678009 0.023896882450360667 0 -0.00051618265211730028 0.023713211664983219 0 -0.00058465360628678009 0.023896882450360667 0 -0.00047312873594207384 0.023858302481622202 0 -0.00068898334411890264 0.023867902412918619 0 -0.00077369174653815266 0.024101343828452648 0 -0.00058465360628678009 0.023896882450360667 0 -0.00085762174199088901 0.024122685704614514 0 -0.00068898334411890264 0.023867902412918619 0 -0.00077369174653815266 0.024101343828452648 0 -0.00077369174653815266 0.024101343828452648 0 -0.00058465360628678009 0.023896882450360667 0 -0.0004694774640967139 0.023917022564778172 0 -0.001065146681242693 0.024761827396073847 0 -0.00089615902081974902 0.024697220188890427 0 -0.0012277639107457774 0.02543768783502575 0 -0.0014832058765365658 0.025657652155230731 0 -0.0013401429296147822 0.025588398147385158 0 -0.00058465360628678009 0.023896882450360667 0 -0.00047312873594207384 0.023858302481622202 0 -0.0004694774640967139 0.023917022564778172 0 -0.00047312873594207384 0.023858302481622202 0 -0.00049212409970970494 0.023854232466806052 0 -0.0004694774640967139 0.023917022564778172 0 -0.00047312873594207384 0.023858302481622202 0 -0.0004021169259821995 0.023904855931401126 0 -0.00030075730130956147 0.02358985305232018 0 -0.00047312873594207384 0.023858302481622202 0 -0.0004021169259821995 0.023904855931401126 0 -0.00049212409970970494 0.023854232466806052 0 0.00021533856803379229 0.024118343600514108 0 -0.0004021169259821995 0.023904855931401126 0 0.00013831617380344894 0.023469566774130857 0 -0.00033512868468824758 0.024019144390855385 0 -0.00044396971980110127 0.023917531455735087 0 -0.0004021169259821995 0.023904855931401126 0 0.00013831617380344894 0.023469566774130857 0 -0.00030075730130956147 0.02358985305232018 0 0.00023306312234912946 0.02292138638199925 0 -0.00013135935351735715 0.023188718549806166 0 0.00013831617380344894 0.023469566774130857 0 -0.00013135935351735715 0.023188718549806166 0 0.00013831617380344894 0.023469566774130857 0 -0.00030075730130956147 0.02358985305232018 0 -0.00051618265211730028 0.023713211664983219 0 -0.00047312873594207384 0.023858302481622202 0 -0.00030075730130956147 0.02358985305232018 0 -0.00013135935351735715 0.023188718549806166 0 -0.0003746656288964295 0.02332599164498388 0 -0.00030075730130956147 0.02358985305232018 0 -0.0003746656288964295 0.02332599164498388 0 -0.00051618265211730028 0.023713211664983219 0 -0.00030075730130956147 0.02358985305232018 0 -0.0015121376393626676 0.025686200784806164 0 -0.001698643244195033 0.025934950340632239 0 -0.001232984064386993 0.025072893388995973 0 -0.0004287703364934597 0.023048566264046309 0 -0.00062156058977702589 0.023675271567035035 0 -0.001232984064386993 0.025072893388995973 0 -0.0012304556826328611 0.024418392424697857 0 -0.0012816085525756615 0.024881450594963446 0 -0.0015121376393626676 0.025686200784806164 0 -0.001232984064386993 0.025072893388995973 0 -0.0015403880980841469 0.025709808156126786 0 -0.0015121376393626676 0.025686200784806164 0 -0.0016170502840799931 0.02583254650593499 0 -0.0015403880980841469 0.025709808156126786 0 -0.0015121376393626676 0.025686200784806164 0 -0.0016170502840799931 0.02583254650593499 0 -0.0016331165779006379 0.025826136773958452 0 -0.0015121376393626676 0.025686200784806164 0 -0.0016331165779006379 0.025826136773958452 0 -0.001698643244195033 0.025934950340632239 0 -0.001698643244195033 0.025934950340632239 0 -0.0018908621364129052 0.02589547891551405 0 -0.0017414934341174265 0.025879158009363083 0 -0.0016625378296004655 0.021271545085961061 0 -0.0004287703364934597 0.023048566264046309 0 -0.0007751279140990262 0.023184569735026649 0 -0.0016331165779006379 0.025826136773958452 0 -0.001698643244195033 0.025934950340632239 0 -0.0017414934341174265 0.025879158009363083 0 -0.0007751279140990262 0.023184569735026649 0 -0.00062156058977702589 0.023675271567035035 0 -0.0007597460452741533 0.02365220064067582 0 -0.0004287703364934597 0.023048566264046309 0 -0.0007751279140990262 0.023184569735026649 0 -0.00062156058977702589 0.023675271567035035 0 -0.00098869442284267258 0.02390107467695193 0 -0.0004021169259821995 0.023904855931401126 0 -0.00058653061807125925 0.023776692317162531 0 -0.00062156058977702589 0.023675271567035035 0 -0.0007597460452741533 0.02365220064067582 0 -0.00058653061807125925 0.023776692317162531 0 -0.00062156058977702589 0.023675271567035035 0 -0.00058653061807125925 0.023776692317162531 0 -0.00049212409970970494 0.023854232466806052 0 -0.00098869442284267258 0.02390107467695193 0 -0.0007597460452741533 0.02365220064067582 0 -0.00058653061807125925 0.023776692317162531 0 -0.00062156058977702589 0.023675271567035035 0 -0.001232984064386993 0.025072893388995973 0 -0.0014832058765365658 0.025657652155230731 0 -0.0004021169259821995 0.023904855931401126 0 -0.00058653061807125925 0.023776692317162531 0 -0.00049212409970970494 0.023854232466806052 0 -0.00062156058977702589 0.023675271567035035 0 -0.00049212409970970494 0.023854232466806052 0 -0.0004694774640967139 0.023917022564778172 0 -0.00062011230552802782 0.023918542020499374 0 -0.00089615902081974902 0.024697220188890427 0 -0.0014832058765365658 0.025657652155230731 0 -0.001489962858321973 0.025536138646315171 0 -0.0013401429296147822 0.025588398147385158 0 -0.001232984064386993 0.025072893388995973 0 -0.001489962858321973 0.025536138646315171 0 -0.0015403880980841469 0.025709808156126786 0 -0.001232984064386993 0.025072893388995973 0 -0.0014832058765365658 0.025657652155230731 0 -0.001489962858321973 0.025536138646315171 0 -0.001489962858321973 0.025536138646315171 0 -0.0013401429296147822 0.025588398147385158 0 -0.0015047214223700436 0.025749612317374451 0 -0.0013401429296147822 0.025588398147385158 0 -0.0015047214223700436 0.025749612317374451 0 -0.0014337745354937577 0.025847208077786819 0 -0.0015047214223700436 0.025749612317374451 0 -0.0015434203521404223 0.026001312320147317 0 -0.0014337745354937577 0.025847208077786819 0 -0.001489962858321973 0.025536138646315171 0 -0.0015047214223700436 0.025749612317374451 0 -0.0015403880980841469 0.025709808156126786 0 -0.0015047214223700436 0.025749612317374451 0 -0.0015403880980841469 0.025709808156126786 0 -0.0016104286223731566 0.025892715562135359 0 -0.0016170502840799931 0.02583254650593499 0 -0.0015403880980841469 0.025709808156126786 0 -0.0016104286223731566 0.025892715562135359 0 -0.0016170502840799931 0.02583254650593499 0 -0.0016104286223731566 0.025892715562135359 0 -0.0017594757037013001 0.025924742316217029 0 -0.0016104286223731566 0.025892715562135359 0 -0.0017072896722812305 0.026024242423353463 0 -0.0017594757037013001 0.025924742316217029 0 -0.0015047214223700436 0.025749612317374451 0 -0.0016104286223731566 0.025892715562135359 0 -0.0015434203521404223 0.026001312320147317 0 -0.0016104286223731566 0.025892715562135359 0 -0.0015434203521404223 0.026001312320147317 0 -0.0017072896722812305 0.026024242423353463 0 -0.0015434203521404223 0.026001312320147317 0 -0.0017072896722812305 0.026024242423353463 0 -0.0015651540280157109 0.026267018925890021 0 -0.0017072896722812305 0.026024242423353463 0 -0.0017594757037013001 0.025924742316217029 0 -0.0019851014660175691 0.025913847722745704 0 -0.0019772915714764208 0.025879364039265978 0 -0.0023157184612498803 0.025755910754806845 0 -0.0019851014660175691 0.025913847722745704 0 -0.0019772915714764208 0.025879364039265978 0 -0.0017594757037013001 0.025924742316217029 0 -0.0019851014660175691 0.025913847722745704 0 -0.0019772915714764208 0.025879364039265978 0 -0.0017594757037013001 0.025924742316217029 0 -0.0017724808266644679 0.025882227763263915 0 -0.0016331165779006379 0.025826136773958452 0 -0.0017724808266644679 0.025882227763263915 0 -0.0017414934341174265 0.025879158009363083 0 -0.0016170502840799931 0.02583254650593499 0 -0.0016331165779006379 0.025826136773958452 0 -0.0017724808266644679 0.025882227763263915 0 -0.0016170502840799931 0.02583254650593499 0 -0.0017594757037013001 0.025924742316217029 0 -0.0017724808266644679 0.025882227763263915 0 -0.0022797958730559472 0.025932929219063514 0 -0.0018908621364129052 0.02589547891551405 0 -0.0020417951687709212 0.025869432892048867 0 -0.0022797958730559472 0.025932929219063514 0 -0.001698643244195033 0.025934950340632239 0 -0.0018908621364129052 0.02589547891551405 0 -0.0018841175786966837 0.023768471839973902 0 -0.0012304556826328611 0.024418392424697857 0 -0.0017724808266644679 0.025882227763263915 0 -0.0018908621364129052 0.02589547891551405 0 -0.0017414934341174265 0.025879158009363083 0 -0.0017724808266644679 0.025882227763263915 0 -0.0018908621364129052 0.02589547891551405 0 -0.0020417951687709212 0.025869432892048867 0 -0.0019772915714764208 0.025879364039265978 0 -0.0017724808266644679 0.025882227763263915 0 -0.0020417951687709212 0.025869432892048867 0 -0.0023012151660918518 0.025785278373303744 0 -0.0019772915714764208 0.025879364039265978 0 -0.0023157184612498803 0.025755910754806845 0 -0.0023012151660918518 0.025785278373303744 0 -0.0019772915714764208 0.025879364039265978 0 -0.0020417951687709212 0.025869432892048867 0 -0.0023157184612498803 0.025755910754806845 0 -0.0019851014660175691 0.025913847722745704 0 -0.0023043342198337795 0.025761282036799647 0 -0.0019851014660175691 0.025913847722745704 0 -0.0023043342198337795 0.025761282036799647 0 -0.0019214102404018886 0.025993069399998583 0 -0.0023043342198337795 0.025761282036799647 0 -0.0026038646081978311 0.025594602668457575 0 -0.0027640098805214075 0.025430406070938581 0 -0.0023157184612498803 0.025755910754806845 0 -0.0023043342198337795 0.025761282036799647 0 -0.0026038646081978311 0.025594602668457575 0 -0.0028997105206115198 0.02541266921813605 0 -0.0026038646081978311 0.025594602668457575 0 -0.0027640098805214075 0.025430406070938581 0 -0.0023043342198337795 0.025761282036799647 0 -0.0027640098805214075 0.025430406070938581 0 -0.0022875493330456144 0.025685204600979242 0 -0.0027640098805214075 0.025430406070938581 0 -0.0026226708449366147 0.025251761441209514 0 -0.0022875493330456144 0.025685204600979242 0 -0.0027640098805214075 0.025430406070938581 0 -0.0026226708449366147 0.025251761441209514 0 -0.0034069980649006747 0.024844232391080814 0 -0.0028997105206115198 0.02541266921813605 0 -0.0027640098805214075 0.025430406070938581 0 -0.0034069980649006747 0.024844232391080814 0 -0.0021822403957271579 0.025402886702835654 0 -0.0025290605833944743 0.024884051592825602 0 -0.0020809941311429369 0.024878917737542625 0 -0.0021822403957271579 0.025402886702835654 0 -0.001716593707473069 0.025522524907106593 0 -0.0020809941311429369 0.024878917737542625 0 -0.0026226708449366147 0.025251761441209514 0 -0.0021822403957271579 0.025402886702835654 0 -0.0025290605833944743 0.024884051592825602 0 -0.0021822403957271579 0.025402886702835654 0 -0.0022875493330456144 0.025685204600979242 0 -0.0018499390977902768 0.025988590207254438 0 -0.0026226708449366147 0.025251761441209514 0 -0.0021822403957271579 0.025402886702835654 0 -0.0022875493330456144 0.025685204600979242 0 -0.0021822403957271579 0.025402886702835654 0 -0.0018499390977902768 0.025988590207254438 0 -0.001716593707473069 0.025522524907106593 0 -0.0022875493330456144 0.025685204600979242 0 -0.0018499390977902768 0.025988590207254438 0 -0.0019214102404018886 0.025993069399998583 0 -0.0023043342198337795 0.025761282036799647 0 -0.0022875493330456144 0.025685204600979242 0 -0.0019214102404018886 0.025993069399998583 0 -0.0017072896722812305 0.026024242423353463 0 -0.0019851014660175691 0.025913847722745704 0 -0.0019214102404018886 0.025993069399998583 0 -0.0018499390977902768 0.025988590207254438 0 -0.0019214102404018886 0.025993069399998583 0 -0.0015651540280157109 0.026267018925890021 0 -0.0017072896722812305 0.026024242423353463 0 -0.0019214102404018886 0.025993069399998583 0 -0.0015651540280157109 0.026267018925890021 0 -0.0015651540280157109 0.026267018925890021 0 -0.0014578675244914176 0.026633430793969962 0 -0.0014891797358782182 0.026562395573670829 0 -0.0018499390977902768 0.025988590207254438 0 -0.0015651540280157109 0.026267018925890021 0 -0.0014891797358782182 0.026562395573670829 0 -0.0015651540280157109 0.026267018925890021 0 -0.0014578675244914176 0.026633430793969962 0 -0.0014784365474135965 0.026383677317396131 0 -0.0014578675244914176 0.026633430793969962 0 -0.0014891797358782182 0.026562395573670829 0 -0.0015136395535275103 0.027190896800968187 0 -0.0018499390977902768 0.025988590207254438 0 -0.0014991390314583687 0.025975866040174912 0 -0.001716593707473069 0.025522524907106593 0 -0.0018436260279176702 0.026052638152029756 0 -0.0015273044414246015 0.026278961211747952 0 -0.0015273044414246015 0.026278961211747952 0 -0.001277059711812924 0.026748209563193698 0 -0.0014991390314583687 0.025975866040174912 0 -0.0013025781932027556 0.025706245116287281 0 -0.0010959804870600781 0.026266727672973049 0 -0.0013025781932027556 0.025706245116287281 0 -0.001716593707473069 0.025522524907106593 0 -0.00161451164459614 0.024918227688081572 0 -0.0014991390314583687 0.025975866040174912 0 -0.0013025781932027556 0.025706245116287281 0 -0.001716593707473069 0.025522524907106593 0 -0.00097324934435336693 0.027292722963990337 0 -0.00061778486532727036 0.026445696556920729 0 -0.00097342312350060618 0.026126936869368539 0 -0.0010959804870600781 0.026266727672973049 0 -0.00097324934435336693 0.027292722963990337 0 -0.00097342312350060618 0.026126936869368539 0 -0.0013025781932027556 0.025706245116287281 0 -0.0010959804870600781 0.026266727672973049 0 -0.00097342312350060618 0.026126936869368539 0 -0.0015136395535275103 0.027190896800968187 0 -0.0013854713648407434 0.02810202547272515 0 -0.00097324934435336693 0.027292722963990337 0 -0.001277059711812924 0.026748209563193698 0 -0.00096877291567509056 0.027170219557118746 0 -0.0015136395535275103 0.027190896800968187 0 -0.0014370247023222441 0.027104553834655824 0 -0.0013854713648407434 0.02810202547272515 0 -0.0014578675244914176 0.026633430793969962 0 -0.0015136395535275103 0.027190896800968187 0 -0.0014370247023222441 0.027104553834655824 0 -0.0014578675244914176 0.026633430793969962 0 -0.0014370247023222441 0.027104553834655824 0 -0.00152626703688364 0.026573948155897587 0 -0.0014370247023222441 0.027104553834655824 0 -0.00152626703688364 0.026573948155897587 0 -0.0016155741496125529 0.026817656944077693 0 -0.0014370247023222441 0.027104553834655824 0 -0.0016155741496125529 0.026817656944077693 0 -0.0015633383616270053 0.027254847856476288 0 -0.00152626703688364 0.026573948155897587 0 -0.0014632951366751869 0.026416312348197468 0 -0.0016155741496125529 0.026817656944077693 0 -0.0015323116296050217 0.026542383754853446 0 -0.001599685319342336 0.026198720274398114 0 -0.00152626703688364 0.026573948155897587 0 -0.0014907723745759796 0.026045811483340696 0 -0.0017524616308178006 0.025980910428280796 0 -0.0014578675244914176 0.026633430793969962 0 -0.00152626703688364 0.026573948155897587 0 -0.0014784365474135965 0.026383677317396131 0 -0.00152626703688364 0.026573948155897587 0 -0.0014784365474135965 0.026383677317396131 0 -0.0014907723745759796 0.026045811483340696 0 -0.0015434203521404223 0.026001312320147317 0 -0.0015651540280157109 0.026267018925890021 0 -0.001471658063537207 0.026100796098266085 0 -0.0015651540280157109 0.026267018925890021 0 -0.0014784365474135965 0.026383677317396131 0 -0.001471658063537207 0.026100796098266085 0 -0.0015434203521404223 0.026001312320147317 0 -0.001471658063537207 0.026100796098266085 0 -0.0014337745354937577 0.025847208077786819 0 -0.001471658063537207 0.026100796098266085 0 -0.0014907723745759796 0.026045811483340696 0 -0.0014337745354937577 0.025847208077786819 0 -0.0014784365474135965 0.026383677317396131 0 -0.001471658063537207 0.026100796098266085 0 -0.0014907723745759796 0.026045811483340696 0 -0.0012958487010889441 0.025367725129683907 0 -0.0013401429296147822 0.025588398147385158 0 -0.0014409238624308474 0.02565277093553027 0 -0.0014907723745759796 0.026045811483340696 0 -0.0014337745354937577 0.025847208077786819 0 -0.0014409238624308474 0.02565277093553027 0 -0.0013401429296147822 0.025588398147385158 0 -0.0014337745354937577 0.025847208077786819 0 -0.0014409238624308474 0.02565277093553027 0 -0.001465051544230432 0.025271511707615244 0 -0.0014409238624308474 0.02565277093553027 0 -0.0017316324036019254 0.02556841783740349 0 -0.0016109789875609656 0.025773406351816547 0 -0.001599685319342336 0.026198720274398114 0 -0.0014891707160630506 0.025981444170725829 0 -0.0014632951366751869 0.026416312348197468 0 -0.0018051480752120559 0.026207470609978561 0 -0.0014409238624308474 0.02565277093553027 0 -0.0017316324036019254 0.02556841783740349 0 -0.0017524616308178006 0.025980910428280796 0 -0.0014907723745759796 0.026045811483340696 0 -0.0014409238624308474 0.02565277093553027 0 -0.0017524616308178006 0.025980910428280796 0 -0.0018051480752120559 0.026207470609978561 0 -0.0021675505226861013 0.026209347130005591 0 -0.0018815465855217494 0.026521456864195072 0 -0.0014632951366751869 0.026416312348197468 0 -0.0018051480752120559 0.026207470609978561 0 -0.0018815465855217494 0.026521456864195072 0 -0.001908809904672542 0.02578193902983594 0 -0.0014891707160630506 0.025981444170725829 0 -0.0018051480752120559 0.026207470609978561 0 -0.001908809904672542 0.02578193902983594 0 -0.0018051480752120559 0.026207470609978561 0 -0.0021675505226861013 0.026209347130005591 0 -0.0022333692716251306 0.026242406159024945 0 -0.0021675505226861013 0.026209347130005591 0 -0.0022623637839180913 0.026272195149647491 0 -0.0021675505226861013 0.026209347130005591 0 -0.0023310229716030986 0.026416543580139 0 -0.0022419495780007688 0.0266899738185442 0 -0.0023237680211496124 0.025621164479451654 0 -0.0021526331918771263 0.026317833898470998 0 -0.0021675505226861013 0.026209347130005591 0 -0.0022623637839180913 0.026272195149647491 0 -0.0023310229716030986 0.026416543580139 0 0.0012493169821409388 0.033243873646025296 0 0.0012288138526210428 0.03313439696333409 0 0.00065501149940819714 0.033103183546048083 0 -0.00068710850462427463 0.029572706330816784 0 -0.00076365041930956802 0.029927996467898468 0 0.0012288138526210428 0.03313439696333409 0 0.00065501149940819714 0.033103183546048083 0 0.0014459143896977051 0.032759415315811918 0 -0.00076365041930956802 0.029927996467898468 0 -0.0012202305513709295 0.029251520461914055 0 -0.0022419495780007688 0.0266899738185442 0 -0.0018815465855217494 0.026521456864195072 0 -0.0020879941822411294 0.027065155093717853 0 -0.0018815465855217494 0.026521456864195072 0 -0.0016155741496125529 0.026817656944077693 0 -0.0020879941822411294 0.027065155093717853 0 -0.0021675505226861013 0.026209347130005591 0 -0.0022419495780007688 0.0266899738185442 0 -0.0018815465855217494 0.026521456864195072 0 -0.0014632951366751869 0.026416312348197468 0 -0.0018815465855217494 0.026521456864195072 0 -0.0016155741496125529 0.026817656944077693 0 -0.0016155741496125529 0.026817656944077693 0 -0.0015633383616270053 0.027254847856476288 0 -0.0020879941822411294 0.027065155093717853 0 -0.0012202305513709295 0.029251520461914055 0 -0.0013984480747037756 0.028281053523108925 0 -0.0004696981583592554 0.031505467579001675 0 -0.00032247818746196588 0.029500458172962617 0 -0.0013854713648407434 0.02810202547272515 0 -0.0014370247023222441 0.027104553834655824 0 -0.0015633383616270053 0.027254847856476288 0 -0.0013854713648407434 0.02810202547272515 0 -0.0015633383616270053 0.027254847856476288 0 -0.0020879941822411294 0.027065155093717853 0 -0.0013854713648407434 0.02810202547272515 0 -0.0013854713648407434 0.02810202547272515 0 -0.00063552529942663026 0.028023859109443564 0 -0.00097324934435336693 0.027292722963990337 0 -0.00032247818746196588 0.029500458172962617 0 -0.0013854713648407434 0.02810202547272515 0 -0.00063552529942663026 0.028023859109443564 0 -0.00032247818746196588 0.029500458172962617 0 -0.00063552529942663026 0.028023859109443564 0 0.00015507517122587803 0.028513075061660075 0 -0.00063552529942663026 0.028023859109443564 0 -0.00034202459274486184 0.027263490465239657 0 0.00015507517122587803 0.028513075061660075 0 0.00034588851059808679 0.027281752321695839 0 -0.00034202459274486184 0.027263490465239657 0 0.00015507517122587803 0.028513075061660075 0 -0.00034202459274486184 0.027263490465239657 0 -0.00097324934435336693 0.027292722963990337 0 -0.00061778486532727036 0.026445696556920729 0 -0.00063552529942663026 0.028023859109443564 0 -0.00034202459274486184 0.027263490465239657 0 -0.00097324934435336693 0.027292722963990337 0 0.0015490779148714271 0.028119536305311978 0 0.00076888389868083303 0.028026197496059297 0 0.0012395193063542932 0.029464721645714158 0 0.0015490779148714271 0.028119536305311978 0 0.00076888389868083303 0.028026197496059297 0 0.00097933887068984678 0.027045976069395961 0 0.00034588851059808679 0.027281752321695839 0 0.00076888389868083303 0.028026197496059297 0 0.00097933887068984678 0.027045976069395961 0 0.00034588851059808679 0.027281752321695839 0 0.00076888389868083303 0.028026197496059297 0 0.00015507517122587803 0.028513075061660075 0 0.00076888389868083303 0.028026197496059297 0 0.00015507517122587803 0.028513075061660075 0 0.0012395193063542932 0.029464721645714158 0 0.00015507517122587803 0.028513075061660075 0 0.0012395193063542932 0.029464721645714158 0 0.0008168680106888502 0.031148388144332108 0 0.0012395193063542932 0.029464721645714158 0 0.0008168680106888502 0.031148388144332108 0 0.0020707535348099869 0.032551430285921418 0 0.00065501149940819714 0.033103183546048083 0 -0.0004696981583592554 0.031505467579001675 0 0.0008168680106888502 0.031148388144332108 0 0.00065501149940819714 0.033103183546048083 0 0.0008168680106888502 0.031148388144332108 0 0.0014459143896977051 0.032759415315811918 0 -0.0004696981583592554 0.031505467579001675 0 -0.00032247818746196588 0.029500458172962617 0 0.0008168680106888502 0.031148388144332108 0 -0.00032247818746196588 0.029500458172962617 0 0.00015507517122587803 0.028513075061660075 0 0.0008168680106888502 0.031148388144332108 0 0.0008168680106888502 0.031148388144332108 0 0.0014459143896977051 0.032759415315811918 0 0.0020707535348099869 0.032551430285921418 0 0.0014459143896977051 0.032759415315811918 0 0.0012912394021478315 0.033416503013713288 0 0.0020707535348099869 0.032551430285921418 0 0.0012912394021478315 0.033416503013713288 0 0.0011304401427767047 0.033552631280192924 0 0.0020707535348099869 0.032551430285921418 0 0.0011304401427767047 0.033552631280192924 0 0.0020707535348099869 0.032551430285921418 0 0.00061892112444799274 0.034270662293105714 0 0.0021195296640344813 0.032449503988662046 0 0.0024919049023511938 0.03174168895678435 0 0.0012395193063542932 0.029464721645714158 0 0.0020707535348099869 0.032551430285921418 0 0.0030919438333979047 0.029086873784670109 0 0.0020707535348099869 0.032551430285921418 0 0.0016853563532156883 0.034600338384750358 0 0.00061892112444799274 0.034270662293105714 0 0.0016853563532156883 0.034600338384750358 0 0.00077304427798896135 0.034926990999488858 0 0.001423327039978426 0.03536570720487691 0 0.0016853563532156883 0.034600338384750358 0 0.00077304427798896135 0.034926990999488858 0 0.00061892112444799274 0.034270662293105714 0 0.0015490779148714271 0.028119536305311978 0 0.0030919438333979047 0.029086873784670109 0 0.0019274427261238615 0.027107961772123663 0 0.0024919049023511938 0.03174168895678435 0 0.00068125186145767832 0.031430886477392589 0 0.0015490779148714271 0.028119536305311978 0 0.0012395193063542932 0.029464721645714158 0 0.0030919438333979047 0.029086873784670109 0 -7.3430121579013649e-08 0.03499965956699419 0 0.00077304427798896135 0.034926990999488858 0 0.00053805027562656886 0.035306851263780095 0 -7.3430121579013649e-08 0.03499965956699419 0 0.00077304427798896135 0.034926990999488858 0 0.00061892112444799274 0.034270662293105714 0 -7.3430121579013649e-08 0.03499965956699419 0 0.00061892112444799274 0.034270662293105714 0 3.8451047485179504e-07 0.034999102410070954 0 0.00061892112444799274 0.034270662293105714 0 3.8451047485179504e-07 0.034999102410070954 0 0.00048591744490903332 0.034267417089560458 0 0.0011304401427767047 0.033552631280192924 0 0.00061892112444799274 0.034270662293105714 0 0.00048591744490903332 0.034267417089560458 0 0.0012912394021478315 0.033416503013713288 0 0.0011304401427767047 0.033552631280192924 0 0.00048591744490903332 0.034267417089560458 0 0.0012912394021478315 0.033416503013713288 0 0.00048591744490903332 0.034267417089560458 0 0.0008846170734217488 0.033786098161684958 0 3.8451047485179504e-07 0.034999102410070954 0 0.00048591744490903332 0.034267417089560458 0 3.6264921326983244e-07 0.034998271345245434 0 0.00048591744490903332 0.034267417089560458 0 0.00015109345235479521 0.034549432304081959 0 3.6264921326983244e-07 0.034998271345245434 0 0.00015109345235479521 0.034549432304081959 0 3.6264921326983244e-07 0.034998271345245434 0 8.7455080016912457e-05 0.034839418547555928 0 0.00015498969832354091 0.034501107425176973 0 0.00044531383520498538 0.034035983034961206 0 1.0046278156480636e-07 0.0350000243553657 0 8.7455080016912457e-05 0.034839418547555928 0 -1.2485957343987365e-05 0.034979948232002345 0 0.00015109345235479521 0.034549432304081959 0 8.7455080016912457e-05 0.034839418547555928 0 -5.8631922006540419e-05 0.034898852098323066 0 3.6264921326983244e-07 0.034998271345245434 0 1.0046278156480636e-07 0.0350000243553657 0 8.7455080016912457e-05 0.034839418547555928 0 8.7455080016912457e-05 0.034839418547555928 0 -5.8631922006540419e-05 0.034898852098323066 0 -1.2485957343987365e-05 0.034979948232002345 0 0.0008470838151489917 0.033245676355576993 0 0.0008846170734217488 0.033786098161684958 0 0.0013067582040277167 0.033268659339865107 0 0.00048591744490903332 0.034267417089560458 0 0.00015109345235479521 0.034549432304081959 0 0.0008846170734217488 0.033786098161684958 0 0.00015109345235479521 0.034549432304081959 0 0.0008470838151489917 0.033245676355576993 0 0.0008846170734217488 0.033786098161684958 0 0.0012912394021478315 0.033416503013713288 0 0.0008846170734217488 0.033786098161684958 0 0.0013067582040277167 0.033268659339865107 0 0.0014459143896977051 0.032759415315811918 0 0.0012912394021478315 0.033416503013713288 0 0.0013067582040277167 0.033268659339865107 0 0.0012288138526210428 0.03313439696333409 0 0.0014459143896977051 0.032759415315811918 0 0.0013067582040277167 0.033268659339865107 0 0.0012493169821409388 0.033243873646025296 0 0.0013067582040277167 0.033268659339865107 0 0.0011345477187821144 0.033110244066896867 0 0.0012493169821409388 0.033243873646025296 0 0.0012288138526210428 0.03313439696333409 0 0.0013067582040277167 0.033268659339865107 0 0.0008470838151489917 0.033245676355576993 0 0.0013067582040277167 0.033268659339865107 0 0.0011345477187821144 0.033110244066896867 0 0.0012493169821409388 0.033243873646025296 0 0.0011345477187821144 0.033110244066896867 0 0.0011758791709474037 0.033032438395942422 0 -0.00068710850462427463 0.029572706330816784 0 -0.00015714742210832662 0.030926365041533756 0 -0.0022623637839180913 0.026272195149647491 0 -0.0023310229716030986 0.026416543580139 0 -0.0023274909957809757 0.026318508762033621 0 -3.0250585231167994e-05 0.034967458416738581 0 1.9637073813190554e-05 0.034930508960088064 0 -3.0691352894058669e-05 0.03495457801157751 0 0.00041991473878618275 0.034433749249691441 0 -0.00015714742210832662 0.030926365041533756 0 -3.0691352894058669e-05 0.03495457801157751 0 -4.1537303361413339e-08 0.034999934636420323 0 -1.2485957343987365e-05 0.034979948232002345 0 1.0046278156480636e-07 0.0350000243553657 0 -4.1537303361413339e-08 0.034999934636420323 0 -1.2485957343987365e-05 0.034979948232002345 0 -5.8631922006540419e-05 0.034898852098323066 0 -3.0250585231167994e-05 0.034967458416738581 0 -1.2485957343987365e-05 0.034979948232002345 0 -3.0250585231167994e-05 0.034967458416738581 0 -3.0691352894058669e-05 0.03495457801157751 0 -1.2485957343987365e-05 0.034979948232002345 0 0.00044531383520498538 0.034035983034961206 0 0.00041991473878618275 0.034433749249691441 0 -0.00031132295976883851 0.034498438572631927 0 -0.00044310346649279961 0.034484908842005932 0 -0.0003639001378780182 0.034489611708272645 0 -7.8512847778258528e-08 0.03499987450333069 0 -0.00014731124066620985 0.034773311915659688 0 -3.3016939562485327e-07 0.0349985552394637 0 -0.00031132295976883851 0.034498438572631927 0 -0.0003639001378780182 0.034489611708272645 0 -2.4623009692850939e-09 0.034999998574877483 0 6.1088462098636218e-09 0.034999992183053934 0 1.8590513758480335e-06 0.034997778863051138 0 6.1088462098636218e-09 0.034999992183053934 0 1.8590513758480335e-06 0.034997778863051138 0 4.6984997069752462e-06 0.034994622222731801 0 1.8590513758480335e-06 0.034997778863051138 0 -1.4525495199093752e-06 0.035000377505624208 0 4.6984997069752462e-06 0.034994622222731801 0 -0.00014731124066620985 0.034773311915659688 0 -0.00027498277797928094 0.034629571427045883 0 -0.00031132295976883851 0.034498438572631927 0 -0.00042118357067877311 0.034439290378514689 0 -0.00044310346649279961 0.034484908842005932 0 -0.00042118357067877311 0.034439290378514689 0 -0.00042382591774822389 0.034447050279598171 0 -0.00044310346649279961 0.034484908842005932 0 -0.00021636985179720834 0.035246642582735861 0 5.8402732043237329e-05 0.034946675496823426 0 -0.00044310346649279961 0.034484908842005932 0 -0.00032111385860999879 0.03483539132126013 0 -0.00043272098931611529 0.034536658648036324 0 5.8402732043237329e-05 0.034946675496823426 0 0.00064391391790424889 0.035045717847735872 0 0.00033580818800841027 0.035513788409861372 0 -0.00021636985179720834 0.035246642582735861 0 5.8402732043237329e-05 0.034946675496823426 0 0.00033580818800841027 0.035513788409861372 0 5.8402732043237329e-05 0.034946675496823426 0 0.00015434449193587254 0.034543314239580097 0 0.00064391391790424889 0.035045717847735872 0 5.8402732043237329e-05 0.034946675496823426 0 0.00015434449193587254 0.034543314239580097 0 -0.00044310346649279961 0.034484908842005932 0 0.00015434449193587254 0.034543314239580097 0 -0.00036013751250173437 0.034221304749802658 0 0.00026744085045713622 0.033886321086363351 0 0.00015434449193587254 0.034543314239580097 0 -0.00044310346649279961 0.034484908842005932 0 -0.00036013751250173437 0.034221304749802658 0 -0.00044310346649279961 0.034484908842005932 0 -0.00036013751250173437 0.034221304749802658 0 -0.0003639001378780182 0.034489611708272645 0 -0.00036013751250173437 0.034221304749802658 0 -0.00066635984441284764 0.033823184109433392 0 -0.0003639001378780182 0.034489611708272645 0 -0.00036013751250173437 0.034221304749802658 0 0.00026744085045713622 0.033886321086363351 0 -0.00066635984441284764 0.033823184109433392 0 0.00026744085045713622 0.033886321086363351 0 -0.00066635984441284764 0.033823184109433392 0 0.00041674891741532284 0.032500069199356017 0 -0.00066635984441284764 0.033823184109433392 0 -0.0013348182683681007 0.031222467122233366 0 0.00041674891741532284 0.032500069199356017 0 -0.00066635984441284764 0.033823184109433392 0 -0.0003639001378780182 0.034489611708272645 0 -0.00021793131037745782 0.034681406752818091 0 -0.00066635984441284764 0.033823184109433392 0 -0.00021793131037745782 0.034681406752818091 0 -0.00062444204089930056 0.034697508234336663 0 -0.00074847199356657928 0.033705989023797546 0 -0.00092818887138223138 0.032949234085240961 0 -0.0003639001378780182 0.034489611708272645 0 -5.0151032133412044e-08 0.034999882746515304 0 -0.00021793131037745782 0.034681406752818091 0 -3.3016939562485327e-07 0.0349985552394637 0 -0.0003639001378780182 0.034489611708272645 0 -5.0151032133412044e-08 0.034999882746515304 0 -5.0151032133412044e-08 0.034999882746515304 0 -0.00021793131037745782 0.034681406752818091 0 -9.7472455367049602e-09 0.03499976669451732 0 -0.00021793131037745782 0.034681406752818091 0 -0.00028028704717534436 0.034913410139052942 0 -9.7472455367049602e-09 0.03499976669451732 0 -0.00028028704717534436 0.034913410139052942 0 -9.7472455367049602e-09 0.03499976669451732 0 -0.00012625466217592961 0.035010059027148634 0 -1.1094543699356407e-07 0.035000348556138511 0 -0.00012625466217592961 0.035010059027148634 0 -0.00021786106671356674 0.035138747249272871 0 3.0646564898843213e-07 0.034999922321895353 0 6.7036998348279643e-05 0.035579884432868421 0 -9.7472455367049602e-09 0.03499976669451732 0 -1.1094543699356407e-07 0.035000348556138511 0 -0.00012625466217592961 0.035010059027148634 0 -0.00028028704717534436 0.034913410139052942 0 -0.00012625466217592961 0.035010059027148634 0 -0.00036863454298955166 0.0350768785857642 0 -0.00012625466217592961 0.035010059027148634 0 -0.00021786106671356674 0.035138747249272871 0 -0.00036863454298955166 0.0350768785857642 0 -7.3430121579013649e-08 0.03499965956699419 0 4.2787870057911334e-07 0.035001023172271807 0 0.00053805027562656886 0.035306851263780095 0 0.0030919438333979047 0.029086873784670109 0 0.0032176629926564892 0.026928376867665669 0 0.0019274427261238615 0.027107961772123663 0 0.00068125186145767832 0.031430886477392589 0 0.0011163206153195987 0.027170175089098855 0 -0.0012611917739519273 0.027054673848552216 0 -4.1351601429504605e-05 0.026990551572963505 0 -0.00054235440009039993 0.027666986042334023 0 0.00077304427798896135 0.034926990999488858 0 0.00053805027562656886 0.035306851263780095 0 0.001423327039978426 0.03536570720487691 0 6.7036998348279643e-05 0.035579884432868421 0 0.00068125186145767832 0.031430886477392589 0 -0.00021786106671356674 0.035138747249272871 0 -0.00046295307239773939 0.035163083499658743 0 -0.00036863454298955166 0.0350768785857642 0 0.00068125186145767832 0.031430886477392589 0 -0.0010794813008388438 0.031892836082214479 0 -0.00028028704717534436 0.034913410139052942 0 -0.00036863454298955166 0.0350768785857642 0 -0.00050424495467239446 0.034972141751035628 0 -0.00046295307239773939 0.035163083499658743 0 -0.00036863454298955166 0.0350768785857642 0 -0.00050424495467239446 0.034972141751035628 0 -0.0012611917739519273 0.027054673848552216 0 -0.00054235440009039993 0.027666986042334023 0 -0.0014431275649437344 0.028930544278329324 0 -4.1351601429504605e-05 0.026990551572963505 0 -0.00054235440009039993 0.027666986042334023 0 0.00029665850644008658 0.027917436458760131 0 -0.00054235440009039993 0.027666986042334023 0 -0.0014431275649437344 0.028930544278329324 0 0.00029665850644008658 0.027917436458760131 0 -0.0014431275649437344 0.028930544278329324 0 0.00058838393644533322 0.029689053194893726 0 0.00029665850644008658 0.027917436458760131 0 -0.0014431275649437344 0.028930544278329324 0 -0.0013348182683681007 0.031222467122233366 0 0.00058838393644533322 0.029689053194893726 0 -0.0010794813008388438 0.031892836082214479 0 -0.00092818887138223138 0.032949234085240961 0 -0.00028028704717534436 0.034913410139052942 0 -0.00050424495467239446 0.034972141751035628 0 -0.00062444204089930056 0.034697508234336663 0 -0.00021793131037745782 0.034681406752818091 0 -0.00028028704717534436 0.034913410139052942 0 -0.00062444204089930056 0.034697508234336663 0 -0.0013348182683681007 0.031222467122233366 0 0.00058838393644533322 0.029689053194893726 0 0.00041674891741532284 0.032500069199356017 0 0.00058838393644533322 0.029689053194893726 0 0.0020062625709734842 0.032088366297630989 0 0.00041674891741532284 0.032500069199356017 0 0.00058838393644533322 0.029689053194893726 0 0.00278254685431985 0.029956976589829792 0 0.0020062625709734842 0.032088366297630989 0 0.00058838393644533322 0.029689053194893726 0 0.0013479592813028321 0.027047164264893044 0 0.00278254685431985 0.029956976589829792 0 0.00058838393644533322 0.029689053194893726 0 0.00029665850644008658 0.027917436458760131 0 0.0013479592813028321 0.027047164264893044 0 0.001421149423111697 0.026971634801364844 0 0.0018862868653255508 0.027181345287726703 0 0.0013479592813028321 0.027047164264893044 0 0.00061443106908042684 0.026140161908208785 0 0.0011238633196385547 0.024404166150713714 0 0.0013479592813028321 0.027047164264893044 0 0.00076236010226666585 0.026836801200305078 0 0.00061443106908042684 0.026140161908208785 0 0.0013479592813028321 0.027047164264893044 0 0.00076236010226666585 0.026836801200305078 0 0.00097933887068984678 0.027045976069395961 0 0.00034588851059808679 0.027281752321695839 0 0.00076236010226666585 0.026836801200305078 0 0.00097933887068984678 0.027045976069395961 0 0.00029665850644008658 0.027917436458760131 0 0.0013479592813028321 0.027047164264893044 0 0.00097933887068984678 0.027045976069395961 0 -4.1351601429504605e-05 0.026990551572963505 0 0.00029665850644008658 0.027917436458760131 0 0.00097933887068984678 0.027045976069395961 0 0.0011163206153195987 0.027170175089098855 0 0.00088416239517935015 0.027073540278010306 0 0.0015490779148714271 0.028119536305311978 0 0.0019274427261238615 0.027107961772123663 0 0.00097933887068984678 0.027045976069395961 0 -0.00061778486532727036 0.026445696556920729 0 1.1766074484678727e-05 0.026362002956638746 0 -0.00059130954942098737 0.025239073759092612 0 -0.00034202459274486184 0.027263490465239657 0 -0.00061778486532727036 0.026445696556920729 0 1.1766074484678727e-05 0.026362002956638746 0 0.00034588851059808679 0.027281752321695839 0 -0.00034202459274486184 0.027263490465239657 0 1.1766074484678727e-05 0.026362002956638746 0 0.00034588851059808679 0.027281752321695839 0 0.00076236010226666585 0.026836801200305078 0 1.1766074484678727e-05 0.026362002956638746 0 0.00076236010226666585 0.026836801200305078 0 1.1766074484678727e-05 0.026362002956638746 0 0.00061443106908042684 0.026140161908208785 0 1.1766074484678727e-05 0.026362002956638746 0 0.00061443106908042684 0.026140161908208785 0 9.6390083630034095e-05 0.025238709119155933 0 0.00061443106908042684 0.026140161908208785 0 9.6390083630034095e-05 0.025238709119155933 0 0.0011238633196385547 0.024404166150713714 0 1.1766074484678727e-05 0.026362002956638746 0 9.6390083630034095e-05 0.025238709119155933 0 -0.00059130954942098737 0.025239073759092612 0 9.6390083630034095e-05 0.025238709119155933 0 -1.0148890301360685e-05 0.024066410284309038 0 -0.00059130954942098737 0.025239073759092612 0 9.6390083630034095e-05 0.025238709119155933 0 -1.0148890301360685e-05 0.024066410284309038 0 0.0011238633196385547 0.024404166150713714 0 0.00278254685431985 0.029956976589829792 0 0.003320926279056613 0.032148539313736249 0 0.0020062625709734842 0.032088366297630989 0 -1.0148890301360685e-05 0.024066410284309038 0 0.0011238633196385547 0.024404166150713714 0 0.00070982407179471304 0.022840278581751659 0 0.0018862868653255508 0.027181345287726703 0 0.0019478325782093613 0.027386813578329554 0 -1.0148890301360685e-05 0.024066410284309038 0 0.00070982407179471304 0.022840278581751659 0 -0.00018073764327175063 0.022896121334023606 0 0.0002024733845524932 0.02164370146584348 0 0.00070982407179471304 0.022840278581751659 0 -0.00018073764327175063 0.022896121334023606 0 0.0022072709262331083 0.027924259819050012 0 0.0019478325782093613 0.027386813578329554 0 0.0036400561617377664 0.033605299617893353 0 0.0024808185196076946 0.033413337420708955 0 0.003320926279056613 0.032148539313736249 0 0.0024808185196076946 0.033413337420708955 0 0.003320926279056613 0.032148539313736249 0 0.0020062625709734842 0.032088366297630989 0 0.0024808185196076946 0.033413337420708955 0 0.0020062625709734842 0.032088366297630989 0 0.0013792734018981847 0.033434928065310156 0 0.0020062625709734842 0.032088366297630989 0 0.00041674891741532284 0.032500069199356017 0 0.0013792734018981847 0.033434928065310156 0 0.00026744085045713622 0.033886321086363351 0 0.00041674891741532284 0.032500069199356017 0 0.0013792734018981847 0.033434928065310156 0 0.00026744085045713622 0.033886321086363351 0 0.0013792734018981847 0.033434928065310156 0 0.00090830201984567539 0.034399490635475843 0 0.0024808185196076946 0.033413337420708955 0 0.0013792734018981847 0.033434928065310156 0 0.0018100286428746417 0.034252411066138015 0 0.0018100286428746417 0.034252411066138015 0 0.0013669412803979373 0.03506449307347323 0 0.0025741827746719927 0.034552346512050004 0 0.0018100286428746417 0.034252411066138015 0 0.00090830201984567539 0.034399490635475843 0 0.0013669412803979373 0.03506449307347323 0 0.0013792734018981847 0.033434928065310156 0 0.0018100286428746417 0.034252411066138015 0 0.00090830201984567539 0.034399490635475843 0 0.00015434449193587254 0.034543314239580097 0 0.00026744085045713622 0.033886321086363351 0 0.00090830201984567539 0.034399490635475843 0 0.00015434449193587254 0.034543314239580097 0 0.00090830201984567539 0.034399490635475843 0 0.00064391391790424889 0.035045717847735872 0 0.00090830201984567539 0.034399490635475843 0 0.00064391391790424889 0.035045717847735872 0 0.0013669412803979373 0.03506449307347323 0 0.00064391391790424889 0.035045717847735872 0 0.0013669412803979373 0.03506449307347323 0 0.00086783247221052667 0.035566400335369432 0 0.0013669412803979373 0.03506449307347323 0 0.0013772413653173855 0.035583351356019442 0 0.00086783247221052667 0.035566400335369432 0 0.00064391391790424889 0.035045717847735872 0 0.00086783247221052667 0.035566400335369432 0 0.00033580818800841027 0.035513788409861372 0 0.0013669412803979373 0.03506449307347323 0 0.0022152555924525841 0.035440180699547588 0 0.0025741827746719927 0.034552346512050004 0 0.0013669412803979373 0.03506449307347323 0 0.0022152555924525841 0.035440180699547588 0 0.0013772413653173855 0.035583351356019442 0 0.0022152555924525841 0.035440180699547588 0 0.0032942906953138743 0.034878712886363974 0 0.0033730062926168171 0.03565871849913544 0 0.0022152555924525841 0.035440180699547588 0 0.0032942906953138743 0.034878712886363974 0 0.0025741827746719927 0.034552346512050004 0 0.0032942906953138743 0.034878712886363974 0 0.0040994681663246791 0.034790292882271361 0 0.0033730062926168171 0.03565871849913544 0 0.00023868311297446895 0.026664533163940192 0 0.0012906909144420105 0.032503015979956931 0 0.0036400561617377664 0.033605299617893353 0 0.0032942906953138743 0.034878712886363974 0 0.0025741827746719927 0.034552346512050004 0 0.0036400561617377664 0.033605299617893353 0 0.0032942906953138743 0.034878712886363974 0 0.0040994681663246791 0.034790292882271361 0 0.0036400561617377664 0.033605299617893353 0 0.0024808185196076946 0.033413337420708955 0 0.0025741827746719927 0.034552346512050004 0 0.0024808185196076946 0.033413337420708955 0 0.0018100286428746417 0.034252411066138015 0 0.0025741827746719927 0.034552346512050004 0 -0.00064067707226777388 0.02129124495530749 0 -0.00071329504826730722 0.021268931386017594 0 -0.00082112075916439373 0.021332050842672198 0 0.0002024733845524932 0.02164370146584348 0 -0.00064067707226777388 0.02129124495530749 0 -0.00024316747610750975 0.020892121656427162 0 0.0022072709262331083 0.027924259819050012 0 0.00023868311297446895 0.026664533163940192 0 0.0001953329929900534 0.020278397165559278 0 0.00023868311297446895 0.026664533163940192 0 -0.00064067707226777388 0.02129124495530749 0 -0.00067077039059239665 0.021269697813648222 0 -0.00071329504826730722 0.021268931386017594 0 -0.00064067707226777388 0.02129124495530749 0 -0.00062756339948413559 0.021308149109804213 0 -0.00067077039059239665 0.021269697813648222 0 -0.00062756339948413559 0.021308149109804213 0 -0.00067077039059239665 0.021269697813648222 0 -0.00064863507563755563 0.021241258764972661 0 -0.00089402134054468311 0.020388288557875577 0 -0.0009739185368057272 0.02043793679013646 0 -0.00067077039059239665 0.021269697813648222 0 -0.00071329504826730722 0.021268931386017594 0 -0.00072111299811154837 0.021224353957111867 0 -0.00098898898308681085 0.019726923989277903 0 -0.0022050349241864039 0.019187179398236932 0 -0.0012897832603669997 0.018512181556774563 0 -0.00098898898308681085 0.019726923989277903 0 -0.0016502091772876274 0.020306792819265264 0 -0.0022050349241864039 0.019187179398236932 0 -0.0016502091772876274 0.020306792819265264 0 -0.0016950643831497858 0.021072005109838483 0 -0.002368305727804043 0.020362976508777476 0 -0.0016502091772876274 0.020306792819265264 0 -0.002368305727804043 0.020362976508777476 0 -0.0022050349241864039 0.019187179398236932 0 -0.00098898898308681085 0.019726923989277903 0 -0.0016502091772876274 0.020306792819265264 0 -0.00082112075916439373 0.021332050842672198 0 -0.00089402134054468311 0.020388288557875577 0 -0.00078141695329666519 0.021306825264843853 0 -0.0016950643831497858 0.021072005109838483 0 -0.0016921218851061648 0.021824298794133272 0 -0.0012535903023072423 0.021716923089728255 0 -0.0016502091772876274 0.020306792819265264 0 -0.0016950643831497858 0.021072005109838483 0 -0.00082112075916439373 0.021332050842672198 0 -0.0016950643831497858 0.021072005109838483 0 -0.0012535903023072423 0.021716923089728255 0 -0.00082112075916439373 0.021332050842672198 0 -0.0016950643831497858 0.021072005109838483 0 -0.0022449262801586887 0.021169081036203265 0 -0.0016921218851061648 0.021824298794133272 0 -0.0016950643831497858 0.021072005109838483 0 -0.0022449262801586887 0.021169081036203265 0 -0.002368305727804043 0.020362976508777476 0 -0.0016921218851061648 0.021824298794133272 0 -0.0020631069421811329 0.021883577806505031 0 -0.0016782650914089958 0.022730795906473276 0 -0.0022449262801586887 0.021169081036203265 0 -0.0016921218851061648 0.021824298794133272 0 -0.0020631069421811329 0.021883577806505031 0 -0.0016921218851061648 0.021824298794133272 0 -0.0012416600364714826 0.022406193075480571 0 -0.0016782650914089958 0.022730795906473276 0 -0.0012535903023072423 0.021716923089728255 0 -0.0012416600364714826 0.022406193075480571 0 -0.00085726841458849082 0.021992970504263978 0 -0.0016921218851061648 0.021824298794133272 0 -0.0012535903023072423 0.021716923089728255 0 -0.0012416600364714826 0.022406193075480571 0 -0.00085726841458849082 0.021992970504263978 0 -0.00044765550844168316 0.022168629962702312 0 -0.00080179774262951846 0.022979434440564543 0 -0.0012416600364714826 0.022406193075480571 0 -0.00085726841458849082 0.021992970504263978 0 -0.00080179774262951846 0.022979434440564543 0 -0.0012535903023072423 0.021716923089728255 0 -0.00085726841458849082 0.021992970504263978 0 -0.00082112075916439373 0.021332050842672198 0 -0.00085726841458849082 0.021992970504263978 0 -0.00056811886753169497 0.021638585500967207 0 -0.00082112075916439373 0.021332050842672198 0 -0.00085726841458849082 0.021992970504263978 0 -0.00056811886753169497 0.021638585500967207 0 -0.00044765550844168316 0.022168629962702312 0 -0.00064067707226777388 0.02129124495530749 0 -0.00056811886753169497 0.021638585500967207 0 -0.00082112075916439373 0.021332050842672198 0 0.0002024733845524932 0.02164370146584348 0 -0.00064067707226777388 0.02129124495530749 0 -0.00056811886753169497 0.021638585500967207 0 0.0002024733845524932 0.02164370146584348 0 -0.00056811886753169497 0.021638585500967207 0 -0.00044765550844168316 0.022168629962702312 0 -0.00018073764327175063 0.022896121334023606 0 -0.00044765550844168316 0.022168629962702312 0 -0.00080179774262951846 0.022979434440564543 0 0.0002024733845524932 0.02164370146584348 0 -0.00018073764327175063 0.022896121334023606 0 -0.00044765550844168316 0.022168629962702312 0 -0.00018073764327175063 0.022896121334023606 0 -0.00080179774262951846 0.022979434440564543 0 -0.00058232512132470003 0.023901882674267586 0 -1.0148890301360685e-05 0.024066410284309038 0 -0.00018073764327175063 0.022896121334023606 0 -0.00058232512132470003 0.023901882674267586 0 -0.0012416600364714826 0.022406193075480571 0 -0.00080179774262951846 0.022979434440564543 0 -0.0012365192695938045 0.023270752701262096 0 -0.00080179774262951846 0.022979434440564543 0 -0.0010148700119762787 0.024169300853285509 0 -0.00058232512132470003 0.023901882674267586 0 -0.00080179774262951846 0.022979434440564543 0 -0.0010148700119762787 0.024169300853285509 0 -0.0012365192695938045 0.023270752701262096 0 -0.0010148700119762787 0.024169300853285509 0 -0.00058232512132470003 0.023901882674267586 0 -0.00059130954942098737 0.025239073759092612 0 -1.0148890301360685e-05 0.024066410284309038 0 -0.00058232512132470003 0.023901882674267586 0 -0.00059130954942098737 0.025239073759092612 0 -0.0010148700119762787 0.024169300853285509 0 -0.00059130954942098737 0.025239073759092612 0 -0.0011722294876145231 0.025031502515514326 0 -0.0010148700119762787 0.024169300853285509 0 -0.0011722294876145231 0.025031502515514326 0 -0.0014938381085255043 0.023974698590546732 0 -0.0013025781932027556 0.025706245116287281 0 -0.0011722294876145231 0.025031502515514326 0 -0.00097342312350060618 0.026126936869368539 0 -0.00061778486532727036 0.026445696556920729 0 -0.00059130954942098737 0.025239073759092612 0 -0.00097342312350060618 0.026126936869368539 0 -0.00059130954942098737 0.025239073759092612 0 -0.0011722294876145231 0.025031502515514326 0 -0.00097342312350060618 0.026126936869368539 0 -0.001716593707473069 0.025522524907106593 0 -0.00161451164459614 0.024918227688081572 0 -0.0020809941311429369 0.024878917737542625 0 -0.00161451164459614 0.024918227688081572 0 -0.0019936996149157254 0.024128606347877824 0 -0.0020809941311429369 0.024878917737542625 0 -0.0013025781932027556 0.025706245116287281 0 -0.0011722294876145231 0.025031502515514326 0 -0.00161451164459614 0.024918227688081572 0 -0.0011722294876145231 0.025031502515514326 0 -0.00161451164459614 0.024918227688081572 0 -0.0014938381085255043 0.023974698590546732 0 -0.00161451164459614 0.024918227688081572 0 -0.0019936996149157254 0.024128606347877824 0 -0.0014938381085255043 0.023974698590546732 0 -0.0019408689389443365 0.023278336702384113 0 -0.0014938381085255043 0.023974698590546732 0 -0.0016782650914089958 0.022730795906473276 0 -0.0019936996149157254 0.024128606347877824 0 -0.0019408689389443365 0.023278336702384113 0 -0.0014938381085255043 0.023974698590546732 0 -0.0014938381085255043 0.023974698590546732 0 -0.0012365192695938045 0.023270752701262096 0 -0.0016782650914089958 0.022730795906473276 0 -0.0010148700119762787 0.024169300853285509 0 -0.0014938381085255043 0.023974698590546732 0 -0.0012365192695938045 0.023270752701262096 0 -0.0012416600364714826 0.022406193075480571 0 -0.0012365192695938045 0.023270752701262096 0 -0.0016782650914089958 0.022730795906473276 0 -0.0019408689389443365 0.023278336702384113 0 -0.0016782650914089958 0.022730795906473276 0 -0.0021621396163985468 0.022416179681664906 0 -0.0020631069421811329 0.021883577806505031 0 -0.0016782650914089958 0.022730795906473276 0 -0.0021621396163985468 0.022416179681664906 0 -0.0026684295531595472 0.021814850853088288 0 -0.0021621396163985468 0.022416179681664906 0 -0.0024342190015709244 0.02291258071369023 0 -0.0020631069421811329 0.021883577806505031 0 -0.0021621396163985468 0.022416179681664906 0 -0.0025407527328299194 0.021452022956642374 0 -0.0026684295531595472 0.021814850853088288 0 -0.0021621396163985468 0.022416179681664906 0 -0.0025407527328299194 0.021452022956642374 0 -0.0026684295531595472 0.021814850853088288 0 -0.003070874372148999 0.021576473275572376 0 -0.0024342190015709244 0.02291258071369023 0 -0.0026684295531595472 0.021814850853088288 0 -0.003070874372148999 0.021576473275572376 0 -0.0031150726725765591 0.020923760269855995 0 -0.003070874372148999 0.021576473275572376 0 -0.0030077310326929573 0.022811876493538434 0 -0.0038176445129543936 0.020954141521257887 0 -0.0030077310326929573 0.022811876493538434 0 -0.0024342190015709244 0.02291258071369023 0 -0.002710066014075837 0.024055896677470857 0 -0.003070874372148999 0.021576473275572376 0 -0.0030077310326929573 0.022811876493538434 0 -0.0024342190015709244 0.02291258071369023 0 -0.0019936996149157254 0.024128606347877824 0 -0.0019408689389443365 0.023278336702384113 0 -0.0024342190015709244 0.02291258071369023 0 -0.0019408689389443365 0.023278336702384113 0 -0.0021621396163985468 0.022416179681664906 0 -0.0024342190015709244 0.02291258071369023 0 -0.0019936996149157254 0.024128606347877824 0 -0.0024342190015709244 0.02291258071369023 0 -0.002710066014075837 0.024055896677470857 0 -0.0019936996149157254 0.024128606347877824 0 -0.002710066014075837 0.024055896677470857 0 -0.0020809941311429369 0.024878917737542625 0 -0.002710066014075837 0.024055896677470857 0 -0.0025290605833944743 0.024884051592825602 0 -0.0020809941311429369 0.024878917737542625 0 -0.002710066014075837 0.024055896677470857 0 -0.0025290605833944743 0.024884051592825602 0 -0.0030623147766558299 0.02461175652870386 0 -0.0026226708449366147 0.025251761441209514 0 -0.0025290605833944743 0.024884051592825602 0 -0.0030623147766558299 0.02461175652870386 0 -0.0034069980649006747 0.024844232391080814 0 -0.0030623147766558299 0.02461175652870386 0 -0.0039377286280093604 0.023671471716465942 0 -0.0035827834793019722 0.021909068213088974 0 -0.0038962086271574054 0.021370534697810542 0 -0.0026226708449366147 0.025251761441209514 0 -0.0034069980649006747 0.024844232391080814 0 -0.0030623147766558299 0.02461175652870386 0 -0.002710066014075837 0.024055896677470857 0 -0.0030623147766558299 0.02461175652870386 0 -0.0039377286280093604 0.023671471716465942 0 -0.0030077310326929573 0.022811876493538434 0 -0.002710066014075837 0.024055896677470857 0 -0.0039377286280093604 0.023671471716465942 0 -0.0037432005023527279 0.019011658310947865 0 -0.0040026364453462776 0.019170989655711991 0 -0.003786439352592316 0.019012290395893958 0 -0.0040026364453462776 0.019170989655711991 0 -0.0038413020212427901 0.019714294964162465 0 -0.003786439352592316 0.019012290395893958 0 -0.0040026364453462776 0.019170989655711991 0 -0.0038413020212427901 0.019714294964162465 0 -0.0038176445129543936 0.020954141521257887 0 -0.0038962086271574054 0.021370534697810542 0 -0.0037914692137155353 0.020889796165595557 0 -0.0030077310326929573 0.022811876493538434 0 -0.0039377286280093604 0.023671471716465942 0 -0.0038176445129543936 0.020954141521257887 0 -0.0038413020212427901 0.019714294964162465 0 -0.0038176445129543936 0.020954141521257887 0 -0.003865382576184428 0.020150361593199734 0 -0.0038176445129543936 0.020954141521257887 0 -0.003865382576184428 0.020150361593199734 0 -0.0034577765916517437 0.02057993218714926 0 -0.003070874372148999 0.021576473275572376 0 -0.0038176445129543936 0.020954141521257887 0 -0.0034577765916517437 0.02057993218714926 0 -0.0038413020212427901 0.019714294964162465 0 -0.003865382576184428 0.020150361593199734 0 -0.0040458640368085776 0.01948002594594116 0 -0.003865382576184428 0.020150361593199734 0 -0.0039395540889597836 0.019534022620202797 0 -0.0040458640368085776 0.01948002594594116 0 -0.0039395540889597836 0.019534022620202797 0 -0.003682598911534155 0.018930954232126089 0 -0.004009191314197998 0.019018430557835954 0 -0.0039395540889597836 0.019534022620202797 0 -0.003388538210023005 0.019198080454541095 0 -0.003682598911534155 0.018930954232126089 0 -0.0039395540889597836 0.019534022620202797 0 -0.003388538210023005 0.019198080454541095 0 -0.0034577765916517437 0.02057993218714926 0 -0.0038811978085715082 0.021292427340237233 0 -0.0034461850143767993 0.01989315857972461 0 -0.0036895915474432278 0.020359566645849324 0 -0.0034577765916517437 0.02057993218714926 0 -0.0031150726725765591 0.020923760269855995 0 -0.003865382576184428 0.020150361593199734 0 -0.0039395540889597836 0.019534022620202797 0 -0.0034577765916517437 0.02057993218714926 0 -0.003070874372148999 0.021576473275572376 0 -0.0034577765916517437 0.02057993218714926 0 -0.0031150726725765591 0.020923760269855995 0 -0.0022449262801586887 0.021169081036203265 0 -0.0025407527328299194 0.021452022956642374 0 -0.0028952645034053303 0.020754731771991941 0 -0.0026684295531595472 0.021814850853088288 0 -0.0031150726725765591 0.020923760269855995 0 -0.0025407527328299194 0.021452022956642374 0 -0.0031150726725765591 0.020923760269855995 0 -0.0025407527328299194 0.021452022956642374 0 -0.0028952645034053303 0.020754731771991941 0 -0.0022449262801586887 0.021169081036203265 0 -0.0020631069421811329 0.021883577806505031 0 -0.0025407527328299194 0.021452022956642374 0 -0.0022449262801586887 0.021169081036203265 0 -0.0028952645034053303 0.020754731771991941 0 -0.002368305727804043 0.020362976508777476 0 -0.0028952645034053303 0.020754731771991941 0 -0.0030350985393514909 0.020186623293008191 0 -0.002368305727804043 0.020362976508777476 0 -0.0036895915474432278 0.020359566645849324 0 -0.0031150726725765591 0.020923760269855995 0 -0.0028952645034053303 0.020754731771991941 0 -0.0036895915474432278 0.020359566645849324 0 -0.0028952645034053303 0.020754731771991941 0 -0.0030350985393514909 0.020186623293008191 0 -0.0036895915474432278 0.020359566645849324 0 -0.0030350985393514909 0.020186623293008191 0 -0.0034467294753445627 0.019720096948373948 0 -0.0030350985393514909 0.020186623293008191 0 -0.0027140342936004254 0.019674572801814488 0 -0.0034467294753445627 0.019720096948373948 0 -0.0030350985393514909 0.020186623293008191 0 -0.002368305727804043 0.020362976508777476 0 -0.0027140342936004254 0.019674572801814488 0 -0.0027140342936004254 0.019674572801814488 0 -0.0022050349241864039 0.019187179398236932 0 -0.0031726002436863465 0.019119265132344361 0 -0.002368305727804043 0.020362976508777476 0 -0.0027140342936004254 0.019674572801814488 0 -0.0022050349241864039 0.019187179398236932 0 -0.0027140342936004254 0.019674572801814488 0 -0.0031726002436863465 0.019119265132344361 0 -0.0034467294753445627 0.019720096948373948 0 -0.0031726002436863465 0.019119265132344361 0 -0.0037261211028584693 0.019183086855487055 0 -0.0040954706351985269 0.018686306153674916 0 -0.0031726002436863465 0.019119265132344361 0 -0.0037261211028584693 0.019183086855487055 0 -0.0034467294753445627 0.019720096948373948 0 -0.0037261211028584693 0.019183086855487055 0 -0.0040128867209924318 0.019265799866875242 0 -0.0034467294753445627 0.019720096948373948 0 -0.0040017555225786349 0.019236106502392963 0 -0.0039094890953429206 0.019160667261254132 0 -0.0040954706351985269 0.018686306153674916 0 -0.0037261211028584693 0.019183086855487055 0 -0.0039094890953429206 0.019160667261254132 0 -0.0040954706351985269 0.018686306153674916 0 0.00062963197845782449 0.01148355910888208 0 -0.0012509400613118287 0.013491457050492955 0 -0.0037261211028584693 0.019183086855487055 0 -0.0040128867209924318 0.019265799866875242 0 -0.0039094890953429206 0.019160667261254132 0 0.009613832240749378 -0.0032299205914547513 0 0.0094053430228822656 -0.0033217654607480551 0 0.0092787651889429078 -0.00288253242623694 0 0.00062963197845782449 0.01148355910888208 0 0.0017407730176022811 0.0073664803824916225 0 0.009613832240749378 -0.0032299205914547513 0 0.0094053430228822656 -0.0033217654607480551 0 0.009579389309262977 -0.0035055587341410246 0 0.0094053430228822656 -0.0033217654607480551 0 0.009579389309262977 -0.0035055587341410246 0 0.009302693918543643 -0.0035702926460523051 0 0.00062963197845782449 0.01148355910888208 0 0.0032741325186693955 0.0073026185240132107 0 -0.0035026794792965919 0.018383214374169364 0 -0.003682598911534155 0.018930954232126089 0 -0.004009191314197998 0.019018430557835954 0 -0.0038811978085715082 0.021292427340237233 0 0.00062963197845782449 0.01148355910888208 0 -0.0036895915474432278 0.020359566645849324 0 -0.0040128867209924318 0.019265799866875242 0 -0.0034467294753445627 0.019720096948373948 0 -0.003388538210023005 0.019198080454541095 0 -0.0035026794792965919 0.018383214374169364 0 -0.003682598911534155 0.018930954232126089 0 -0.0040513288897892309 0.017803937972048805 0 -0.0036203777939872268 0.017973903581440916 0 -0.0028846306614414559 0.017640918547731137 0 -0.0022594450048237791 0.011434566215287241 0 -0.0018915494091499147 0.0128588537269725 0 -0.00053814505955894541 0.0084478430328818275 0 -0.00070388958530208281 0.008533671393455778 0 -0.00058712962994228815 0.0085150599322973957 0 -0.0040649452977488711 0.017766177527803503 0 -0.0038951853225035341 0.018045507051555006 0 -0.0036203777939872268 0.017973903581440916 0 -0.0022594450048237791 0.011434566215287241 0 -0.003104659346256576 0.015846798278673187 0 -0.0040649452977488711 0.017766177527803503 0 -0.0041191841553577168 0.01794794386842374 0 -0.0038951853225035341 0.018045507051555006 0 -0.0041191841553577168 0.01794794386842374 0 -0.0038951853225035341 0.018045507051555006 0 -0.0041468155096820569 0.018175124837844416 0 -0.0038951853225035341 0.018045507051555006 0 -0.0036203777939872268 0.017973903581440916 0 -0.0036894832644294726 0.018378483087684139 0 -0.00053814505955894541 0.0084478430328818275 0 -0.00058712962994228815 0.0085150599322973957 0 -0.0005215626513511457 0.0084948170426521804 0 -0.0022594450048237791 0.011434566215287241 0 0.00016959976056110998 0.0050770743637526565 0 -0.00053814505955894541 0.0084478430328818275 0 -0.0004977673901582644 0.0084491410344450322 0 -0.0005215626513511457 0.0084948170426521804 0 0.0057199836458090162 -0.0043106860489154422 0 0.0054326814514074791 -0.0043091581888091719 0 0.005962566432746984 -0.004463531488189231 0 0.0010813425701578633 0.005216246203875256 0 0.0079802592155290963 -0.0051813443513221424 0 0.0054612577818898833 -0.0041887544702395151 0 0.0057199836458090162 -0.0043106860489154422 0 0.0058661092826823719 -0.0042877330821515158 0 0.0054612577818898833 -0.0041887544702395151 0 0.0057199836458090162 -0.0043106860489154422 0 0.0054326814514074791 -0.0043091581888091719 0 -0.0010241270823428796 0.008036367208716623 0 -9.3306864912625018e-05 0.0082902741339428519 0 -0.00019769293483770691 0.0078458116769254179 0 -0.0022594450048237791 0.011434566215287241 0 0.0010813425701578633 0.005216246203875256 0 -0.0040649452977488711 0.017766177527803503 0 -0.0041191841553577168 0.01794794386842374 0 -0.0043695618059937224 0.017804072786600605 0 0.00016959976056110998 0.0050770743637526565 0 0.0010813425701578633 0.005216246203875256 0 -0.0041191841553577168 0.01794794386842374 0 -0.0043695618059937224 0.017804072786600605 0 -0.0041468155096820569 0.018175124837844416 0 0.0010813425701578633 0.005216246203875256 0 0.0017407730176022811 0.0073664803824916225 0 0.009579389309262977 -0.0035055587341410246 0 0.009302693918543643 -0.0035702926460523051 0 0.0091019534172426426 -0.0039617021250689995 0 -0.0043695618059937224 0.017804072786600605 0 -0.0041468155096820569 0.018175124837844416 0 -0.0042108192505525398 0.018579406034497987 0 0.0017407730176022811 0.0073664803824916225 0 0.0085039458244143933 -0.0056828723126298528 0 0.0054817199185064058 -0.0042062302966093951 0 0.0053830241964625027 -0.0045578279237574754 0 0.005962566432746984 -0.004463531488189231 0 -0.0031726002436863465 0.019119265132344361 0 -0.0042108192505525398 0.018579406034497987 0 -0.0036894832644294726 0.018378483087684139 0 -0.0049427782854730169 0.021489019808856043 0 0.0017407730176022811 0.0073664803824916225 0 -0.0038951853225035341 0.018045507051555006 0 -0.0041468155096820569 0.018175124837844416 0 -0.0036894832644294726 0.018378483087684139 0 -0.0041468155096820569 0.018175124837844416 0 -0.0042108192505525398 0.018579406034497987 0 -0.0036894832644294726 0.018378483087684139 0 -0.0031726002436863465 0.019119265132344361 0 -0.0036894832644294726 0.018378483087684139 0 -0.0030815938945869463 0.018400736035107303 0 -0.0036203777939872268 0.017973903581440916 0 -0.0036894832644294726 0.018378483087684139 0 -0.0030815938945869463 0.018400736035107303 0 -0.0022050349241864039 0.019187179398236932 0 -0.0030815938945869463 0.018400736035107303 0 -0.0021500954558219009 0.018151927211401384 0 -0.0022050349241864039 0.019187179398236932 0 -0.0031726002436863465 0.019119265132344361 0 -0.0030815938945869463 0.018400736035107303 0 -0.0030815938945869463 0.018400736035107303 0 -0.0021500954558219009 0.018151927211401384 0 -0.0028846306614414559 0.017640918547731137 0 -0.0021500954558219009 0.018151927211401384 0 -0.0028846306614414559 0.017640918547731137 0 -0.0016289558858423858 0.017387080978187894 0 -0.0036203777939872268 0.017973903581440916 0 -0.0030815938945869463 0.018400736035107303 0 -0.0028846306614414559 0.017640918547731137 0 -0.00070388958530208281 0.008533671393455778 0 -0.00062268586402149031 0.0085616260536203938 0 -0.00070812600488975017 0.0086327723169911646 0 -0.00070388958530208281 0.008533671393455778 0 -0.00062268586402149031 0.0085616260536203938 0 -0.00058712962994228815 0.0085150599322973957 0 -0.0018915494091499147 0.0128588537269725 0 -0.00067495934513318726 0.016399944605120138 0 -0.00070388958530208281 0.008533671393455778 0 -0.000759248775707495 0.0086045120899573644 0 -0.00070812600488975017 0.0086327723169911646 0 -0.00070388958530208281 0.008533671393455778 0 -0.000759248775707495 0.0086045120899573644 0 -0.00084076312719471625 0.0086502018638177237 0 -0.000759248775707495 0.0086045120899573644 0 -0.0007935870522155445 0.0086402344920319726 0 -0.00081060003442820483 0.0086441231029143455 0 -0.000759248775707495 0.0086045120899573644 0 -0.00079034088181370512 0.0086557456817842032 0 -0.00070812600488975017 0.0086327723169911646 0 -0.000759248775707495 0.0086045120899573644 0 -0.00079034088181370512 0.0086557456817842032 0 -0.0007935870522155445 0.0086402344920319726 0 -0.00079034088181370512 0.0086557456817842032 0 -0.00070812600488975017 0.0086327723169911646 0 -0.00082849024344377803 0.0087380582410595768 0 -0.00062268586402149031 0.0085616260536203938 0 -0.00070812600488975017 0.0086327723169911646 0 -0.00057463438468100306 0.0086015281137736994 0 -0.00070812600488975017 0.0086327723169911646 0 -0.00057463438468100306 0.0086015281137736994 0 -0.00065826596082672233 0.0086737957105478564 0 -0.00070812600488975017 0.0086327723169911646 0 -0.00065826596082672233 0.0086737957105478564 0 -0.00073113323547546293 0.0087546719907954963 0 -0.00057463438468100306 0.0086015281137736994 0 -0.00054962361210496508 0.0085364790400529085 0 -0.00044002344269246461 0.0085327307171933625 0 -0.00057463438468100306 0.0086015281137736994 0 -0.00044002344269246461 0.0085327307171933625 0 -0.00047683143804021948 0.0086198715391861136 0 -0.00062268586402149031 0.0085616260536203938 0 -0.00057463438468100306 0.0086015281137736994 0 -0.00054962361210496508 0.0085364790400529085 0 -0.00054962361210496508 0.0085364790400529085 0 -0.00058712962994228815 0.0085150599322973957 0 -0.0005215626513511457 0.0084948170426521804 0 -0.00062268586402149031 0.0085616260536203938 0 -0.00054962361210496508 0.0085364790400529085 0 -0.00058712962994228815 0.0085150599322973957 0 -0.0013134257263201512 0.0032723141861379468 0 -0.00090437876812279178 0.0049321604120692586 0 -0.00061781413644958639 0.0040617575198149142 0 -0.00054962361210496508 0.0085364790400529085 0 -0.0005215626513511457 0.0084948170426521804 0 -0.00044002344269246461 0.0085327307171933625 0 0.00016959976056110998 0.0050770743637526565 0 -0.00075570426351802462 0.0068646080163398742 0 -0.0004977673901582644 0.0084491410344450322 0 -0.0005215626513511457 0.0084948170426521804 0 -0.00044002344269246461 0.0085327307171933625 0 -0.0013134257263201512 0.0032723141861379468 0 -0.0003231979312313602 0.0038610323262623647 0 -0.00061781413644958639 0.0040617575198149142 0 -0.00075570426351802462 0.0068646080163398742 0 -0.00040366826023867603 0.0075944893914663969 0 -0.00047683143804021948 0.0086198715391861136 0 -0.00042866010619420732 0.0086523664933787631 0 -0.00033331283927574162 0.0085724079982665066 0 -0.00044002344269246461 0.0085327307171933625 0 -0.00047683143804021948 0.0086198715391861136 0 -0.00033331283927574162 0.0085724079982665066 0 -0.00057463438468100306 0.0086015281137736994 0 -0.00047683143804021948 0.0086198715391861136 0 -0.00062245827091342244 0.0087081852031270467 0 -0.00047683143804021948 0.0086198715391861136 0 -0.00042866010619420732 0.0086523664933787631 0 -0.00062245827091342244 0.0087081852031270467 0 -0.00042866010619420732 0.0086523664933787631 0 -0.0006333432607656495 0.0088516119623510674 0 -0.00062245827091342244 0.0087081852031270467 0 -0.00042866010619420732 0.0086523664933787631 0 -0.00045560415886039253 0.0088930049366416873 0 -0.0006333432607656495 0.0088516119623510674 0 -0.00042866010619420732 0.0086523664933787631 0 -0.00045560415886039253 0.0088930049366416873 0 -3.980236803191264e-05 0.0084592134143490448 0 -0.00042866010619420732 0.0086523664933787631 0 -3.980236803191264e-05 0.0084592134143490448 0 -0.00033331283927574162 0.0085724079982665066 0 -0.00023341963526341545 0.0090217627405440228 0 -0.00045560415886039253 0.0088930049366416873 0 -3.980236803191264e-05 0.0084592134143490448 0 -0.00023341963526341545 0.0090217627405440228 0 -0.00045560415886039253 0.0088930049366416873 0 -0.00038292156791067149 0.0092923421340645063 0 -0.0006333432607656495 0.0088516119623510674 0 -0.00061762327632016941 0.0091600354939605031 0 -0.00081742518365270024 0.0091398170997197149 0 -0.00045560415886039253 0.0088930049366416873 0 -0.00061762327632016941 0.0091600354939605031 0 -0.00038292156791067149 0.0092923421340645063 0 -0.00045560415886039253 0.0088930049366416873 0 -0.0006333432607656495 0.0088516119623510674 0 -0.00061762327632016941 0.0091600354939605031 0 -0.00061762327632016941 0.0091600354939605031 0 -0.00051786482892564464 0.0094799695839969736 0 -0.00038292156791067149 0.0092923421340645063 0 -0.00061762327632016941 0.0091600354939605031 0 -0.00075128401149564196 0.0093956299308149051 0 -0.00081742518365270024 0.0091398170997197149 0 -0.00061762327632016941 0.0091600354939605031 0 -0.00051786482892564464 0.0094799695839969736 0 -0.00075128401149564196 0.0093956299308149051 0 -0.00051786482892564464 0.0094799695839969736 0 -0.00038292156791067149 0.0092923421340645063 0 -0.00024887118562391919 0.0095643991918191278 0 -0.00023341963526341545 0.0090217627405440228 0 -0.00038292156791067149 0.0092923421340645063 0 8.4792138267365314e-05 0.009386035605126802 0 -0.00038292156791067149 0.0092923421340645063 0 8.4792138267365314e-05 0.009386035605126802 0 -0.00024887118562391919 0.0095643991918191278 0 -0.0013131841330209773 0.014515850643350687 0 -0.0014257811574093211 0.02016731530581975 0 -0.003165297275807897 0.015732090566346408 0 -0.0031009833703818405 0.015598721040314865 0 -0.0032328192040988087 0.015609887207887875 0 -0.0013131841330209773 0.014515850643350687 0 -0.0022577531029338445 0.012121192532575112 0 0.0012728577137931601 0.021859696852207715 0 0.00065111574524535584 0.021929900114866049 0 0.00045865628732555814 0.02305649431415964 0 -0.00075128401149564196 0.0093956299308149051 0 -0.00081742518365270024 0.0091398170997197149 0 -0.00097930630183887604 0.009528376808078512 0 -0.00081742518365270024 0.0091398170997197149 0 -0.0010671927016250051 0.0091196934237809096 0 -0.00097930630183887604 0.009528376808078512 0 -0.00081742518365270024 0.0091398170997197149 0 -0.0010671927016250051 0.0091196934237809096 0 -0.00084038663371077747 0.0088234107533212841 0 -0.0006333432607656495 0.0088516119623510674 0 -0.00081742518365270024 0.0091398170997197149 0 -0.00084038663371077747 0.0088234107533212841 0 -0.0013131841330209773 0.014515850643350687 0 -0.0003502092931413089 0.0081707734151790015 0 0.0012728577137931601 0.021859696852207715 0 0.00065111574524535584 0.021929900114866049 0 0.00085502426499998508 0.019909638007381051 0 -0.0013131841330209773 0.014515850643350687 0 0.00016464165977643123 0.014763882048730656 0 -0.00078370815929783267 0.0093737947733308225 0 -0.00085233967236159665 0.0089608277705703759 0 -0.00063881789729359497 0.0090179489362177834 0 -0.00085233967236159665 0.0089608277705703759 0 -0.00063881789729359497 0.0090179489362177834 0 -0.00073113323547546293 0.0087546719907954963 0 -0.0006333432607656495 0.0088516119623510674 0 -0.00084038663371077747 0.0088234107533212841 0 -0.00062245827091342244 0.0087081852031270467 0 -0.00063881789729359497 0.0090179489362177834 0 -0.00062245827091342244 0.0087081852031270467 0 -0.00073113323547546293 0.0087546719907954963 0 -0.0003502092931413089 0.0081707734151790015 0 -0.00078160761096847538 0.009004652961086582 0 -0.00057463438468100306 0.0086015281137736994 0 -0.00062245827091342244 0.0087081852031270467 0 -0.00065826596082672233 0.0086737957105478564 0 -0.00062245827091342244 0.0087081852031270467 0 -0.00065826596082672233 0.0086737957105478564 0 -0.00073113323547546293 0.0087546719907954963 0 -0.00085233967236159665 0.0089608277705703759 0 -0.00073113323547546293 0.0087546719907954963 0 -0.00082849024344377803 0.0087380582410595768 0 -0.00070812600488975017 0.0086327723169911646 0 -0.00073113323547546293 0.0087546719907954963 0 -0.00082849024344377803 0.0087380582410595768 0 0.00016464165977643123 0.014763882048730656 0 -0.00036718986112774655 0.012919646235775057 0 -0.00079245900320811078 0.019161379706665371 0 1.5944390925856951e-05 0.020835952360696131 0 0.00021730774347888436 0.017863725863271864 0 -0.0012609062890862738 0.01820156916265778 0 -0.00033095984386715207 0.020100389644249914 0 0.00021730774347888436 0.017863725863271864 0 -0.0012609062890862738 0.01820156916265778 0 -0.001082177328413319 0.016971518346741758 0 -8.4221826266650673e-05 0.020780882351088843 0 -0.00037919850738152945 0.021113182860387603 0 -0.00050027877125745552 0.020581462534564093 0 -8.4221826266650673e-05 0.020780882351088843 0 -0.00037919850738152945 0.021113182860387603 0 -9.9910179251169325e-05 0.021193992363852377 0 -0.00037919850738152945 0.021113182860387603 0 -9.9910179251169325e-05 0.021193992363852377 0 -0.0001979076707015747 0.021474580481923203 0 -0.0001979076707015747 0.021474580481923203 0 -0.00055733691824799692 0.021648881649936471 0 -0.00014451006255339609 0.021806150793409987 0 -0.00037919850738152945 0.021113182860387603 0 -0.0001979076707015747 0.021474580481923203 0 -0.00055733691824799692 0.021648881649936471 0 0.00065111574524535584 0.021929900114866049 0 0.00085502426499998508 0.019909638007381051 0 -0.00033095984386715207 0.020100389644249914 0 -8.4221826266650673e-05 0.020780882351088843 0 -9.9910179251169325e-05 0.021193992363852377 0 0.00026071570108572562 0.02141059799496705 0 0.00085502426499998508 0.019909638007381051 0 0.00021730774347888436 0.017863725863271864 0 -0.00033095984386715207 0.020100389644249914 0 -9.9910179251169325e-05 0.021193992363852377 0 -0.0001979076707015747 0.021474580481923203 0 0.00026071570108572562 0.02141059799496705 0 -0.0001979076707015747 0.021474580481923203 0 0.00026071570108572562 0.02141059799496705 0 -0.00014451006255339609 0.021806150793409987 0 0.00065111574524535584 0.021929900114866049 0 0.00026071570108572562 0.02141059799496705 0 0.0001930800439830688 0.021856356423810008 0 0.00056780359218517663 0.021816583113908179 0 1.5944390925856951e-05 0.020835952360696131 0 0.00065111574524535584 0.021929900114866049 0 0.00025561963978429022 0.022094009963580317 0 0.0001930800439830688 0.021856356423810008 0 -7.4271306342171745e-06 0.022134250013908549 0 0.0001930800439830688 0.021856356423810008 0 -0.00014451006255339609 0.021806150793409987 0 -7.4271306342171745e-06 0.022134250013908549 0 0.00025561963978429022 0.022094009963580317 0 0.0001930800439830688 0.021856356423810008 0 0.00026071570108572562 0.02141059799496705 0 0.0001930800439830688 0.021856356423810008 0 -0.00014451006255339609 0.021806150793409987 0 -0.00055733691824799692 0.021648881649936471 0 -0.00031991354620628394 0.022155985905321755 0 -0.00084121374603723519 0.022301391631977498 0 -0.00055733691824799692 0.021648881649936471 0 -0.00014451006255339609 0.021806150793409987 0 -0.00031991354620628394 0.022155985905321755 0 -7.4271306342171745e-06 0.022134250013908549 0 -0.00014451006255339609 0.021806150793409987 0 -0.00031991354620628394 0.022155985905321755 0 -7.4271306342171745e-06 0.022134250013908549 0 -0.00031991354620628394 0.022155985905321755 0 -0.00019369890663962011 0.022462561837502695 0 -0.00031991354620628394 0.022155985905321755 0 -0.00019369890663962011 0.022462561837502695 0 -0.00054166979775427198 0.022579931299243239 0 -0.00031991354620628394 0.022155985905321755 0 -0.00054166979775427198 0.022579931299243239 0 -0.00084121374603723519 0.022301391631977498 0 -0.00019369890663962011 0.022462561837502695 0 -0.00054166979775427198 0.022579931299243239 0 -0.00028599686466137912 0.022968274775265099 0 -0.00054166979775427198 0.022579931299243239 0 -0.00061686402547000659 0.022891204715051398 0 -0.00028599686466137912 0.022968274775265099 0 -0.00019369890663962011 0.022462561837502695 0 0.00017603158852650059 0.02246684526860394 0 -0.00028599686466137912 0.022968274775265099 0 0.00017603158852650059 0.02246684526860394 0 0.00045865628732555814 0.02305649431415964 0 -0.00028599686466137912 0.022968274775265099 0 0.00065111574524535584 0.021929900114866049 0 0.00017603158852650059 0.02246684526860394 0 0.00045865628732555814 0.02305649431415964 0 0.00065111574524535584 0.021929900114866049 0 0.00025561963978429022 0.022094009963580317 0 0.00017603158852650059 0.02246684526860394 0 -7.4271306342171745e-06 0.022134250013908549 0 -0.00019369890663962011 0.022462561837502695 0 0.00017603158852650059 0.02246684526860394 0 -7.4271306342171745e-06 0.022134250013908549 0 0.00025561963978429022 0.022094009963580317 0 0.00017603158852650059 0.02246684526860394 0 -0.0011758958933265314 0.023324683226271684 0 -0.0011154592073373368 0.022992950479097312 0 -0.00054166979775427198 0.022579931299243239 0 -0.00095327706589848826 0.022812629433440233 0 -0.00061686402547000659 0.022891204715051398 0 -0.00054166979775427198 0.022579931299243239 0 -0.00095327706589848826 0.022812629433440233 0 -0.00084121374603723519 0.022301391631977498 0 -0.0013820541264459392 0.022715189946802435 0 -0.00095327706589848826 0.022812629433440233 0 -0.00084121374603723519 0.022301391631977498 0 -0.0013820541264459392 0.022715189946802435 0 -0.00084121374603723519 0.022301391631977498 0 -0.0011269483341448375 0.021803742662767148 0 -0.00055733691824799692 0.021648881649936471 0 -0.00084121374603723519 0.022301391631977498 0 -0.0011269483341448375 0.021803742662767148 0 -0.00084978162687234741 0.023838301918336465 0 -0.0010286626399540787 0.023724208827831154 0 -0.0010722686462293562 0.02388608036397535 0 -0.00092308847035274825 0.024068670204939614 0 -0.00084978162687234741 0.023838301918336465 0 -0.0010722686462293562 0.02388608036397535 0 -0.0011758958933265314 0.023324683226271684 0 -0.00099655017960418365 0.022884301219113203 0 -0.00084978162687234741 0.023838301918336465 0 -0.00092774832155108377 0.023609515209447447 0 -0.0010286626399540787 0.023724208827831154 0 -0.00099655017960418365 0.022884301219113203 0 -0.00079822504784889873 0.022044203658053048 0 -0.00084978162687234741 0.023838301918336465 0 -0.00076935633795298364 0.023593983742285801 0 -0.00092774832155108377 0.023609515209447447 0 -0.00037919850738152945 0.021113182860387603 0 -0.00055733691824799692 0.021648881649936471 0 -0.00087222793706522191 0.020995977673769872 0 -0.00055733691824799692 0.021648881649936471 0 -0.0011269483341448375 0.021803742662767148 0 -0.00087222793706522191 0.020995977673769872 0 -0.00079822504784889873 0.022044203658053048 0 -0.0004998046512749597 0.023060176505120451 0 -0.00037919850738152945 0.021113182860387603 0 -0.00087222793706522191 0.020995977673769872 0 -0.00050027877125745552 0.020581462534564093 0 -0.00087222793706522191 0.020995977673769872 0 -0.00064733281877387035 0.020252380441060241 0 -0.00050027877125745552 0.020581462534564093 0 -0.00092774832155108377 0.023609515209447447 0 -0.00090548592619166821 0.02344426463617862 0 -0.0011095576053873914 0.023552831218768722 0 -0.00078911603173711681 0.024037398020298955 0 -0.00094952570109099494 0.024002545628076386 0 -0.00076935633795298364 0.023593983742285801 0 -0.00092774832155108377 0.023609515209447447 0 -0.00090548592619166821 0.02344426463617862 0 -0.00057510505290995909 0.024492745754354093 0 -0.00060127766262301516 0.024420658533581583 0 -0.00091381478004499864 0.024668902172793352 0 -0.00060936179206887251 0.024992295437975532 0 -0.0006172563821436654 0.024835086818614124 0 -0.00074074337918975369 0.024964265014053185 0 -0.00051975997726250557 0.02813649345910451 0 -0.00054815337779707781 0.028187362553728137 0 -0.00047018750844981817 0.028200363107954624 0 -0.0006172563821436654 0.024835086818614124 0 -0.0003653005812098251 0.024892026645061616 0 -0.00034053154663391211 0.024784718062769408 0 -0.0006172563821436654 0.024835086818614124 0 -0.00034109095377777865 0.024731928102574147 0 -0.00034053154663391211 0.024784718062769408 0 -0.00051975997726250557 0.02813649345910451 0 -0.00059961801632976079 0.028115597092022212 0 -0.00054815337779707781 0.028187362553728137 0 -0.00059637404723372246 0.026739690944607913 0 -0.00062494743961578924 0.023733130600367341 0 -0.00061552561796335704 0.024801284869841841 0 -0.0004998046512749597 0.023060176505120451 0 -0.00057510505290995909 0.024492745754354093 0 -0.00060127766262301516 0.024420658533581583 0 -0.00022971694248984917 0.024296552560895301 0 -0.00078911603173711681 0.024037398020298955 0 -0.0004998046512749597 0.023060176505120451 0 -0.00060936179206887251 0.024992295437975532 0 -0.0006172563821436654 0.024835086818614124 0 -0.0003653005812098251 0.024892026645061616 0 -0.00034248251887119999 0.024805624962049678 0 -0.00033530196536453937 0.02480438659103635 0 -0.00034053154663391211 0.024784718062769408 0 -0.00076935633795298364 0.023593983742285801 0 -0.00090548592619166821 0.02344426463617862 0 -0.00069132073340056883 0.023339838518894686 0 -0.0004998046512749597 0.023060176505120451 0 -0.00065525596609903507 0.024610927224978194 0 -0.0004998046512749597 0.023060176505120451 0 -0.00066418349362436452 0.022124184520297401 0 -0.00064733281877387035 0.020252380441060241 0 -0.00050027877125745552 0.020581462534564093 0 -0.00057131582751104664 0.020216311841291357 0 -0.0010579790028710995 0.019992385816890487 0 -0.0011697337174820823 0.014237899379085307 0 -0.0012609062890862738 0.01820156916265778 0 -0.0021917301465971639 0.016309032195027051 0 -0.001082177328413319 0.016971518346741758 0 -0.0021917301465971639 0.016309032195027051 0 -0.001082177328413319 0.016971518346741758 0 -0.00042045554429337434 0.015921193519323154 0 -0.00079245900320811078 0.019161379706665371 0 -0.0010579790028710995 0.019992385816890487 0 -0.00094653743195259284 0.01885015370998519 0 -0.00098443467731477584 0.018875873453138573 0 -0.00082039339240997777 0.018806270059938516 0 -8.4221826266650673e-05 0.020780882351088843 0 -0.00050027877125745552 0.020581462534564093 0 -0.0004231548977472456 0.020145003114490356 0 -0.00050027877125745552 0.020581462534564093 0 -0.0004231548977472456 0.020145003114490356 0 -0.00057131582751104664 0.020216311841291357 0 -0.00085601773666809516 0.019695038173347584 0 -0.0010579790028710995 0.019992385816890487 0 -0.00031087949063288644 0.024803774639025881 0 -0.00033530196536453937 0.02480438659103635 0 -0.00034053154663391211 0.024784718062769408 0 -0.0010579790028710995 0.019992385816890487 0 -0.00066418349362436452 0.022124184520297401 0 0.00021730774347888436 0.017863725863271864 0 -0.001082177328413319 0.016971518346741758 0 -0.00042045554429337434 0.015921193519323154 0 -0.00036718986112774655 0.012919646235775057 0 -0.0011697337174820823 0.014237899379085307 0 -0.00079034088181370512 0.0086557456817842032 0 -0.00082849024344377803 0.0087380582410595768 0 -0.00082073700744712179 0.0086663870069689179 0 -0.000759248775707495 0.0086045120899573644 0 -0.00081060003442820483 0.0086441231029143455 0 -0.00084076312719471625 0.0086502018638177237 0 -0.00079034088181370512 0.0086557456817842032 0 -0.0007935870522155445 0.0086402344920319726 0 -0.00082073700744712179 0.0086663870069689179 0 -0.0007935870522155445 0.0086402344920319726 0 -0.00081060003442820483 0.0086441231029143455 0 -0.00082073700744712179 0.0086663870069689179 0 -0.00082039339240997777 0.018806270059938516 0 -0.00084920867164215471 0.018721407846102073 0 -0.00091066654947540373 0.018794072449322515 0 -0.0011697337174820823 0.014237899379085307 0 -0.00067495934513318726 0.016399944605120138 0 -0.00081060003442820483 0.0086441231029143455 0 -0.00082073700744712179 0.0086663870069689179 0 -0.00084076312719471625 0.0086502018638177237 0 -0.00074988800635371626 0.021124093021246272 0 -0.00067804859302061872 0.021142671427588425 0 -0.00070537831652337955 0.021176951084396316 0 -0.00067495934513318726 0.016399944605120138 0 -0.00062494743961578924 0.023733130600367341 0 -0.00084920867164215471 0.018721407846102073 0 -0.001025724187231482 0.018798908831229678 0 -0.00091066654947540373 0.018794072449322515 0 -0.00094653743195259284 0.01885015370998519 0 -0.001025724187231482 0.018798908831229678 0 -0.00091066654947540373 0.018794072449322515 0 -0.00094653743195259284 0.01885015370998519 0 -0.00098345376050983937 0.018873474027635069 0 -0.001025724187231482 0.018798908831229678 0 -0.0010579790028710995 0.019992385816890487 0 -0.00062494743961578924 0.023733130600367341 0 -0.00031087949063288644 0.024803774639025881 0 -0.00034109095377777865 0.024731928102574147 0 -0.00034053154663391211 0.024784718062769408 0 -0.00094653743195259284 0.01885015370998519 0 -0.00082039339240997777 0.018806270059938516 0 -0.00091066654947540373 0.018794072449322515 0 -0.00070537831652337955 0.021176951084396316 0 -0.00072111299811154837 0.021224353957111867 0 -0.00064863507563755563 0.021241258764972661 0 -0.00074988800635371626 0.021124093021246272 0 -0.00070537831652337955 0.021176951084396316 0 -0.00072111299811154837 0.021224353957111867 0 -0.0021500954558219009 0.018151927211401384 0 -0.0016289558858423858 0.017387080978187894 0 -0.0012897832603669997 0.018512181556774563 0 -0.00067495934513318726 0.016399944605120138 0 -0.0009739185368057272 0.02043793679013646 0 -0.0022050349241864039 0.019187179398236932 0 -0.0021500954558219009 0.018151927211401384 0 -0.0012897832603669997 0.018512181556774563 0 -0.00067077039059239665 0.021269697813648222 0 -0.00072111299811154837 0.021224353957111867 0 -0.00064863507563755563 0.021241258764972661 0 -0.00053455078773090206 0.028206254596205696 0 -0.00054250667127687035 0.028231081006170673 0 -0.00054730872636198676 0.028233781455528493 0 0.00023868311297446895 0.026664533163940192 0 -0.00075819392002364917 0.024493077938198167 0 -0.00053455078773090206 0.028206254596205696 0 -0.0005497844187999177 0.02821130458567821 0 -0.00054250667127687035 0.028231081006170673 0 -0.0005489809410219571 0.028281078750575013 0 -0.00054089713989503353 0.027908728333666311 0 -0.00054250667127687035 0.028231081006170673 0 -0.00054815337779707781 0.028187362553728137 0 -0.00054760567652757653 0.028284795790569101 0 -0.0005497844187999177 0.02821130458567821 0 -0.00054250667127687035 0.028231081006170673 0 -0.00054815337779707781 0.028187362553728137 0 -0.00062494743961578924 0.023733130600367341 0 -0.00075819392002364917 0.024493077938198167 0 -0.00067804859302061872 0.021142671427588425 0 -0.00070537831652337955 0.021176951084396316 0 -0.00064863507563755563 0.021241258764972661 0 -0.00059961801632976079 0.028115597092022212 0 -0.0005497844187999177 0.02821130458567821 0 -0.00054815337779707781 0.028187362553728137 0 -0.00058197765710838627 0.028278932571978627 0 -0.00054760567652757653 0.028284795790569101 0 -0.00062535290458058104 0.028367533478662475 0 0.0026114336686894283 0.036461429041370307 0 0.0018524786631853314 0.03661543147728525 0 0.0018976222217464917 0.037204632827132614 0 0.0010395275085874956 0.032490640992613111 0 -0.0001000396180737896 0.030942918790968187 0 -0.00058197765710838627 0.028278932571978627 0 -0.00054760567652757653 0.028284795790569101 0 -0.00055347671228199241 0.028255590267579084 0 -0.00054250667127687035 0.028231081006170673 0 -0.00054760567652757653 0.028284795790569101 0 -0.00055347671228199241 0.028255590267579084 0 -0.00058197765710838627 0.028278932571978627 0 -0.00055347671228199241 0.028255590267579084 0 -0.00054730872636198676 0.028233781455528493 0 0.0010395275085874956 0.032490640992613111 0 0.0012906909144420105 0.032503015979956931 0 -0.00054250667127687035 0.028231081006170673 0 -0.00055347671228199241 0.028255590267579084 0 -0.00054730872636198676 0.028233781455528493 0 0.0022152555924525841 0.035440180699547588 0 0.0026114336686894283 0.036461429041370307 0 0.0033730062926168171 0.03565871849913544 0 0.0022152555924525841 0.035440180699547588 0 0.0026114336686894283 0.036461429041370307 0 0.001584688879026606 0.036071249010302744 0 0.0022152555924525841 0.035440180699547588 0 0.0013772413653173855 0.035583351356019442 0 0.001584688879026606 0.036071249010302744 0 0.00086783247221052667 0.035566400335369432 0 0.00059856641067075318 0.035944362602946346 0 0.00033580818800841027 0.035513788409861372 0 0.0013772413653173855 0.035583351356019442 0 0.00086783247221052667 0.035566400335369432 0 0.0010395611103413917 0.036156499384493439 0 0.0013772413653173855 0.035583351356019442 0 0.001584688879026606 0.036071249010302744 0 0.0010395611103413917 0.036156499384493439 0 0.0010395611103413917 0.036156499384493439 0 0.00059856641067075318 0.035944362602946346 0 0.00056627940049087673 0.036387995126151873 0 0.00086783247221052667 0.035566400335369432 0 0.0010395611103413917 0.036156499384493439 0 0.00059856641067075318 0.035944362602946346 0 0.0010395611103413917 0.036156499384493439 0 0.00091064399215416507 0.036575335699404264 0 0.00056627940049087673 0.036387995126151873 0 0.0010395611103413917 0.036156499384493439 0 0.00091064399215416507 0.036575335699404264 0 0.001361228356271538 0.036611975488493043 0 0.001584688879026606 0.036071249010302744 0 0.0010395611103413917 0.036156499384493439 0 0.001361228356271538 0.036611975488493043 0 0.00091064399215416507 0.036575335699404264 0 0.001361228356271538 0.036611975488493043 0 0.0010543596763015527 0.036944571620227434 0 0.00091064399215416507 0.036575335699404264 0 0.00053616510122177045 0.03677093906092322 0 0.00056627940049087673 0.036387995126151873 0 0.00091064399215416507 0.036575335699404264 0 0.0010543596763015527 0.036944571620227434 0 0.00053616510122177045 0.03677093906092322 0 0.0026114336686894283 0.036461429041370307 0 0.001584688879026606 0.036071249010302744 0 0.0018524786631853314 0.03661543147728525 0 0.001361228356271538 0.036611975488493043 0 0.0018976222217464917 0.037204632827132614 0 0.0010543596763015527 0.036944571620227434 0 0.001584688879026606 0.036071249010302744 0 0.001361228356271538 0.036611975488493043 0 0.0018524786631853314 0.03661543147728525 0 0.001361228356271538 0.036611975488493043 0 0.0018524786631853314 0.03661543147728525 0 0.0018976222217464917 0.037204632827132614 0 -0.00039127484131047235 0.028243520089205495 0 -0.00035973767457540178 0.028228604529745235 0 -0.00029116698410406856 0.028272317898116548 0 -0.0001000396180737896 0.030942918790968187 0 0.00056048512731212406 0.033046819399285089 0 -0.00039127484131047235 0.028243520089205495 0 -0.00035973767457540178 0.028228604529745235 0 -0.00039554681157647306 0.0282112555869495 0 -0.00039127484131047235 0.028243520089205495 0 -0.00039554681157647306 0.0282112555869495 0 -0.00042026075289369454 0.02819815433534505 0 -0.00035973767457540178 0.028228604529745235 0 -0.00039554681157647306 0.0282112555869495 0 -0.00037624829777301434 0.028200473340397256 0 0.0018976222217464917 0.037204632827132614 0 0.0010543596763015527 0.036944571620227434 0 0.00086607715809036744 0.037424511745704457 0 0.00056048512731212406 0.033046819399285089 0 0.00045808353464038987 0.036238602850981641 0 0.0010543596763015527 0.036944571620227434 0 0.00086607715809036744 0.037424511745704457 0 0.00053616510122177045 0.03677093906092322 0 -0.00035973767457540178 0.028228604529745235 0 -0.00029116698410406856 0.028272317898116548 0 -0.00033901952017826887 0.028220779983416579 0 0.00056048512731212406 0.033046819399285089 0 7.1156984883650703e-05 0.033701458505464549 0 -0.0001966841246416078 0.032410090304249572 0 7.4021704468089916e-05 0.031774998063434604 0 0.00059854208759761403 0.032226281164327818 0 -0.0001966841246416078 0.032410090304249572 0 7.4021704468089916e-05 0.031774998063434604 0 -0.00068829881058934277 0.031377235630366415 0 0.00056048512731212406 0.033046819399285089 0 -0.0007402245136317394 0.02913693446304387 0 -0.00029116698410406856 0.028272317898116548 0 -0.00033901952017826887 0.028220779983416579 0 -0.00032555709941042523 0.02818680342559721 0 -0.0007402245136317394 0.02913693446304387 0 -0.0010139987338245722 0.028119776820365705 0 -0.00074840800876348093 0.029745091343318705 0 -0.00081829010995990333 0.029597360400957663 0 -0.00064757414495554306 0.029642711096185104 0 -0.00074840800876348093 0.029745091343318705 0 -0.00064757414495554306 0.029642711096185104 0 -0.00049397988377328336 0.029699887035193936 0 7.4021704468089916e-05 0.031774998063434604 0 -0.00068829881058934277 0.031377235630366415 0 0.00037885243627853868 0.031157732469293101 0 -0.0007402245136317394 0.02913693446304387 0 -0.00010417168143135201 0.031509517486891458 0 -0.00039554681157647306 0.0282112555869495 0 -0.00038323291781947239 0.028184561069403997 0 -0.00042026075289369454 0.02819815433534505 0 -0.00039554681157647306 0.0282112555869495 0 -0.00038323291781947239 0.028184561069403997 0 -0.00037624829777301434 0.028200473340397256 0 -0.00049864313799387013 0.027129175677813769 0 -0.00036976260141302462 0.027536408192019239 0 -0.00032555709941042523 0.02818680342559721 0 -0.00038256126979550458 0.028185424816266954 0 -0.00037624829777301434 0.028200473340397256 0 -0.00033901952017826887 0.028220779983416579 0 -0.00032555709941042523 0.02818680342559721 0 -0.00037624829777301434 0.028200473340397256 0 -0.00035973767457540178 0.028228604529745235 0 -0.00033901952017826887 0.028220779983416579 0 -0.00037624829777301434 0.028200473340397256 0 -0.0007402245136317394 0.02913693446304387 0 -0.00049864313799387013 0.027129175677813769 0 -0.00079991165128716053 0.027722083037816189 0 -0.00080230489327773487 0.027715725961330821 0 -0.00080149886835935273 0.02771726130993812 0 -0.00080230489327773487 0.027715725961330821 0 -0.00080380004207500756 0.027711599021656014 0 -0.00080149886835935273 0.02771726130993812 0 -0.00049864313799387013 0.027129175677813769 0 -0.00098891026746892935 0.026316821817552394 0 -0.00049864313799387013 0.027129175677813769 0 -0.00069752876261528363 0.026484613572908367 0 -0.00038323291781947239 0.028184561069403997 0 -0.00042026075289369454 0.02819815433534505 0 -0.00045618328429871188 0.028165041424410647 0 -0.001130559282586529 0.025028775762181054 0 -0.0010951373708263435 0.025109519277413641 0 -0.00096407137608440466 0.025057248672896371 0 -0.0011041430704480781 0.025104440087832129 0 -0.00096407137608440466 0.025057248672896371 0 -0.0010778363190624297 0.025165204194104625 0 -0.00098891026746892935 0.026316821817552394 0 -0.00087663174905202354 0.025312667828051902 0 -0.001130559282586529 0.025028775762181054 0 -0.00096407137608440466 0.025057248672896371 0 -0.00088535753299954351 0.024940991594941325 0 -0.00096407137608440466 0.025057248672896371 0 -0.00084875255636336177 0.025086976546496869 0 -0.0010778363190624297 0.025165204194104625 0 -0.00096407137608440466 0.025057248672896371 0 -0.00088535753299954351 0.024940991594941325 0 -0.00084875255636336177 0.025086976546496869 0 -0.00047018750844981817 0.028200363107954624 0 -0.00039127484131047235 0.028243520089205495 0 -0.00042026075289369454 0.02819815433534505 0 -0.00047018750844981817 0.028200363107954624 0 -0.00042026075289369454 0.02819815433534505 0 -0.00045618328429871188 0.028165041424410647 0 -0.00054089713989503353 0.027908728333666311 0 -0.0001000396180737896 0.030942918790968187 0 -0.00051975997726250557 0.02813649345910451 0 -0.00047018750844981817 0.028200363107954624 0 -0.00045618328429871188 0.028165041424410647 0 -0.00059637404723372246 0.026739690944607913 0 -0.00069752876261528363 0.026484613572908367 0 -0.0006172563821436654 0.024835086818614124 0 -0.00074074337918975369 0.024964265014053185 0 -0.00088535753299954351 0.024940991594941325 0 -0.00060936179206887251 0.024992295437975532 0 -0.00074074337918975369 0.024964265014053185 0 -0.00084875255636336177 0.025086976546496869 0 -0.00061552561796335704 0.024801284869841841 0 -0.00090203068443538874 0.024752774457854183 0 -0.00074074337918975369 0.024964265014053185 0 -0.00088535753299954351 0.024940991594941325 0 -0.00084875255636336177 0.025086976546496869 0 -0.00096766567557612492 0.024536754554111469 0 -0.00091381478004499864 0.024668902172793352 0 -0.0012532735087124082 0.024837602458629118 0 -0.00060127766262301516 0.024420658533581583 0 -0.00096766567557612492 0.024536754554111469 0 -0.00091381478004499864 0.024668902172793352 0 -0.00092774832155108377 0.023609515209447447 0 -0.0011095576053873914 0.023552831218768722 0 -0.0010286626399540787 0.023724208827831154 0 -0.00090203068443538874 0.024752774457854183 0 -0.0010786236015734535 0.025717593119309726 0 -0.00094952570109099494 0.024002545628076386 0 -0.0011726622392122792 0.025597999479425312 0 -0.0011095576053873914 0.023552831218768722 0 -0.0013055869477115118 0.023659992111624367 0 -0.0011683492878454588 0.023682315125732944 0 -0.00096766567557612492 0.024536754554111469 0 -0.0012532735087124082 0.024837602458629118 0 -0.0013348446064510701 0.024644385929003271 0 -0.0011726622392122792 0.025597999479425312 0 -0.0010786236015734535 0.025717593119309726 0 -0.0013256210901134622 0.027224694636807153 0 -0.0012004445988358123 0.027358716503919106 0 -0.0012363069434146055 0.027430906159378623 0 -0.0013055869477115118 0.023659992111624367 0 -0.0012063887216058917 0.023802596725094261 0 -0.0012339080654109977 0.023821991720349916 0 -0.0011726622392122792 0.025597999479425312 0 -0.0015099779290082156 0.02519915172444331 0 -0.0013212259547706366 0.027215071790322006 0 -0.0014495989147090005 0.026911559297792518 0 -0.0011157135775732171 0.027133500925690598 0 -0.0013055869477115118 0.023659992111624367 0 -0.0012063887216058917 0.023802596725094261 0 -0.0011683492878454588 0.023682315125732944 0 -0.0013008529070840035 0.024957183176141901 0 -0.0015099779290082156 0.02519915172444331 0 -0.0011095576053873914 0.023552831218768722 0 -0.0010286626399540787 0.023724208827831154 0 -0.0011683492878454588 0.023682315125732944 0 -0.0010286626399540787 0.023724208827831154 0 -0.0011683492878454588 0.023682315125732944 0 -0.0011180178666300796 0.023767820179672508 0 -0.0012063887216058917 0.023802596725094261 0 -0.0011683492878454588 0.023682315125732944 0 -0.0011180178666300796 0.023767820179672508 0 -0.0010286626399540787 0.023724208827831154 0 -0.0011180178666300796 0.023767820179672508 0 -0.0010722686462293562 0.02388608036397535 0 -0.0010722686462293562 0.02388608036397535 0 -0.0012329319342641255 0.023820279480048969 0 -0.001138831727042347 0.02403133480585834 0 -0.0012063887216058917 0.023802596725094261 0 -0.0010722686462293562 0.02388608036397535 0 -0.0012329319342641255 0.023820279480048969 0 -0.0012063887216058917 0.023802596725094261 0 -0.0011180178666300796 0.023767820179672508 0 -0.0010722686462293562 0.02388608036397535 0 -0.0015696161711897733 0.02503804887377304 0 -0.0014844498890415536 0.024823581682701643 0 -0.00129336196785789 0.024867705360006185 0 -0.0015696161711897733 0.02503804887377304 0 -0.0014844498890415536 0.024823581682701643 0 -0.0016753906781962671 0.024779912242401538 0 -0.0015099779290082156 0.02519915172444331 0 -0.0013937191478017204 0.024074905449889359 0 -0.0014740204860715102 0.023704715347973655 0 -0.0013753547822448831 0.023716729118008401 0 -0.0014355416493199433 0.023789273757789376 0 -0.0014740204860715102 0.023704715347973655 0 -0.0015466463922151734 0.023837606739062586 0 -0.0014355416493199433 0.023789273757789376 0 -0.0015578884417117838 0.024259876975680248 0 -0.0013937191478017204 0.024074905449889359 0 -0.0013937191478017204 0.024074905449889359 0 -0.0014087926885792475 0.023714902984495013 0 -0.00092308847035274825 0.024068670204939614 0 -0.0010722686462293562 0.02388608036397535 0 -0.001138831727042347 0.02403133480585834 0 -0.0013915127029206446 0.023770257256308019 0 -0.0013362894421280972 0.023785599526527257 0 -0.0013489294843418633 0.023754819209121324 0 -0.0013753547822448831 0.023716729118008401 0 -0.0013489294843418633 0.023754819209121324 0 -0.0014355416493199433 0.023789273757789376 0 -0.0011758958933265314 0.023324683226271684 0 -0.0013937191478017204 0.024074905449889359 0 -0.0016754595735987716 0.024007033021015811 0 -0.0017515283641534698 0.024020069063754958 0 -0.0016808174016045201 0.024029742085768763 0 -0.001403306215413693 0.026521670762291193 0 -0.0015096198202867708 0.026587654078935524 0 -0.0013827796338507559 0.026619071400537909 0 -0.0016347328676951406 0.025826591979217699 0 -0.0013562965344715526 0.02571958158306157 0 -0.0016347328676951406 0.025826591979217699 0 -0.00091785160870398708 0.028341395751288832 0 -0.00096130056937338915 0.029768954037508833 0 -0.00092056198996644104 0.02997753309342302 0 -0.00062746553911572993 0.029824528567386308 0 -0.0014740204860715102 0.023704715347973655 0 -0.0015962562766983063 0.023776862015680227 0 -0.0015466463922151734 0.023837606739062586 0 -0.0015578884417117838 0.024259876975680248 0 -0.0013562965344715526 0.02571958158306157 0 -0.0014740204860715102 0.023704715347973655 0 -0.0015962562766983063 0.023776862015680227 0 -0.0016107857790615223 0.023680608700085252 0 -0.0017038472254906807 0.023727827413465932 0 -0.0015962562766983063 0.023776862015680227 0 -0.0016107857790615223 0.023680608700085252 0 -0.0014495989147090005 0.026911559297792518 0 -0.00099824164095187141 0.026641731952386616 0 -0.00098485944554688003 0.026927933302551464 0 -0.0015099779290082156 0.02519915172444331 0 -0.0013562965344715526 0.02571958158306157 0 -0.00082666437970095315 0.029993717217705468 0 -0.00074259199147152632 0.030395667458443066 0 -0.00060057822549851206 0.030223134619007178 0 -0.00098485944554688003 0.026927933302551464 0 -0.00078946338219896097 0.026689659004367029 0 -0.00071264250962321156 0.027047382221708827 0 -0.00091785160870398708 0.028341395751288832 0 -0.00075031764978356237 0.028600135795428309 0 -0.00099824164095187141 0.026641731952386616 0 -0.00098485944554688003 0.026927933302551464 0 -0.00078946338219896097 0.026689659004367029 0 -0.0013562965344715526 0.02571958158306157 0 -0.00091785160870398708 0.028341395751288832 0 -0.00071264250962321156 0.027047382221708827 0 -0.00092461449667395504 0.027231605044774152 0 -0.00063422635822482935 0.027418420937201631 0 -0.00075031764978356237 0.028600135795428309 0 -0.00046938218574510421 0.029792585193112259 0 -0.00098485944554688003 0.026927933302551464 0 -0.00071264250962321156 0.027047382221708827 0 -0.00092461449667395504 0.027231605044774152 0 -0.0014495989147090005 0.026911559297792518 0 -0.00098485944554688003 0.026927933302551464 0 -0.0011157135775732171 0.027133500925690598 0 -0.00098485944554688003 0.026927933302551464 0 -0.00092461449667395504 0.027231605044774152 0 -0.0011157135775732171 0.027133500925690598 0 -0.00092461449667395504 0.027231605044774152 0 -0.0011157135775732171 0.027133500925690598 0 -0.0010513112093628986 0.027260737322785066 0 -0.0011726622392122792 0.025597999479425312 0 -0.0014534778504092674 0.02687643994270136 0 -0.0013256210901134622 0.027224694636807153 0 -0.0011157135775732171 0.027133500925690598 0 -0.0011451579436161227 0.02727888018211589 0 -0.0011157135775732171 0.027133500925690598 0 -0.0011451579436161227 0.02727888018211589 0 -0.0010513112093628986 0.027260737322785066 0 -0.0013256210901134622 0.027224694636807153 0 -0.0012004445988358123 0.027358716503919106 0 -0.0011451579436161227 0.02727888018211589 0 -0.0011451579436161227 0.02727888018211589 0 -0.001081436674680985 0.027325133134705436 0 -0.0011094005183200305 0.027386520813174841 0 -0.0012004445988358123 0.027358716503919106 0 -0.0011451579436161227 0.02727888018211589 0 -0.0011094005183200305 0.027386520813174841 0 -0.00092461449667395504 0.027231605044774152 0 -0.0010196313582836651 0.027373431202591378 0 -0.00096448882098316849 0.027493929789495695 0 -0.001081436674680985 0.027325133134705436 0 -0.0010196313582836651 0.027373431202591378 0 -0.0011094005183200305 0.027386520813174841 0 -0.001081436674680985 0.027325133134705436 0 -0.0010513112093628986 0.027260737322785066 0 -0.0010196313582836651 0.027373431202591378 0 -0.0011451579436161227 0.02727888018211589 0 -0.001081436674680985 0.027325133134705436 0 -0.0010513112093628986 0.027260737322785066 0 -0.00092461449667395504 0.027231605044774152 0 -0.0010513112093628986 0.027260737322785066 0 -0.0010196313582836651 0.027373431202591378 0 -0.00097031520040285102 0.027476340476609937 0 -0.0011094005183200305 0.027386520813174841 0 -0.0011639543448680434 0.027470524590648665 0 -0.00098891026746892935 0.026316821817552394 0 -0.0010139987338245722 0.028119776820365705 0 -0.0011368527135767995 0.027624924178169162 0 -0.0010139987338245722 0.028119776820365705 0 -0.0010196313582836651 0.027373431202591378 0 -0.00097031520040285102 0.027476340476609937 0 -0.0011094005183200305 0.027386520813174841 0 -0.0011920660608057232 0.027528842164943522 0 -0.00097031520040285102 0.027476340476609937 0 -0.0011639543448680434 0.027470524590648665 0 -0.0011094005183200305 0.027386520813174841 0 -0.0011639543448680434 0.027470524590648665 0 -0.0011713058716191561 0.027407595861195722 0 -0.0012004445988358123 0.027358716503919106 0 -0.0011094005183200305 0.027386520813174841 0 -0.0011713058716191561 0.027407595861195722 0 -0.00098891026746892935 0.026316821817552394 0 -0.0010786236015734535 0.025717593119309726 0 -0.0011920660608057232 0.027528842164943522 0 -0.0011639543448680434 0.027470524590648665 0 -0.0012363069434146055 0.027430906159378623 0 -0.0012004445988358123 0.027358716503919106 0 -0.0012363069434146055 0.027430906159378623 0 -0.0011713058716191561 0.027407595861195722 0 -0.0011639543448680434 0.027470524590648665 0 -0.0012363069434146055 0.027430906159378623 0 -0.0011713058716191561 0.027407595861195722 0 -0.0010139987338245722 0.028119776820365705 0 -0.00046938218574510421 0.029792585193112259 0 -0.00092461449667395504 0.027231605044774152 0 -0.00096448882098316849 0.027493929789495695 0 -0.00063422635822482935 0.027418420937201631 0 -0.00081829010995990333 0.029597360400957663 0 -0.00064757414495554306 0.029642711096185104 0 -0.00052934386835308794 0.029528494824573703 0 -0.00064757414495554306 0.029642711096185104 0 -0.00052934386835308794 0.029528494824573703 0 -0.00049397988377328336 0.029699887035193936 0 -7.1625020688644963e-05 0.031775688174133662 0 -7.6445823719575504e-05 0.031768894119360971 0 -0.00012648672830002587 0.031787441504277682 0 -7.1625020688644963e-05 0.031775688174133662 0 -7.6445823719575504e-05 0.031768894119360971 0 -7.4250672644089004e-05 0.031749967322710806 0 -7.6445823719575504e-05 0.031768894119360971 0 -0.0001779224616390292 0.031799254659148235 0 -7.4250672644089004e-05 0.031749967322710806 0 -0.00046938218574510421 0.029792585193112259 0 -2.6313229799593722e-05 0.031762364478975659 0 -0.00046938218574510421 0.029792585193112259 0 -0.00010417168143135201 0.031509517486891458 0 -7.6445823719575504e-05 0.031768894119360971 0 -0.0001779224616390292 0.031799254659148235 0 -0.00017743126162952916 0.031828321967843659 0 4.380699940299521e-05 0.033446393390609536 0 -0.00010417168143135201 0.031509517486891458 0 -7.6445823719575504e-05 0.031768894119360971 0 -0.00012648672830002587 0.031787441504277682 0 -0.00012648243993065034 0.031779964716056444 0 -0.00010672159492182353 0.031594323126914445 0 -2.1126201966427896e-05 0.032491977749428982 0 4.380699940299521e-05 0.033446393390609536 0 -2.1126201966427896e-05 0.032491977749428982 0 -2.6313229799593722e-05 0.031762364478975659 0 -2.1126201966427896e-05 0.032491977749428982 0 -4.0518129967127413e-05 0.030640244719495665 0 -4.1794596176747428e-05 0.030318393272769063 0 -0.00042329558679488554 0.030402910472301196 0 -2.6313229799593722e-05 0.031762364478975659 0 -4.7214082643521128e-05 0.030384531289331041 0 -0.00065844983632022669 0.03078720303012367 0 -4.0518129967127413e-05 0.030640244719495665 0 -0.00042329558679488554 0.030402910472301196 0 -0.00074259199147152632 0.030395667458443066 0 -0.00065844983632022669 0.03078720303012367 0 -0.00042329558679488554 0.030402910472301196 0 -0.00074259199147152632 0.030395667458443066 0 -0.00042329558679488554 0.030402910472301196 0 -0.00060057822549851206 0.030223134619007178 0 -0.00092056198996644104 0.02997753309342302 0 -0.00041191752077020445 0.030099663180955728 0 -0.00062746553911572993 0.029824528567386308 0 -0.00082666437970095315 0.029993717217705468 0 -0.00060057822549851206 0.030223134619007178 0 -0.00041191752077020445 0.030099663180955728 0 -0.00091785160870398708 0.028341395751288832 0 -0.00034607933681044911 0.030256725230154005 0 -0.00042329558679488554 0.030402910472301196 0 -0.00060057822549851206 0.030223134619007178 0 -0.00041191752077020445 0.030099663180955728 0 -4.1794596176747428e-05 0.030318393272769063 0 -0.00042329558679488554 0.030402910472301196 0 -0.00041191752077020445 0.030099663180955728 0 -0.00041191752077020445 0.030099663180955728 0 -2.4883147536292095e-05 0.030016842554404406 0 -0.00033472812020246545 0.029818974503763505 0 -4.1794596176747428e-05 0.030318393272769063 0 -0.00041191752077020445 0.030099663180955728 0 -2.4883147536292095e-05 0.030016842554404406 0 -4.7214082643521128e-05 0.030384531289331041 0 -3.5836084908833762e-05 0.030121989600690912 0 -0.00033472812020246545 0.029818974503763505 0 -9.6028687472648127e-05 0.029641248896842904 0 -0.00050969357576919098 0.029497958680595231 0 -2.4883147536292095e-05 0.030016842554404406 0 -0.00033472812020246545 0.029818974503763505 0 -9.6028687472648127e-05 0.029641248896842904 0 -0.00096130056937338915 0.029768954037508833 0 -0.00062746553911572993 0.029824528567386308 0 -0.00050969357576919098 0.029497958680595231 0 -0.00033472812020246545 0.029818974503763505 0 -0.00062746553911572993 0.029824528567386308 0 -0.00050969357576919098 0.029497958680595231 0 -0.0016347328676951406 0.025826591979217699 0 -0.0010991450630285136 0.026595032211319827 0 -0.00041191752077020445 0.030099663180955728 0 -0.00033472812020246545 0.029818974503763505 0 -0.00062746553911572993 0.029824528567386308 0 -2.5537622691050683e-06 0.03499272655349378 0 -3.9911490938953888e-10 0.034999991909032045 0 1.1824070469287596e-06 0.034975102611591528 0 -2.5537622691050683e-06 0.03499272655349378 0 -1.2041478594239389e-05 0.034994788748897998 0 1.1824070469287596e-06 0.034975102611591528 0 -2.4883147536292095e-05 0.030016842554404406 0 -9.6028687472648127e-05 0.029641248896842904 0 0.00034640613855938668 0.029776158687237975 0 -2.4883147536292095e-05 0.030016842554404406 0 0.00034640613855938668 0.029776158687237975 0 0.00044636902594676054 0.030439252941823439 0 3.969910985311757e-05 0.033701874560371325 0 0.00018408096869929104 0.032411130890791139 0 -5.8069294098857514e-05 0.034812608216368703 0 -4.8051791666382912e-05 0.034962425764058211 0 2.2843569595766697e-06 0.0349797049174786 0 3.969910985311757e-05 0.033701874560371325 0 0.00012439512273109614 0.035335263533937449 0 -5.7863202262556833e-05 0.030693953321958446 0 -2.4883147536292095e-05 0.030016842554404406 0 0.00044636902594676054 0.030439252941823439 0 -4.8051791666382912e-05 0.034962425764058211 0 2.2843569595766697e-06 0.0349797049174786 0 -9.8303535486780579e-06 0.034988875779878213 0 -3.9911490938953888e-10 0.034999991909032045 0 2.2843569595766697e-06 0.0349797049174786 0 2.4271730609284637e-06 0.034990648434265158 0 -2.5537622691050683e-06 0.03499272655349378 0 -1.2041478594239389e-05 0.034994788748897998 0 2.2843569595766697e-06 0.0349797049174786 0 -3.9911490938953888e-10 0.034999991909032045 0 2.4271730609284637e-06 0.034990648434265158 0 -3.8938384045502608e-09 0.034999950086575006 0 -2.5537622691050683e-06 0.03499272655349378 0 -3.9911490938953888e-10 0.034999991909032045 0 2.2843569595766697e-06 0.0349797049174786 0 4.5165268033185418e-06 0.034995312985801719 0 -3.8938384045502608e-09 0.034999950086575006 0 2.4363983098327836e-05 0.034963835753795393 0 2.4271730609284637e-06 0.034990648434265158 0 4.5165268033185418e-06 0.034995312985801719 0 -3.8938384045502608e-09 0.034999950086575006 0 -2.6180312166413208e-07 0.035000264958905805 0 7.609126867200519e-05 0.034086071743959868 0 2.2843569595766697e-06 0.0349797049174786 0 2.4271730609284637e-06 0.034990648434265158 0 -9.8303535486780579e-06 0.034988875779878213 0 2.4271730609284637e-06 0.034990648434265158 0 -9.8303535486780579e-06 0.034988875779878213 0 4.5165268033185418e-06 0.034995312985801719 0 -0.00019708884236107951 0.034859392671372842 0 0.00018604079308468365 0.033450404360440361 0 -9.8303535486780579e-06 0.034988875779878213 0 4.5165268033185418e-06 0.034995312985801719 0 -2.0420780174355062e-05 0.035002482439135549 0 -4.8051791666382912e-05 0.034962425764058211 0 -9.8303535486780579e-06 0.034988875779878213 0 -2.0420780174355062e-05 0.035002482439135549 0 0.00018408096869929104 0.032411130890791139 0 0.00018604079308468365 0.033450404360440361 0 -5.7863202262556833e-05 0.030693953321958446 0 0.00044636902594676054 0.030439252941823439 0 0.00050454674424387847 0.031257789060365512 0 4.5165268033185418e-06 0.034995312985801719 0 2.5834205450379132e-05 0.034972868063357074 0 2.4363983098327836e-05 0.034963835753795393 0 0.00018604079308468365 0.033450404360440361 0 7.609126867200519e-05 0.034086071743959868 0 -5.1149139177665182e-05 0.031407839979874556 0 -5.7863202262556833e-05 0.030693953321958446 0 0.00050454674424387847 0.031257789060365512 0 -2.6313229799593722e-05 0.031762364478975659 0 0.00018604079308468365 0.033450404360440361 0 0.00027623017525750342 0.032983288565779499 0 0.00027289502380736569 0.032825843745582631 0 -0.00014358130549507739 0.03294166464363666 0 0.00027623017525750342 0.032983288565779499 0 -0.00013499981474687214 0.033099797555159488 0 -0.00014358130549507739 0.03294166464363666 0 -2.1126201966427896e-05 0.032491977749428982 0 7.609126867200519e-05 0.034086071743959868 0 0.00018907105469478098 0.033638787026492978 0 2.657795715474484e-05 0.033685859437922856 0 2.1367931035139417e-05 0.03358611078539573 0 1.2336569219095279e-05 0.034993723402846587 0 1.2746798714725429e-05 0.034988472533832811 0 4.160097393965568e-06 0.034997069060206554 0 7.609126867200519e-05 0.034086071743959868 0 0.00012622275424751549 0.034428929894809931 0 2.4817271626872243e-05 0.034993259572945461 0 2.3005703792259542e-05 0.034981470474132456 0 3.6370883005196548e-05 0.034973690589070468 0 2.4817271626872243e-05 0.034993259572945461 0 1.3509354563033978e-05 0.034988505921067968 0 2.3005703792259542e-05 0.034981470474132456 0 5.2418903061426723e-05 0.034982547103342317 0 2.4817271626872243e-05 0.034993259572945461 0 3.6370883005196548e-05 0.034973690589070468 0 0.00018717787297236086 0.033547016000688309 0 0.00018907105469478098 0.033638787026492978 0 2.1367931035139417e-05 0.03358611078539573 0 4.380699940299521e-05 0.033446393390609536 0 0.00012622275424751549 0.034428929894809931 0 9.0073116073084824e-09 0.035000022294949515 0 1.2336569219095279e-05 0.034993723402846587 0 4.160097393965568e-06 0.034997069060206554 0 9.0073116073084824e-09 0.035000022294949515 0 4.160097393965568e-06 0.034997069060206554 0 -1.5737825672420748e-09 0.034999946538034919 0 0.00012622275424751549 0.034428929894809931 0 -6.5327850248382381e-05 0.034914575265402897 0 2.4817271626872243e-05 0.034993259572945461 0 4.160097393965568e-06 0.034997069060206554 0 1.3509354563033978e-05 0.034988505921067968 0 4.160097393965568e-06 0.034997069060206554 0 1.3509354563033978e-05 0.034988505921067968 0 -1.5737825672420748e-09 0.034999946538034919 0 1.3509354563033978e-05 0.034988505921067968 0 -1.5737825672420748e-09 0.034999946538034919 0 1.778702585179231e-05 0.034971491802650453 0 3.6783961232138921e-09 0.035000007233257323 0 3.1467571770593174e-06 0.034999927041740479 0 -8.391111935677992e-11 0.034999989879089338 0 2.943688054640484e-08 0.034999985793921405 0 -1.6675489184345496e-05 0.034987999042065433 0 4.420887525640145e-06 0.034998054563720384 0 3.1467571770593174e-06 0.034999927041740479 0 -8.391111935677992e-11 0.034999989879089338 0 4.420887525640145e-06 0.034998054563720384 0 7.9489758901560142e-06 0.034998400604879222 0 8.9596663724193096e-06 0.034996241806642132 0 4.420887525640145e-06 0.034998054563720384 0 3.1467571770593174e-06 0.034999927041740479 0 7.9489758901560142e-06 0.034998400604879222 0 -1.6675489184345496e-05 0.034987999042065433 0 0.00011851477944610554 0.034560641944452568 0 1.778702585179231e-05 0.034971491802650453 0 3.6370883005196548e-05 0.034973690589070468 0 5.1989020175251829e-05 0.034953383497704396 0 1.3509354563033978e-05 0.034988505921067968 0 1.778702585179231e-05 0.034971491802650453 0 2.3005703792259542e-05 0.034981470474132456 0 1.778702585179231e-05 0.034971491802650453 0 2.3005703792259542e-05 0.034981470474132456 0 3.6370883005196548e-05 0.034973690589070468 0 5.2418903061426723e-05 0.034982547103342317 0 3.6370883005196548e-05 0.034973690589070468 0 5.1989020175251829e-05 0.034953383497704396 0 5.1991561353120052e-05 0.033267861914783092 0 0.00015683700878506496 0.033309109749530816 0 -3.9616682194604187e-05 0.033348140160617941 0 0.0001541591789891003 0.033189757559374942 0 5.1991561353120052e-05 0.033267861914783092 0 -6.4118033759575835e-05 0.033224981721325819 0 0.00011851477944610554 0.034560641944452568 0 7.1156984883650703e-05 0.033701458505464549 0 0.0001541591789891003 0.033189757559374942 0 5.1991561353120052e-05 0.033267861914783092 0 0.00015683700878506496 0.033309109749530816 0 4.380699940299521e-05 0.033446393390609536 0 0.00011851477944610554 0.034560641944452568 0 5.1991561353120052e-05 0.033267861914783092 0 -6.4118033759575835e-05 0.033224981721325819 0 -3.9616682194604187e-05 0.033348140160617941 0 7.4021704468089916e-05 0.031774998063434604 0 0.00037885243627853868 0.031157732469293101 0 0.00059854208759761403 0.032226281164327818 0 -0.00010417168143135201 0.031509517486891458 0 7.1156984883650703e-05 0.033701458505464549 0 -0.00012193542011007171 0.034834772676425728 0 -5.8988422951990161e-05 0.034819880646310516 0 -5.1670642811032191e-05 0.034889686096723167 0 7.1156984883650703e-05 0.033701458505464549 0 0.0001043025179061691 0.034954141684106023 0 -6.1214977708325691e-05 0.034850432499796219 0 -5.1670642811032191e-05 0.034889686096723167 0 -1.4395023683398721e-05 0.034882447087009084 0 -5.1670642811032191e-05 0.034889686096723167 0 -1.4395023683398721e-05 0.034882447087009084 0 -1.8741518949969767e-05 0.034937598010881539 0 -0.00012193542011007171 0.034834772676425728 0 -5.1670642811032191e-05 0.034889686096723167 0 -8.1032379883635324e-05 0.034928438880704439 0 0.00011851477944610554 0.034560641944452568 0 1.8613927778481516e-05 0.03501403526438869 0 3.2051161631278723e-05 0.034829901761812873 0 -6.1214977708325691e-05 0.034850432499796219 0 -1.4395023683398721e-05 0.034882447087009084 0 3.2051161631278723e-05 0.034829901761812873 0 -1.4395023683398721e-05 0.034882447087009084 0 3.0408651818895761e-05 0.034905910815121698 0 -1.4395023683398721e-05 0.034882447087009084 0 3.0408651818895761e-05 0.034905910815121698 0 -1.8741518949969767e-05 0.034937598010881539 0 3.0408651818895761e-05 0.034905910815121698 0 -1.8741518949969767e-05 0.034937598010881539 0 1.0523494608446121e-05 0.034982349128913431 0 1.8613927778481516e-05 0.03501403526438869 0 1.3161065776962763e-05 0.034955336877894469 0 -1.8741518949969767e-05 0.034937598010881539 0 -4.6025115036715858e-05 0.034980757533440501 0 1.0523494608446121e-05 0.034982349128913431 0 -5.1670642811032191e-05 0.034889686096723167 0 -8.1032379883635324e-05 0.034928438880704439 0 -4.5381135372603431e-05 0.034931127295378499 0 -5.1670642811032191e-05 0.034889686096723167 0 -1.8741518949969767e-05 0.034937598010881539 0 -4.5381135372603431e-05 0.034931127295378499 0 -1.8741518949969767e-05 0.034937598010881539 0 -4.5381135372603431e-05 0.034931127295378499 0 -4.6025115036715858e-05 0.034980757533440501 0 0.00045808353464038987 0.036238602850981641 0 -4.1502896586881259e-05 0.035334430519025323 0 0.00053616510122177045 0.03677093906092322 0 0.00056627940049087673 0.036387995126151873 0 0.00019861783042243784 0.036099336622152228 0 -8.1032379883635324e-05 0.034928438880704439 0 -4.5381135372603431e-05 0.034931127295378499 0 -4.6025115036715858e-05 0.034980757533440501 0 0.00061817955288293654 0.0361982588990898 0 -4.1502896586881259e-05 0.035334430519025323 0 -0.00021636985179720834 0.035246642582735861 0 0.0001776778780403525 0.036098513131809104 0 0.00033580818800841027 0.035513788409861372 0 -0.00032111385860999879 0.03483539132126013 0 -4.1502896586881259e-05 0.035334430519025323 0 0.00059856641067075318 0.035944362602946346 0 0.00056627940049087673 0.036387995126151873 0 0.0001776778780403525 0.036098513131809104 0 0.00059856641067075318 0.035944362602946346 0 0.0001776778780403525 0.036098513131809104 0 0.00033580818800841027 0.035513788409861372 0 -0.00027498277797928094 0.034629571427045883 0 -4.1502896586881259e-05 0.035334430519025323 0 -0.00042118357067877311 0.034439290378514689 0 -0.00042382591774822389 0.034447050279598171 0 -0.0004090509855610175 0.034478775180295476 0 -1.4525495199093752e-06 0.035000377505624208 0 -4.6025115036715858e-05 0.034980757533440501 0 1.0523494608446121e-05 0.034982349128913431 0 1.0523494608446121e-05 0.034982349128913431 0 4.6984997069752462e-06 0.034994622222731801 0 3.5300040298316341e-06 0.034993945491474436 0 -1.4525495199093752e-06 0.035000377505624208 0 1.0523494608446121e-05 0.034982349128913431 0 4.6984997069752462e-06 0.034994622222731801 0 6.1088462098636218e-09 0.034999992183053934 0 4.6984997069752462e-06 0.034994622222731801 0 3.5300040298316341e-06 0.034993945491474436 0 4.420887525640145e-06 0.034998054563720384 0 -8.391111935677992e-11 0.034999989879089338 0 3.5300040298316341e-06 0.034993945491474436 0 6.1088462098636218e-09 0.034999992183053934 0 -8.391111935677992e-11 0.034999989879089338 0 3.5300040298316341e-06 0.034993945491474436 0 4.420887525640145e-06 0.034998054563720384 0 8.9596663724193096e-06 0.034996241806642132 0 3.5300040298316341e-06 0.034993945491474436 0 8.9596663724193096e-06 0.034996241806642132 0 1.0523494608446121e-05 0.034982349128913431 0 3.5300040298316341e-06 0.034993945491474436 0 0.0047045020729115641 -0.0051716054416751488 0 0.0041887653279219861 -0.0055032403776412589 0 0.0044787258541381311 -0.0054068002114700652 0 0.0047045020729115641 -0.0051716054416751488 0 0.0041887653279219861 -0.0055032403776412589 0 0.0042280648749626363 -0.0049726828036490119 0 0.0042280939027375683 -0.0039311466552933196 0 0.0042182048594830877 -0.0032008473945434514 0 0.0047045020729115641 -0.0051716054416751488 0 0.0042280648749626363 -0.0049726828036490119 0 0.0047056431256092355 -0.0044866321687889298 0 0.003631233712284077 -0.0026722334621401647 0 0.0040503662502488959 -0.0020374828397275117 0 0.0038279029224598123 -0.0018813522554746093 0 0.0040503662502488959 -0.0020374828397275117 0 0.0052414240432686107 -0.0024740544736535615 0 0.0048380140532892869 -0.0032527475220930895 0 0.0040503662502488959 -0.0020374828397275117 0 0.0052414240432686107 -0.0024740544736535615 0 0.0049592234756750102 -0.001450707837600609 0 0.0052414240432686107 -0.0024740544736535615 0 0.0048380140532892869 -0.0032527475220930895 0 0.0056937688099931117 -0.0034171715322197211 0 0.003631233712284077 -0.0026722334621401647 0 0.0040503662502488959 -0.0020374828397275117 0 0.0048380140532892869 -0.0032527475220930895 0 0.0042280939027375683 -0.0039311466552933196 0 0.0046310495529035232 -0.0047399199755267102 0 0.003631233712284077 -0.0026722334621401647 0 0.0048380140532892869 -0.0032527475220930895 0 0.0046688207998934897 -0.0047728636025218957 0 0.0047045020729115641 -0.0051716054416751488 0 0.0046688207998934897 -0.0047728636025218957 0 0.0044787258541381311 -0.0054068002114700652 0 0.0048380140532892869 -0.0032527475220930895 0 0.0046688207998934897 -0.0047728636025218957 0 0.0053982184633181128 -0.0042056601232986568 0 0.0048380140532892869 -0.0032527475220930895 0 0.0053982184633181128 -0.0042056601232986568 0 0.0056937688099931117 -0.0034171715322197211 0 0.0046688207998934897 -0.0047728636025218957 0 0.0055503817584183551 -0.0049120872487160615 0 0.0051630232140230138 -0.005559551478823946 0 0.0046688207998934897 -0.0047728636025218957 0 0.0053982184633181128 -0.0042056601232986568 0 0.0055503817584183551 -0.0049120872487160615 0 0.0046688207998934897 -0.0047728636025218957 0 0.0044438654273015032 -0.0059850455282549012 0 0.0051630232140230138 -0.005559551478823946 0 0.0046688207998934897 -0.0047728636025218957 0 0.0044787258541381311 -0.0054068002114700652 0 0.0044438654273015032 -0.0059850455282549012 0 0.0041887653279219861 -0.0055032403776412589 0 0.0044787258541381311 -0.0054068002114700652 0 0.004028768424401993 -0.006094675148564278 0 0.004028768424401993 -0.006094675148564278 0 0.0040713504923274709 -0.0065428930477744634 0 0.0044438654273015032 -0.0059850455282549012 0 0.0044787258541381311 -0.0054068002114700652 0 0.004028768424401993 -0.006094675148564278 0 0.0044438654273015032 -0.0059850455282549012 0 0.004028768424401993 -0.006094675148564278 0 0.0036582992962371722 -0.0064548736505948071 0 0.0036908710308513593 -0.0059527520428590188 0 0.004028768424401993 -0.006094675148564278 0 0.0036582992962371722 -0.0064548736505948071 0 0.0037356647992826085 -0.0068397479782471024 0 0.0036582992962371722 -0.0064548736505948071 0 0.0033367974750050438 -0.0063989800664512042 0 0.0034694072329796862 -0.0069875877450525543 0 0.0036582992962371722 -0.0064548736505948071 0 0.0034694072329796862 -0.0069875877450525543 0 0.0037356647992826085 -0.0068397479782471024 0 0.0036908710308513593 -0.0059527520428590188 0 0.0033367974750050438 -0.0063989800664512042 0 0.0032078671126788759 -0.0057674721214359542 0 0.0036582992962371722 -0.0064548736505948071 0 0.0036908710308513593 -0.0059527520428590188 0 0.0033367974750050438 -0.0063989800664512042 0 0.0041887653279219861 -0.0055032403776412589 0 0.004028768424401993 -0.006094675148564278 0 0.0036908710308513593 -0.0059527520428590188 0 0.0024157612494201319 -0.0068115494407228758 0 0.0028023779773399585 -0.0066842465573260052 0 0.0028770331631316781 -0.0074411579616206567 0 0.0028023779773399585 -0.0066842465573260052 0 0.0031536814042298191 -0.0068893574976205147 0 0.0028770331631316781 -0.0074411579616206567 0 0.0031536814042298191 -0.0068893574976205147 0 0.0033367974750050438 -0.0063989800664512042 0 0.0034694072329796862 -0.0069875877450525543 0 0.0033367974750050438 -0.0063989800664512042 0 0.0030260795551416511 -0.0062066488609110416 0 0.0032078671126788759 -0.0057674721214359542 0 0.0031536814042298191 -0.0068893574976205147 0 0.0033367974750050438 -0.0063989800664512042 0 0.0030260795551416511 -0.0062066488609110416 0 0.0028023779773399585 -0.0066842465573260052 0 0.0031536814042298191 -0.0068893574976205147 0 0.0030260795551416511 -0.0062066488609110416 0 0.0030260795551416511 -0.0062066488609110416 0 0.0025967100390596591 -0.0061685346066225272 0 0.0027709371262648009 -0.0058693180162577366 0 0.0028023779773399585 -0.0066842465573260052 0 0.0030260795551416511 -0.0062066488609110416 0 0.0025967100390596591 -0.0061685346066225272 0 0.0024157612494201319 -0.0068115494407228758 0 0.0028023779773399585 -0.0066842465573260052 0 0.0025967100390596591 -0.0061685346066225272 0 0.0025913011507405627 -0.005769625097492969 0 0.0027310562254577501 -0.0056145017648539935 0 0.0025853657899406416 -0.0055590246175877701 0 0.0024659699342276537 -0.0056638777874960574 0 0.0025913011507405627 -0.005769625097492969 0 0.0025853657899406416 -0.0055590246175877701 0 0.0025967100390596591 -0.0061685346066225272 0 0.0025913011507405627 -0.005769625097492969 0 0.0027709371262648009 -0.0058693180162577366 0 0.0023518190159912194 -0.0058793437048785943 0 0.0025967100390596591 -0.0061685346066225272 0 0.0025913011507405627 -0.005769625097492969 0 0.0025913011507405627 -0.005769625097492969 0 0.0027709371262648009 -0.0058693180162577366 0 0.0027310562254577501 -0.0056145017648539935 0 0.0027709371262648009 -0.0058693180162577366 0 0.0027310562254577501 -0.0056145017648539935 0 0.0029341597051950096 -0.0057066793849076111 0 0.0027310562254577501 -0.0056145017648539935 0 0.0029341597051950096 -0.0057066793849076111 0 0.0028996765059920698 -0.0054475058852393394 0 0.0030260795551416511 -0.0062066488609110416 0 0.0027709371262648009 -0.0058693180162577366 0 0.0029341597051950096 -0.0057066793849076111 0 0.0030260795551416511 -0.0062066488609110416 0 0.0029341597051950096 -0.0057066793849076111 0 0.0032078671126788759 -0.0057674721214359542 0 0.0029341597051950096 -0.0057066793849076111 0 0.0032078671126788759 -0.0057674721214359542 0 0.0028996765059920698 -0.0054475058852393394 0 0.0032078671126788759 -0.0057674721214359542 0 0.0028996765059920698 -0.0054475058852393394 0 0.0032280798071154925 -0.0050700879521464346 0 0.0028231948837540845 -0.0052232139073222763 0 0.0028996765059920698 -0.0054475058852393394 0 0.0032280798071154925 -0.0050700879521464346 0 0.0028231948837540845 -0.0052232139073222763 0 0.0028996765059920698 -0.0054475058852393394 0 0.0026579838987231888 -0.0054631242138144321 0 0.0027310562254577501 -0.0056145017648539935 0 0.0028996765059920698 -0.0054475058852393394 0 0.0026579838987231888 -0.0054631242138144321 0 0.0027310562254577501 -0.0056145017648539935 0 0.0026579838987231888 -0.0054631242138144321 0 0.0025853657899406416 -0.0055590246175877701 0 0.0028231948837540845 -0.0052232139073222763 0 0.0026579838987231888 -0.0054631242138144321 0 0.0025345964904220572 -0.0055952450741985904 0 0.0026579838987231888 -0.0054631242138144321 0 0.0026095831191343417 -0.0055029629079310204 0 0.0025345964904220572 -0.0055952450741985904 0 0.0025505112159093907 -0.0055241208773229664 0 0.0026095831191343417 -0.0055029629079310204 0 0.0025853657899406416 -0.0055590246175877701 0 0.0026579838987231888 -0.0054631242138144321 0 0.0026095831191343417 -0.0055029629079310204 0 0.0025853657899406416 -0.0055590246175877701 0 0.0041887653279219861 -0.0055032403776412589 0 0.0042280648749626363 -0.0049726828036490119 0 0.0036799810699801117 -0.0053690448846179933 0 0.0041887653279219861 -0.0055032403776412589 0 0.0036908710308513593 -0.0059527520428590188 0 0.0036799810699801117 -0.0053690448846179933 0 0.0032078671126788759 -0.0057674721214359542 0 0.0036799810699801117 -0.0053690448846179933 0 0.0032280798071154925 -0.0050700879521464346 0 0.0036908710308513593 -0.0059527520428590188 0 0.0032078671126788759 -0.0057674721214359542 0 0.0036799810699801117 -0.0053690448846179933 0 0.0036799810699801117 -0.0053690448846179933 0 0.0032280798071154925 -0.0050700879521464346 0 0.0036739916979410389 -0.0046654117328435094 0 0.0042280648749626363 -0.0049726828036490119 0 0.0036799810699801117 -0.0053690448846179933 0 0.0036739916979410389 -0.0046654117328435094 0 0.0042280648749626363 -0.0049726828036490119 0 0.0036739916979410389 -0.0046654117328435094 0 0.0040743757282310691 -0.0040811809460128898 0 0.0036703089902541432 -0.0041186790958028588 0 0.0036739916979410389 -0.0046654117328435094 0 0.0040743757282310691 -0.0040811809460128898 0 0.0032280798071154925 -0.0050700879521464346 0 0.0036739916979410389 -0.0046654117328435094 0 0.0030013805562522189 -0.0044105658379674931 0 0.0036703089902541432 -0.0041186790958028588 0 0.0036739916979410389 -0.0046654117328435094 0 0.0030013805562522189 -0.0044105658379674931 0 0.0023219359741217618 -0.0059280470474550075 0 0.0029825926288816235 -0.0058655028873939507 0 0.0014124902576527001 -0.0075176516144076395 0 0.0016105806487421311 -0.0083547207713532256 0 0.0019049003437173035 -0.0086999019030866379 0 0.0014124902576527001 -0.0075176516144076395 0 0.0014908323371227233 -0.0081558594791818987 0 0.0016105806487421311 -0.0083547207713532256 0 0.0014908323371227233 -0.0081558594791818987 0 0.0016105806487421311 -0.0083547207713532256 0 0.0015855622514995824 -0.0083733281070909934 0 0.0036703089902541432 -0.0041186790958028588 0 0.0030013805562522189 -0.0044105658379674931 0 0.0038939113394230208 -0.0032807440318698886 0 0.0016105806487421311 -0.0083547207713532256 0 0.0019049003437173035 -0.0086999019030866379 0 0.001969640347016998 -0.0083234205155365577 0 0.0036703089902541432 -0.0041186790958028588 0 0.0038939113394230208 -0.0032807440318698886 0 0.0040743757282310691 -0.0040811809460128898 0 0.0011288707956571232 -0.0095907765503263631 0 0.0011881782117068814 -0.010076975077337713 0 0.0015199431381220433 -0.0093385397043327205 0 0.0028826677017455928 -0.0057599147631530066 0 0.0025345964904220572 -0.0055952450741985904 0 0.0022625019133753169 -0.0075790467759487843 0 0.0026095831191343417 -0.0055029629079310204 0 0.0028826677017455928 -0.0057599147631530066 0 0.0025345964904220572 -0.0055952450741985904 0 0.0018592319184496742 -0.008181232449887707 0 0.0018474450128411831 -0.0084173495849368916 0 0.0028231948837540845 -0.0052232139073222763 0 0.0030013805562522189 -0.0044105658379674931 0 0.0025345964904220572 -0.0055952450741985904 0 0.0028231948837540845 -0.0052232139073222763 0 0.0032280798071154925 -0.0050700879521464346 0 0.0030013805562522189 -0.0044105658379674931 0 0.0014124902576527001 -0.0075176516144076395 0 0.0025345964904220572 -0.0055952450741985904 0 0.0022625019133753169 -0.0075790467759487843 0 0.0023219359741217618 -0.0059280470474550075 0 0.0026084205134670078 -0.0055923355888761791 0 0.0014124902576527001 -0.0075176516144076395 0 0.0014908323371227233 -0.0081558594791818987 0 0.0022625019133753169 -0.0075790467759487843 0 0.0014908323371227233 -0.0081558594791818987 0 0.0022625019133753169 -0.0075790467759487843 0 0.0015801507301790136 -0.0085549209423719987 0 0.0018474450128411831 -0.0084173495849368916 0 0.001583693610718749 -0.0086124937974524952 0 0.0015199431381220433 -0.0093385397043327205 0 0.0011762784043994284 -0.0091862725512866714 0 0.0014060157848690988 -0.0088799807253588398 0 0.0011288707956571232 -0.0095907765503263631 0 0.0015199431381220433 -0.0093385397043327205 0 0.0011762784043994284 -0.0091862725512866714 0 0.0011423971398207664 -0.0089914194409566901 0 0.0014060157848690988 -0.0088799807253588398 0 0.0013428977655021957 -0.0089281571252303581 0 0.0011423971398207664 -0.0089914194409566901 0 0.0011762784043994284 -0.0091862725512866714 0 0.0014060157848690988 -0.0088799807253588398 0 0.0014060157848690988 -0.0088799807253588398 0 0.0014476858547957121 -0.0086682085071301661 0 0.0013428977655021957 -0.0089281571252303581 0 0.0015199431381220433 -0.0093385397043327205 0 0.0014060157848690988 -0.0088799807253588398 0 0.0015801507301790136 -0.0085549209423719987 0 0.0014060157848690988 -0.0088799807253588398 0 0.0014476858547957121 -0.0086682085071301661 0 0.0015801507301790136 -0.0085549209423719987 0 0.0014476858547957121 -0.0086682085071301661 0 0.0015801507301790136 -0.0085549209423719987 0 0.0013241472119530447 -0.0083013223270068937 0 0.0014476858547957121 -0.0086682085071301661 0 0.0014322359317281578 -0.0089117492584274306 0 0.0013241472119530447 -0.0083013223270068937 0 0.0014476858547957121 -0.0086682085071301661 0 0.0014322359317281578 -0.0089117492584274306 0 0.0013428977655021957 -0.0089281571252303581 0 0.0011423971398207664 -0.0089914194409566901 0 0.0012251201959172326 -0.0092115418538798351 0 0.0013428977655021957 -0.0089281571252303581 0 0.0018309747256037574 -0.00807620790219289 0 0.001969640347016998 -0.0083234205155365577 0 0.0015855622514995824 -0.0083733281070909934 0 0.001969640347016998 -0.0083234205155365577 0 0.0024388218359358937 -0.0078089019555337988 0 0.0026318680054123232 -0.0082395366881887252 0 0.0018309747256037574 -0.00807620790219289 0 0.001969640347016998 -0.0083234205155365577 0 0.0024388218359358937 -0.0078089019555337988 0 0.0019049003437173035 -0.0086999019030866379 0 0.001969640347016998 -0.0083234205155365577 0 0.0026318680054123232 -0.0082395366881887252 0 0.0016105806487421311 -0.0083547207713532256 0 0.001969640347016998 -0.0083234205155365577 0 0.0015855622514995824 -0.0083733281070909934 0 0.0014908323371227233 -0.0081558594791818987 0 0.0015855622514995824 -0.0083733281070909934 0 0.0015801507301790136 -0.0085549209423719987 0 0.0015855622514995824 -0.0083733281070909934 0 0.0015801507301790136 -0.0085549209423719987 0 0.0013241472119530447 -0.0083013223270068937 0 0.0018309747256037574 -0.00807620790219289 0 0.0015855622514995824 -0.0083733281070909934 0 0.0013241472119530447 -0.0083013223270068937 0 0.0014443831169582923 -0.0062292728185570313 0 0.0013241472119530447 -0.0083013223270068937 0 0.0020021978953919388 -0.0072848154858888804 0 0.0014415604149170416 -0.0092595731530167435 0 0.0014322359317281578 -0.0089117492584274306 0 0.0013241472119530447 -0.0083013223270068937 0 0.0018309747256037574 -0.00807620790219289 0 0.0013241472119530447 -0.0083013223270068937 0 0.0020021978953919388 -0.0072848154858888804 0 0.0014860969405957804 -0.0077503601050920579 0 0.0013377864453086132 -0.008274359491443499 0 0.0020021978953919388 -0.0072848154858888804 0 0.0024388218359358937 -0.0078089019555337988 0 0.0030357620898983405 -0.0068941305848662345 0 0.0018309747256037574 -0.00807620790219289 0 0.0020021978953919388 -0.0072848154858888804 0 0.0024388218359358937 -0.0078089019555337988 0 0.0030357620898983405 -0.0068941305848662345 0 0.0032427800812829645 -0.0077211370948613483 0 0.0042099376703817696 -0.007060430486597759 0 0.0024388218359358937 -0.0078089019555337988 0 0.0030357620898983405 -0.0068941305848662345 0 0.0032427800812829645 -0.0077211370948613483 0 0.0032427800812829645 -0.0077211370948613483 0 0.0042099376703817696 -0.007060430486597759 0 0.003768657678364813 -0.0085333592203512068 0 0.0042099376703817696 -0.007060430486597759 0 0.003768657678364813 -0.0085333592203512068 0 0.0057454811207273519 -0.0077061883004125717 0 0.0039993821747946016 -0.0057884992749229402 0 0.0041948217952656706 -0.0022574584986195453 0 0.0019049003437173035 -0.0086999019030866379 0 0.003768657678364813 -0.0085333592203512068 0 0.0026318680054123232 -0.0082395366881887252 0 0.0032427800812829645 -0.0077211370948613483 0 0.003768657678364813 -0.0085333592203512068 0 0.0026318680054123232 -0.0082395366881887252 0 0.0024388218359358937 -0.0078089019555337988 0 0.0032427800812829645 -0.0077211370948613483 0 0.0026318680054123232 -0.0082395366881887252 0 0.004056753822340769 -0.0028694408752233664 0 0.0042182048594830877 -0.0032008473945434514 0 0.0038939113394230208 -0.0032807440318698886 0 0.0040422982665274231 -0.0028886620198228718 0 0.0040743757282310691 -0.0040811809460128898 0 0.0040422982665274231 -0.0028886620198228718 0 0.0039950507170698176 -0.0023428424352466594 0 0.0038279029224598123 -0.0018813522554746093 0 0.0038939113394230208 -0.0032807440318698886 0 0.0041678349181458428 -0.0022996224777347869 0 0.0040422982665274231 -0.0028886620198228718 0 0.0029825926288816235 -0.0058655028873939507 0 0.0039993821747946016 -0.0057884992749229402 0 0.0041678349181458428 -0.0022996224777347869 0 0.0040422982665274231 -0.0028886620198228718 0 0.0039950507170698176 -0.0023428424352466594 0 0.0039802212975557612 -0.0020499020264687952 0 0.0039950507170698176 -0.0023428424352466594 0 0.0038279029224598123 -0.0018813522554746093 0 0.0041678349181458428 -0.0022996224777347869 0 0.0039802212975557612 -0.0020499020264687952 0 0.0039950507170698176 -0.0023428424352466594 0 0.0041678349181458428 -0.0022996224777347869 0 0.0039802212975557612 -0.0020499020264687952 0 0.0039281422273008864 -0.0022025472258283378 0 0.0039802212975557612 -0.0020499020264687952 0 0.0038279029224598123 -0.0018813522554746093 0 0.0039622147627562708 -0.0013541272578898016 0 0.0042280648749626363 -0.0049726828036490119 0 0.0047056431256092355 -0.0044866321687889298 0 0.0040743757282310691 -0.0040811809460128898 0 0.0040422982665274231 -0.0028886620198228718 0 0.0047056431256092355 -0.0044866321687889298 0 0.0040743757282310691 -0.0040811809460128898 0 0.0049592234756750102 -0.001450707837600609 0 0.0039622147627562708 -0.0013541272578898016 0 0.0049229353327233834 0.00028997090346697524 0 0.0040503662502488959 -0.0020374828397275117 0 0.0049592234756750102 -0.001450707837600609 0 0.0039622147627562708 -0.0013541272578898016 0 0.0040503662502488959 -0.0020374828397275117 0 0.0038279029224598123 -0.0018813522554746093 0 0.0039622147627562708 -0.0013541272578898016 0 0.0039802212975557612 -0.0020499020264687952 0 0.0039622147627562708 -0.0013541272578898016 0 0.0037574882277573948 -0.0020926756552333112 0 0.0039251387031445234 -0.0014361954311371879 0 0.0037831146362971037 -0.00034330998953705053 0 0.0039802212975557612 -0.0020499020264687952 0 0.0037574882277573948 -0.0020926756552333112 0 0.0039281422273008864 -0.0022025472258283378 0 0.0039622147627562708 -0.0013541272578898016 0 0.0037595368562229128 0.00070807590955284511 0 0.0049229353327233834 0.00028997090346697524 0 0.0037595368562229128 0.00070807590955284511 0 0.0049229353327233834 0.00028997090346697524 0 0.0042675587326213319 0.0015399472163260066 0 0.0049229353327233834 0.00028997090346697524 0 0.0042675587326213319 0.0015399472163260066 0 0.0051178636091572345 0.0018445963746249387 0 0.0042675587326213319 0.0015399472163260066 0 0.0048173042615987233 0.0021069895977781344 0 0.0051178636091572345 0.0018445963746249387 0 0.0042675587326213319 0.0015399472163260066 0 0.0044449921061177266 0.0022561474939879794 0 0.0048173042615987233 0.0021069895977781344 0 0.0037595368562229128 0.00070807590955284511 0 0.0042675587326213319 0.0015399472163260066 0 0.0041155083459633182 0.002161029756034989 0 0.0037574882277573948 -0.0020926756552333112 0 0.0039281422273008864 -0.0022025472258283378 0 0.0037757697080304962 -0.0024277000547935235 0 0.0041678349181458428 -0.0022996224777347869 0 0.0039281422273008864 -0.0022025472258283378 0 0.0037757697080304962 -0.0024277000547935235 0 0.0037831146362971037 -0.00034330998953705053 0 0.0041948217952656706 -0.0022574584986195453 0 0.0042675587326213319 0.0015399472163260066 0 0.0041155083459633182 0.002161029756034989 0 0.0044449921061177266 0.0022561474939879794 0 0.0055598312656994844 -0.0018876331766768668 0 0.0041948217952656706 -0.0022574584986195453 0 0.0056652809126079198 -0.0056757823025558535 0 0.0042099376703817696 -0.007060430486597759 0 0.0057454811207273519 -0.0077061883004125717 0 0.0052755479667625027 0.0022148493229447661 0 0.0044253616695769998 0.002253122931804053 0 0.0048800341243868933 0.0023621487618566547 0 0.0044253616695769998 0.002253122931804053 0 0.0044449921061177266 0.0022561474939879794 0 0.0048800341243868933 0.0023621487618566547 0 0.0041948217952656706 -0.0022574584986195453 0 0.0046906845417890751 -0.0015319823713941011 0 0.0048173042615987233 0.0021069895977781344 0 0.0047974618874733555 0.0023422827544293673 0 0.0051143571910032019 0.0026654800051798869 0 0.0044449921061177266 0.0022561474939879794 0 0.0048173042615987233 0.0021069895977781344 0 0.0047974618874733555 0.0023422827544293673 0 0.0044449921061177266 0.0022561474939879794 0 0.0047974618874733555 0.0023422827544293673 0 0.0048800341243868933 0.0023621487618566547 0 0.0047974618874733555 0.0023422827544293673 0 0.0048800341243868933 0.0023621487618566547 0 0.0051143571910032019 0.0026654800051798869 0 0.0052487666543414276 0.0027937884650133271 0 0.0051143571910032019 0.0026654800051798869 0 0.0060455610311055327 0.0034474178088245689 0 0.0048173042615987233 0.0021069895977781344 0 0.0051143571910032019 0.0026654800051798869 0 0.0051178636091572345 0.0018445963746249387 0 0.0051143571910032019 0.0026654800051798869 0 0.0051178636091572345 0.0018445963746249387 0 0.0060455610311055327 0.0034474178088245689 0 0.0049229353327233834 0.00028997090346697524 0 0.0051178636091572345 0.0018445963746249387 0 0.0060641716392524523 0.00095368896709177239 0 0.0060455610311055327 0.0034474178088245689 0 0.0077611349998827758 0.00091661840587406863 0 0.0060641716392524523 0.00095368896709177239 0 0.0051178636091572345 0.0018445963746249387 0 0.0060455610311055327 0.0034474178088245689 0 0.0060641716392524523 0.00095368896709177239 0 0.0048041167082036743 0.0030247126024592042 0 0.0052487666543414276 0.0027937884650133271 0 0.0060455610311055327 0.0034474178088245689 0 0.0048041167082036743 0.0030247126024592042 0 0.0060455610311055327 0.0034474178088245689 0 0.0038774789902096779 0.0050182254018101844 0 0.0036544435299806716 0.0031970185600880166 0 0.0038774789902096779 0.0050182254018101844 0 0.0025951665725002654 0.0042817231579846552 0 0.0036544435299806716 0.0031970185600880166 0 0.0048041167082036743 0.0030247126024592042 0 0.0038774789902096779 0.0050182254018101844 0 0.00030067306396831263 0.0073285988171204403 0 -0.0028713816757622002 0.013174327822712568 0 0.002051383255168536 0.0020670085543083882 0 0.0002640906952014244 0.0052062469277194866 0 -0.00077374859353133345 0.0063311399671390472 0 0.0024388085008523767 0.0027580785225010764 0 0.00050693321301722798 0.004834153518898072 0 0.0025951665725002654 0.0042817231579846552 0 0.00050693321301722798 0.004834153518898072 0 0.0025951665725002654 0.0042817231579846552 0 0.0019089631650881349 0.0058365902793117153 0 0.00030067306396831263 0.0073285988171204403 0 0.0008530309531725544 0.0045664380346028067 0 0.0038774789902096779 0.0050182254018101844 0 0.0019089631650881349 0.0058365902793117153 0 0.0018293616317521895 0.0080180887063118073 0 0.0038774789902096779 0.0050182254018101844 0 0.0025951665725002654 0.0042817231579846552 0 0.0019089631650881349 0.0058365902793117153 0 0.0019089631650881349 0.0058365902793117153 0 0.00072979252948312363 0.0068188919890819358 0 0.0018293616317521895 0.0080180887063118073 0 0.00050693321301722798 0.004834153518898072 0 0.0019089631650881349 0.0058365902793117153 0 0.00072979252948312363 0.0068188919890819358 0 0.0038774789902096779 0.0050182254018101844 0 0.0018293616317521895 0.0080180887063118073 0 0.0045420156840898672 0.0096111566603911489 0 0.0018293616317521895 0.0080180887063118073 0 0.0045420156840898672 0.0096111566603911489 0 -2.70648048633063e-05 0.01148680407136957 0 0.0060307590426903175 0.0038329325783734904 0 0.0059240043130204768 0.0053231985402686513 0 0.0060455610311055327 0.0034474178088245689 0 0.0038774789902096779 0.0050182254018101844 0 0.0045420156840898672 0.0096111566603911489 0 0.0077611349998827758 0.00091661840587406863 0 0.0072679357677401151 -0.00043177773858496445 0 0.0060641716392524523 0.00095368896709177239 0 0.0059240043130204768 0.0053231985402686513 0 0.0043805146414184646 0.007454011837490733 0 0.0045420156840898672 0.0096111566603911489 0 -2.70648048633063e-05 0.01148680407136957 0 0.00061238378536286782 0.015579167129120695 0 0.0077611349998827758 0.00091661840587406863 0 0.0072679357677401151 -0.00043177773858496445 0 0.0083281669896337861 -0.00067222695544267642 0 0.0077353545424563375 -0.0014003594594828193 0 0.0083281669896337861 -0.00067222695544267642 0 0.0081619508117042328 -0.0020882865660258711 0 0.0072679357677401151 -0.00043177773858496445 0 0.0077353545424563375 -0.0014003594594828193 0 0.0083281669896337861 -0.00067222695544267642 0 0.0072679357677401151 -0.00043177773858496445 0 0.0077353545424563375 -0.0014003594594828193 0 0.0069535609201383615 -0.0015884594286188808 0 0.0072679357677401151 -0.00043177773858496445 0 0.0059456221843215799 -0.00049523381753382621 0 0.0069535609201383615 -0.0015884594286188808 0 0.0059456221843215799 -0.00049523381753382621 0 0.0058757995891713551 -0.0017612471444971173 0 0.0069535609201383615 -0.0015884594286188808 0 0.0049592234756750102 -0.001450707837600609 0 0.0049229353327233834 0.00028997090346697524 0 0.0059456221843215799 -0.00049523381753382621 0 0.0049592234756750102 -0.001450707837600609 0 0.0059456221843215799 -0.00049523381753382621 0 0.0058757995891713551 -0.0017612471444971173 0 0.0049229353327233834 0.00028997090346697524 0 0.0059456221843215799 -0.00049523381753382621 0 0.0060641716392524523 0.00095368896709177239 0 0.0072679357677401151 -0.00043177773858496445 0 0.0059456221843215799 -0.00049523381753382621 0 0.0060641716392524523 0.00095368896709177239 0 -0.003786439352592316 0.019012290395893958 0 -0.0037900539163543382 0.01897951056954799 0 -0.0038553523980572927 0.018792852917614671 0 -0.0037912549623126813 0.019105613214469241 0 -0.0037432005023527279 0.019011658310947865 0 -0.0037900539163543382 0.01897951056954799 0 -0.0037432005023527279 0.019011658310947865 0 -0.003786439352592316 0.019012290395893958 0 -0.0037900539163543382 0.01897951056954799 0 -0.0037900539163543382 0.01897951056954799 0 -0.003954929284868367 0.019005437855715943 0 -0.0038553523980572927 0.018792852917614671 0 -0.0037912549623126813 0.019105613214469241 0 -0.0037900539163543382 0.01897951056954799 0 -0.003954929284868367 0.019005437855715943 0 -0.003954929284868367 0.019005437855715943 0 -0.0038553523980572927 0.018792852917614671 0 -0.004139599480327041 0.018726541524899328 0 -0.004139599480327041 0.018726541524899328 0 -0.0044447051001628443 0.018534280206549857 0 -0.0041651404595234968 0.018895294683839447 0 -0.0044447051001628443 0.018534280206549857 0 -0.0041651404595234968 0.018895294683839447 0 -0.0042744254187889619 0.018831577896839553 0 -0.003954929284868367 0.019005437855715943 0 -0.004139599480327041 0.018726541524899328 0 -0.0041651404595234968 0.018895294683839447 0 -0.0040547458676366867 0.019085773560634272 0 -0.003954929284868367 0.019005437855715943 0 -0.0041651404595234968 0.018895294683839447 0 -0.0040547458676366867 0.019085773560634272 0 -0.0041651404595234968 0.018895294683839447 0 -0.0041999608230979101 0.018972696556036738 0 -0.0041651404595234968 0.018895294683839447 0 -0.0042744254187889619 0.018831577896839553 0 -0.0041999608230979101 0.018972696556036738 0 -0.0042744254187889619 0.018831577896839553 0 -0.0041999608230979101 0.018972696556036738 0 -0.0042887683063024444 0.018873031927212468 0 -0.004227507311690186 0.019019421823988528 0 -0.0042853009592818446 0.019028157417780224 0 -0.0042887683063024444 0.018873031927212468 0 -0.004227507311690186 0.019019421823988528 0 -0.0041999608230979101 0.018972696556036738 0 -0.0042887683063024444 0.018873031927212468 0 0.0008530309531725544 0.0045664380346028067 0 -0.0013696222344132172 0.0082193115607477208 0 0.00050693321301722798 0.004834153518898072 0 0.00072979252948312363 0.0068188919890819358 0 -0.0014224957563801956 0.0085926015520961883 0 0.0002640906952014244 0.0052062469277194866 0 -0.00077374859353133345 0.0063311399671390472 0 -0.0014224957563801956 0.0085926015520961883 0 0.00072979252948312363 0.0068188919890819358 0 0.0018293616317521895 0.0080180887063118073 0 -0.0014224957563801956 0.0085926015520961883 0 -0.0044447051001628443 0.018534280206549857 0 -0.0042744254187889619 0.018831577896839553 0 -0.0042887683063024444 0.018873031927212468 0 -0.0036235041225885084 0.014795294942017428 0 -0.0028713816757622002 0.013174327822712568 0 -0.0033275319792496322 0.011330331725368374 0 -0.00077374859353133345 0.0063311399671390472 0 -0.0014224957563801956 0.0085926015520961883 0 -0.0033275319792496322 0.011330331725368374 0 -0.0014224957563801956 0.0085926015520961883 0 -2.70648048633063e-05 0.01148680407136957 0 0.0018293616317521895 0.0080180887063118073 0 -0.0014224957563801956 0.0085926015520961883 0 -2.70648048633063e-05 0.01148680407136957 0 -2.70648048633063e-05 0.01148680407136957 0 0.00061238378536286782 0.015579167129120695 0 -0.0023908083362504553 0.015602385746486352 0 -0.0033275319792496322 0.011330331725368374 0 -2.70648048633063e-05 0.01148680407136957 0 -0.0023908083362504553 0.015602385746486352 0 0.00061238378536286782 0.015579167129120695 0 -0.0023908083362504553 0.015602385746486352 0 -0.0031110456065435621 0.018878339906506954 0 0.0083281669896337861 -0.00067222695544267642 0 0.0086348420994168066 -0.0016825339471026612 0 0.0081619508117042328 -0.0020882865660258711 0 0.0043805146414184646 0.007454011837490733 0 0.0028279476437050644 0.0085385758697298694 0 -0.0042745073875774678 0.017512806529933596 0 -0.0041343067359748392 0.018757046799137356 0 -0.0031110456065435621 0.018878339906506954 0 -0.0023908083362504553 0.015602385746486352 0 -0.0042745073875774678 0.017512806529933596 0 -0.0031110456065435621 0.018878339906506954 0 -0.0036235041225885084 0.014795294942017428 0 -0.0043225010914262584 0.017058232581580682 0 -0.004139599480327041 0.018726541524899328 0 -0.0044447051001628443 0.018534280206549857 0 -0.0042745073875774678 0.017512806529933596 0 -0.0033275319792496322 0.011330331725368374 0 -0.0023908083362504553 0.015602385746486352 0 -0.0042745073875774678 0.017512806529933596 0 -0.0038553523980572927 0.018792852917614671 0 -0.0042745073875774678 0.017512806529933596 0 -0.0039248479365953763 0.018875674095901789 0 -0.0038553523980572927 0.018792852917614671 0 -0.004139599480327041 0.018726541524899328 0 -0.0042745073875774678 0.017512806529933596 0 -0.0042745073875774678 0.017512806529933596 0 -0.0041343067359748392 0.018757046799137356 0 -0.0039248479365953763 0.018875674095901789 0 -0.0041343067359748392 0.018757046799137356 0 -0.0039248479365953763 0.018875674095901789 0 -0.0040458640368085776 0.01948002594594116 0 -0.0038413020212427901 0.019714294964162465 0 -0.0039248479365953763 0.018875674095901789 0 -0.0040458640368085776 0.01948002594594116 0 -0.003786439352592316 0.019012290395893958 0 -0.0038553523980572927 0.018792852917614671 0 -0.0039248479365953763 0.018875674095901789 0 -0.0038413020212427901 0.019714294964162465 0 -0.003786439352592316 0.019012290395893958 0 -0.0039248479365953763 0.018875674095901789 0 0.0022997109504604009 0.0086252530477522321 0 0.0032741325186693955 0.0073026185240132107 0 -0.0039395540889597836 0.019534022620202797 0 -0.0040717544480206183 0.019293752649436169 0 -0.004009191314197998 0.019018430557835954 0 -0.0041343067359748392 0.018757046799137356 0 -0.0040458640368085776 0.01948002594594116 0 -0.0040717544480206183 0.019293752649436169 0 -0.0039395540889597836 0.019534022620202797 0 -0.0040458640368085776 0.01948002594594116 0 -0.0040717544480206183 0.019293752649436169 0 -0.0041343067359748392 0.018757046799137356 0 -0.0040717544480206183 0.019293752649436169 0 -0.0031110456065435621 0.018878339906506954 0 0.0089489152456684526 -0.0023708384462633823 0 0.0083788629436218551 -0.0027445504229894704 0 0.0086479796947311546 -0.0029647819610828493 0 0.0089489152456684526 -0.0023708384462633823 0 0.0083788629436218551 -0.0027445504229894704 0 0.0086348420994168066 -0.0016825339471026612 0 0.0022997109504604009 0.0086252530477522321 0 0.0028279476437050644 0.0085385758697298694 0 0.0083788629436218551 -0.0027445504229894704 0 0.0086348420994168066 -0.0016825339471026612 0 0.0081619508117042328 -0.0020882865660258711 0 0.0083788629436218551 -0.0027445504229894704 0 0.0081619508117042328 -0.0020882865660258711 0 0.0075788065107626782 -0.0029791545062158357 0 0.0083788629436218551 -0.0027445504229894704 0 0.0081754706536233783 -0.0034934955939557337 0 0.0077617114529394153 -0.0034406697965772204 0 0.0083788629436218551 -0.0027445504229894704 0 0.0075788065107626782 -0.0029791545062158357 0 0.0077617114529394153 -0.0034406697965772204 0 0.0081754706536233783 -0.0034934955939557337 0 0.0083702144832769887 -0.0038846744344037927 0 0.0079020863077068609 -0.0040399708415504009 0 0.0081754706536233783 -0.0034934955939557337 0 0.0076121259004292398 -0.003969068163835447 0 0.0079020863077068609 -0.0040399708415504009 0 0.0081754706536233783 -0.0034934955939557337 0 0.0077617114529394153 -0.0034406697965772204 0 0.0076121259004292398 -0.003969068163835447 0 0.0085782507254572749 -0.0034228920418099213 0 0.00886086217934072 -0.0035909029365196804 0 0.0083702144832769887 -0.0038846744344037927 0 0.0081754706536233783 -0.0034934955939557337 0 0.0085782507254572749 -0.0034228920418099213 0 0.0083702144832769887 -0.0038846744344037927 0 0.0081754706536233783 -0.0034934955939557337 0 0.0085782507254572749 -0.0034228920418099213 0 0.0086479796947311546 -0.0029647819610828493 0 0.0083788629436218551 -0.0027445504229894704 0 0.0081754706536233783 -0.0034934955939557337 0 0.0086479796947311546 -0.0029647819610828493 0 0.0089489152456684526 -0.0023708384462633823 0 0.0086479796947311546 -0.0029647819610828493 0 0.0089506591726835755 -0.0030635779144901499 0 0.0085782507254572749 -0.0034228920418099213 0 0.0086479796947311546 -0.0029647819610828493 0 0.0089506591726835755 -0.0030635779144901499 0 0.0089506591726835755 -0.0030635779144901499 0 0.00886086217934072 -0.0035909029365196804 0 0.0091945893579028388 -0.0033547353540944415 0 0.0085782507254572749 -0.0034228920418099213 0 0.0089506591726835755 -0.0030635779144901499 0 0.00886086217934072 -0.0035909029365196804 0 0.0094053430228822656 -0.0033217654607480551 0 0.0091945893579028388 -0.0033547353540944415 0 0.0092787651889429078 -0.00288253242623694 0 0.00886086217934072 -0.0035909029365196804 0 0.0091945893579028388 -0.0033547353540944415 0 0.0091439422550713672 -0.0036459763608708532 0 0.0094053430228822656 -0.0033217654607480551 0 0.0091945893579028388 -0.0033547353540944415 0 0.009302693918543643 -0.0035702926460523051 0 0.0091945893579028388 -0.0033547353540944415 0 0.009302693918543643 -0.0035702926460523051 0 0.0091439422550713672 -0.0036459763608708532 0 0.0089506591726835755 -0.0030635779144901499 0 0.0091945893579028388 -0.0033547353540944415 0 0.0092787651889429078 -0.00288253242623694 0 0.0089489152456684526 -0.0023708384462633823 0 0.0089506591726835755 -0.0030635779144901499 0 0.0092787651889429078 -0.00288253242623694 0 0.0063201043938049409 -0.0026053370589898001 0 0.0070274423414049599 -0.0027504075099650167 0 0.0063607096808679887 -0.0033877529357698726 0 0.0063201043938049409 -0.0026053370589898001 0 0.0056937688099931117 -0.0034171715322197211 0 0.0063607096808679887 -0.0033877529357698726 0 0.0052414240432686107 -0.0024740544736535615 0 0.0063201043938049409 -0.0026053370589898001 0 0.0056937688099931117 -0.0034171715322197211 0 0.0052414240432686107 -0.0024740544736535615 0 0.0063201043938049409 -0.0026053370589898001 0 0.0058757995891713551 -0.0017612471444971173 0 0.0052414240432686107 -0.0024740544736535615 0 0.0049592234756750102 -0.001450707837600609 0 0.0058757995891713551 -0.0017612471444971173 0 0.0063201043938049409 -0.0026053370589898001 0 0.0069535609201383615 -0.0015884594286188808 0 0.0070274423414049599 -0.0027504075099650167 0 0.0063201043938049409 -0.0026053370589898001 0 0.0058757995891713551 -0.0017612471444971173 0 0.0069535609201383615 -0.0015884594286188808 0 0.0077353545424563375 -0.0014003594594828193 0 0.0069535609201383615 -0.0015884594286188808 0 0.0076700120522589336 -0.0022275298488404877 0 0.0069535609201383615 -0.0015884594286188808 0 0.0076700120522589336 -0.0022275298488404877 0 0.0070274423414049599 -0.0027504075099650167 0 0.0077353545424563375 -0.0014003594594828193 0 0.0081619508117042328 -0.0020882865660258711 0 0.0076700120522589336 -0.0022275298488404877 0 0.0081619508117042328 -0.0020882865660258711 0 0.0076700120522589336 -0.0022275298488404877 0 0.0075788065107626782 -0.0029791545062158357 0 0.0076700120522589336 -0.0022275298488404877 0 0.0075788065107626782 -0.0029791545062158357 0 0.0070274423414049599 -0.0027504075099650167 0 0.0075788065107626782 -0.0029791545062158357 0 0.0068807951174744862 -0.0036108171820175322 0 0.0072770394027272126 -0.0039303880719772704 0 0.0075788065107626782 -0.0029791545062158357 0 0.0070274423414049599 -0.0027504075099650167 0 0.0068807951174744862 -0.0036108171820175322 0 0.0075788065107626782 -0.0029791545062158357 0 0.0077617114529394153 -0.0034406697965772204 0 0.0072770394027272126 -0.0039303880719772704 0 0.0077617114529394153 -0.0034406697965772204 0 0.0076121259004292398 -0.003969068163835447 0 0.0072770394027272126 -0.0039303880719772704 0 0.0076121259004292398 -0.003969068163835447 0 0.0072770394027272126 -0.0039303880719772704 0 0.0072610750978662182 -0.0043703840253148819 0 0.0072770394027272126 -0.0039303880719772704 0 0.006790504109987907 -0.0044136154781709873 0 0.0072610750978662182 -0.0043703840253148819 0 0.0068807951174744862 -0.0036108171820175322 0 0.0072770394027272126 -0.0039303880719772704 0 0.006790504109987907 -0.0044136154781709873 0 0.0068807951174744862 -0.0036108171820175322 0 0.006790504109987907 -0.0044136154781709873 0 0.0061333109533371621 -0.0041513584195644881 0 0.006790504109987907 -0.0044136154781709873 0 0.0061333109533371621 -0.0041513584195644881 0 0.0061358608336717167 -0.0048134771783443107 0 0.0068807951174744862 -0.0036108171820175322 0 0.0063607096808679887 -0.0033877529357698726 0 0.0061333109533371621 -0.0041513584195644881 0 0.0070274423414049599 -0.0027504075099650167 0 0.0068807951174744862 -0.0036108171820175322 0 0.0063607096808679887 -0.0033877529357698726 0 0.0053982184633181128 -0.0042056601232986568 0 0.0056937688099931117 -0.0034171715322197211 0 0.0061333109533371621 -0.0041513584195644881 0 0.0056937688099931117 -0.0034171715322197211 0 0.0063607096808679887 -0.0033877529357698726 0 0.0061333109533371621 -0.0041513584195644881 0 0.0053982184633181128 -0.0042056601232986568 0 0.0055503817584183551 -0.0049120872487160615 0 0.0061333109533371621 -0.0041513584195644881 0 0.0055503817584183551 -0.0049120872487160615 0 0.0061333109533371621 -0.0041513584195644881 0 0.0061358608336717167 -0.0048134771783443107 0 0.0055503817584183551 -0.0049120872487160615 0 0.0061358608336717167 -0.0048134771783443107 0 0.005706741421973349 -0.0054439680899157497 0 0.0061358608336717167 -0.0048134771783443107 0 0.005706741421973349 -0.0054439680899157497 0 0.0066647146720196894 -0.0049651066262736635 0 0.005706741421973349 -0.0054439680899157497 0 0.0061074460121973472 -0.0059068607070232003 0 0.0066647146720196894 -0.0049651066262736635 0 0.005706741421973349 -0.0054439680899157497 0 0.0061074460121973472 -0.0059068607070232003 0 0.0054037699544920307 -0.0059555601905476735 0 0.0068265322378828607 -0.0048471203649716023 0 0.0068210445989041616 -0.004846959342812875 0 0.0066647146720196894 -0.0049651066262736635 0 0.0068265322378828607 -0.0048471203649716023 0 0.0068210445989041616 -0.004846959342812875 0 0.0068551189553627797 -0.0048493872052247314 0 0.0064771903697577234 -0.0053398681555608552 0 0.0066483020267679889 -0.0050376754815195362 0 0.0068210445989041616 -0.004846959342812875 0 0.0066647146720196894 -0.0049651066262736635 0 0.0069380094069754188 -0.0047036270308946845 0 0.006790504109987907 -0.0044136154781709873 0 0.0066647146720196894 -0.0049651066262736635 0 0.0069380094069754188 -0.0047036270308946845 0 0.006790504109987907 -0.0044136154781709873 0 0.0061358608336717167 -0.0048134771783443107 0 0.0066647146720196894 -0.0049651066262736635 0 0.0069380094069754188 -0.0047036270308946845 0 0.0072610750978662182 -0.0043703840253148819 0 0.0071135919822707134 -0.004753428046083169 0 0.006790504109987907 -0.0044136154781709873 0 0.0069380094069754188 -0.0047036270308946845 0 0.0072610750978662182 -0.0043703840253148819 0 0.0072610750978662182 -0.0043703840253148819 0 0.0074502766811195414 -0.0044587818919288652 0 0.0071135919822707134 -0.004753428046083169 0 0.0076121259004292398 -0.003969068163835447 0 0.0072610750978662182 -0.0043703840253148819 0 0.0074502766811195414 -0.0044587818919288652 0 0.0074502766811195414 -0.0044587818919288652 0 0.0073392022510933991 -0.0047684218556892574 0 0.0071135919822707134 -0.004753428046083169 0 0.0073392022510933991 -0.0047684218556892574 0 0.0071135919822707134 -0.004753428046083169 0 0.0072296345724522188 -0.0047616867950630087 0 0.0068210445989041616 -0.004846959342812875 0 0.0069380094069754188 -0.0047036270308946845 0 0.0071135919822707134 -0.004753428046083169 0 0.0068210445989041616 -0.004846959342812875 0 0.0071135919822707134 -0.004753428046083169 0 0.0069425055066236578 -0.0048370862977947333 0 0.0071135919822707134 -0.004753428046083169 0 0.0069425055066236578 -0.0048370862977947333 0 0.0070844362226483767 -0.0048056291562667943 0 0.0069425055066236578 -0.0048370862977947333 0 0.0070844362226483767 -0.0048056291562667943 0 0.0070027370034181193 -0.0048485815727553503 0 0.0070844362226483767 -0.0048056291562667943 0 0.0070027370034181193 -0.0048485815727553503 0 0.0071390292987918011 -0.0047970345639007875 0 0.0070027370034181193 -0.0048485815727553503 0 0.0071390292987918011 -0.0047970345639007875 0 0.0069960117420124297 -0.0048806281407416732 0 0.0070027370034181193 -0.0048485815727553503 0 0.0069417484523395549 -0.0048925038153226847 0 0.0069960117420124297 -0.0048806281407416732 0 0.0069425055066236578 -0.0048370862977947333 0 0.0070027370034181193 -0.0048485815727553503 0 0.0069239412157278577 -0.0048615274920459691 0 0.0070027370034181193 -0.0048485815727553503 0 0.0069417484523395549 -0.0048925038153226847 0 0.0069239412157278577 -0.0048615274920459691 0 0.0073392022510933991 -0.0047684218556892574 0 0.0072296345724522188 -0.0047616867950630087 0 0.0072214905581037383 -0.0046831862372914423 0 0.0071135919822707134 -0.004753428046083169 0 0.0070844362226483767 -0.0048056291562667943 0 0.0072296345724522188 -0.0047616867950630087 0 0.0070844362226483767 -0.0048056291562667943 0 0.0072296345724522188 -0.0047616867950630087 0 0.0071390292987918011 -0.0047970345639007875 0 0.0072296345724522188 -0.0047616867950630087 0 0.0071390292987918011 -0.0047970345639007875 0 0.0072113373568966329 -0.0047448984237592083 0 0.0071390292987918011 -0.0047970345639007875 0 0.0072113373568966329 -0.0047448984237592083 0 0.0072514389740793465 -0.0047288231488028746 0 0.0072296345724522188 -0.0047616867950630087 0 0.0072113373568966329 -0.0047448984237592083 0 0.007223291030249962 -0.0047146150705584759 0 0.0072113373568966329 -0.0047448984237592083 0 0.007223291030249962 -0.0047146150705584759 0 0.0072514389740793465 -0.0047288231488028746 0 0.0072125297982242953 -0.0046870988571217354 0 0.007223291030249962 -0.0047146150705584759 0 0.0072514389740793465 -0.0047288231488028746 0 0.0072296345724522188 -0.0047616867950630087 0 0.007223291030249962 -0.0047146150705584759 0 0.0072214905581037383 -0.0046831862372914423 0 0.0072125297982242953 -0.0046870988571217354 0 0.007223291030249962 -0.0047146150705584759 0 0.0072214905581037383 -0.0046831862372914423 0 0.0071390292987918011 -0.0047970345639007875 0 0.0072514389740793465 -0.0047288231488028746 0 0.006954579202935348 -0.0049509042001322848 0 0.003801331560789887 0.0039661673420465842 0 0.0046488622585619489 0.004739821378221004 0 0.0040773611087232507 0.0028778234113435775 0 0.0039823029867612301 0.0029780954023857762 0 0.0049005660843845136 0.002734839022234873 0 0.0037658804974240985 0.0051102488084111223 0 0.0041686020403737221 0.0055041686222251744 0 0.0044649884879574544 0.0055473659945110623 0 0.0056575476943245672 -0.00093203143918750325 0 0.0059379368659582482 -0.00092295249711791161 0 0.0037658804974240985 0.0051102488084111223 0 0.0041686020403737221 0.0055041686222251744 0 0.003945320361693835 0.0054077920514212239 0 0.0037658804974240985 0.0051102488084111223 0 0.003945320361693835 0.0054077920514212239 0 0.003660914830150728 0.0054326539814599853 0 0.0041686020403737221 0.0055041686222251744 0 0.0041075247675541899 0.0056967649758270884 0 0.0043060567991257221 0.0055852688257956706 0 0.0041686020403737221 0.0055041686222251744 0 0.0041075247675541899 0.0056967649758270884 0 0.003945320361693835 0.0054077920514212239 0 0.0041075247675541899 0.0056967649758270884 0 0.003660914830150728 0.0054326539814599853 0 0.0034875776160449641 0.0057908263773268622 0 0.0041075247675541899 0.0056967649758270884 0 0.003945320361693835 0.0054077920514212239 0 0.003660914830150728 0.0054326539814599853 0 0.0040773611087232507 0.0028778234113435775 0 0.004939529387077723 0.0026733138523129764 0 0.0049005660843845136 0.002734839022234873 0 0.0069492634802477077 -0.0049169282240064203 0 0.006954579202935348 -0.0049509042001322848 0 0.0069960117420124297 -0.0048806281407416732 0 0.0069492634802477077 -0.0049169282240064203 0 0.006954579202935348 -0.0049509042001322848 0 0.0069025880361225046 -0.0049278167301731257 0 0.0069492634802477077 -0.0049169282240064203 0 0.0069417484523395549 -0.0048925038153226847 0 0.0069960117420124297 -0.0048806281407416732 0 0.0071390292987918011 -0.0047970345639007875 0 0.006954579202935348 -0.0049509042001322848 0 0.0069960117420124297 -0.0048806281407416732 0 0.0041686020403737221 0.0055041686222251744 0 0.004351597809081874 0.0055508356563980909 0 0.0044649884879574544 0.0055473659945110623 0 0.0041686020403737221 0.0055041686222251744 0 0.004351597809081874 0.0055508356563980909 0 0.0043060567991257221 0.0055852688257956706 0 0.004351597809081874 0.0055508356563980909 0 0.0043984915921227528 0.005546621446061579 0 0.0043060567991257221 0.0055852688257956706 0 0.004351597809081874 0.0055508356563980909 0 0.0043984915921227528 0.005546621446061579 0 0.0044649884879574544 0.0055473659945110623 0 0.0043984915921227528 0.005546621446061579 0 0.0044649884879574544 0.0055473659945110623 0 0.0043630058776030611 0.0055197709418086799 0 0.0059379368659582482 -0.00092295249711791161 0 0.0064066233292518647 -0.0028489583550061572 0 0.004939529387077723 0.0026733138523129764 0 0.005367653499812523 0.0025777650258172963 0 0.0053497356480613897 0.002623221248125274 0 0.0068812772685344767 -0.0049033208115427645 0 0.0067970195010563653 -0.0049474239521868036 0 0.0068378579907429696 -0.0048853941785126712 0 0.0044649884879574544 0.0055473659945110623 0 0.0041091596640587501 0.0055229377683852577 0 0.0043630058776030611 0.0055197709418086799 0 0.004939529387077723 0.0026733138523129764 0 0.0049005660843845136 0.002734839022234873 0 0.0053497356480613897 0.002623221248125274 0 0.0046488622585619489 0.004739821378221004 0 0.0053543161216516432 -0.00078717645614888483 0 0.0069025880361225046 -0.0049278167301731257 0 0.0068812772685344767 -0.0049033208115427645 0 0.0067970195010563653 -0.0049474239521868036 0 0.006954579202935348 -0.0049509042001322848 0 0.0069025880361225046 -0.0049278167301731257 0 0.0067970195010563653 -0.0049474239521868036 0 0.0069417484523395549 -0.0048925038153226847 0 0.0069025880361225046 -0.0049278167301731257 0 0.0068812772685344767 -0.0049033208115427645 0 0.0069492634802477077 -0.0049169282240064203 0 0.0069417484523395549 -0.0048925038153226847 0 0.0069025880361225046 -0.0049278167301731257 0 0.0064066233292518647 -0.0028489583550061572 0 0.0059207402675324396 -0.0056527773508754904 0 0.0067970195010563653 -0.0049474239521868036 0 0.0067798954187184395 -0.0048737497121542342 0 0.0068378579907429696 -0.0048853941785126712 0 0.0059888789744442124 -0.0052045445321487445 0 0.0053484303148279315 -0.0054086195848869409 0 0.0055687982306718243 -0.0050316059845485015 0 0.0059888789744442124 -0.0052045445321487445 0 0.0056500081722608737 -0.0044160048418762487 0 0.0055687982306718243 -0.0050316059845485015 0 0.0061074460121973472 -0.0059068607070232003 0 0.0056368895862819414 -0.0064932120818844679 0 0.0054037699544920307 -0.0059555601905476735 0 0.0067798954187184395 -0.0048737497121542342 0 0.006818376521714244 -0.004864877913455092 0 0.0068378579907429696 -0.0048853941785126712 0 0.0064771903697577234 -0.0053398681555608552 0 0.0059207402675324396 -0.0056527773508754904 0 0.0068265322378828607 -0.0048471203649716023 0 0.0067798954187184395 -0.0048737497121542342 0 0.006818376521714244 -0.004864877913455092 0 0.0068265322378828607 -0.0048471203649716023 0 0.006818376521714244 -0.004864877913455092 0 0.0068551189553627797 -0.0048493872052247314 0 0.0068210445989041616 -0.004846959342812875 0 0.0069425055066236578 -0.0048370862977947333 0 0.0068551189553627797 -0.0048493872052247314 0 0.0069425055066236578 -0.0048370862977947333 0 0.0068551189553627797 -0.0048493872052247314 0 0.0069239412157278577 -0.0048615274920459691 0 0.0068551189553627797 -0.0048493872052247314 0 0.0069239412157278577 -0.0048615274920459691 0 0.0068717400934028231 -0.0048748923105745214 0 0.0069417484523395549 -0.0048925038153226847 0 0.0068812772685344767 -0.0049033208115427645 0 0.0069239412157278577 -0.0048615274920459691 0 0.0068812772685344767 -0.0049033208115427645 0 0.0069239412157278577 -0.0048615274920459691 0 0.0068717400934028231 -0.0048748923105745214 0 0.0068551189553627797 -0.0048493872052247314 0 0.0068717400934028231 -0.0048748923105745214 0 0.0068378579907429696 -0.0048853941785126712 0 0.0068812772685344767 -0.0049033208115427645 0 0.0068717400934028231 -0.0048748923105745214 0 0.0068378579907429696 -0.0048853941785126712 0 0.006818376521714244 -0.004864877913455092 0 0.0068551189553627797 -0.0048493872052247314 0 0.0068378579907429696 -0.0048853941785126712 0 0.0054612577818898833 -0.0041887544702395151 0 0.0058661092826823719 -0.0042877330821515158 0 0.0061797407844691801 -0.0041993116777632785 0 -0.0013134257263201512 0.0032723141861379468 0 0.00036955538134475388 0.0037312328584511016 0 -0.0003231979312313602 0.0038610323262623647 0 0.00016959976056110998 0.0050770743637526565 0 0.0036575575559801656 -0.00094091603707027033 0 -0.0013134257263201512 0.0032723141861379468 0 0.00059708909289886848 0.0036450889322731006 0 0.00036955538134475388 0.0037312328584511016 0 0.0058661092826823719 -0.0042877330821515158 0 0.0060392133836319481 -0.0043206380878185431 0 0.0061797407844691801 -0.0041993116777632785 0 0.0061550021906528092 -0.0043451846027584276 0 0.0060392133836319481 -0.0043206380878185431 0 0.0061797407844691801 -0.0041993116777632785 0 0.0061550021906528092 -0.0043451846027584276 0 0.0060392133836319481 -0.0043206380878185431 0 0.0060672907225156787 -0.0044271844237405 0 0.0058661092826823719 -0.0042877330821515158 0 0.0060392133836319481 -0.0043206380878185431 0 0.0059530111360294961 -0.0043646657734005279 0 0.0060392133836319481 -0.0043206380878185431 0 0.0059530111360294961 -0.0043646657734005279 0 0.0060672907225156787 -0.0044271844237405 0 0.0060672907225156787 -0.0044271844237405 0 0.006075940285847601 -0.0045941489286233789 0 0.006235832243700873 -0.0044542245565218925 0 0.0060672907225156787 -0.0044271844237405 0 0.005962566432746984 -0.004463531488189231 0 0.006075940285847601 -0.0045941489286233789 0 0.0059530111360294961 -0.0043646657734005279 0 0.0060672907225156787 -0.0044271844237405 0 0.005962566432746984 -0.004463531488189231 0 0.0061550021906528092 -0.0043451846027584276 0 0.0060672907225156787 -0.0044271844237405 0 0.006235832243700873 -0.0044542245565218925 0 0.0057199836458090162 -0.0043106860489154422 0 0.005962566432746984 -0.004463531488189231 0 0.0058756915794599641 -0.0043575431832043121 0 0.0059530111360294961 -0.0043646657734005279 0 0.005962566432746984 -0.004463531488189231 0 0.0058756915794599641 -0.0043575431832043121 0 0.0058661092826823719 -0.0042877330821515158 0 0.0059530111360294961 -0.0043646657734005279 0 0.0058756915794599641 -0.0043575431832043121 0 0.0057199836458090162 -0.0043106860489154422 0 0.0058661092826823719 -0.0042877330821515158 0 0.0058756915794599641 -0.0043575431832043121 0 0.0053830241964625027 -0.0045578279237574754 0 0.005962566432746984 -0.004463531488189231 0 0.006075940285847601 -0.0045941489286233789 0 0.009302693918543643 -0.0035702926460523051 0 0.0091439422550713672 -0.0036459763608708532 0 0.0091019534172426426 -0.0039617021250689995 0 0.0091439422550713672 -0.0036459763608708532 0 0.0091019534172426426 -0.0039617021250689995 0 0.0089650288955030587 -0.0037829410452154847 0 0.00886086217934072 -0.0035909029365196804 0 0.0087385761727136104 -0.0039417783208433007 0 0.0083702144832769887 -0.0038846744344037927 0 0.0091019534172426426 -0.0039617021250689995 0 0.0089650288955030587 -0.0037829410452154847 0 0.0087385761727136104 -0.0039417783208433007 0 0.0091019534172426426 -0.0039617021250689995 0 0.0087385761727136104 -0.0039417783208433007 0 0.0083680835262346098 -0.0044975896525134085 0 0.00886086217934072 -0.0035909029365196804 0 0.0091439422550713672 -0.0036459763608708532 0 0.0089650288955030587 -0.0037829410452154847 0 0.00886086217934072 -0.0035909029365196804 0 0.0089650288955030587 -0.0037829410452154847 0 0.0087385761727136104 -0.0039417783208433007 0 0.0085039458244143933 -0.0056828723126298528 0 0.0074065850282460525 -0.0043999779930428843 0 0.006235832243700873 -0.0044542245565218925 0 0.0063615365913930952 -0.0043758717214887766 0 0.0067820188682234306 -0.0046629721250719697 0 0.0063615365913930952 -0.0043758717214887766 0 0.0065677225510480559 -0.0044256340123976692 0 0.0067820188682234306 -0.0046629721250719697 0 0.006075940285847601 -0.0045941489286233789 0 0.006235832243700873 -0.0044542245565218925 0 0.0067820188682234306 -0.0046629721250719697 0 0.0063615365913930952 -0.0043758717214887766 0 0.0065677225510480559 -0.0044256340123976692 0 0.0061797407844691801 -0.0041993116777632785 0 0.0061550021906528092 -0.0043451846027584276 0 0.006235832243700873 -0.0044542245565218925 0 0.0062388239919448493 -0.0043351691748700983 0 0.006235832243700873 -0.0044542245565218925 0 0.0062388239919448493 -0.0043351691748700983 0 0.0063615365913930952 -0.0043758717214887766 0 0.0062388239919448493 -0.0043351691748700983 0 0.0063615365913930952 -0.0043758717214887766 0 0.0061797407844691801 -0.0041993116777632785 0 0.0061550021906528092 -0.0043451846027584276 0 0.0062388239919448493 -0.0043351691748700983 0 0.0061797407844691801 -0.0041993116777632785 0 0.0065677225510480559 -0.0044256340123976692 0 0.0067820188682234306 -0.0046629721250719697 0 0.0067955950328119899 -0.0044922755357013336 0 0.0067820188682234306 -0.0046629721250719697 0 0.0069798048429164355 -0.0045560253712411151 0 0.0067955950328119899 -0.0044922755357013336 0 0.0087385761727136104 -0.0039417783208433007 0 0.0083680835262346098 -0.0044975896525134085 0 0.0083702144832769887 -0.0038846744344037927 0 0.0083680835262346098 -0.0044975896525134085 0 0.0083702144832769887 -0.0038846744344037927 0 0.0078740156369889701 -0.0043434185635893227 0 0.0076121259004292398 -0.003969068163835447 0 0.0074502766811195414 -0.0044587818919288652 0 0.0079020863077068609 -0.0040399708415504009 0 0.0083702144832769887 -0.0038846744344037927 0 0.0078740156369889701 -0.0043434185635893227 0 0.0079020863077068609 -0.0040399708415504009 0 0.0074502766811195414 -0.0044587818919288652 0 0.0078740156369889701 -0.0043434185635893227 0 0.0079020863077068609 -0.0040399708415504009 0 0.0074269804760822402 -0.0047806940891685357 0 0.0074065850282460525 -0.0043999779930428843 0 0.0073392022510933991 -0.0047684218556892574 0 0.0067820188682234306 -0.0046629721250719697 0 0.0069798048429164355 -0.0045560253712411151 0 0.0073392022510933991 -0.0047684218556892574 0 0.0083680835262346098 -0.0044975896525134085 0 0.0078740156369889701 -0.0043434185635893227 0 0.0074502766811195414 -0.0044587818919288652 0 0.0073392022510933991 -0.0047684218556892574 0 0.0078740156369889701 -0.0043434185635893227 0 0.0039823029867612301 0.0029780954023857762 0 0.0023839061273572765 0.0033345750393752012 0 0.0025555946413473181 0.0032064201174864791 0 0.0069960711116237194 -0.0045120513419265431 0 0.0071189059073854949 -0.0046024153084320606 0 0.0068646224242896198 -0.00436173815499785 0 0.0072514389740793465 -0.0047288231488028746 0 0.0071189059073854949 -0.0046024153084320606 0 0.0068646224242896198 -0.00436173815499785 0 0.0040773611087232507 0.0028778234113435775 0 0.0039823029867612301 0.0029780954023857762 0 0.0025555946413473181 0.0032064201174864791 0 0.0056575476943245672 -0.00093203143918750325 0 0.004693702785509484 -0.00049248834056188351 0 0.003801331560789887 0.0039661673420465842 0 0.0021678158653497554 0.0039004951195356508 0 0.0073392022510933991 -0.0047684218556892574 0 0.0071087958115751554 -0.0045957403251224507 0 0.0069798048429164355 -0.0045560253712411151 0 0.0073392022510933991 -0.0047684218556892574 0 0.0072214905581037383 -0.0046831862372914423 0 0.0071087958115751554 -0.0045957403251224507 0 0.0071087958115751554 -0.0045957403251224507 0 0.0069798048429164355 -0.0045560253712411151 0 0.0069960711116237194 -0.0045120513419265431 0 0.0071087958115751554 -0.0045957403251224507 0 0.0069960711116237194 -0.0045120513419265431 0 0.0071189059073854949 -0.0046024153084320606 0 0.0072125297982242953 -0.0046870988571217354 0 0.0072514389740793465 -0.0047288231488028746 0 0.0071189059073854949 -0.0046024153084320606 0 0.0072214905581037383 -0.0046831862372914423 0 0.0071087958115751554 -0.0045957403251224507 0 0.0071189059073854949 -0.0046024153084320606 0 0.0072125297982242953 -0.0046870988571217354 0 0.0072214905581037383 -0.0046831862372914423 0 0.0071189059073854949 -0.0046024153084320606 0 0.0037658804974240985 0.0051102488084111223 0 0.0030691984224419386 0.0053191431276818045 0 0.0020877294085668982 0.0044703746397487037 0 0.0037658804974240985 0.0051102488084111223 0 0.003660914830150728 0.0054326539814599853 0 0.0030691984224419386 0.0053191431276818045 0 0.0034875776160449641 0.0057908263773268622 0 0.0028887091451323698 0.0058498623540187769 0 0.0030691984224419386 0.0053191431276818045 0 0.003660914830150728 0.0054326539814599853 0 0.0034875776160449641 0.0057908263773268622 0 0.0030691984224419386 0.0053191431276818045 0 0.0028887091451323698 0.0058498623540187769 0 0.0026669063126232573 0.0054311069235543534 0 0.0030691984224419386 0.0053191431276818045 0 0.0026669063126232573 0.0054311069235543534 0 0.0030691984224419386 0.0053191431276818045 0 0.002347002163368429 0.0050458566909420601 0 0.002347002163368429 0.0050458566909420601 0 0.0022734087568992826 0.0055848294437625444 0 0.0020026589825720546 0.0051036715413645259 0 0.0026669063126232573 0.0054311069235543534 0 0.002347002163368429 0.0050458566909420601 0 0.0022734087568992826 0.0055848294437625444 0 0.0030691984224419386 0.0053191431276818045 0 0.002347002163368429 0.0050458566909420601 0 0.0020877294085668982 0.0044703746397487037 0 0.0028887091451323698 0.0058498623540187769 0 0.0022734087568992826 0.0055848294437625444 0 0.0023796924540084824 0.0063727853201828296 0 0.0028887091451323698 0.0058498623540187769 0 0.0026669063126232573 0.0054311069235543534 0 0.0022734087568992826 0.0055848294437625444 0 0.0017709050999811138 0.0054017783030357695 0 0.0012970838423071395 0.0058552148117151171 0 0.0018775842770761093 0.0060044250401069064 0 0.0022734087568992826 0.0055848294437625444 0 0.0017709050999811138 0.0054017783030357695 0 0.0018775842770761093 0.0060044250401069064 0 0.0022734087568992826 0.0055848294437625444 0 0.0017709050999811138 0.0054017783030357695 0 0.0020026589825720546 0.0051036715413645259 0 0.002347002163368429 0.0050458566909420601 0 0.0020026589825720546 0.0051036715413645259 0 0.0020065144064982223 0.0048351626232694478 0 0.0020026589825720546 0.0051036715413645259 0 0.001768929931353575 0.0049199266863890149 0 0.0020065144064982223 0.0048351626232694478 0 0.0017709050999811138 0.0054017783030357695 0 0.0020026589825720546 0.0051036715413645259 0 0.001768929931353575 0.0049199266863890149 0 0.0017709050999811138 0.0054017783030357695 0 0.001768929931353575 0.0049199266863890149 0 0.0013538025241439013 0.0051441885197072877 0 0.001624550888959428 0.0044782886444708573 0 0.0020877294085668982 0.0044703746397487037 0 0.0012307785908676247 0.0042270961447750206 0 0.0023839061273572765 0.0033345750393752012 0 0.0025555946413473181 0.0032064201174864791 0 0.00059708909289886848 0.0036450889322731006 0 0.0018308545894136011 0.0046590943640479965 0 0.001624550888959428 0.0044782886444708573 0 0.0015285219590668486 0.0047397496531881153 0 0.001768929931353575 0.0049199266863890149 0 0.0018308545894136011 0.0046590943640479965 0 0.0015285219590668486 0.0047397496531881153 0 0.001768929931353575 0.0049199266863890149 0 0.0018308545894136011 0.0046590943640479965 0 0.0020065144064982223 0.0048351626232694478 0 0.0018308545894136011 0.0046590943640479965 0 0.001624550888959428 0.0044782886444708573 0 0.0020877294085668982 0.0044703746397487037 0 0.0018308545894136011 0.0046590943640479965 0 0.0020877294085668982 0.0044703746397487037 0 0.0020065144064982223 0.0048351626232694478 0 0.002347002163368429 0.0050458566909420601 0 0.0020877294085668982 0.0044703746397487037 0 0.0020065144064982223 0.0048351626232694478 0 0.0069960711116237194 -0.0045120513419265431 0 0.0068646224242896198 -0.00436173815499785 0 0.0068955878637055427 -0.0044632083641244205 0 0.0068646224242896198 -0.00436173815499785 0 0.0068150791122637902 -0.0044288381216765612 0 0.0068955878637055427 -0.0044632083641244205 0 0.0069798048429164355 -0.0045560253712411151 0 0.0068955878637055427 -0.0044632083641244205 0 0.0067955950328119899 -0.0044922755357013336 0 0.0069798048429164355 -0.0045560253712411151 0 0.0069960711116237194 -0.0045120513419265431 0 0.0068955878637055427 -0.0044632083641244205 0 0.0068150791122637902 -0.0044288381216765612 0 0.0068955878637055427 -0.0044632083641244205 0 0.0067955950328119899 -0.0044922755357013336 0 0.0065677225510480559 -0.0044256340123976692 0 0.0067955950328119899 -0.0044922755357013336 0 0.0066477236535136125 -0.0043833983145994404 0 0.0068150791122637902 -0.0044288381216765612 0 0.0067955950328119899 -0.0044922755357013336 0 0.0066477236535136125 -0.0043833983145994404 0 0.0068646224242896198 -0.00436173815499785 0 0.0068150791122637902 -0.0044288381216765612 0 0.0066477236535136125 -0.0043833983145994404 0 0.0023839061273572765 0.0033345750393752012 0 0.00059708909289886848 0.0036450889322731006 0 0.00036955538134475388 0.0037312328584511016 0 0.0021678158653497554 0.0039004951195356508 0 0.00043160075103256131 0.0036733555297340406 0 0.0068646224242896198 -0.00436173815499785 0 0.0066477236535136125 -0.0043833983145994404 0 0.0061797407844691801 -0.0041993116777632785 0 0.0020877294085668982 0.0044703746397487037 0 0.0012307785908676247 0.0042270961447750206 0 0.00036955538134475388 0.0037312328584511016 0 0.004693702785509484 -0.00049248834056188351 0 0.0036575575559801656 -0.00094091603707027033 0 0.0065677225510480559 -0.0044256340123976692 0 0.0066477236535136125 -0.0043833983145994404 0 0.0061797407844691801 -0.0041993116777632785 0 0.0012307785908676247 0.0042270961447750206 0 0.00067600290381199864 0.0041150530816985841 0 0.00036955538134475388 0.0037312328584511016 0 0.0012307785908676247 0.0042270961447750206 0 0.00067600290381199864 0.0041150530816985841 0 0.00072918342641960395 0.0043119287114540316 0 0.00067600290381199864 0.0041150530816985841 0 0.00072918342641960395 0.0043119287114540316 0 0.00036295444402383909 0.0041973874866288539 0 0.0012307785908676247 0.0042270961447750206 0 0.00097175141366332124 0.0045570824007105225 0 0.00072918342641960395 0.0043119287114540316 0 0.00097175141366332124 0.0045570824007105225 0 0.00089196325443515541 0.0049314119042932827 0 0.00038758074401420604 0.0046969807759172331 0 0.00097175141366332124 0.0045570824007105225 0 0.00072918342641960395 0.0043119287114540316 0 0.00038758074401420604 0.0046969807759172331 0 0.00097175141366332124 0.0045570824007105225 0 0.0012394780308155138 0.0047323392278101357 0 0.00089196325443515541 0.0049314119042932827 0 0.00097175141366332124 0.0045570824007105225 0 0.0012394780308155138 0.0047323392278101357 0 0.0013458303135431267 0.004507232243806141 0 0.0012307785908676247 0.0042270961447750206 0 0.00097175141366332124 0.0045570824007105225 0 0.0013458303135431267 0.004507232243806141 0 0.001624550888959428 0.0044782886444708573 0 0.0012307785908676247 0.0042270961447750206 0 0.0013458303135431267 0.004507232243806141 0 0.001624550888959428 0.0044782886444708573 0 0.0013458303135431267 0.004507232243806141 0 0.0015285219590668486 0.0047397496531881153 0 0.0012394780308155138 0.0047323392278101357 0 0.0013458303135431267 0.004507232243806141 0 0.0015285219590668486 0.0047397496531881153 0 0.001768929931353575 0.0049199266863890149 0 0.0015285219590668486 0.0047397496531881153 0 0.0013538025241439013 0.0051441885197072877 0 0.0012394780308155138 0.0047323392278101357 0 0.0015285219590668486 0.0047397496531881153 0 0.0013538025241439013 0.0051441885197072877 0 0.0012394780308155138 0.0047323392278101357 0 0.0013538025241439013 0.0051441885197072877 0 0.00089196325443515541 0.0049314119042932827 0 0.0013538025241439013 0.0051441885197072877 0 0.0012970838423071395 0.0058552148117151171 0 0.00079718806484060424 0.0054872733337855244 0 0.0017709050999811138 0.0054017783030357695 0 0.0013538025241439013 0.0051441885197072877 0 0.0012970838423071395 0.0058552148117151171 0 0.0012970838423071395 0.0058552148117151171 0 0.00079718806484060424 0.0054872733337855244 0 0.00042546775285072416 0.0063968114831739658 0 0.0013538025241439013 0.0051441885197072877 0 0.00079718806484060424 0.0054872733337855244 0 0.00089196325443515541 0.0049314119042932827 0 0.00079718806484060424 0.0054872733337855244 0 0.00089196325443515541 0.0049314119042932827 0 0.00038758074401420604 0.0046969807759172331 0 -0.00090437876812279178 0.0049321604120692586 0 -0.00053356869916224015 0.0066291754969219109 0 0.00042546775285072416 0.0063968114831739658 0 -0.00090437876812279178 0.0049321604120692586 0 0.00079718806484060424 0.0054872733337855244 0 0.00042546775285072416 0.0063968114831739658 0 -0.00090437876812279178 0.0049321604120692586 0 0.00079718806484060424 0.0054872733337855244 0 0.00038758074401420604 0.0046969807759172331 0 -0.00090437876812279178 0.0049321604120692586 0 -0.00014077091613163038 0.0042812087194976887 0 0.00038758074401420604 0.0046969807759172331 0 -0.00090437876812279178 0.0049321604120692586 0 -0.00014077091613163038 0.0042812087194976887 0 -0.00061781413644958639 0.0040617575198149142 0 0.00072918342641960395 0.0043119287114540316 0 0.00038758074401420604 0.0046969807759172331 0 0.00036295444402383909 0.0041973874866288539 0 -0.00014077091613163038 0.0042812087194976887 0 0.00038758074401420604 0.0046969807759172331 0 0.00036295444402383909 0.0041973874866288539 0 -0.00014077091613163038 0.0042812087194976887 0 6.5921020909806338e-05 0.0040192491299874296 0 0.00036295444402383909 0.0041973874866288539 0 6.5921020909806338e-05 0.0040192491299874296 0 0.00036955538134475388 0.0037312328584511016 0 -0.0003231979312313602 0.0038610323262623647 0 6.5921020909806338e-05 0.0040192491299874296 0 0.00036295444402383909 0.0041973874866288539 0 0.00036955538134475388 0.0037312328584511016 0 0.00067600290381199864 0.0041150530816985841 0 0.00036295444402383909 0.0041973874866288539 0 0.00036955538134475388 0.0037312328584511016 0 -0.00014077091613163038 0.0042812087194976887 0 -0.0003231979312313602 0.0038610323262623647 0 -0.00061781413644958639 0.0040617575198149142 0 -0.00014077091613163038 0.0042812087194976887 0 6.5921020909806338e-05 0.0040192491299874296 0 -0.0003231979312313602 0.0038610323262623647 0 -9.3647919187087603e-05 0.0084298195404142653 0 -0.00040366826023867603 0.0075944893914663969 0 -3.980236803191264e-05 0.0084592134143490448 0 -0.00053356869916224015 0.0066291754969219109 0 0.00070772064165701897 0.0075473946801920396 0 -0.00053356869916224015 0.0066291754969219109 0 0.00042546775285072416 0.0063968114831739658 0 0.00070772064165701897 0.0075473946801920396 0 0.00042546775285072416 0.0063968114831739658 0 0.0015047984457172417 0.0066821525218019881 0 0.00070772064165701897 0.0075473946801920396 0 0.0012970838423071395 0.0058552148117151171 0 0.00042546775285072416 0.0063968114831739658 0 0.0015047984457172417 0.0066821525218019881 0 0.0012970838423071395 0.0058552148117151171 0 0.0015047984457172417 0.0066821525218019881 0 0.0018775842770761093 0.0060044250401069064 0 0.0015047984457172417 0.0066821525218019881 0 0.00070772064165701897 0.0075473946801920396 0 0.0015756315563422284 0.0078700605480869455 0 0.00070772064165701897 0.0075473946801920396 0 0.0015756315563422284 0.0078700605480869455 0 0.00086904731290993772 0.008885287302138176 0 0.0015047984457172417 0.0066821525218019881 0 0.0015756315563422284 0.0078700605480869455 0 0.0024476157497910654 0.0073424897250959475 0 0.0015756315563422284 0.0078700605480869455 0 0.0024476157497910654 0.0073424897250959475 0 0.0024869618865184036 0.0086816446903780695 0 0.0015047984457172417 0.0066821525218019881 0 0.0018775842770761093 0.0060044250401069064 0 0.0023796924540084824 0.0063727853201828296 0 0.0022734087568992826 0.0055848294437625444 0 0.0018775842770761093 0.0060044250401069064 0 0.0023796924540084824 0.0063727853201828296 0 0.0015047984457172417 0.0066821525218019881 0 0.0024476157497910654 0.0073424897250959475 0 0.0023796924540084824 0.0063727853201828296 0 0.0028887091451323698 0.0058498623540187769 0 0.0023796924540084824 0.0063727853201828296 0 0.0034223311992551877 0.0066332046154003801 0 0.0024476157497910654 0.0073424897250959475 0 0.0023796924540084824 0.0063727853201828296 0 0.0034223311992551877 0.0066332046154003801 0 0.0034875776160449641 0.0057908263773268622 0 0.0028887091451323698 0.0058498623540187769 0 0.0034223311992551877 0.0066332046154003801 0 0.0024476157497910654 0.0073424897250959475 0 0.0034223311992551877 0.0066332046154003801 0 0.0033096896603141833 0.0077813282608729644 0 0.0024476157497910654 0.0073424897250959475 0 0.0033096896603141833 0.0077813282608729644 0 0.0024869618865184036 0.0086816446903780695 0 0.0034331615370579538 0.0085682350731556469 0 0.0024869618865184036 0.0086816446903780695 0 0.0035610645756933615 0.009509949175321308 0 0.0033096896603141833 0.0077813282608729644 0 0.0034331615370579538 0.0085682350731556469 0 0.0024869618865184036 0.0086816446903780695 0 0.0014150375848837125 0.0094380756575415097 0 0.0025538045313933501 0.0095206053529842231 0 0.0020180316252339219 0.009723481497475369 0 0.0024869618865184036 0.0086816446903780695 0 0.0035610645756933615 0.009509949175321308 0 0.00080668857856861301 0.0092086056021936716 0 0.0014091170168250627 0.0090540015672679504 0 0.0010936848838307225 0.009484780999541486 0 0.0020180316252339219 0.009723481497475369 0 0.0024869618865184036 0.0086816446903780695 0 0.00086904731290993772 0.008885287302138176 0 0.0015756315563422284 0.0078700605480869455 0 0.0024869618865184036 0.0086816446903780695 0 0.00086904731290993772 0.008885287302138176 0 -3.980236803191264e-05 0.0084592134143490448 0 0.00070772064165701897 0.0075473946801920396 0 0.00086904731290993772 0.008885287302138176 0 0.0014150375848837125 0.0094380756575415097 0 0.00046029605621030536 0.0095575393693962014 0 0.0020180316252339219 0.009723481497475369 0 0.00086904731290993772 0.008885287302138176 0 0.00063993281278407156 0.009760053850020484 0 0.00046029605621030536 0.0095575393693962014 0 -0.0001743729385392557 0.0095790294842914864 0 0.00063993281278407156 0.009760053850020484 0 8.4792138267365314e-05 0.009386035605126802 0 -0.00024887118562391919 0.0095643991918191278 0 0.00086904731290993772 0.008885287302138176 0 0.00063993281278407156 0.009760053850020484 0 8.4792138267365314e-05 0.009386035605126802 0 -3.980236803191264e-05 0.0084592134143490448 0 0.00086904731290993772 0.008885287302138176 0 8.4792138267365314e-05 0.009386035605126802 0 -0.00023341963526341545 0.0090217627405440228 0 -3.980236803191264e-05 0.0084592134143490448 0 8.4792138267365314e-05 0.009386035605126802 0 0.0042746950191316401 -0.0013928572085287558 0 0.0037112180502610627 -0.00043749670221128608 0 0.0043437075450922687 -0.0076104041920967312 0 0.0043919327421232338 -0.0077518208127635357 0 0.004301623207858785 -0.0077232111135020435 0 0.0041342180262380398 0.0052120880636990835 0 0.0044105448460649019 0.0054388218956687284 0 0.0045365885003931152 0.0050318519740773374 0 0.0041342180262380398 0.0052120880636990835 0 0.0045365885003931152 0.0050318519740773374 0 0.0043068642372126294 0.0046461448576033898 0 0.0043437075450922687 -0.0076104041920967312 0 0.0041971967335970913 -0.0076697933919273632 0 0.004301623207858785 -0.0077232111135020435 0 0.0043437075450922687 -0.0076104041920967312 0 0.0041971967335970913 -0.0076697933919273632 0 0.0042367412991057727 -0.0075608352537039894 0 0.0041971967335970913 -0.0076697933919273632 0 0.0042289428904802783 -0.0077884269846370327 0 0.004301623207858785 -0.0077232111135020435 0 0.0041971967335970913 -0.0076697933919273632 0 0.0042289428904802783 -0.0077884269846370327 0 0.0041277916922367519 -0.0077732940831458939 0 0.0042367412991057727 -0.0075608352537039894 0 0.0042895655387606224 -0.0074204239989876276 0 0.0041132467547630577 -0.0075402624438504597 0 0.0064066233292518647 -0.0028489583550061572 0 0.0050077598188021421 -0.0051070877025148126 0 0.0043437075450922687 -0.0076104041920967312 0 0.0042367412991057727 -0.0075608352537039894 0 0.0042895655387606224 -0.0074204239989876276 0 0.0064115526844959339 -0.0042762177510456941 0 0.0065217597570673171 -0.0045385672829247395 0 0.0049219752647200838 -0.004762990133413335 0 0.0042746950191316401 -0.0013928572085287558 0 0.0053543161216516432 -0.00078717645614888483 0 0.0053543161216516432 -0.00078717645614888483 0 0.0041977285811612497 -0.0065729156933044663 0 0.0041971967335970913 -0.0076697933919273632 0 0.0042367412991057727 -0.0075608352537039894 0 0.0041132467547630577 -0.0075402624438504597 0 0.0064066233292518647 -0.0028489583550061572 0 0.0053543161216516432 -0.00078717645614888483 0 0.0041091596640587501 0.0055229377683852577 0 0.0042039287531251525 0.0054240837066037292 0 0.0042774616288854686 0.0054972533580345635 0 0.0041091596640587501 0.0055229377683852577 0 0.0042774616288854686 0.0054972533580345635 0 0.0043630058776030611 0.0055197709418086799 0 0.0041342180262380398 0.0052120880636990835 0 0.0041091596640587501 0.0055229377683852577 0 0.0042039287531251525 0.0054240837066037292 0 0.0042039287531251525 0.0054240837066037292 0 0.0042765698940023435 0.0054318183730972256 0 0.0042774616288854686 0.0054972533580345635 0 0.0041342180262380398 0.0052120880636990835 0 0.0042039287531251525 0.0054240837066037292 0 0.0042765698940023435 0.0054318183730972256 0 0.0041342180262380398 0.0052120880636990835 0 0.0042765698940023435 0.0054318183730972256 0 0.0044105448460649019 0.0054388218956687284 0 0.0042765698940023435 0.0054318183730972256 0 0.0043493096149824495 0.0054886822948463677 0 0.0044105448460649019 0.0054388218956687284 0 0.0042765698940023435 0.0054318183730972256 0 0.0043493096149824495 0.0054886822948463677 0 0.0042774616288854686 0.0054972533580345635 0 0.0043493096149824495 0.0054886822948463677 0 0.0042774616288854686 0.0054972533580345635 0 0.0043630058776030611 0.0055197709418086799 0 0.0043984915921227528 0.005546621446061579 0 0.0043840994413629954 0.0055235246822003875 0 0.0043060567991257221 0.0055852688257956706 0 0.0043493096149824495 0.0054886822948463677 0 0.0043630058776030611 0.0055197709418086799 0 0.0043840994413629954 0.0055235246822003875 0 0.0043984915921227528 0.005546621446061579 0 0.0043630058776030611 0.0055197709418086799 0 0.0043840994413629954 0.0055235246822003875 0 0.0043840994413629954 0.0055235246822003875 0 0.0043060567991257221 0.0055852688257956706 0 0.0043599130602068542 0.0055289088909455031 0 0.0043493096149824495 0.0054886822948463677 0 0.0043840994413629954 0.0055235246822003875 0 0.0044105448460649019 0.0054388218956687284 0 0.0043840994413629954 0.0055235246822003875 0 0.0043599130602068542 0.0055289088909455031 0 0.0044105448460649019 0.0054388218956687284 0 0.0041075247675541899 0.0056967649758270884 0 0.0034223311992551877 0.0066332046154003801 0 0.0048000471961714896 0.0067570957226974022 0 0.0034223311992551877 0.0066332046154003801 0 0.0048000471961714896 0.0067570957226974022 0 0.0041770109126054288 0.0074290855219361273 0 0.0041075247675541899 0.0056967649758270884 0 0.0034875776160449641 0.0057908263773268622 0 0.0034223311992551877 0.0066332046154003801 0 0.0041075247675541899 0.0056967649758270884 0 0.0043060567991257221 0.0055852688257956706 0 0.0043599130602068542 0.0055289088909455031 0 0.004153366443969078 0.0056826693652991958 0 0.004608035238985766 0.0062180067046956212 0 0.0034223311992551877 0.0066332046154003801 0 0.0033096896603141833 0.0077813282608729644 0 0.0041770109126054288 0.0074290855219361273 0 0.0033096896603141833 0.0077813282608729644 0 0.0041770109126054288 0.0074290855219361273 0 0.0043718666625320191 0.0082990238251847426 0 0.0041770109126054288 0.0074290855219361273 0 0.0054341572454772126 0.0077111331378099382 0 0.0043718666625320191 0.0082990238251847426 0 0.0048000471961714896 0.0067570957226974022 0 0.0041770109126054288 0.0074290855219361273 0 0.0054341572454772126 0.0077111331378099382 0 0.0043599130602068542 0.0055289088909455031 0 0.0044105448460649019 0.0054388218956687284 0 0.0044014168308848219 0.0055091532907765965 0 0.0045293818744163803 0.0052687464749048571 0 0.0047149811680365491 0.0059869628140450928 0 0.004608035238985766 0.0062180067046956212 0 0.0047149811680365491 0.0059869628140450928 0 0.0054341572454772126 0.0077111331378099382 0 0.0043718666625320191 0.0082990238251847426 0 0.0050888879269617082 0.0092391785428680116 0 0.0047149811680365491 0.0059869628140450928 0 0.0029538857167891353 0.0061475967968759792 0 0.0035496238731363822 0.0041783314553840685 0 0.003634445254892205 0.0037011093564505021 0 0.0033644636775262953 0.0039113098138176339 0 0.003634445254892205 0.0037011093564505021 0 0.0034399415602105474 0.0037241596250940116 0 0.0033644636775262953 0.0039113098138176339 0 0.0043718666625320191 0.0082990238251847426 0 0.0035610645756933615 0.009509949175321308 0 0.0050888879269617082 0.0092391785428680116 0 0.0034331615370579538 0.0085682350731556469 0 0.0043718666625320191 0.0082990238251847426 0 0.0035610645756933615 0.009509949175321308 0 0.0033096896603141833 0.0077813282608729644 0 0.0034331615370579538 0.0085682350731556469 0 0.0043718666625320191 0.0082990238251847426 0 0.0025538045313933501 0.0095206053529842231 0 0.0029538857167891353 0.0061475967968759792 0 0.0014091170168250627 0.0090540015672679504 0 0.0020400961598688221 0.0089104622806724897 0 0.001913202582826398 0.0094443375545418835 0 0.0029538857167891353 0.0061475967968759792 0 0.0012052417311601605 0.0066006823695771858 0 0.00080481155890326731 0.0027396860266417919 0 0.0011993133538364185 0.0030780412008062979 0 0.00054438326749969151 0.003934164156908543 0 0.00080481155890326731 0.0027396860266417919 0 0.0011993133538364185 0.0030780412008062979 0 0.0013876455778356297 0.0026401215061312038 0 0.0029538857167891353 0.0061475967968759792 0 0.0020313784146646346 0.0019789128426348263 0 0.0014830049086145751 0.0029100769822983028 0 0.0020313784146646346 0.0019789128426348263 0 0.0011993133538364185 0.0030780412008062979 0 0.0016776085727868422 0.0030804815499401381 0 0.0013882797908013446 0.0038366842596668435 0 0.0016776085727868422 0.0030804815499401381 0 0.0019712023116670112 0.0025012991184178361 0 0.0021131910977588947 0.0035523274018913536 0 0.0016776085727868422 0.0030804815499401381 0 0.0021131910977588947 0.0035523274018913536 0 0.0013882797908013446 0.0038366842596668435 0 0.0020313784146646346 0.0019789128426348263 0 0.0033942885438721405 -0.0030592302102598551 0 0.0016776085727868422 0.0030804815499401381 0 0.0013871223381245036 0.0026077655255289105 0 0.0019712023116670112 0.0025012991184178361 0 0.0011993133538364185 0.0030780412008062979 0 0.0016776085727868422 0.0030804815499401381 0 0.0013871223381245036 0.0026077655255289105 0 0.0020313784146646346 0.0019789128426348263 0 0.0037112180502610627 -0.00043749670221128608 0 0.0030581777461322224 -0.00042758113158954721 0 0.0035147753030804097 -0.00051120927900683271 0 0.0032542436617190714 -0.00088598915477809453 0 0.0033942885438721405 -0.0030592302102598551 0 0.0037112180502610627 -0.00043749670221128608 0 0.00432349470238044 -0.0077824036733816545 0 0.0043501185425837453 -0.0078252811660153923 0 0.0043919327421232338 -0.0077518208127635357 0 0.0033942885438721405 -0.0030592302102598551 0 0.0046405108000859251 -0.0054260186428682295 0 0.00432349470238044 -0.0077824036733816545 0 0.0043501185425837453 -0.0078252811660153923 0 0.0042823465831526245 -0.0078441474847008169 0 0.00432349470238044 -0.0077824036733816545 0 0.0043919327421232338 -0.0077518208127635357 0 0.004301623207858785 -0.0077232111135020435 0 0.0047149811680365491 0.0059869628140450928 0 0.0037112180502610627 -0.00043749670221128608 0 0.00432349470238044 -0.0077824036733816545 0 0.0042289428904802783 -0.0077884269846370327 0 0.004301623207858785 -0.0077232111135020435 0 0.00432349470238044 -0.0077824036733816545 0 0.0042289428904802783 -0.0077884269846370327 0 0.0042823465831526245 -0.0078441474847008169 0 0.0042289428904802783 -0.0077884269846370327 0 0.0041880766139510261 -0.0078727897525301821 0 0.0041534636027923321 -0.0078459097669838444 0 0.0042289428904802783 -0.0077884269846370327 0 0.0042823465831526245 -0.0078441474847008169 0 0.0041880766139510261 -0.0078727897525301821 0 0.0042823465831526245 -0.0078441474847008169 0 0.0041622778600740222 -0.0079621985369629951 0 0.0041962380273927596 -0.0080748840734705188 0 0.004354812579063407 -0.0078378959903580049 0 0.0042823465831526245 -0.0078441474847008169 0 0.0041962380273927596 -0.0080748840734705188 0 0.0042823465831526245 -0.0078441474847008169 0 0.0041880766139510261 -0.0078727897525301821 0 0.0041622778600740222 -0.0079621985369629951 0 0.0033942885438721405 -0.0030592302102598551 0 0.0035785462131303447 -0.0019425671196098917 0 0.0019712023116670112 0.0025012991184178361 0 0.0030053295933921867 0.0040517102593727004 0 0.0021131910977588947 0.0035523274018913536 0 0.0041622778600740222 -0.0079621985369629951 0 0.004043991665382103 -0.0080295924869083768 0 0.0041962380273927596 -0.0080748840734705188 0 0.0041880766139510261 -0.0078727897525301821 0 0.0041622778600740222 -0.0079621985369629951 0 0.0041102683692182534 -0.0079201797397184647 0 0.0041622778600740222 -0.0079621985369629951 0 0.0041102683692182534 -0.0079201797397184647 0 0.004043991665382103 -0.0080295924869083768 0 0.0041102683692182534 -0.0079201797397184647 0 0.004043991665382103 -0.0080295924869083768 0 0.0040297205212448646 -0.0079422192941440376 0 0.004043991665382103 -0.0080295924869083768 0 0.0039309462437512781 -0.0080282285426716074 0 0.0039292363425616449 -0.0081076840248069243 0 0.004043991665382103 -0.0080295924869083768 0 0.0039309462437512781 -0.0080282285426716074 0 0.0040297205212448646 -0.0079422192941440376 0 0.0040297205212448646 -0.0079422192941440376 0 0.0039566202475578988 -0.0079517423628522425 0 0.0040027487792667097 -0.0078791597652004101 0 0.0040297205212448646 -0.0079422192941440376 0 0.0040027487792667097 -0.0078791597652004101 0 0.0040797180468881396 -0.0078593962351248894 0 0.0039566202475578988 -0.0079517423628522425 0 0.0039239188390353353 -0.0079105040882253373 0 0.0038682981041167088 -0.0079996580388655824 0 0.0039309462437512781 -0.0080282285426716074 0 0.0039566202475578988 -0.0079517423628522425 0 0.0038682981041167088 -0.0079996580388655824 0 0.0039309462437512781 -0.0080282285426716074 0 0.0040297205212448646 -0.0079422192941440376 0 0.0039566202475578988 -0.0079517423628522425 0 0.0039239188390353353 -0.0079105040882253373 0 0.0040027487792667097 -0.0078791597652004101 0 0.003969616205182813 -0.0078156875378254352 0 0.0039566202475578988 -0.0079517423628522425 0 0.0039239188390353353 -0.0079105040882253373 0 0.0040027487792667097 -0.0078791597652004101 0 0.0040027487792667097 -0.0078791597652004101 0 0.0040797180468881396 -0.0078593962351248894 0 0.0040445771515860724 -0.0077999239043826636 0 0.0040797180468881396 -0.0078593962351248894 0 0.0041277916922367519 -0.0077732940831458939 0 0.0040445771515860724 -0.0077999239043826636 0 0.0042289428904802783 -0.0077884269846370327 0 0.0041534636027923321 -0.0078459097669838444 0 0.0041277916922367519 -0.0077732940831458939 0 0.0040797180468881396 -0.0078593962351248894 0 0.0041534636027923321 -0.0078459097669838444 0 0.0041277916922367519 -0.0077732940831458939 0 0.0041880766139510261 -0.0078727897525301821 0 0.0041102683692182534 -0.0079201797397184647 0 0.0041534636027923321 -0.0078459097669838444 0 0.0041102683692182534 -0.0079201797397184647 0 0.0040797180468881396 -0.0078593962351248894 0 0.0041534636027923321 -0.0078459097669838444 0 0.0041102683692182534 -0.0079201797397184647 0 0.0040297205212448646 -0.0079422192941440376 0 0.0040797180468881396 -0.0078593962351248894 0 0.0038295484377872491 -0.0081099405289627446 0 0.0037383832884819446 -0.0081031200298612629 0 0.0037216819325989665 -0.0081763924654052154 0 0.0038295484377872491 -0.0081099405289627446 0 0.0037964250818354104 -0.0080501201236173343 0 0.0037383832884819446 -0.0081031200298612629 0 0.0039309462437512781 -0.0080282285426716074 0 0.0038295484377872491 -0.0081099405289627446 0 0.0039292363425616449 -0.0081076840248069243 0 0.0039309462437512781 -0.0080282285426716074 0 0.0038295484377872491 -0.0081099405289627446 0 0.0038682981041167088 -0.0079996580388655824 0 0.0038295484377872491 -0.0081099405289627446 0 0.0038682981041167088 -0.0079996580388655824 0 0.0037964250818354104 -0.0080501201236173343 0 0.0039239188390353353 -0.0079105040882253373 0 0.0038682981041167088 -0.0079996580388655824 0 0.0038512002389000893 -0.0079166046253873797 0 0.0038682981041167088 -0.0079996580388655824 0 0.0038086789542472171 -0.0079982509516096315 0 0.0038512002389000893 -0.0079166046253873797 0 0.0038682981041167088 -0.0079996580388655824 0 0.0037964250818354104 -0.0080501201236173343 0 0.0038086789542472171 -0.0079982509516096315 0 0.0037597508379885645 -0.0080579981021857636 0 0.0037383832884819446 -0.0081031200298612629 0 0.0037421947164378269 -0.0081507727927375411 0 0.0037964250818354104 -0.0080501201236173343 0 0.0038086789542472171 -0.0079982509516096315 0 0.0037597508379885645 -0.0080579981021857636 0 0.0037964250818354104 -0.0080501201236173343 0 0.0037597508379885645 -0.0080579981021857636 0 0.0037383832884819446 -0.0081031200298612629 0 0.0039342835243000099 -0.0081135740883346279 0 0.00379379091708141 -0.0081448276795846892 0 0.0040320051228429857 -0.0083195057360632377 0 0.0038645849104190287 -0.0081800187761375178 0 0.0037421947164378269 -0.0081507727927375411 0 0.0037597508379885645 -0.0080579981021857636 0 0.0037797652066652275 -0.007939777128886865 0 0.0037421947164378269 -0.0081507727927375411 0 0.0038086789542472171 -0.0079982509516096315 0 0.0037597508379885645 -0.0080579981021857636 0 0.0037797652066652275 -0.007939777128886865 0 0.0040320051228429857 -0.0083195057360632377 0 0.004302557072522111 -0.0082529884007386759 0 0.004073616140592891 -0.0081804181985314587 0 0.0040320051228429857 -0.0083195057360632377 0 0.004073616140592891 -0.0081804181985314587 0 0.0038645849104190287 -0.0081800187761375178 0 0.0039342835243000099 -0.0081135740883346279 0 0.0040174429775469787 -0.007701522552299187 0 0.0037797652066652275 -0.007939777128886865 0 0.0038565195420779959 -0.0078491959092690904 0 0.003874159704981684 -0.007799885082532822 0 0.0040320051228429857 -0.0083195057360632377 0 0.004422696103041769 -0.0083134714440880695 0 0.004302557072522111 -0.0082529884007386759 0 0.0037797652066652275 -0.007939777128886865 0 0.0038512002389000893 -0.0079166046253873797 0 0.0038565195420779959 -0.0078491959092690904 0 0.0038086789542472171 -0.0079982509516096315 0 0.0037797652066652275 -0.007939777128886865 0 0.0038512002389000893 -0.0079166046253873797 0 0.0038512002389000893 -0.0079166046253873797 0 0.0038916473341475029 -0.0078287391596300153 0 0.0038565195420779959 -0.0078491959092690904 0 0.0039239188390353353 -0.0079105040882253373 0 0.0038512002389000893 -0.0079166046253873797 0 0.0039034299654586014 -0.0078633573883429113 0 0.0039034299654586014 -0.0078633573883429113 0 0.0038916473341475029 -0.0078287391596300153 0 0.003927807596489012 -0.0078039175679629298 0 0.0038512002389000893 -0.0079166046253873797 0 0.0039034299654586014 -0.0078633573883429113 0 0.0038916473341475029 -0.0078287391596300153 0 0.0038916473341475029 -0.0078287391596300153 0 0.0038565195420779959 -0.0078491959092690904 0 0.0038781524190183059 -0.0077653552616031392 0 0.0039359116894516636 -0.0078004863113572843 0 0.0040174429775469787 -0.007701522552299187 0 0.0038916473341475029 -0.0078287391596300153 0 0.0038781524190183059 -0.0077653552616031392 0 0.0039140117553030452 -0.007769644393524195 0 0.0045370468429437637 -0.0082476639375225844 0 0.0042346714896617389 -0.0080726093248342391 0 0.0043931362258474828 -0.007816436609978156 0 0.004422696103041769 -0.0083134714440880695 0 0.0044914894832402286 -0.0082002678056232927 0 0.004302557072522111 -0.0082529884007386759 0 0.0043534437122248444 -0.0076004499281174011 0 0.0042936265392457366 -0.0079506093147761504 0 0.0040174429775469787 -0.007701522552299187 0 0.0043534437122248444 -0.0076004499281174011 0 0.0042346714896617389 -0.0080726093248342391 0 0.004302557072522111 -0.0082529884007386759 0 0.004073616140592891 -0.0081804181985314587 0 0.0045370468429437637 -0.0082476639375225844 0 0.0042346714896617389 -0.0080726093248342391 0 0.004302557072522111 -0.0082529884007386759 0 0.0042346714896617389 -0.0080726093248342391 0 0.0039773483116131176 -0.0080724564875664945 0 0.0041103441918877168 -0.0078885230867014964 0 0.0042346714896617389 -0.0080726093248342391 0 0.004073616140592891 -0.0081804181985314587 0 0.0039773483116131176 -0.0080724564875664945 0 0.0039773483116131176 -0.0080724564875664945 0 0.0038784188466635095 -0.0079241075030193845 0 0.0037951206980629867 -0.0080834432092745934 0 0.0039773483116131176 -0.0080724564875664945 0 0.0038645849104190287 -0.0081800187761375178 0 0.0037951206980629867 -0.0080834432092745934 0 0.004073616140592891 -0.0081804181985314587 0 0.0039773483116131176 -0.0080724564875664945 0 0.0038645849104190287 -0.0081800187761375178 0 0.0041971967335970913 -0.0076697933919273632 0 0.0041277916922367519 -0.0077732940831458939 0 0.0040368438100788087 -0.0076951086712616383 0 0.0041971967335970913 -0.0076697933919273632 0 0.0040368438100788087 -0.0076951086712616383 0 0.0041132467547630577 -0.0075402624438504597 0 0.0041277916922367519 -0.0077732940831458939 0 0.0040445771515860724 -0.0077999239043826636 0 0.0040368438100788087 -0.0076951086712616383 0 0.0040445771515860724 -0.0077999239043826636 0 0.003969616205182813 -0.0078156875378254352 0 0.0040368438100788087 -0.0076951086712616383 0 0.0040027487792667097 -0.0078791597652004101 0 0.0040445771515860724 -0.0077999239043826636 0 0.003969616205182813 -0.0078156875378254352 0 0.0039034299654586014 -0.0078633573883429113 0 0.003969616205182813 -0.0078156875378254352 0 0.003927807596489012 -0.0078039175679629298 0 0.0039239188390353353 -0.0079105040882253373 0 0.0039034299654586014 -0.0078633573883429113 0 0.003969616205182813 -0.0078156875378254352 0 0.0038781524190183059 -0.0077653552616031392 0 0.0039140117553030452 -0.007769644393524195 0 0.003942735872484923 -0.0077283805357342321 0 0.0038916473341475029 -0.0078287391596300153 0 0.003927807596489012 -0.0078039175679629298 0 0.0039140117553030452 -0.007769644393524195 0 0.003927807596489012 -0.0078039175679629298 0 0.003960551878876898 -0.0077485159519363016 0 0.0039140117553030452 -0.007769644393524195 0 0.003969616205182813 -0.0078156875378254352 0 0.003927807596489012 -0.0078039175679629298 0 0.003960551878876898 -0.0077485159519363016 0 0.003960551878876898 -0.0077485159519363016 0 0.0039140117553030452 -0.007769644393524195 0 0.0039468170706723716 -0.0076686195864878216 0 0.0037281832069997562 -0.0074867856157305188 0 0.0038754941321729932 -0.0069893385158879481 0 0.003969616205182813 -0.0078156875378254352 0 0.003960551878876898 -0.0077485159519363016 0 0.0040368438100788087 -0.0076951086712616383 0 0.003960551878876898 -0.0077485159519363016 0 0.0040368438100788087 -0.0076951086712616383 0 0.0039468170706723716 -0.0076686195864878216 0 0.0040368438100788087 -0.0076951086712616383 0 0.0039468170706723716 -0.0076686195864878216 0 0.0041132467547630577 -0.0075402624438504597 0 0.0034573957936773034 -0.0052347216117515638 0 0.0030923027477209875 -0.0057107302371679934 0 0.0047920478598004546 -0.0051352811013200455 0 0.0043534437122248444 -0.0076004499281174011 0 0.0050462285852978014 -0.0071424445577098431 0 0.0038754941321729932 -0.0069893385158879481 0 0.0041977285811612497 -0.0065729156933044663 0 0.0045340760961838349 -0.0071990876763496792 0 0.0048725260042971359 -0.0070984931791024247 0 0.0049895379427541938 -0.0064798032305303614 0 0.0038705418590255186 -0.0073108018274581866 0 0.003996392505433306 -0.0071065217954196661 0 0.0042708546444832603 -0.0071815666129512847 0 0.003996392505433306 -0.0071065217954196661 0 0.0044341292982910067 -0.0069728673945569147 0 0.0042708546444832603 -0.0071815666129512847 0 0.0040174429775469787 -0.007701522552299187 0 0.0038754941321729932 -0.0069893385158879481 0 0.0043534437122248444 -0.0076004499281174011 0 0.0044486901532041464 -0.0063434375254046212 0 0.0044486901532041464 -0.0063434375254046212 0 0.0038754941321729932 -0.0069893385158879481 0 0.0044486901532041464 -0.0063434375254046212 0 0.0052378451282773702 -0.0057748783098449004 0 0.0065217597570673171 -0.0045385672829247395 0 0.0047920478598004546 -0.0051352811013200455 0 0.0049219752647200838 -0.004762990133413335 0 0.0044486901532041464 -0.0063434375254046212 0 0.0050077598188021421 -0.0051070877025148126 0 0.0046882621720092102 -0.0056113522615771211 0 0.0053484303148279315 -0.0054086195848869409 0 0.0051768750907223715 -0.0049992820976803437 0 0.0034573957936773034 -0.0052347216117515638 0 0.0047920478598004546 -0.0051352811013200455 0 0.0049219752647200838 -0.004762990133413335 0 0.0053484303148279315 -0.0054086195848869409 0 0.0055687982306718243 -0.0050316059845485015 0 0.0051768750907223715 -0.0049992820976803437 0 0.0050520540014863374 -0.0077496584115127939 0 0.0057108362665825238 -0.0068764868649198721 0 0.0050773102686960192 -0.006485563218960275 0 0.0050520540014863374 -0.0077496584115127939 0 0.0046008646917271353 -0.0068791546578058837 0 0.0050773102686960192 -0.006485563218960275 0 0.0056048157108152807 -0.0061791761714862182 0 0.005242220301438851 -0.0066340347557572151 0 0.0049895379427541938 -0.0064798032305303614 0 0.0056500081722608737 -0.0044160048418762487 0 0.0055687982306718243 -0.0050316059845485015 0 0.0051768750907223715 -0.0049992820976803437 0 0.0059207402675324396 -0.0056527773508754904 0 0.0052378451282773702 -0.0057748783098449004 0 0.0056048157108152807 -0.0061791761714862182 0 0.0049895379427541938 -0.0064798032305303614 0 0.0054346964401685988 -0.0057762028922364993 0 0.0050462285852978014 -0.0071424445577098431 0 0.0055317663941532895 -0.0061804715065514639 0 0.0059207402675324396 -0.0056527773508754904 0 0.0055317663941532895 -0.0061804715065514639 0 0.0050520540014863374 -0.0077496584115127939 0 0.0045110767155990905 -0.0074837919670260565 0 0.0046008646917271353 -0.0068791546578058837 0 0.0048725260042971359 -0.0070984931791024247 0 0.005242220301438851 -0.0066340347557572151 0 0.0049895379427541938 -0.0064798032305303614 0 0.0050520540014863374 -0.0077496584115127939 0 0.0043931362258474828 -0.007816436609978156 0 0.0045110767155990905 -0.0074837919670260565 0 0.0045370468429437637 -0.0082476639375225844 0 0.0050520540014863374 -0.0077496584115127939 0 0.0043931362258474828 -0.007816436609978156 0 0.0042346714896617389 -0.0080726093248342391 0 0.0043931362258474828 -0.007816436609978156 0 0.0041103441918877168 -0.0078885230867014964 0 0.0043931362258474828 -0.007816436609978156 0 0.0041103441918877168 -0.0078885230867014964 0 0.0040959684919050178 -0.0074898713799123147 0 0.0041103441918877168 -0.0078885230867014964 0 0.0040959684919050178 -0.0074898713799123147 0 0.0038784188466635095 -0.0079241075030193845 0 0.0039773483116131176 -0.0080724564875664945 0 0.0041103441918877168 -0.0078885230867014964 0 0.0038784188466635095 -0.0079241075030193845 0 0.0040959684919050178 -0.0074898713799123147 0 0.0039317272156017087 -0.0071283226892994087 0 0.0038082038849885586 -0.0076988143581212315 0 0.0040959684919050178 -0.0074898713799123147 0 0.0038082038849885586 -0.0076988143581212315 0 0.0038784188466635095 -0.0079241075030193845 0 0.0040959684919050178 -0.0074898713799123147 0 0.0045110767155990905 -0.0074837919670260565 0 0.0046008646917271353 -0.0068791546578058837 0 0.0043931362258474828 -0.007816436609978156 0 0.0040959684919050178 -0.0074898713799123147 0 0.0045110767155990905 -0.0074837919670260565 0 0.0040959684919050178 -0.0074898713799123147 0 0.0046008646917271353 -0.0068791546578058837 0 0.0042271655488039499 -0.0067878023511060686 0 0.0040959684919050178 -0.0074898713799123147 0 0.0042271655488039499 -0.0067878023511060686 0 0.0039317272156017087 -0.0071283226892994087 0 0.0042271655488039499 -0.0067878023511060686 0 0.0040713504923274709 -0.0065428930477744634 0 0.0039317272156017087 -0.0071283226892994087 0 0.0042271655488039499 -0.0067878023511060686 0 0.0040713504923274709 -0.0065428930477744634 0 0.0044438654273015032 -0.0059850455282549012 0 0.0046008646917271353 -0.0068791546578058837 0 0.0042271655488039499 -0.0067878023511060686 0 0.0044438654273015032 -0.0059850455282549012 0 0.0044438654273015032 -0.0059850455282549012 0 0.0051630232140230138 -0.005559551478823946 0 0.0050773102686960192 -0.006485563218960275 0 0.0055503817584183551 -0.0049120872487160615 0 0.005706741421973349 -0.0054439680899157497 0 0.0051630232140230138 -0.005559551478823946 0 0.005706741421973349 -0.0054439680899157497 0 0.0051630232140230138 -0.005559551478823946 0 0.0055691169185783391 -0.0056689670533481007 0 0.0051630232140230138 -0.005559551478823946 0 0.0057108362665825238 -0.0068764868649198721 0 0.0050773102686960192 -0.006485563218960275 0 0.0052313307830932501 -0.0056100348430276155 0 0.0055317663941532895 -0.0061804715065514639 0 0.0057407663775912695 -0.0054383790878678381 0 0.0055317663941532895 -0.0061804715065514639 0 0.0046008646917271353 -0.0068791546578058837 0 0.0044438654273015032 -0.0059850455282549012 0 0.0050773102686960192 -0.006485563218960275 0 0.0033193711275597386 -0.0076152975630463787 0 0.0035928518634193644 -0.0074860889526847307 0 0.0033211554251581792 -0.0081748082920603433 0 0.0031383387735891208 -0.0081208788041263989 0 0.0033193711275597386 -0.0076152975630463787 0 0.0033211554251581792 -0.0081748082920603433 0 0.0027090842104335686 -0.0081827955654776956 0 0.0031383387735891208 -0.0081208788041263989 0 0.0031976036875584453 -0.0089443228299057147 0 0.0031383387735891208 -0.0081208788041263989 0 0.0033211554251581792 -0.0081748082920603433 0 0.0031976036875584453 -0.0089443228299057147 0 0.0031383387735891208 -0.0081208788041263989 0 0.0028770331631316781 -0.0074411579616206567 0 0.0033193711275597386 -0.0076152975630463787 0 0.0027090842104335686 -0.0081827955654776956 0 0.0031383387735891208 -0.0081208788041263989 0 0.0028770331631316781 -0.0074411579616206567 0 0.0031536814042298191 -0.0068893574976205147 0 0.0028770331631316781 -0.0074411579616206567 0 0.0033193711275597386 -0.0076152975630463787 0 0.0031536814042298191 -0.0068893574976205147 0 0.0033193711275597386 -0.0076152975630463787 0 0.0034694072329796862 -0.0069875877450525543 0 0.0033193711275597386 -0.0076152975630463787 0 0.0034694072329796862 -0.0069875877450525543 0 0.0035928518634193644 -0.0074860889526847307 0 0.0034694072329796862 -0.0069875877450525543 0 0.0037356647992826085 -0.0068397479782471024 0 0.0035928518634193644 -0.0074860889526847307 0 0.004028768424401993 -0.006094675148564278 0 0.0040713504923274709 -0.0065428930477744634 0 0.0037356647992826085 -0.0068397479782471024 0 0.0040713504923274709 -0.0065428930477744634 0 0.0037356647992826085 -0.0068397479782471024 0 0.0039317272156017087 -0.0071283226892994087 0 0.0037356647992826085 -0.0068397479782471024 0 0.0039317272156017087 -0.0071283226892994087 0 0.0035928518634193644 -0.0074860889526847307 0 0.0039317272156017087 -0.0071283226892994087 0 0.0035928518634193644 -0.0074860889526847307 0 0.0038082038849885586 -0.0076988143581212315 0 0.0035928518634193644 -0.0074860889526847307 0 0.0035496583917231485 -0.0078976978245712277 0 0.0038082038849885586 -0.0076988143581212315 0 0.0035928518634193644 -0.0074860889526847307 0 0.0035496583917231485 -0.0078976978245712277 0 0.0033211554251581792 -0.0081748082920603433 0 0.0035496583917231485 -0.0078976978245712277 0 0.0038082038849885586 -0.0076988143581212315 0 0.0036473854941224035 -0.0080263479441820083 0 0.0038082038849885586 -0.0076988143581212315 0 0.0038784188466635095 -0.0079241075030193845 0 0.0036473854941224035 -0.0080263479441820083 0 0.0038784188466635095 -0.0079241075030193845 0 0.0036473854941224035 -0.0080263479441820083 0 0.0037951206980629867 -0.0080834432092745934 0 0.0036473854941224035 -0.0080263479441820083 0 0.0034422221609130724 -0.0080964218332394301 0 0.0035433225189719164 -0.0081509968780107515 0 0.0035496583917231485 -0.0078976978245712277 0 0.0036473854941224035 -0.0080263479441820083 0 0.0034422221609130724 -0.0080964218332394301 0 0.0034422221609130724 -0.0080964218332394301 0 0.003331083757160415 -0.0082422746096743153 0 0.0034152074792980196 -0.0082508005209300309 0 0.0034422221609130724 -0.0080964218332394301 0 0.0034152074792980196 -0.0082508005209300309 0 0.0035433225189719164 -0.0081509968780107515 0 0.0034422221609130724 -0.0080964218332394301 0 0.0033211554251581792 -0.0081748082920603433 0 0.003331083757160415 -0.0082422746096743153 0 0.0035496583917231485 -0.0078976978245712277 0 0.0034422221609130724 -0.0080964218332394301 0 0.0033211554251581792 -0.0081748082920603433 0 0.0032501842112533453 -0.0089241032223510777 0 0.0036813939840071061 -0.0095365080256680241 0 0.0033211554251581792 -0.0081748082920603433 0 0.0031976036875584453 -0.0089443228299057147 0 0.003331083757160415 -0.0082422746096743153 0 0.0029374725918765777 -0.010872517061981385 0 0.0031976036875584453 -0.0089443228299057147 0 0.004022452358019778 -0.010728151371277571 0 0.0036813939840071061 -0.0095365080256680241 0 0.0036158698591080337 -0.0098849039991266169 0 0.0029374725918765777 -0.010872517061981385 0 0.004022452358019778 -0.010728151371277571 0 0.0036487429953036879 -0.011658576968387376 0 0.0036158698591080337 -0.0098849039991266169 0 0.0034808891762909554 -0.011676948954905314 0 0.004022452358019778 -0.010728151371277571 0 0.0036487429953036879 -0.011658576968387376 0 0.0045160092683859988 -0.01200618158030347 0 0.0036487429953036879 -0.011658576968387376 0 0.0045160092683859988 -0.01200618158030347 0 0.0035019489108862123 -0.012508637596763964 0 0.0028913281435567089 -0.011793240345976499 0 0.0036487429953036879 -0.011658576968387376 0 0.0035019489108862123 -0.012508637596763964 0 0.0036158698591080337 -0.0098849039991266169 0 0.0037696545014709762 -0.0081725060715974254 0 0.0035854514990341789 -0.0081645218288443049 0 0.0035433225189719164 -0.0081509968780107515 0 0.0036139471962510408 -0.0081626309193811118 0 0.0035854514990341789 -0.0081645218288443049 0 0.0036325622547977937 -0.008175154383961318 0 0.0036139471962510408 -0.0081626309193811118 0 0.0036158698591080337 -0.0098849039991266169 0 0.003439040029419011 -0.0090376844832636798 0 0.0034343583012421937 -0.010851756201020232 0 0.0034617728410473976 -0.010910731173134266 0 0.0034187509175335317 -0.010908349736025346 0 0.003439040029419011 -0.0090376844832636798 0 0.0036750670946392766 -0.0086974110073732205 0 0.0034343583012421937 -0.010851756201020232 0 0.0034187509175335317 -0.010908349736025346 0 0.0033876968529625174 -0.010889581663494914 0 0.0034187509175335317 -0.010908349736025346 0 0.0033879440167654522 -0.010927039654790732 0 0.0033876968529625174 -0.010889581663494914 0 0.0038645849104190287 -0.0081800187761375178 0 0.0037951206980629867 -0.0080834432092745934 0 0.0036690154999698974 -0.0081612298123443922 0 0.0036473854941224035 -0.0080263479441820083 0 0.0037951206980629867 -0.0080834432092745934 0 0.0036690154999698974 -0.0081612298123443922 0 0.0036473854941224035 -0.0080263479441820083 0 0.0036690154999698974 -0.0081612298123443922 0 0.0035433225189719164 -0.0081509968780107515 0 0.0036690154999698974 -0.0081612298123443922 0 0.0035433225189719164 -0.0081509968780107515 0 0.0036139471962510408 -0.0081626309193811118 0 0.0036139471962510408 -0.0081626309193811118 0 0.0036483981325046337 -0.0081640942600393878 0 0.0036411548657008059 -0.008170265988794263 0 0.0036690154999698974 -0.0081612298123443922 0 0.0036139471962510408 -0.0081626309193811118 0 0.0036483981325046337 -0.0081640942600393878 0 0.0036325622547977937 -0.008175154383961318 0 0.0036139471962510408 -0.0081626309193811118 0 0.0036411548657008059 -0.008170265988794263 0 0.0036421433764850888 -0.0081672907777725502 0 0.0036411548657008059 -0.008170265988794263 0 0.0036803235700731598 -0.0081548240346293235 0 0.0036483981325046337 -0.0081640942600393878 0 0.0036411548657008059 -0.008170265988794263 0 0.003671370141171379 -0.008160752971169194 0 0.0036411548657008059 -0.008170265988794263 0 0.003671370141171379 -0.008160752971169194 0 0.0036803235700731598 -0.0081548240346293235 0 0.0036690154999698974 -0.0081612298123443922 0 0.0036483981325046337 -0.0081640942600393878 0 0.003671370141171379 -0.008160752971169194 0 0.0038645849104190287 -0.0081800187761375178 0 0.0036690154999698974 -0.0081612298123443922 0 0.0037421947164378269 -0.0081507727927375411 0 0.0036690154999698974 -0.0081612298123443922 0 0.003671370141171379 -0.008160752971169194 0 0.0037421947164378269 -0.0081507727927375411 0 0.003671370141171379 -0.008160752971169194 0 0.0037421947164378269 -0.0081507727927375411 0 0.0036803235700731598 -0.0081548240346293235 0 0.0037383832884819446 -0.0081031200298612629 0 0.0037421947164378269 -0.0081507727927375411 0 0.0036803235700731598 -0.0081548240346293235 0 0.0037383832884819446 -0.0081031200298612629 0 0.0036803235700731598 -0.0081548240346293235 0 0.0036541648856908519 -0.0081596269469201167 0 0.003439040029419011 -0.0090376844832636798 0 0.0035703538596754203 -0.0080064178441343805 0 0.0036421433764850888 -0.0081672907777725502 0 0.0036803235700731598 -0.0081548240346293235 0 0.0036541648856908519 -0.0081596269469201167 0 0.0035703538596754203 -0.0080064178441343805 0 0.0036722832012204189 -0.0083085944389290067 0 0.0035651147000465657 -0.0081593099603777235 0 0.0034653240980254299 -0.0082322572433361531 0 0.0036513011351904361 -0.0082548367846658633 0 0.0037383832884819446 -0.0081031200298612629 0 0.0036541648856908519 -0.0081596269469201167 0 0.0037216819325989665 -0.0081763924654052154 0 0.0036541648856908519 -0.0081596269469201167 0 0.0037216819325989665 -0.0081763924654052154 0 0.0036513011351904361 -0.0082548367846658633 0 0.0033678022313457442 -0.010954834302262319 0 0.0033879440167654522 -0.010927039654790732 0 0.0034231977310541684 -0.010949463413188225 0 0.0034187509175335317 -0.010908349736025346 0 0.0033879440167654522 -0.010927039654790732 0 0.0034231977310541684 -0.010949463413188225 0 0.0033678022313457442 -0.010954834302262319 0 0.0034231977310541684 -0.010949463413188225 0 0.0033878516114233918 -0.010980679576859904 0 0.003439040029419011 -0.0090376844832636798 0 0.0034672686820684433 -0.0094982520438002625 0 0.0034617728410473976 -0.010910731173134266 0 0.0034187509175335317 -0.010908349736025346 0 0.0034231977310541684 -0.010949463413188225 0 0.0035050336428133757 -0.0080586806618383345 0 0.0035651147000465657 -0.0081593099603777235 0 0.0034230348197881694 -0.0081239408994185341 0 0.0035651147000465657 -0.0081593099603777235 0 0.0034230348197881694 -0.0081239408994185341 0 0.0034653240980254299 -0.0082322572433361531 0 0.0034230348197881694 -0.0081239408994185341 0 0.0034653240980254299 -0.0082322572433361531 0 0.0033338503448823499 -0.0081995919121967981 0 0.0034672686820684433 -0.0094982520438002625 0 0.0031783913148893941 -0.01032412405831009 0 0.0034653240980254299 -0.0082322572433361531 0 0.0033338503448823499 -0.0081995919121967981 0 0.0033989938421953711 -0.0083486041854736875 0 0.0038778260275646038 -0.0099297399991786581 0 0.0039420156709046193 -0.0095375367175497064 0 0.0036323591799934368 -0.0094044401456532846 0 0.0031783913148893941 -0.01032412405831009 0 0.003531689907480054 -0.0086384368464752191 0 0.0039420156709046193 -0.0095375367175497064 0 0.0036323591799934368 -0.0094044401456532846 0 0.0038906941620996159 -0.0092073443012741906 0 0.0034653240980254299 -0.0082322572433361531 0 0.0033989938421953711 -0.0083486041854736875 0 0.0035577565992765065 -0.0083619871757596182 0 0.0036323591799934368 -0.0094044401456532846 0 0.0038906941620996159 -0.0092073443012741906 0 0.0035290384168707471 -0.0086442873409286573 0 0.0033989938421953711 -0.0083486041854736875 0 0.0035577565992765065 -0.0083619871757596182 0 0.0035290384168707471 -0.0086442873409286573 0 0.003531689907480054 -0.0086384368464752191 0 0.0035395616164199182 -0.0087708212767179695 0 0.0037216819325989665 -0.0081763924654052154 0 0.0036513011351904361 -0.0082548367846658633 0 0.0037696076399191055 -0.0082328802394926962 0 0.0036513011351904361 -0.0082548367846658633 0 0.0036962370289021483 -0.0083808471104917653 0 0.0037696076399191055 -0.0082328802394926962 0 0.0034653240980254299 -0.0082322572433361531 0 0.0036513011351904361 -0.0082548367846658633 0 0.0035577565992765065 -0.0083619871757596182 0 0.0035577565992765065 -0.0083619871757596182 0 0.0036962370289021483 -0.0083808471104917653 0 0.0035290384168707471 -0.0086442873409286573 0 0.0036513011351904361 -0.0082548367846658633 0 0.0035577565992765065 -0.0083619871757596182 0 0.0036962370289021483 -0.0083808471104917653 0 0.0036962370289021483 -0.0083808471104917653 0 0.0036707120529456388 -0.0084836927060949717 0 0.0037863112659988381 -0.0083445642275807603 0 0.0036962370289021483 -0.0083808471104917653 0 0.0036707120529456388 -0.0084836927060949717 0 0.0035290384168707471 -0.0086442873409286573 0 0.0036707120529456388 -0.0084836927060949717 0 0.0035290384168707471 -0.0086442873409286573 0 0.0036015252310630554 -0.0085065830201889736 0 0.0036707120529456388 -0.0084836927060949717 0 0.0036015252310630554 -0.0085065830201889736 0 0.003696298524979011 -0.0085033015808156642 0 0.0036707120529456388 -0.0084836927060949717 0 0.003696298524979011 -0.0085033015808156642 0 0.0037922847586404291 -0.0084305240461046635 0 0.0039214787399693852 -0.0088805851173413362 0 0.0035290384168707471 -0.0086442873409286573 0 0.0038007188565999748 -0.0085450509247180142 0 0.0039214787399693852 -0.0088805851173413362 0 0.0038007188565999748 -0.0085450509247180142 0 0.0040786159579779399 -0.0088029093179413341 0 0.0038906941620996159 -0.0092073443012741906 0 0.0039214787399693852 -0.0088805851173413362 0 0.0035290384168707471 -0.0086442873409286573 0 0.0030286931622633341 -0.0077809961346673147 0 0.0031424215529846462 -0.0080329449351637661 0 0.0035290384168707471 -0.0086442873409286573 0 0.0038007188565999748 -0.0085450509247180142 0 0.0036015252310630554 -0.0085065830201889736 0 0.0025373739032682288 -0.0077358628009380828 0 0.002483258158170942 -0.007912800275356232 0 0.0024316365773942358 -0.0078265968449153407 0 0.0025373739032682288 -0.0077358628009380828 0 0.002483258158170942 -0.007912800275356232 0 0.0026308035999131076 -0.0078521476478315439 0 0.002483258158170942 -0.007912800275356232 0 0.0026308035999131076 -0.0078521476478315439 0 0.0025902059584536753 -0.0080182178890867879 0 0.0026308035999131076 -0.0078521476478315439 0 0.0027163490033112452 -0.0077142948718335221 0 0.0027605345620774638 -0.0078572241186988644 0 0.0026308035999131076 -0.0078521476478315439 0 0.0027605345620774638 -0.0078572241186988644 0 0.0025902059584536753 -0.0080182178890867879 0 0.0025373739032682288 -0.0077358628009380828 0 0.0026308035999131076 -0.0078521476478315439 0 0.0027163490033112452 -0.0077142948718335221 0 0.0031424215529846462 -0.0080329449351637661 0 0.0034832491279011427 -0.0090999737047873647 0 0.0027163490033112452 -0.0077142948718335221 0 0.0029167923011458683 -0.0076827699468148035 0 0.0027605345620774638 -0.0078572241186988644 0 0.0029167923011458683 -0.0076827699468148035 0 0.0027605345620774638 -0.0078572241186988644 0 0.0029983811586355822 -0.0078651768340241134 0 0.0027605345620774638 -0.0078572241186988644 0 0.0027706382559153104 -0.0079954972020631586 0 0.0029983811586355822 -0.0078651768340241134 0 0.0026575948415311895 0.00071797956799524133 0 0.0023013150595433168 7.2938646444300703e-05 0 0.0027706382559153104 -0.0079954972020631586 0 0.0029983811586355822 -0.0078651768340241134 0 0.0028679013809190766 -0.0080744769808079649 0 0.0027706382559153104 -0.0079954972020631586 0 0.0026396189184385724 -0.0081706063704902812 0 0.0028679013809190766 -0.0080744769808079649 0 0.0027706382559153104 -0.0079954972020631586 0 0.0025902059584536753 -0.0080182178890867879 0 0.0026396189184385724 -0.0081706063704902812 0 0.0024717401298792875 -0.008194089238354416 0 0.0025902059584536753 -0.0080182178890867879 0 0.0024280088367367677 -0.0080730898183973849 0 0.0024717401298792875 -0.008194089238354416 0 0.0025902059584536753 -0.0080182178890867879 0 0.0026396189184385724 -0.0081706063704902812 0 0.002483258158170942 -0.007912800275356232 0 0.0025902059584536753 -0.0080182178890867879 0 0.0024280088367367677 -0.0080730898183973849 0 0.0027605345620774638 -0.0078572241186988644 0 0.0027706382559153104 -0.0079954972020631586 0 0.0025902059584536753 -0.0080182178890867879 0 0.0038785315555482378 0.0093494834656737483 0 0.0041070772133781092 0.0096607439196742268 0 0.0041631031253817168 0.0093872551271678307 0 0.0041070772133781092 0.0096607439196742268 0 0.0041631031253817168 0.0093872551271678307 0 0.0032433755442456544 0.0092561058578346737 0 0.0041070772133781092 0.0096607439196742268 0 0.0032433755442456544 0.0092561058578346737 0 0.0031801811562221132 0.010020242432289602 0 0.0041070772133781092 0.0096607439196742268 0 0.003136481764446464 0.011183293024674499 0 0.0047249561777620947 0.011462231483098209 0 0.0041070772133781092 0.0096607439196742268 0 0.0031801811562221132 0.010020242432289602 0 0.003136481764446464 0.011183293024674499 0 0.0038785315555482378 0.0093494834656737483 0 0.0041070772133781092 0.0096607439196742268 0 0.0040699449351211201 0.0083256984220102109 0 0.0041279206698744226 0.0096230174925067326 0 0.0043693733930938025 0.0098823420242756584 0 0.0038785315555482378 0.0093494834656737483 0 0.003345709027514319 0.0090382350876637412 0 0.0040699449351211201 0.0083256984220102109 0 0.003345709027514319 0.0090382350876637412 0 0.0030361506708193146 0.0082162247200662942 0 0.0040699449351211201 0.0083256984220102109 0 0.0025174430783101625 0.0091928885691110913 0 0.0017272649245794588 0.0082517781487880214 0 0.0030361506708193146 0.0082162247200662942 0 0.0025174430783101625 0.0091928885691110913 0 0.003345709027514319 0.0090382350876637412 0 0.0030361506708193146 0.0082162247200662942 0 0.0025174430783101625 0.0091928885691110913 0 0.003345709027514319 0.0090382350876637412 0 0.0032334456108184533 0.0098973750398265534 0 0.0038785315555482378 0.0093494834656737483 0 0.003345709027514319 0.0090382350876637412 0 0.0032334456108184533 0.0098973750398265534 0 0.0039837215080582951 0.00057234987018016858 0 0.0040114709803061145 0.011904917747856444 0 0.0026575948415311895 0.00071797956799524133 0 0.0039837215080582951 0.00057234987018016858 0 0.0029167923011458683 -0.0076827699468148035 0 0.0029983811586355822 -0.0078651768340241134 0 0.003128660748438932 -0.0076522647028271903 0 0.003696298524979011 -0.0085033015808156642 0 0.0038129742014575752 -0.0084608847183492829 0 0.0037922847586404291 -0.0084305240461046635 0 0.0034832491279011427 -0.0090999737047873647 0 0.0039837215080582951 0.00057234987018016858 0 0.0060377539998113039 0.0086141254813431878 0 0.0043777027092807867 0.0081281942676851935 0 0.0049632883932127928 0.0070932546755099355 0 0.0038129742014575752 -0.0084608847183492829 0 0.0039183864490452414 -0.0083828819116289928 0 0.0037922847586404291 -0.0084305240461046635 0 0.0039837215080582951 0.00057234987018016858 0 0.0045864302492725313 -0.00070341051415138555 0 0.0043777027092807867 0.0081281942676851935 0 0.0033928359370478086 0.0078060149986150422 0 0.0049632883932127928 0.0070932546755099355 0 0.0038785315555482378 0.0093494834656737483 0 0.0032334456108184533 0.0098973750398265534 0 0.0041631031253817168 0.0093872551271678307 0 0.0060377539998113039 0.0086141254813431878 0 0.0043777027092807867 0.0081281942676851935 0 0.0041631031253817168 0.0093872551271678307 0 0.0043777027092807867 0.0081281942676851935 0 0.0041631031253817168 0.0093872551271678307 0 0.0036566495346223487 0.0086676482145012605 0 0.0041631031253817168 0.0093872551271678307 0 0.0036566495346223487 0.0086676482145012605 0 0.0032433755442456544 0.0092561058578346737 0 0.0043777027092807867 0.0081281942676851935 0 0.0036566495346223487 0.0086676482145012605 0 0.0033928359370478086 0.0078060149986150422 0 0.0036566495346223487 0.0086676482145012605 0 0.0033928359370478086 0.0078060149986150422 0 0.002862635879758203 0.0084712801384182086 0 0.0033928359370478086 0.0078060149986150422 0 0.0049632883932127928 0.0070932546755099355 0 0.0032179131616308933 0.0065781395191342991 0 0.0039183864490452414 -0.0083828819116289928 0 0.0040524108486819348 -0.0082485077505522787 0 0.0039039223870986966 -0.0082963543795975345 0 0.0045864302492725313 -0.00070341051415138555 0 0.0040056375208442118 -0.0013369336451430117 0 0.0049632883932127928 0.0070932546755099355 0 0.0040046645452232639 0.0055901826685443865 0 0.0032179131616308933 0.0065781395191342991 0 0.0040046645452232639 0.0055901826685443865 0 0.0027745886649443428 0.0054168102672815825 0 0.0032179131616308933 0.0065781395191342991 0 0.0039183864490452414 -0.0083828819116289928 0 0.0037922847586404291 -0.0084305240461046635 0 0.0039039223870986966 -0.0082963543795975345 0 0.0037922847586404291 -0.0084305240461046635 0 0.0039039223870986966 -0.0082963543795975345 0 0.0037863112659988381 -0.0083445642275807603 0 0.0036707120529456388 -0.0084836927060949717 0 0.0037922847586404291 -0.0084305240461046635 0 0.0037863112659988381 -0.0083445642275807603 0 0.0037863112659988381 -0.0083445642275807603 0 0.003867569337220243 -0.0082054465997059827 0 0.0037696076399191055 -0.0082328802394926962 0 0.0036962370289021483 -0.0083808471104917653 0 0.0037863112659988381 -0.0083445642275807603 0 0.0037696076399191055 -0.0082328802394926962 0 0.0039039223870986966 -0.0082963543795975345 0 0.0037863112659988381 -0.0083445642275807603 0 0.003867569337220243 -0.0082054465997059827 0 0.0039039223870986966 -0.0082963543795975345 0 0.003867569337220243 -0.0082054465997059827 0 0.003988216226938038 -0.0081616099415553634 0 0.0038295484377872491 -0.0081099405289627446 0 0.003867569337220243 -0.0082054465997059827 0 0.0039292363425616449 -0.0081076840248069243 0 0.0038295484377872491 -0.0081099405289627446 0 0.0037216819325989665 -0.0081763924654052154 0 0.0037696076399191055 -0.0082328802394926962 0 0.0038295484377872491 -0.0081099405289627446 0 0.003867569337220243 -0.0082054465997059827 0 0.0037696076399191055 -0.0082328802394926962 0 0.0040046645452232639 0.0055901826685443865 0 0.0030053295933921867 0.0040517102593727004 0 0.0027745886649443428 0.0054168102672815825 0 0.0040524108486819348 -0.0082485077505522787 0 0.003988216226938038 -0.0081616099415553634 0 0.0041962380273927596 -0.0080748840734705188 0 0.0040056375208442118 -0.0013369336451430117 0 0.0035785462131303447 -0.0019425671196098917 0 0.0040524108486819348 -0.0082485077505522787 0 0.0039039223870986966 -0.0082963543795975345 0 0.003988216226938038 -0.0081616099415553634 0 0.004043991665382103 -0.0080295924869083768 0 0.0039292363425616449 -0.0081076840248069243 0 0.003988216226938038 -0.0081616099415553634 0 0.003867569337220243 -0.0082054465997059827 0 0.0039292363425616449 -0.0081076840248069243 0 0.003988216226938038 -0.0081616099415553634 0 0.004043991665382103 -0.0080295924869083768 0 0.003988216226938038 -0.0081616099415553634 0 0.0041962380273927596 -0.0080748840734705188 0 0.0030053295933921867 0.0040517102593727004 0 0.0027745886649443428 0.0054168102672815825 0 0.0017999221572363474 0.0047556259966328842 0 0.0017999221572363474 0.0047556259966328842 0 0.0011142237256884049 0.0053471799876383111 0 0.0018358521052708856 0.0061074564780024491 0 0.0027745886649443428 0.0054168102672815825 0 0.0017999221572363474 0.0047556259966328842 0 0.0018358521052708856 0.0061074564780024491 0 0.0030053295933921867 0.0040517102593727004 0 0.0017999221572363474 0.0047556259966328842 0 0.0021131910977588947 0.0035523274018913536 0 0.0017999221572363474 0.0047556259966328842 0 0.0021131910977588947 0.0035523274018913536 0 0.0013882797908013446 0.0038366842596668435 0 0.0017999221572363474 0.0047556259966328842 0 0.0013882797908013446 0.0038366842596668435 0 0.0009962640346504396 0.004616918764133328 0 0.0011993133538364185 0.0030780412008062979 0 0.0013882797908013446 0.0038366842596668435 0 0.00054438326749969151 0.003934164156908543 0 0.0012052417311601605 0.0066006823695771858 0 0.00066348854175844426 0.0079266568690490521 0 0.0013882797908013446 0.0038366842596668435 0 0.00054438326749969151 0.003934164156908543 0 0.0009962640346504396 0.004616918764133328 0 0.001913202582826398 0.0094443375545418835 0 0.0014551007045211716 0.0095885338738483875 0 0.0017865200145421507 0.0099501713092138636 0 0.0014091170168250627 0.0090540015672679504 0 0.001913202582826398 0.0094443375545418835 0 0.0014551007045211716 0.0095885338738483875 0 -0.00041747425873946869 0.0095950091210198242 0 -0.00038060576369904688 0.009550667872944724 0 -0.00051776228402311802 0.0096884970181939627 0 0.0014551007045211716 0.0095885338738483875 0 0.0017865200145421507 0.0099501713092138636 0 0.0010561742352128453 0.0098846325931984443 0 0.00066348854175844426 0.0079266568690490521 0 0.00026217024797255643 0.0099972984279677705 0 0.00054438326749969151 0.003934164156908543 0 0.00029857691718264694 0.0051377799819400894 0 0.0009962640346504396 0.004616918764133328 0 0.0017999221572363474 0.0047556259966328842 0 0.0009962640346504396 0.004616918764133328 0 0.0011142237256884049 0.0053471799876383111 0 0.00029857691718264694 0.0051377799819400894 0 0.0009962640346504396 0.004616918764133328 0 0.0011142237256884049 0.0053471799876383111 0 0.00029857691718264694 0.0051377799819400894 0 0.0011142237256884049 0.0053471799876383111 0 0.00091449871607767212 0.0060748576176677654 0 0.00091449871607767212 0.0060748576176677654 0 0.00093924395047994028 0.0070781008734594345 0 0.0018358521052708856 0.0061074564780024491 0 0.0011142237256884049 0.0053471799876383111 0 0.00091449871607767212 0.0060748576176677654 0 0.0018358521052708856 0.0061074564780024491 0 0.00029857691718264694 0.0051377799819400894 0 0.00091449871607767212 0.0060748576176677654 0 4.5976264458063457e-06 0.0067074983881699199 0 0.00066348854175844426 0.0079266568690490521 0 -0.00030842009215740346 0.0081152367633813335 0 -0.0004511830520169659 0.0096160793070380248 0 -0.00070749153626920068 0.0097845759350545149 0 -0.00041747425873946869 0.0095950091210198242 0 -0.00038060576369904688 0.009550667872944724 0 -0.00050055142175872377 0.0097353062892423896 0 -0.00041747425873946869 0.0095950091210198242 0 -0.00050055142175872377 0.0097353062892423896 0 -0.00087223229751453744 0.0096483756994837164 0 -0.00030842009215740346 0.0081152367633813335 0 -0.00040924092893392133 0.0092909708544853305 0 4.5976264458063457e-06 0.0067074983881699199 0 0.00093924395047994028 0.0070781008734594345 0 -0.00028943760904493745 0.0082764536972567936 0 -0.00050055142175872377 0.0097353062892423896 0 -0.00073404314248155225 0.0099309548024903958 0 -0.00053521958491025237 0.010256221280027015 0 0.00091449871607767212 0.0060748576176677654 0 4.5976264458063457e-06 0.0067074983881699199 0 0.00093924395047994028 0.0070781008734594345 0 0.00093924395047994028 0.0070781008734594345 0 0.0018358521052708856 0.0061074564780024491 0 0.0022517048539286702 0.0076164671643330246 0 0.0032179131616308933 0.0065781395191342991 0 0.0018358521052708856 0.0061074564780024491 0 0.0022517048539286702 0.0076164671643330246 0 0.0033928359370478086 0.0078060149986150422 0 0.0032179131616308933 0.0065781395191342991 0 0.0022517048539286702 0.0076164671643330246 0 0.0027745886649443428 0.0054168102672815825 0 0.0032179131616308933 0.0065781395191342991 0 0.0018358521052708856 0.0061074564780024491 0 -0.00074313879163012382 0.0097506293648437041 0 -0.00072840972177487236 0.0097114462935832362 0 -0.00073251625803356967 0.0097576305557336533 0 -0.00074313879163012382 0.0097506293648437041 0 -0.00072840972177487236 0.0097114462935832362 0 -0.00074594059989236024 0.0097386543201514013 0 -0.0001906338752521432 0.0097375510624263476 0 -0.00049437694615237534 0.0097580672244914485 0 1.7533741242893986e-05 0.0096258539115159636 0 0.00035912252475125961 0.0098269435578457638 0 -0.00024044984903255666 0.009784345352583235 0 0.00024085635893008841 0.0093742897996336293 0 1.7533741242893986e-05 0.0096258539115159636 0 -0.00024887118562391919 0.0095643991918191278 0 0.00024085635893008841 0.0093742897996336293 0 0.00035912252475125961 0.0098269435578457638 0 0.00071503175439232832 0.0095781238518865153 0 0.00024085635893008841 0.0093742897996336293 0 1.7533741242893986e-05 0.0096258539115159636 0 0.00035912252475125961 0.0098269435578457638 0 -0.00072840972177487236 0.0097114462935832362 0 -0.00069219094278346162 0.0097452335592074432 0 -0.00073251625803356967 0.0097576305557336533 0 0.00035912252475125961 0.0098269435578457638 0 0.00071503175439232832 0.0095781238518865153 0 0.0010561742352128453 0.0098846325931984443 0 -0.0001906338752521432 0.0097375510624263476 0 0.00026217024797255643 0.0099972984279677705 0 -0.00072840972177487236 0.0097114462935832362 0 -0.00060577621222928193 0.0096387878952770394 0 -0.00069219094278346162 0.0097452335592074432 0 0.00080668857856861301 0.0092086056021936716 0 0.00024085635893008841 0.0093742897996336293 0 0.00071503175439232832 0.0095781238518865153 0 0.00080668857856861301 0.0092086056021936716 0 0.00071503175439232832 0.0095781238518865153 0 0.0010936848838307225 0.009484780999541486 0 0.00071503175439232832 0.0095781238518865153 0 0.0010936848838307225 0.009484780999541486 0 0.0010561742352128453 0.0098846325931984443 0 0.0014091170168250627 0.0090540015672679504 0 0.0014551007045211716 0.0095885338738483875 0 0.0010936848838307225 0.009484780999541486 0 0.0014551007045211716 0.0095885338738483875 0 0.0010936848838307225 0.009484780999541486 0 0.0010561742352128453 0.0098846325931984443 0 -0.00060577621222928193 0.0096387878952770394 0 -0.00051776228402311802 0.0096884970181939627 0 -0.00069219094278346162 0.0097452335592074432 0 -0.00038060576369904688 0.009550667872944724 0 -0.00060577621222928193 0.0096387878952770394 0 -0.00051776228402311802 0.0096884970181939627 0 -0.0005312519557871191 0.0099108803293771405 0 -0.00051776228402311802 0.0096884970181939627 0 -0.00069219094278346162 0.0097452335592074432 0 -0.00041747425873946869 0.0095950091210198242 0 -0.0005312519557871191 0.0099108803293771405 0 -0.00051776228402311802 0.0096884970181939627 0 -0.00050055142175872377 0.0097353062892423896 0 -0.00087223229751453744 0.0096483756994837164 0 -0.00073404314248155225 0.0099309548024903958 0 -0.00087223229751453744 0.0096483756994837164 0 -0.00073404314248155225 0.0099309548024903958 0 -0.0010465090409128937 0.010129751471641267 0 -0.00070749153626920068 0.0097845759350545149 0 -0.0012612584963589105 0.010213355247557652 0 -0.0005312519557871191 0.0099108803293771405 0 -0.00095007912818364365 0.0099919092769046002 0 -0.00095387500222518778 0.010373945025208916 0 -0.00087223229751453744 0.0096483756994837164 0 -0.0014917641162574373 0.009959099491138915 0 -0.0010465090409128937 0.010129751471641267 0 -0.0005312519557871191 0.0099108803293771405 0 -0.00069219094278346162 0.0097452335592074432 0 -0.00095007912818364365 0.0099919092769046002 0 -0.00069219094278346162 0.0097452335592074432 0 -0.00095007912818364365 0.0099919092769046002 0 -0.0012708214514773714 0.009795070749240074 0 -0.00069676114638181721 0.0097409454501551414 0 -0.0010377872998660409 0.0098037484512049199 0 -0.00095007912818364365 0.0099919092769046002 0 -0.0012708214514773714 0.009795070749240074 0 -0.0014586727732250739 0.01029177241111319 0 -0.00095007912818364365 0.0099919092769046002 0 -0.00095387500222518778 0.010373945025208916 0 -0.0014586727732250739 0.01029177241111319 0 -0.0014586727732250739 0.01029177241111319 0 -0.0017184734736105291 0.010582241571039912 0 -0.0019301315654876177 0.010388080443408627 0 -0.0010377872998660409 0.0098037484512049199 0 -0.0011696500075207136 0.0096045473795634707 0 -0.0012708214514773714 0.009795070749240074 0 -0.0014586727732250739 0.01029177241111319 0 -0.0019040333142632125 0.0098751317178045681 0 -0.00074313879163012382 0.0097506293648437041 0 -0.00073251625803356967 0.0097576305557336533 0 -0.00075706526966983563 0.0097929029875377435 0 -0.0021770306444631217 0.010921273797482272 0 -0.0021997831239227118 0.010417712706871802 0 -0.0015473433547268239 0.010502359403499036 0 -0.00095387500222518778 0.010373945025208916 0 -0.0014586727732250739 0.01029177241111319 0 -0.0015273419483868157 0.010845598402938427 0 -0.0014586727732250739 0.01029177241111319 0 -0.0015273419483868157 0.010845598402938427 0 -0.0017184734736105291 0.010582241571039912 0 -0.0012612584963589105 0.010213355247557652 0 -0.0017653034240180533 0.010397288438856124 0 -0.0014917641162574373 0.009959099491138915 0 -0.0021997831239227118 0.010417712706871802 0 -0.0015473433547268239 0.010502359403499036 0 -0.0024270433318473472 0.010680429945398437 0 -0.0017300905184942329 0.010472259503736434 0 -0.0027964082005672544 0.010776214289755092 0 -0.0018594846192704203 0.010381420556020838 0 -0.0019704347922212171 0.011115824758289176 0 -0.0018594846192704203 0.010381420556020838 0 -0.0011747300549306719 0.010698255987546701 0 -0.0019704347922212171 0.011115824758289176 0 -0.0018594846192704203 0.010381420556020838 0 -0.0011747300549306719 0.010698255987546701 0 -0.0010465090409128937 0.010129751471641267 0 -0.0017300905184942329 0.010472259503736434 0 -0.0010991534412403546 0.010143488932012064 0 -0.0014917641162574373 0.009959099491138915 0 -0.0015473433547268239 0.010502359403499036 0 -0.0010465090409128937 0.010129751471641267 0 -0.0011747300549306719 0.010698255987546701 0 -0.0010465090409128937 0.010129751471641267 0 -0.00053521958491025237 0.010256221280027015 0 -0.00073404314248155225 0.0099309548024903958 0 -0.0010465090409128937 0.010129751471641267 0 -0.00053521958491025237 0.010256221280027015 0 -0.0011747300549306719 0.010698255987546701 0 -0.00064022124511391469 0.011074652745669798 0 -0.00053521958491025237 0.010256221280027015 0 -0.0011747300549306719 0.010698255987546701 0 -0.00064022124511391469 0.011074652745669798 0 -0.0012655624167419726 0.011439712177588332 0 -0.00064022124511391469 0.011074652745669798 0 -0.00075312105546200059 0.011912329525367055 0 -0.0012655624167419726 0.011439712177588332 0 -0.00060448406681272275 0.010525694540349415 0 -0.00076442379983352067 0.011812424137053143 0 -0.0012655624167419726 0.011439712177588332 0 -0.0020303684983304991 0.011906632840709407 0 -0.0014095613985630948 0.012375708227610921 0 -0.00075312105546200059 0.011912329525367055 0 -0.0012655624167419726 0.011439712177588332 0 -0.0014095613985630948 0.012375708227610921 0 -0.0012655624167419726 0.011439712177588332 0 -0.0019704347922212171 0.011115824758289176 0 -0.0020303684983304991 0.011906632840709407 0 -0.0011747300549306719 0.010698255987546701 0 -0.0012655624167419726 0.011439712177588332 0 -0.0019704347922212171 0.011115824758289176 0 -0.0019704347922212171 0.011115824758289176 0 -0.0020303684983304991 0.011906632840709407 0 -0.0027904529452111165 0.011630369445270386 0 -0.0020303684983304991 0.011906632840709407 0 -0.0027904529452111165 0.011630369445270386 0 -0.0026930877224896734 0.012610330248547259 0 -0.0027904529452111165 0.011630369445270386 0 -0.0026930877224896734 0.012610330248547259 0 -0.0035019619060046403 0.012270549126672645 0 -0.0027964082005672544 0.010776214289755092 0 -0.0027904529452111165 0.011630369445270386 0 -0.0037647940840266794 0.011286723247159222 0 -0.0027964082005672544 0.010776214289755092 0 -0.0019704347922212171 0.011115824758289176 0 -0.0027904529452111165 0.011630369445270386 0 0.0020867234858243265 0.0088498167937922957 0 0.00081244683678719225 0.0091270614504807678 0 0.0015064774277115339 0.0096749720355804487 0 0.0020867234858243265 0.0088498167937922957 0 0.0032433755442456544 0.0092561058578346737 0 0.002862635879758203 0.0084712801384182086 0 0.0020867234858243265 0.0088498167937922957 0 0.0032433755442456544 0.0092561058578346737 0 0.0022652898028233518 0.010097862403310219 0 0.0036566495346223487 0.0086676482145012605 0 0.0032433755442456544 0.0092561058578346737 0 0.002862635879758203 0.0084712801384182086 0 0.0033928359370478086 0.0078060149986150422 0 0.002862635879758203 0.0084712801384182086 0 0.0022517048539286702 0.0076164671643330246 0 0.0020867234858243265 0.0088498167937922957 0 0.002862635879758203 0.0084712801384182086 0 0.0022517048539286702 0.0076164671643330246 0 0.0020867234858243265 0.0088498167937922957 0 0.0022517048539286702 0.0076164671643330246 0 0.0011418294717365225 0.0080368125354412442 0 0.00093924395047994028 0.0070781008734594345 0 0.0022517048539286702 0.0076164671643330246 0 0.0011418294717365225 0.0080368125354412442 0 0.00093924395047994028 0.0070781008734594345 0 0.0011418294717365225 0.0080368125354412442 0 -0.00028943760904493745 0.0082764536972567936 0 0.0011418294717365225 0.0080368125354412442 0 -0.00028943760904493745 0.0082764536972567936 0 0.00081244683678719225 0.0091270614504807678 0 -0.00060448406681272275 0.010525694540349415 0 -0.00040924092893392133 0.0092909708544853305 0 -0.00058538173549292486 0.0099469645171947427 0 -0.00028943760904493745 0.0082764536972567936 0 0.00081244683678719225 0.0091270614504807678 0 0.0020867234858243265 0.0088498167937922957 0 0.0011418294717365225 0.0080368125354412442 0 0.00081244683678719225 0.0091270614504807678 0 0.00081244683678719225 0.0091270614504807678 0 0.00081913063375767627 0.010647698758858317 0 0.0015064774277115339 0.0096749720355804487 0 -0.00058538173549292486 0.0099469645171947427 0 0.00081244683678719225 0.0091270614504807678 0 0.00081913063375767627 0.010647698758858317 0 -0.00058538173549292486 0.0099469645171947427 0 -0.00075312105546200059 0.011912329525367055 0 0.00081913063375767627 0.010647698758858317 0 -0.00075312105546200059 0.011912329525367055 0 0.00081913063375767627 0.010647698758858317 0 0.00044540095045642454 0.012550374371024272 0 0.00081913063375767627 0.010647698758858317 0 0.0017830685518332246 0.01134990630089132 0 0.00044540095045642454 0.012550374371024272 0 0.0017830685518332246 0.01134990630089132 0 0.0022652898028233518 0.010097862403310219 0 0.003136481764446464 0.011183293024674499 0 0.00081913063375767627 0.010647698758858317 0 0.0017830685518332246 0.01134990630089132 0 0.0022652898028233518 0.010097862403310219 0 0.0020867234858243265 0.0088498167937922957 0 0.0022652898028233518 0.010097862403310219 0 0.0015064774277115339 0.0096749720355804487 0 0.00081913063375767627 0.010647698758858317 0 0.0022652898028233518 0.010097862403310219 0 0.0015064774277115339 0.0096749720355804487 0 0.0032433755442456544 0.0092561058578346737 0 0.0022652898028233518 0.010097862403310219 0 0.0031801811562221132 0.010020242432289602 0 0.0022652898028233518 0.010097862403310219 0 0.0031801811562221132 0.010020242432289602 0 0.003136481764446464 0.011183293024674499 0 0.0017830685518332246 0.01134990630089132 0 0.003136481764446464 0.011183293024674499 0 0.0024205996846953983 0.012727091096793479 0 0.003136481764446464 0.011183293024674499 0 0.0024205996846953983 0.012727091096793479 0 0.0038794303116625895 0.012670016945116507 0 0.0024205996846953983 0.012727091096793479 0 0.0038794303116625895 0.012670016945116507 0 0.0033202370124347366 0.013768475572039264 0 0.0024205996846953983 0.012727091096793479 0 0.0012116204302956364 0.013260555208172455 0 0.0015100223741761946 0.012392326720564549 0 0.0017830685518332246 0.01134990630089132 0 0.0024205996846953983 0.012727091096793479 0 0.0015100223741761946 0.012392326720564549 0 0.00063218765562592886 0.012230760046174424 0 0.0012116204302956364 0.013260555208172455 0 -0.00049670919049543932 0.01313238411541939 0 0.0017830685518332246 0.01134990630089132 0 0.00063218765562592886 0.012230760046174424 0 0.0015100223741761946 0.012392326720564549 0 0.001717421239093384 0.011441038155832672 0 0.00055062718596156953 0.012370958690361393 0 0.00055062718596156953 0.012370958690361393 0 -0.00059674496777933927 0.013310030341470583 0 0.00063218765562592886 0.012230760046174424 0 0.0012116204302956364 0.013260555208172455 0 0.0015100223741761946 0.012392326720564549 0 0.0012116204302956364 0.013260555208172455 0 0.0004042468002735913 0.014211389922360641 0 0.0015240982900928306 0.014288833381226988 0 0.0012116204302956364 0.013260555208172455 0 0.0004042468002735913 0.014211389922360641 0 -0.00049670919049543932 0.01313238411541939 0 0.0004042468002735913 0.014211389922360641 0 0.00099631836485665677 0.014948847724887714 0 0.0002551021662733067 0.01520035698565976 0 0.0015240982900928306 0.014288833381226988 0 0.00099631836485665677 0.014948847724887714 0 0.0017880837375849853 0.015417172025172064 0 0.0004042468002735913 0.014211389922360641 0 0.0015240982900928306 0.014288833381226988 0 0.00099631836485665677 0.014948847724887714 0 0.0015240982900928306 0.014288833381226988 0 0.0027871008577239941 0.014677340409315034 0 0.0023500990755056139 0.013816669439890157 0 0.0015240982900928306 0.014288833381226988 0 0.0027871008577239941 0.014677340409315034 0 0.0017880837375849853 0.015417172025172064 0 0.0027871008577239941 0.014677340409315034 0 0.0023500990755056139 0.013816669439890157 0 0.0033202370124347366 0.013768475572039264 0 0.0024205996846953983 0.012727091096793479 0 0.0023500990755056139 0.013816669439890157 0 0.0033202370124347366 0.013768475572039264 0 0.0024205996846953983 0.012727091096793479 0 0.0012116204302956364 0.013260555208172455 0 0.0023500990755056139 0.013816669439890157 0 0.0012116204302956364 0.013260555208172455 0 0.0015240982900928306 0.014288833381226988 0 0.0023500990755056139 0.013816669439890157 0 -0.0031197453017595372 0.014086782264300376 0 -0.0028289759965077596 0.014754269092913668 0 -0.0032660443829125255 0.013380524183164639 0 -0.002510583909054633 0.013834028161774484 0 -0.0026930877224896734 0.012610330248547259 0 -0.0032660443829125255 0.013380524183164639 0 -0.002510583909054633 0.013834028161774484 0 -0.0027800560614402552 0.014798671234939647 0 -0.0032660443829125255 0.013380524183164639 0 -0.0026930877224896734 0.012610330248547259 0 -0.0035019619060046403 0.012270549126672645 0 -0.0020303684983304991 0.011906632840709407 0 -0.0020426015932640258 0.013134293977332241 0 -0.0014095613985630948 0.012375708227610921 0 -0.0020303684983304991 0.011906632840709407 0 -0.0026930877224896734 0.012610330248547259 0 -0.0020426015932640258 0.013134293977332241 0 -0.002510583909054633 0.013834028161774484 0 -0.0020426015932640258 0.013134293977332241 0 -0.0016815246182371733 0.014421556208895594 0 -0.002510583909054633 0.013834028161774484 0 -0.0026930877224896734 0.012610330248547259 0 -0.0020426015932640258 0.013134293977332241 0 -0.0020426015932640258 0.013134293977332241 0 -0.00069985750314377232 0.013473362380484853 0 -0.0016815246182371733 0.014421556208895594 0 -0.0020426015932640258 0.013134293977332241 0 -0.0014095613985630948 0.012375708227610921 0 -0.00069985750314377232 0.013473362380484853 0 -0.00075312105546200059 0.011912329525367055 0 0.00044540095045642454 0.012550374371024272 0 -0.00069985750314377232 0.013473362380484853 0 -0.00075312105546200059 0.011912329525367055 0 -0.0014095613985630948 0.012375708227610921 0 -0.00069985750314377232 0.013473362380484853 0 0.0004042468002735913 0.014211389922360641 0 -0.00049670919049543932 0.01313238411541939 0 -0.00081726886255491682 0.014909144278253045 0 0.0004042468002735913 0.014211389922360641 0 -0.00081726886255491682 0.014909144278253045 0 0.0002551021662733067 0.01520035698565976 0 -0.00081726886255491682 0.014909144278253045 0 -0.0015932369028024015 0.014073533481104683 0 -0.0018575378671157133 0.015177939205138567 0 -0.00081726886255491682 0.014909144278253045 0 -0.0018575378671157133 0.015177939205138567 0 -0.0016778542339553374 0.015761861475606261 0 -0.00049670919049543932 0.01313238411541939 0 -0.00081726886255491682 0.014909144278253045 0 -0.0015932369028024015 0.014073533481104683 0 -0.00059674496777933927 0.013310030341470583 0 -0.0016414997486824117 0.014265082178672421 0 -0.0016414997486824117 0.014265082178672421 0 -0.0025821586255244215 0.015146254719087581 0 -0.0016815246182371733 0.014421556208895594 0 -0.0026293013906681932 0.015247558391934502 0 -0.0027800560614402552 0.014798671234939647 0 -0.002510583909054633 0.013834028161774484 0 -0.0016815246182371733 0.014421556208895594 0 -0.0027800560614402552 0.014798671234939647 0 -0.0018575378671157133 0.015177939205138567 0 -0.0026293013906681932 0.015247558391934502 0 -0.0024572862525294439 0.015583166660776856 0 -0.0015932369028024015 0.014073533481104683 0 -0.0018575378671157133 0.015177939205138567 0 -0.0026293013906681932 0.015247558391934502 0 -0.0026293013906681932 0.015247558391934502 0 -0.0024572862525294439 0.015583166660776856 0 -0.0027532330191797042 0.015779609085283672 0 -0.0026293013906681932 0.015247558391934502 0 -0.0027532330191797042 0.015779609085283672 0 -0.0029205375134330799 0.015382007539661941 0 -0.0026293013906681932 0.015247558391934502 0 -0.0027800560614402552 0.014798671234939647 0 -0.0029205375134330799 0.015382007539661941 0 -0.0030342220553195107 0.014738123807258346 0 -0.0027800560614402552 0.014798671234939647 0 -0.00303912106107729 0.014875066164084407 0 -0.0026025334155269858 0.016614080615315347 0 -0.0027299573422874578 0.016373904918241949 0 -0.0028037381437923999 0.016639471550084738 0 -0.0024142948184888236 0.016545578266889426 0 -0.0030384998981863721 0.016865468791524993 0 -0.0024142948184888236 0.016545578266889426 0 -0.0021731364408618648 0.016233270118561741 0 -0.0021561956809277721 0.016560626793335063 0 -0.0024142948184888236 0.016545578266889426 0 -0.0024731830021106241 0.016350270830170106 0 -0.0021731364408618648 0.016233270118561741 0 -0.0024731830021106241 0.016350270830170106 0 -0.0024628212101264714 0.016145421203176826 0 -0.0021731364408618648 0.016233270118561741 0 -0.0024142948184888236 0.016545578266889426 0 -0.0024731830021106241 0.016350270830170106 0 -0.0026434696056373153 0.016490442972492501 0 -0.0024731830021106241 0.016350270830170106 0 -0.00266717701706012 0.016334067893626892 0 -0.0024628212101264714 0.016145421203176826 0 -0.0024731830021106241 0.016350270830170106 0 -0.00266717701706012 0.016334067893626892 0 -0.0026434696056373153 0.016490442972492501 0 -0.0028037381437923999 0.016639471550084738 0 -0.0024142948184888236 0.016545578266889426 0 -0.0026434696056373153 0.016490442972492501 0 -0.0028037381437923999 0.016639471550084738 0 -0.0026434696056373153 0.016490442972492501 0 -0.0028128096399575807 0.016482049622892611 0 -0.00266717701706012 0.016334067893626892 0 -0.0026434696056373153 0.016490442972492501 0 -0.0028128096399575807 0.016482049622892611 0 -0.00266717701706012 0.016334067893626892 0 -0.0028128096399575807 0.016482049622892611 0 -0.0028802866248431114 0.016330124756777694 0 -0.00266717701706012 0.016334067893626892 0 -0.0027012656049928757 0.016098348952942553 0 -0.0028802866248431114 0.016330124756777694 0 -0.00266717701706012 0.016334067893626892 0 -0.0027012656049928757 0.016098348952942553 0 -0.0024628212101264714 0.016145421203176826 0 -0.0027012656049928757 0.016098348952942553 0 -0.0028802866248431114 0.016330124756777694 0 -0.0029036804688033872 0.016068725771023022 0 -0.0027012656049928757 0.016098348952942553 0 -0.0027532330191797042 0.015779609085283672 0 -0.0025215016965215295 0.015882720001971523 0 -0.0027012656049928757 0.016098348952942553 0 -0.0027532330191797042 0.015779609085283672 0 -0.0029036804688033872 0.016068725771023022 0 -0.0024572862525294439 0.015583166660776856 0 -0.0027532330191797042 0.015779609085283672 0 -0.0025215016965215295 0.015882720001971523 0 -0.0024572862525294439 0.015583166660776856 0 -0.0025215016965215295 0.015882720001971523 0 -0.0022067125990255349 0.015809885505950118 0 -0.0024628212101264714 0.016145421203176826 0 -0.0022067125990255349 0.015809885505950118 0 -0.0021731364408618648 0.016233270118561741 0 -0.0025215016965215295 0.015882720001971523 0 -0.0024628212101264714 0.016145421203176826 0 -0.0022067125990255349 0.015809885505950118 0 -0.0027012656049928757 0.016098348952942553 0 -0.0025215016965215295 0.015882720001971523 0 -0.0024628212101264714 0.016145421203176826 0 -0.0022067125990255349 0.015809885505950118 0 -0.0016778542339553374 0.015761861475606261 0 -0.0021731364408618648 0.016233270118561741 0 -0.0018575378671157133 0.015177939205138567 0 -0.0024572862525294439 0.015583166660776856 0 -0.0022067125990255349 0.015809885505950118 0 -0.0018575378671157133 0.015177939205138567 0 -0.0022067125990255349 0.015809885505950118 0 -0.0016778542339553374 0.015761861475606261 0 -0.0015535974434637281 0.016312199096284907 0 -0.0021561956809277721 0.016560626793335063 0 -0.0012183214730399792 0.017011788925642882 0 -0.0024142948184888236 0.016545578266889426 0 -0.0021561956809277721 0.016560626793335063 0 -0.0020861060819389742 0.017103330218076963 0 -0.0016778542339553374 0.015761861475606261 0 -0.0015535974434637281 0.016312199096284907 0 -0.0021731364408618648 0.016233270118561741 0 -0.0015535974434637281 0.016312199096284907 0 -0.0021731364408618648 0.016233270118561741 0 -0.0021561956809277721 0.016560626793335063 0 -0.0015535974434637281 0.016312199096284907 0 -0.00081417729872842971 0.016389901350755055 0 -0.0012183214730399792 0.017011788925642882 0 -0.0015535974434637281 0.016312199096284907 0 -0.00081417729872842971 0.016389901350755055 0 -0.0010547604430099584 0.015846024299053209 0 -0.0016778542339553374 0.015761861475606261 0 -0.0015535974434637281 0.016312199096284907 0 -0.0010547604430099584 0.015846024299053209 0 -0.00081726886255491682 0.014909144278253045 0 -0.0016778542339553374 0.015761861475606261 0 -0.0010547604430099584 0.015846024299053209 0 -0.00081726886255491682 0.014909144278253045 0 -0.0010547604430099584 0.015846024299053209 0 -0.00037353713014399276 0.01580124652781548 0 -0.00081726886255491682 0.014909144278253045 0 -0.00037353713014399276 0.01580124652781548 0 0.0002551021662733067 0.01520035698565976 0 -0.00037353713014399276 0.01580124652781548 0 -0.00016214099854416821 0.016439616096310998 0 0.00037015165982569374 0.01597555368327825 0 -0.00081417729872842971 0.016389901350755055 0 -0.00037353713014399276 0.01580124652781548 0 -0.00016214099854416821 0.016439616096310998 0 -0.00081417729872842971 0.016389901350755055 0 -0.0010547604430099584 0.015846024299053209 0 -0.00037353713014399276 0.01580124652781548 0 -0.00081417729872842971 0.016389901350755055 0 -0.00016214099854416821 0.016439616096310998 0 -0.00047816811577946171 0.016868091789575438 0 -0.00040947629302304673 0.01743560545990791 0 -0.0013383339079091493 0.016966168129900719 0 -0.00047816811577946171 0.016868091789575438 0 -0.00023705129139516465 0.017518022764106522 0 -0.0012183214730399792 0.017011788925642882 0 -0.00016214099854416821 0.016439616096310998 0 -0.00047816811577946171 0.016868091789575438 0 5.0535251483144764e-05 0.016981689922640972 0 -0.00047816811577946171 0.016868091789575438 0 -0.00023705129139516465 0.017518022764106522 0 5.0535251483144764e-05 0.016981689922640972 0 -0.00058501728754189488 0.017351846581240643 0 -0.0010940020813145618 0.017614567374325138 0 -0.00027487743850188571 0.017789244176319136 0 -0.00058501728754189488 0.017351846581240643 0 -0.0010940020813145618 0.017614567374325138 0 -0.0014382210683891216 0.016929376965008444 0 -0.0017393190121283097 0.016623096675966492 0 -0.0022249995152310311 0.016510364999858442 0 -0.0010940020813145618 0.017614567374325138 0 -0.0014382210683891216 0.016929376965008444 0 -0.0020861060819389742 0.017103330218076963 0 -0.00081417729872842971 0.016389901350755055 0 -0.00047816811577946171 0.016868091789575438 0 -0.0012183214730399792 0.017011788925642882 0 -0.0021561956809277721 0.016560626793335063 0 -0.0014382210683891216 0.016929376965008444 0 -0.0020861060819389742 0.017103330218076963 0 -0.0020938170662182956 0.016573467268019445 0 -0.0013383339079091493 0.016966168129900719 0 -0.002389417615086696 0.01590494214435851 0 -0.0024365848884310565 0.015952987014488842 0 -0.0023663856419291556 0.01596010797592946 0 -0.0022898282092387885 0.015917017145464833 0 -0.002389417615086696 0.01590494214435851 0 -0.0023663856419291556 0.01596010797592946 0 -0.002389417615086696 0.01590494214435851 0 -0.0024365848884310565 0.015952987014488842 0 -0.0024700494974809451 0.015925817812266867 0 -0.0024365848884310565 0.015952987014488842 0 -0.0025339315497712881 0.015970196489274113 0 -0.0024350323638540833 0.016004613029723128 0 -0.002389417615086696 0.01590494214435851 0 -0.0025059576411555445 0.015860753120283171 0 -0.0024817032068344264 0.015898809631430928 0 -0.0024142948184888236 0.016545578266889426 0 -0.0020861060819389742 0.017103330218076963 0 -0.0029428245336328954 0.016662455831064654 0 -0.0022249995152310311 0.016510364999858442 0 -0.0027299573422874578 0.016373904918241949 0 -0.002389417615086696 0.01590494214435851 0 -0.0024700494974809451 0.015925817812266867 0 -0.0024817032068344264 0.015898809631430928 0 0.0021261672889589475 0.01622100174520779 0 0.0029541600140055102 0.015793175288497666 0 0.0017880837375849853 0.015417172025172064 0 0.0021261672889589475 0.01622100174520779 0 0.001284416209318476 0.016246804685658582 0 0.0019135818300602769 0.016871528408973845 0 0.0021261672889589475 0.01622100174520779 0 0.0017880837375849853 0.015417172025172064 0 0.001284416209318476 0.016246804685658582 0 0.0021261672889589475 0.01622100174520779 0 0.0029541600140055102 0.015793175288497666 0 0.0027097858279744908 0.016770912130096068 0 0.0029541600140055102 0.015793175288497666 0 0.0027097858279744908 0.016770912130096068 0 0.0035852329551906447 0.016259996180165971 0 0.0027871008577239941 0.014677340409315034 0 0.0029541600140055102 0.015793175288497666 0 0.0017880837375849853 0.015417172025172064 0 0.0027871008577239941 0.014677340409315034 0 0.0029541600140055102 0.015793175288497666 0 0.0035545429125281398 0.015100683281422219 0 0.00099631836485665677 0.014948847724887714 0 0.0017880837375849853 0.015417172025172064 0 0.001009879476722005 0.015612744236302472 0 -0.00037353713014399276 0.01580124652781548 0 0.0002551021662733067 0.01520035698565976 0 0.00037015165982569374 0.01597555368327825 0 0.001009879476722005 0.015612744236302472 0 0.0002551021662733067 0.01520035698565976 0 0.00037015165982569374 0.01597555368327825 0 0.00099631836485665677 0.014948847724887714 0 0.001009879476722005 0.015612744236302472 0 0.0002551021662733067 0.01520035698565976 0 0.00037015165982569374 0.01597555368327825 0 0.001284416209318476 0.016246804685658582 0 0.0005639789695723944 0.016637072973535283 0 -0.00016214099854416821 0.016439616096310998 0 0.00037015165982569374 0.01597555368327825 0 0.0005639789695723944 0.016637072973535283 0 0.001009879476722005 0.015612744236302472 0 0.00037015165982569374 0.01597555368327825 0 0.001284416209318476 0.016246804685658582 0 0.0017880837375849853 0.015417172025172064 0 0.001009879476722005 0.015612744236302472 0 0.001284416209318476 0.016246804685658582 0 0.001284416209318476 0.016246804685658582 0 0.0012075016014781363 0.016987661506738916 0 0.0019135818300602769 0.016871528408973845 0 0.001284416209318476 0.016246804685658582 0 0.0012075016014781363 0.016987661506738916 0 0.0005639789695723944 0.016637072973535283 0 0.0012075016014781363 0.016987661506738916 0 0.0006398519797886842 0.01717847097005365 0 0.0010644183731267512 0.017552541782647736 0 0.0012075016014781363 0.016987661506738916 0 0.0005639789695723944 0.016637072973535283 0 0.0006398519797886842 0.01717847097005365 0 -0.00016214099854416821 0.016439616096310998 0 0.0005639789695723944 0.016637072973535283 0 5.0535251483144764e-05 0.016981689922640972 0 0.0005639789695723944 0.016637072973535283 0 0.0006398519797886842 0.01717847097005365 0 5.0535251483144764e-05 0.016981689922640972 0 -0.00023705129139516465 0.017518022764106522 0 5.0535251483144764e-05 0.016981689922640972 0 0.00025203024434630739 0.01731640400206165 0 0.0006398519797886842 0.01717847097005365 0 5.0535251483144764e-05 0.016981689922640972 0 0.00025203024434630739 0.01731640400206165 0 -0.00023705129139516465 0.017518022764106522 0 0.00025203024434630739 0.01731640400206165 0 0.00055573601640568555 0.017586724745174025 0 -0.00058501728754189488 0.017351846581240643 0 -0.00027487743850188571 0.017789244176319136 0 0.00044223877689904744 0.017883264501851084 0 -0.00040947629302304673 0.01743560545990791 0 0.00060889937721944674 0.017969700681310454 0 -0.00023705129139516465 0.017518022764106522 0 0.00055573601640568555 0.017586724745174025 0 0.00074337653450541705 0.018029529191913047 0 0.0006398519797886842 0.01717847097005365 0 0.00055573601640568555 0.017586724745174025 0 0.0010644183731267512 0.017552541782647736 0 0.0006398519797886842 0.01717847097005365 0 0.00025203024434630739 0.01731640400206165 0 0.00055573601640568555 0.017586724745174025 0 0.00055573601640568555 0.017586724745174025 0 0.0010644183731267512 0.017552541782647736 0 0.00074337653450541705 0.018029529191913047 0 0.0012075016014781363 0.016987661506738916 0 0.0010644183731267512 0.017552541782647736 0 0.0016888199283558354 0.017493673246093893 0 0.0010644183731267512 0.017552541782647736 0 0.0014250007319805988 0.017939423131632444 0 0.00074337653450541705 0.018029529191913047 0 0.0010644183731267512 0.017552541782647736 0 0.0016888199283558354 0.017493673246093893 0 0.0014250007319805988 0.017939423131632444 0 0.0016888199283558354 0.017493673246093893 0 0.0019814561086843796 0.017977182434043528 0 0.0014250007319805988 0.017939423131632444 0 0.0016888199283558354 0.017493673246093893 0 0.0024561882093846366 0.017488779795773859 0 0.0019814561086843796 0.017977182434043528 0 0.0016888199283558354 0.017493673246093893 0 0.0019135818300602769 0.016871528408973845 0 0.0024561882093846366 0.017488779795773859 0 0.0021261672889589475 0.01622100174520779 0 0.0019135818300602769 0.016871528408973845 0 0.0027097858279744908 0.016770912130096068 0 0.0012075016014781363 0.016987661506738916 0 0.0016888199283558354 0.017493673246093893 0 0.0019135818300602769 0.016871528408973845 0 0.0019135818300602769 0.016871528408973845 0 0.0027097858279744908 0.016770912130096068 0 0.0024561882093846366 0.017488779795773859 0 0.0024561882093846366 0.017488779795773859 0 0.003439926752742115 0.017462538560144236 0 0.0025968241226223738 0.018230545866695182 0 0.0027097858279744908 0.016770912130096068 0 0.0024561882093846366 0.017488779795773859 0 0.003439926752742115 0.017462538560144236 0 0.0027575428873535916 0.010432974766187011 0 0.0027344122388820308 0.0093169828301343204 0 0.0022683081018368858 0.0030551336375106149 0 0.0016549642519896018 0.003045799168287643 0 0.0016880512251434257 0.0025741648834027102 0 0.0022683081018368858 0.0030551336375106149 0 0.0016549642519896018 0.003045799168287643 0 0.0017129069181789627 0.0036006636883836435 0 0.0027344122388820308 0.0093169828301343204 0 0.0044535033698837436 0.016837352712654428 0 0.003439926752742115 0.017462538560144236 0 0.004242678218726665 0.016690061038858398 0 0.0035852329551906447 0.016259996180165971 0 0.0027097858279744908 0.016770912130096068 0 0.003439926752742115 0.017462538560144236 0 0.0035852329551906447 0.016259996180165971 0 0.0029541600140055102 0.015793175288497666 0 0.0039866311148611154 0.015585046939767592 0 0.0037581677484015718 0.016228875315589881 0 0.0027572804930706923 0.015633767700042892 0 0.0044535033698837436 0.016837352712654428 0 0.0039866311148611154 0.015585046939767592 0 0.0037581677484015718 0.016228875315589881 0 0.0046330807914698466 0.015733918889821941 0 0.0044839905942459382 0.016673050343419701 0 0.0037581677484015718 0.016228875315589881 0 0.0046330807914698466 0.015733918889821941 0 0.0046330807914698466 0.015733918889821941 0 0.0044261440647911385 0.014951087125311681 0 0.0053063558826416512 0.014866211586028346 0 0.0039866311148611154 0.015585046939767592 0 0.0046330807914698466 0.015733918889821941 0 0.0044261440647911385 0.014951087125311681 0 0.0039866311148611154 0.015585046939767592 0 0.0044261440647911385 0.014951087125311681 0 0.0035545429125281398 0.015100683281422219 0 0.0044261440647911385 0.014951087125311681 0 0.0035545429125281398 0.015100683281422219 0 0.0037368430385177776 0.014477574826295131 0 0.0029541600140055102 0.015793175288497666 0 0.0039866311148611154 0.015585046939767592 0 0.0035545429125281398 0.015100683281422219 0 0.000771133240893918 0.0034285515419675474 0 0.0011047870363964636 0.0031670255470903565 0 0.00054237192799655952 0.0032824867054400703 0 0.0061081611620126212 0.015151614691283934 0 0.0053063558826416512 0.014866211586028346 0 0.0055798783379484504 0.015667446690117878 0 0.0029744099602111509 0.009024420496320535 0 0.0034086649576315158 0.009428740721850527 0 0.0029744099602111509 0.009024420496320535 0 0.0016782469813406537 0.0046079768138348959 0 0.0046330807914698466 0.015733918889821941 0 0.0053063558826416512 0.014866211586028346 0 0.0055798783379484504 0.015667446690117878 0 0.0044839905942459382 0.016673050343419701 0 0.0046330807914698466 0.015733918889821941 0 0.0055798783379484504 0.015667446690117878 0 0.0027344122388820308 0.0093169828301343204 0 0.0034086649576315158 0.009428740721850527 0 0.0011047870363964636 0.0031670255470903565 0 0.00070945774221503827 0.0029960753427132731 0 0.00082480794568908899 0.0025980159093768871 0 0.0011047870363964636 0.0031670255470903565 0 0.00070945774221503827 0.0029960753427132731 0 0.00054237192799655952 0.0032824867054400703 0 0.00070945774221503827 0.0029960753427132731 0 0.00082480794568908899 0.0025980159093768871 0 0.0003690922361372377 0.0029327213778877663 0 0.00082480794568908899 0.0025980159093768871 0 0.0010583086653145903 0.0020249158077902075 0 0.00033041783552402709 0.00232446484050562 0 0.0017924258717330205 0.002607534561928671 0 0.0011047870363964636 0.0031670255470903565 0 0.00082480794568908899 0.0025980159093768871 0 0.0017924258717330205 0.002607534561928671 0 0.00082480794568908899 0.0025980159093768871 0 0.0010583086653145903 0.0020249158077902075 0 0.0027344122388820308 0.0093169828301343204 0 0.00052986265267453364 0.0014235433853338852 0 0.0016549642519896018 0.003045799168287643 0 0.00093382898886235533 0.0029536970468970435 0 0.0016880512251434257 0.0025741648834027102 0 0.0016549642519896018 0.003045799168287643 0 0.0017129069181789627 0.0036006636883836435 0 0.00093382898886235533 0.0029536970468970435 0 -0.00029442136009861516 0.0020196464085422547 0 0.00033041783552402709 0.00232446484050562 0 0.00033400466569245824 0.0015002725002349932 0 0.0010583086653145903 0.0020249158077902075 0 0.00033041783552402709 0.00232446484050562 0 0.00033400466569245824 0.0015002725002349932 0 -0.00029442136009861516 0.0020196464085422547 0 0.00033041783552402709 0.00232446484050562 0 -0.00027442567226239356 0.0028484711130047453 0 0.00033041783552402709 0.00232446484050562 0 0.0003690922361372377 0.0029327213778877663 0 -0.00027442567226239356 0.0028484711130047453 0 0.00082480794568908899 0.0025980159093768871 0 0.00033041783552402709 0.00232446484050562 0 0.0003690922361372377 0.0029327213778877663 0 -0.0010040872981085973 0.0020546585840163067 0 -0.0013345489061536199 0.0016045766100804633 0 -0.0014930918179697358 0.0020589374185740576 0 -0.00029442136009861516 0.0020196464085422547 0 -0.0010040872981085973 0.0020546585840163067 0 -0.00073580100453824718 0.0024936469715187331 0 -0.00029442136009861516 0.0020196464085422547 0 -0.0010040872981085973 0.0020546585840163067 0 -0.00084153599447600927 0.0015552044428156938 0 -0.00029442136009861516 0.0020196464085422547 0 -0.00073580100453824718 0.0024936469715187331 0 -0.00027442567226239356 0.0028484711130047453 0 -0.0010040872981085973 0.0020546585840163067 0 -0.0012780883518143142 0.0025271602163295433 0 -0.0014930918179697358 0.0020589374185740576 0 -0.0010040872981085973 0.0020546585840163067 0 -0.00073580100453824718 0.0024936469715187331 0 -0.0012780883518143142 0.0025271602163295433 0 -0.00073580100453824718 0.0024936469715187331 0 -0.0012780883518143142 0.0025271602163295433 0 -0.00089082781667932298 0.0029327570140432772 0 -0.0012780883518143142 0.0025271602163295433 0 -0.0012346541614481215 0.0029602039496827376 0 -0.00089082781667932298 0.0029327570140432772 0 -0.00089082781667932298 0.0029327570140432772 0 -0.00062818625305175173 0.0033447954739647509 0 -0.00027442567226239356 0.0028484711130047453 0 -0.00062818625305175173 0.0033447954739647509 0 -0.00027442567226239356 0.0028484711130047453 0 -0.00023508538781774347 0.0032659779074868875 0 -0.00073580100453824718 0.0024936469715187331 0 -0.00089082781667932298 0.0029327570140432772 0 -0.00027442567226239356 0.0028484711130047453 0 -0.00039835395604490302 0.003623244663939958 0 -0.00062818625305175173 0.0033447954739647509 0 -0.00068938406636224873 0.0038919545997319967 0 -0.00039835395604490302 0.003623244663939958 0 -0.00062818625305175173 0.0033447954739647509 0 -0.00023508538781774347 0.0032659779074868875 0 -0.0012346541614481215 0.0029602039496827376 0 -0.00089082781667932298 0.0029327570140432772 0 -0.0011903621701274802 0.003499733058671118 0 -0.00089082781667932298 0.0029327570140432772 0 -0.00062818625305175173 0.0033447954739647509 0 -0.0011903621701274802 0.003499733058671118 0 -0.00062818625305175173 0.0033447954739647509 0 -0.0011903621701274802 0.003499733058671118 0 -0.00068938406636224873 0.0038919545997319967 0 0.0003690922361372377 0.0029327213778877663 0 0.00012442230412222652 0.003293958142298273 0 0.00054237192799655952 0.0032824867054400703 0 0.00070945774221503827 0.0029960753427132731 0 0.0003690922361372377 0.0029327213778877663 0 0.00054237192799655952 0.0032824867054400703 0 0.0003690922361372377 0.0029327213778877663 0 -0.00027442567226239356 0.0028484711130047453 0 0.00012442230412222652 0.003293958142298273 0 -0.00027442567226239356 0.0028484711130047453 0 -0.00023508538781774347 0.0032659779074868875 0 0.00012442230412222652 0.003293958142298273 0 -0.00023508538781774347 0.0032659779074868875 0 0.00012442230412222652 0.003293958142298273 0 -0.00010665997571070151 0.0036871611048252661 0 -0.00039835395604490302 0.003623244663939958 0 -0.00023508538781774347 0.0032659779074868875 0 -0.00010665997571070151 0.0036871611048252661 0 0.00012442230412222652 0.003293958142298273 0 0.00045411725897554904 0.0036826116905742706 0 -0.00010665997571070151 0.0036871611048252661 0 0.000771133240893918 0.0034285515419675474 0 0.00054237192799655952 0.0032824867054400703 0 0.00045411725897554904 0.0036826116905742706 0 0.00012442230412222652 0.003293958142298273 0 0.00054237192799655952 0.0032824867054400703 0 0.00045411725897554904 0.0036826116905742706 0 0.0022298130630855331 0.0055712498603337143 0 0.0020356167485102586 0.0061715018931338649 0 0.0025038643626161031 0.0061047124402925082 0 0.0016782469813406537 0.0046079768138348959 0 0.00060053012048148487 0.0054848927258664051 0 0.0022298130630855331 0.0055712498603337143 0 0.00141758949341526 0.0062912683117757068 0 0.0020356167485102586 0.0061715018931338649 0 0.00045411725897554904 0.0036826116905742706 0 -0.00010665997571070151 0.0036871611048252661 0 -0.00018629581706342029 0.0042520582136373903 0 -0.00010665997571070151 0.0036871611048252661 0 -0.00033969997138757238 0.0039321833428068616 0 -0.00018629581706342029 0.0042520582136373903 0 -0.00039835395604490302 0.003623244663939958 0 -0.00010665997571070151 0.0036871611048252661 0 -0.00033969997138757238 0.0039321833428068616 0 0.00087219262690357196 0.005535772074014904 0 0.0021056094435512223 0.0067757422785739672 0 0.00076563320643079536 0.0071056203825306296 0 0.00087219262690357196 0.005535772074014904 0 0.00041078367582567701 0.0058713361196303547 0 0.00076563320643079536 0.0071056203825306296 0 0.00060053012048148487 0.0054848927258664051 0 0.0022646712873074749 0.0068522068300523493 0 0.00060053012048148487 0.0054848927258664051 0 0.00053075189974185664 0.0056596765497296678 0 0.0020356167485102586 0.0061715018931338649 0 0.0021056094435512223 0.0067757422785739672 0 0.0025038643626161031 0.0061047124402925082 0 0.00141758949341526 0.0062912683117757068 0 0.0020356167485102586 0.0061715018931338649 0 0.0021056094435512223 0.0067757422785739672 0 -0.0023262428612815548 0.0027522330320012326 0 -0.00052861353547713869 0.0040974170169986507 0 -0.00066809201922336282 0.0052530382862521745 0 0.0023846514792359216 -0.0086803960550695409 0 0.0024044681776549197 -0.0085665252530104999 0 0.0025588777083398952 -0.0085007424795951522 0 0.00040650683361126167 -0.0027029011468488319 0 -0.00060778789780243161 0.0042939112746336258 0 0.00040650683361126167 -0.0027029011468488319 0 0.00087832441838025816 -0.0016995314936163724 0 0.00060053012048148487 0.0054848927258664051 0 -0.00060778789780243161 0.0042939112746336258 0 0.0010413644029445101 0.0053265833160070436 0 -0.00052861353547713869 0.0040974170169986507 0 -0.00066809201922336282 0.0052530382862521745 0 -0.00033969997138757238 0.0039321833428068616 0 -0.00018629581706342029 0.0042520582136373903 0 -0.00068938406636224873 0.0038919545997319967 0 -0.00039835395604490302 0.003623244663939958 0 -0.00033969997138757238 0.0039321833428068616 0 -0.00068938406636224873 0.0038919545997319967 0 -0.00066809201922336282 0.0052530382862521745 0 0.00041078367582567701 0.0058713361196303547 0 0.00076563320643079536 0.0071056203825306296 0 0.0010413644029445101 0.0053265833160070436 0 -0.00066809201922336282 0.0052530382862521745 0 0.00041078367582567701 0.0058713361196303547 0 0.00087832441838025816 -0.0016995314936163724 0 0.0017470104819862472 -0.00058831705964582667 0 0.0024044681776549197 -0.0085665252530104999 0 0.0025588777083398952 -0.0085007424795951522 0 0.0024718016092237986 -0.0084669408695594861 0 0.0025588777083398952 -0.0085007424795951522 0 0.0024718016092237986 -0.0084669408695594861 0 0.0025579194054426158 -0.0083673721164305107 0 0.0024718016092237986 -0.0084669408695594861 0 0.0024596758034780056 -0.0084016609825493926 0 0.0023789888652003635 -0.0085025037183914399 0 0.0024044681776549197 -0.0085665252530104999 0 0.0024718016092237986 -0.0084669408695594861 0 0.0023789888652003635 -0.0085025037183914399 0 0.0024758110271238514 -0.0083189839225129864 0 0.0024596758034780056 -0.0084016609825493926 0 0.0023727368248223739 -0.0084183629337154352 0 0.0024718016092237986 -0.0084669408695594861 0 0.0024596758034780056 -0.0084016609825493926 0 0.0025579194054426158 -0.0083673721164305107 0 0.0024758110271238514 -0.0083189839225129864 0 0.0026126701365619997 -0.0082802675610482209 0 0.0025579194054426158 -0.0083673721164305107 0 0.0024758110271238514 -0.0083189839225129864 0 0.0024596758034780056 -0.0084016609825493926 0 0.0025579194054426158 -0.0083673721164305107 0 0.0026126701365619997 -0.0082802675610482209 0 0.0025579194054426158 -0.0083673721164305107 0 0.0027239946309959543 -0.0082895032149724827 0 0.0025588777083398952 -0.0085007424795951522 0 0.0025579194054426158 -0.0083673721164305107 0 0.0027239946309959543 -0.0082895032149724827 0 0.0026126701365619997 -0.0082802675610482209 0 0.0026396189184385724 -0.0081706063704902812 0 0.0027239946309959543 -0.0082895032149724827 0 0.0024758110271238514 -0.0083189839225129864 0 0.0026126701365619997 -0.0082802675610482209 0 0.0026396189184385724 -0.0081706063704902812 0 0.0024717401298792875 -0.008194089238354416 0 0.0024758110271238514 -0.0083189839225129864 0 0.0026396189184385724 -0.0081706063704902812 0 0.0024717401298792875 -0.008194089238354416 0 0.0024758110271238514 -0.0083189839225129864 0 0.0023523985939798396 -0.0083317988515590104 0 0.0021056094435512223 0.0067757422785739672 0 0.0017272649245794588 0.0082517781487880214 0 0.0027982329108719854 0.0071225274737822895 0 0.0021056094435512223 0.0067757422785739672 0 0.00076563320643079536 0.0071056203825306296 0 0.0017272649245794588 0.0082517781487880214 0 0.0017470104819862472 -0.00058831705964582667 0 0.0023013150595433168 7.2938646444300703e-05 0 0.0026396189184385724 -0.0081706063704902812 0 0.0027239946309959543 -0.0082895032149724827 0 0.0028679013809190766 -0.0080744769808079649 0 0.0017272649245794588 0.0082517781487880214 0 0.0030361506708193146 0.0082162247200662942 0 0.0027982329108719854 0.0071225274737822895 0 0.0030361506708193146 0.0082162247200662942 0 0.0027982329108719854 0.0071225274737822895 0 0.0036437853655938413 0.0071088441597646464 0 0.0030361506708193146 0.0082162247200662942 0 0.0036437853655938413 0.0071088441597646464 0 0.0040699449351211201 0.0083256984220102109 0 0.0043528983218908777 0.0098915407427033874 0 0.0043693733930938025 0.0098823420242756584 0 0.003136481764446464 0.011183293024674499 0 0.0047249561777620947 0.011462231483098209 0 0.0038794303116625895 0.012670016945116507 0 0.0051575337233062271 0.012817819618948508 0 0.0047249561777620947 0.011462231483098209 0 0.0038794303116625895 0.012670016945116507 0 0.0051575337233062271 0.012817819618948508 0 0.0038794303116625895 0.012670016945116507 0 0.0045805533092603034 0.013883387319872188 0 0.0038794303116625895 0.012670016945116507 0 0.0045805533092603034 0.013883387319872188 0 0.0033202370124347366 0.013768475572039264 0 0.0045805533092603034 0.013883387319872188 0 0.0033202370124347366 0.013768475572039264 0 0.0037368430385177776 0.014477574826295131 0 0.0027871008577239941 0.014677340409315034 0 0.0035545429125281398 0.015100683281422219 0 0.0037368430385177776 0.014477574826295131 0 0.0027871008577239941 0.014677340409315034 0 0.0033202370124347366 0.013768475572039264 0 0.0037368430385177776 0.014477574826295131 0 0.0044261440647911385 0.014951087125311681 0 0.0053063558826416512 0.014866211586028346 0 0.0045805533092603034 0.013883387319872188 0 0.0044261440647911385 0.014951087125311681 0 0.0045805533092603034 0.013883387319872188 0 0.0037368430385177776 0.014477574826295131 0 0.0053063558826416512 0.014866211586028346 0 0.0045805533092603034 0.013883387319872188 0 0.0056001588011810851 0.014014928795128624 0 0.0029744099602111509 0.009024420496320535 0 0.0046040324275759313 0.010347046957694008 0 0.0026469531924917045 0.0052138541621833392 0 0.0031285603480058983 0.0061030586056830529 0 0.0025038643626161031 0.0061047124402925082 0 0.0026469531924917045 0.0052138541621833392 0 0.0022298130630855331 0.0055712498603337143 0 0.0025038643626161031 0.0061047124402925082 0 0.0061081611620126212 0.015151614691283934 0 0.0053063558826416512 0.014866211586028346 0 0.0056001588011810851 0.014014928795128624 0 0.0027982329108719854 0.0071225274737822895 0 0.0031285603480058983 0.0061030586056830529 0 0.0025038643626161031 0.0061047124402925082 0 0.0021056094435512223 0.0067757422785739672 0 0.0027982329108719854 0.0071225274737822895 0 0.0025038643626161031 0.0061047124402925082 0 0.0051575337233062271 0.012817819618948508 0 0.0045805533092603034 0.013883387319872188 0 0.0056001588011810851 0.014014928795128624 0 0.0027982329108719854 0.0071225274737822895 0 0.0036437853655938413 0.0071088441597646464 0 0.0031285603480058983 0.0061030586056830529 0 0.0043528983218908777 0.0098915407427033874 0 0.0046040324275759313 0.010347046957694008 0 6.4187755655565031e-05 0.034865037439200851 0 3.1908430896804837e-08 0.034999854236289811 0 4.4170681402820696e-05 0.034916309063375034 0 3.1908430896804837e-08 0.034999854236289811 0 3.6995152917018451e-05 0.034909410533598126 0 1.2205912011961918e-10 0.034999887857053491 0 6.4187755655565031e-05 0.034865037439200851 0 3.1908430896804837e-08 0.034999854236289811 0 3.6995152917018451e-05 0.034909410533598126 0 6.4187755655565031e-05 0.034865037439200851 0 3.6995152917018451e-05 0.034909410533598126 0 0.00010288176861747721 0.034795863516450198 0 0.00010288176861747721 0.034795863516450198 0 0.00018939887219997708 0.034663071309133923 0 0.00013488251202522188 0.034752781292346852 0 0.00018939887219997708 0.034663071309133923 0 0.00022932705982308082 0.034607871521693694 0 0.00015411816209492851 0.034746333110343953 0 0.00010288176861747721 0.034795863516450198 0 0.00018939887219997708 0.034663071309133923 0 0.00015411816209492851 0.034746333110343953 0 0.00018939887219997708 0.034663071309133923 0 0.00031330468116232797 0.034578908088288778 0 0.00025693298624168736 0.034510710924152345 0 0.00018939887219997708 0.034663071309133923 0 0.00025693298624168736 0.034510710924152345 0 0.00022932705982308082 0.034607871521693694 0 0.00018939887219997708 0.034663071309133923 0 0.00019461070597627343 0.034674368336442878 0 0.00031330468116232797 0.034578908088288778 0 0.00018939887219997708 0.034663071309133923 0 0.00019461070597627343 0.034674368336442878 0 0.00013488251202522188 0.034752781292346852 0 0.00019461070597627343 0.034674368336442878 0 0.00013488251202522188 0.034752781292346852 0 0.00014684485174387154 0.034745946549007464 0 0.00019461070597627343 0.034674368336442878 0 0.00018426251608180398 0.034682413223479674 0 0.00031330468116232797 0.034578908088288778 0 0.00019461070597627343 0.034674368336442878 0 0.00014684485174387154 0.034745946549007464 0 0.00018426251608180398 0.034682413223479674 0 6.4187755655565031e-05 0.034865037439200851 0 0.00010288176861747721 0.034795863516450198 0 0.00013488251202522188 0.034752781292346852 0 6.4187755655565031e-05 0.034865037439200851 0 0.00013488251202522188 0.034752781292346852 0 9.486411743684789e-05 0.034826728922575323 0 9.486411743684789e-05 0.034826728922575323 0 0.00014684485174387154 0.034745946549007464 0 9.4255919376215889e-05 0.03482463111887215 0 0.00013488251202522188 0.034752781292346852 0 9.486411743684789e-05 0.034826728922575323 0 0.00014684485174387154 0.034745946549007464 0 9.4255919376215889e-05 0.03482463111887215 0 6.7153434383874328e-05 0.034817756345425895 0 9.8053065178159586e-05 0.03477136410090003 0 0.00014684485174387154 0.034745946549007464 0 9.4255919376215889e-05 0.03482463111887215 0 9.8053065178159586e-05 0.03477136410090003 0 9.486411743684789e-05 0.034826728922575323 0 9.4255919376215889e-05 0.03482463111887215 0 5.8856985736180392e-05 0.034892746209824688 0 9.4255919376215889e-05 0.03482463111887215 0 5.8856985736180392e-05 0.034892746209824688 0 5.0388328175084709e-05 0.034898898469686378 0 5.8856985736180392e-05 0.034892746209824688 0 4.9715337409340335e-08 0.034999870249704884 0 5.0388328175084709e-05 0.034898898469686378 0 9.486411743684789e-05 0.034826728922575323 0 5.8856985736180392e-05 0.034892746209824688 0 4.4170681402820696e-05 0.034916309063375034 0 6.4187755655565031e-05 0.034865037439200851 0 9.486411743684789e-05 0.034826728922575323 0 4.4170681402820696e-05 0.034916309063375034 0 5.8856985736180392e-05 0.034892746209824688 0 4.4170681402820696e-05 0.034916309063375034 0 4.9715337409340335e-08 0.034999870249704884 0 3.1908430896804837e-08 0.034999854236289811 0 4.4170681402820696e-05 0.034916309063375034 0 4.9715337409340335e-08 0.034999870249704884 0 4.9715337409340335e-08 0.034999870249704884 0 5.0388328175084709e-05 0.034898898469686378 0 9.3306125923572216e-09 0.034999890960840732 0 5.0388328175084709e-05 0.034898898469686378 0 2.0320862154212157e-05 0.034924239668109772 0 9.3306125923572216e-09 0.034999890960840732 0 5.0388328175084709e-05 0.034898898469686378 0 2.0320862154212157e-05 0.034924239668109772 0 4.8403396899420431e-05 0.03488322740514542 0 2.0320862154212157e-05 0.034924239668109772 0 4.5041129881891108e-05 0.034873661726045189 0 4.8403396899420431e-05 0.03488322740514542 0 2.0320862154212157e-05 0.034924239668109772 0 9.3306125923572216e-09 0.034999890960840732 0 1.1225203876733147e-08 0.034999901558613537 0 2.0320862154212157e-05 0.034924239668109772 0 -7.755835241917577e-06 0.03491047204118284 0 1.1225203876733147e-08 0.034999901558613537 0 2.0320862154212157e-05 0.034924239668109772 0 -7.755835241917577e-06 0.03491047204118284 0 4.5041129881891108e-05 0.034873661726045189 0 -7.755835241917577e-06 0.03491047204118284 0 7.6791257810446687e-05 0.034806399486796064 0 4.5041129881891108e-05 0.034873661726045189 0 3.969910985311757e-05 0.033701874560371325 0 -2.8517348498848487e-05 0.035339948110160349 0 -8.57800565363435e-05 0.034433124493545637 0 0.00011123557189371213 0.034780875443199258 0 7.6791257810446687e-05 0.034806399486796064 0 -8.57800565363435e-05 0.034433124493545637 0 -7.755835241917577e-06 0.03491047204118284 0 7.6791257810446687e-05 0.034806399486796064 0 3.969910985311757e-05 0.033701874560371325 0 -0.00014663373787941283 0.029620817262728767 0 -1.2041478594239389e-05 0.034994788748897998 0 -7.755835241917577e-06 0.03491047204118284 0 1.1824070469287596e-06 0.034975102611591528 0 -3.9911490938953888e-10 0.034999991909032045 0 1.1824070469287596e-06 0.034975102611591528 0 1.1225203876733147e-08 0.034999901558613537 0 -7.755835241917577e-06 0.03491047204118284 0 1.1824070469287596e-06 0.034975102611591528 0 1.1225203876733147e-08 0.034999901558613537 0 -0.0017515283641534698 0.024020069063754958 0 -0.0017963859693495938 0.024120347779989167 0 -0.0016913171883302998 0.024090057253517747 0 -0.0017515283641534698 0.024020069063754958 0 -0.0016913171883302998 0.024090057253517747 0 -0.0016808174016045201 0.024029742085768763 0 -0.0010991450630285136 0.026595032211319827 0 -0.00014663373787941283 0.029620817262728767 0 -9.6028687472648127e-05 0.029641248896842904 0 0.00034640613855938668 0.029776158687237975 0 -3.9565418333341368e-05 0.029192937571887283 0 -0.0017515283641534698 0.024020069063754958 0 -0.0018750474347730447 0.024118439257570491 0 -0.0017963859693495938 0.024120347779989167 0 -9.6028687472648127e-05 0.029641248896842904 0 -0.00050969357576919098 0.029497958680595231 0 -3.9565418333341368e-05 0.029192937571887283 0 -0.00014663373787941283 0.029620817262728767 0 -0.00045819009637666384 0.030125290105936016 0 7.9376081588202049e-05 0.034799870065016662 0 4.5041129881891108e-05 0.034873661726045189 0 5.0861241992870857e-05 0.034861236082475794 0 -0.0018750474347730447 0.024118439257570491 0 -0.0017963859693495938 0.024120347779989167 0 -0.0018763888334838281 0.024230581832708337 0 -0.00014663373787941283 0.029620817262728767 0 -0.00099793550847550056 0.029489408262902583 0 7.9376081588202049e-05 0.034799870065016662 0 7.6791257810446687e-05 0.034806399486796064 0 4.5041129881891108e-05 0.034873661726045189 0 -0.0017963859693495938 0.024120347779989167 0 -0.0017108038815959617 0.024200623038079825 0 -0.0018763888334838281 0.024230581832708337 0 -0.0017963859693495938 0.024120347779989167 0 -0.0017108038815959617 0.024200623038079825 0 -0.0016913171883302998 0.024090057253517747 0 9.4255919376215889e-05 0.03482463111887215 0 5.0388328175084709e-05 0.034898898469686378 0 6.7153434383874328e-05 0.034817756345425895 0 -0.0017260311597319883 0.024368449829270535 0 -0.0016348904078431323 0.024883855965298879 0 -0.0011156665619539408 0.024894957731562129 0 5.0388328175084709e-05 0.034898898469686378 0 4.8403396899420431e-05 0.03488322740514542 0 6.7153434383874328e-05 0.034817756345425895 0 5.0861241992870857e-05 0.034861236082475794 0 4.8403396899420431e-05 0.03488322740514542 0 6.7153434383874328e-05 0.034817756345425895 0 -0.0017260311597319883 0.024368449829270535 0 -0.0018763888334838281 0.024230581832708337 0 -0.0016348904078431323 0.024883855965298879 0 -0.00099793550847550056 0.029489408262902583 0 -0.00076760173920559704 0.029861319279123739 0 -0.0017108038815959617 0.024200623038079825 0 -0.0017260311597319883 0.024368449829270535 0 -0.0018763888334838281 0.024230581832708337 0 4.5041129881891108e-05 0.034873661726045189 0 5.0861241992870857e-05 0.034861236082475794 0 4.8403396899420431e-05 0.03488322740514542 0 -0.0016348904078431323 0.024883855965298879 0 -0.0011156665619539408 0.024894957731562129 0 -0.0012393848056032448 0.025659466507569163 0 -0.0011156665619539408 0.024894957731562129 0 -0.00046456761621264649 0.024967888350632031 0 -0.0012393848056032448 0.025659466507569163 0 -0.00076760173920559704 0.029861319279123739 0 -0.00053690311170452283 0.03027986878994696 0 -0.0011156665619539408 0.024894957731562129 0 -0.00046456761621264649 0.024967888350632031 0 -0.00080930712654496276 0.024401178159445227 0 -0.00046456761621264649 0.024967888350632031 0 -0.00080930712654496276 0.024401178159445227 0 -3.767245737393838e-05 0.024428335611208517 0 -0.0017099994011325337 0.024347370542984317 0 -0.0012055313429969378 0.024273047955717362 0 -0.0017260311597319883 0.024368449829270535 0 -0.0011156665619539408 0.024894957731562129 0 -0.00080930712654496276 0.024401178159445227 0 -0.0017108038815959617 0.024200623038079825 0 -0.0017260311597319883 0.024368449829270535 0 -0.0015785883254658291 0.024135981571933755 0 -0.0015785883254658291 0.024135981571933755 0 -0.0016913171883302998 0.024090057253517747 0 -0.0016301641917193562 0.024018133540268188 0 -0.0017108038815959617 0.024200623038079825 0 -0.0015785883254658291 0.024135981571933755 0 -0.0016913171883302998 0.024090057253517747 0 -0.0015785883254658291 0.024135981571933755 0 -0.0015399226667801482 0.023968555553898718 0 -0.0015030316497669648 0.024005190581714006 0 -0.0015785883254658291 0.024135981571933755 0 -0.0016301641917193562 0.024018133540268188 0 -0.0015399226667801482 0.023968555553898718 0 -0.0015399226667801482 0.023968555553898718 0 -0.0015466463922151734 0.023837606739062586 0 -0.0014960392401861535 0.023868882912523894 0 -0.0015962562766983063 0.023776862015680227 0 -0.0016301641917193562 0.024018133540268188 0 -0.0015466463922151734 0.023837606739062586 0 -0.0016301641917193562 0.024018133540268188 0 -0.0015399226667801482 0.023968555553898718 0 -0.0015466463922151734 0.023837606739062586 0 -0.0016347328676951406 0.025826591979217699 0 -0.0017162556442765033 0.023178004759569368 0 -0.0017038472254906807 0.023727827413465932 0 -0.0015962562766983063 0.023776862015680227 0 -0.0016301641917193562 0.024018133540268188 0 -0.0016754595735987716 0.024007033021015811 0 -0.0016301641917193562 0.024018133540268188 0 -0.0016808174016045201 0.024029742085768763 0 -0.0016913171883302998 0.024090057253517747 0 -0.0016301641917193562 0.024018133540268188 0 -0.0016808174016045201 0.024029742085768763 0 -0.001391068143973751 0.023805669518349299 0 -0.0013489294843418633 0.023754819209121324 0 -0.0013289203856668569 0.023665155395248664 0 -0.001391068143973751 0.023805669518349299 0 -0.0013489294843418633 0.023754819209121324 0 -0.0014355416493199433 0.023789273757789376 0 -0.0014355416493199433 0.023789273757789376 0 -0.0014960392401861535 0.023868882912523894 0 -0.001465265492923991 0.023897723740354919 0 -0.001391068143973751 0.023805669518349299 0 -0.0014355416493199433 0.023789273757789376 0 -0.001465265492923991 0.023897723740354919 0 -0.0015466463922151734 0.023837606739062586 0 -0.0014355416493199433 0.023789273757789376 0 -0.0014960392401861535 0.023868882912523894 0 -0.0015399226667801482 0.023968555553898718 0 -0.0014960392401861535 0.023868882912523894 0 -0.001465265492923991 0.023897723740354919 0 -0.001391068143973751 0.023805669518349299 0 -0.001465265492923991 0.023897723740354919 0 -0.001395502250710155 0.02387690839905348 0 -0.001465265492923991 0.023897723740354919 0 -0.0014531247972467919 0.02396025486198294 0 -0.001395502250710155 0.02387690839905348 0 -0.0015399226667801482 0.023968555553898718 0 -0.001465265492923991 0.023897723740354919 0 -0.0015030316497669648 0.024005190581714006 0 -0.001465265492923991 0.023897723740354919 0 -0.0015030316497669648 0.024005190581714006 0 -0.0014531247972467919 0.02396025486198294 0 -0.001391068143973751 0.023805669518349299 0 -0.001395502250710155 0.02387690839905348 0 -0.0013289203856668569 0.023665155395248664 0 -0.001395502250710155 0.02387690839905348 0 -0.0013512969501970153 0.023962752486523204 0 -0.0014223539038133782 0.023969119993935761 0 -0.0014531247972467919 0.02396025486198294 0 -0.001395502250710155 0.02387690839905348 0 -0.0014223539038133782 0.023969119993935761 0 -0.001395502250710155 0.02387690839905348 0 -0.0012836408106661659 0.023876051758502968 0 -0.0013289203856668569 0.023665155395248664 0 -0.001395502250710155 0.02387690839905348 0 -0.0013512969501970153 0.023962752486523204 0 -0.0012836408106661659 0.023876051758502968 0 -0.0013512969501970153 0.023962752486523204 0 -0.0014588490197538027 0.024029094358223816 0 -0.0011547982903615725 0.024089996560880914 0 -9.2980142454947795e-06 0.024303649911856962 0 -0.00010644695469756336 0.02424872796049057 0 -0.0002708995935724198 0.024271594347602461 0 -9.2980142454947795e-06 0.024303649911856962 0 6.1212687143523813e-05 0.024375379097133089 0 -0.0002708995935724198 0.024271594347602461 0 -0.00071148278779297554 0.02420819803927456 0 -0.00068854707802327541 0.024168246808906665 0 -0.0013512969501970153 0.023962752486523204 0 -0.0014223539038133782 0.023969119993935761 0 -0.0014588490197538027 0.024029094358223816 0 -9.2980142454947795e-06 0.024303649911856962 0 -3.767245737393838e-05 0.024428335611208517 0 -1.3654248325242476e-05 0.024217868106488905 0 8.4720388709004493e-05 0.024503705251102337 0 -0.00036213285692182981 0.024633283129660115 0 -0.00080930712654496276 0.024401178159445227 0 6.1212687143523813e-05 0.024375379097133089 0 -3.767245737393838e-05 0.024428335611208517 0 -0.0015785883254658291 0.024135981571933755 0 -0.0015030316497669648 0.024005190581714006 0 -0.0014588490197538027 0.024029094358223816 0 -0.0012055313429969378 0.024273047955717362 0 -0.00071148278779297554 0.02420819803927456 0 -0.0014531247972467919 0.02396025486198294 0 -0.0014223539038133782 0.023969119993935761 0 -0.0014588490197538027 0.024029094358223816 0 -0.0015030316497669648 0.024005190581714006 0 -0.0014531247972467919 0.02396025486198294 0 -0.0014588490197538027 0.024029094358223816 0 -9.2980142454947795e-06 0.024303649911856962 0 6.1212687143523813e-05 0.024375379097133089 0 -3.767245737393838e-05 0.024428335611208517 0 -0.00046456761621264649 0.024967888350632031 0 -4.786034135142501e-05 0.024971863867619192 0 -0.00016014594022773279 0.025630025940920589 0 -4.786034135142501e-05 0.024971863867619192 0 0.00047816709415688817 0.024861746372485068 0 -0.00016014594022773279 0.025630025940920589 0 -0.00036213285692182981 0.024633283129660115 0 -0.00044905262900284896 0.024697500178933348 0 -0.00046456761621264649 0.024967888350632031 0 -3.767245737393838e-05 0.024428335611208517 0 -4.786034135142501e-05 0.024971863867619192 0 -3.767245737393838e-05 0.024428335611208517 0 -4.786034135142501e-05 0.024971863867619192 0 0.00047816709415688817 0.024861746372485068 0 -0.00010644695469756336 0.02424872796049057 0 -4.4798011168299569e-05 0.024172427234935481 0 -0.00023486781268996826 0.024154293849819104 0 -0.00081289261377014751 0.024860477523002789 0 -0.00081796026154964756 0.025060713552918036 0 -0.00063862344816418832 0.025014545900224013 0 -9.0258764852106402e-05 0.024294232730445803 0 -0.00036213285692182981 0.024633283129660115 0 -9.2980142454947795e-06 0.024303649911856962 0 -0.00010644695469756336 0.02424872796049057 0 -1.3654248325242476e-05 0.024217868106488905 0 -0.00036213285692182981 0.024633283129660115 0 -2.1974615045283637e-05 0.024987795822325777 0 -0.00081796026154964756 0.025060713552918036 0 -0.00079557419758276131 0.025256158842911717 0 -0.00063862344816418832 0.025014545900224013 0 -0.00081289261377014751 0.024860477523002789 0 -0.00081796026154964756 0.025060713552918036 0 -0.0010264932443469609 0.025110858456676134 0 -0.00081796026154964756 0.025060713552918036 0 -0.00079557419758276131 0.025256158842911717 0 -0.0010264932443469609 0.025110858456676134 0 -0.00079557419758276131 0.025256158842911717 0 -0.0010025014912525296 0.025380207242707658 0 -0.0008544425952545238 0.025502951157641188 0 -0.0010025014912525296 0.025380207242707658 0 -0.0010264932443469609 0.025110858456676134 0 -0.0012364445880375665 0.025393746133438276 0 -0.00079557419758276131 0.025256158842911717 0 -0.0010025014912525296 0.025380207242707658 0 -0.0010264932443469609 0.025110858456676134 0 -0.00046456761621264649 0.024967888350632031 0 -0.00016014594022773279 0.025630025940920589 0 -0.0012393848056032448 0.025659466507569163 0 -0.00016014594022773279 0.025630025940920589 0 -0.0012393848056032448 0.025659466507569163 0 -0.00081091520562794354 0.026434323343673443 0 9.8053065178159586e-05 0.03477136410090003 0 6.2052933326539814e-05 0.034674569957787699 0 0.00018426251608180398 0.034682413223479674 0 0.00014684485174387154 0.034745946549007464 0 9.8053065178159586e-05 0.03477136410090003 0 0.00018426251608180398 0.034682413223479674 0 -0.00053690311170452283 0.03027986878994696 0 -0.00052607610282214348 0.030227054686198823 0 -0.00044905262900284896 0.024697500178933348 0 -0.00052607610282214348 0.030227054686198823 0 -0.00052607610282214348 0.030227054686198823 0 -0.0012772006873920329 0.030037579819231251 0 -0.00044972924891022626 0.035644699686876551 0 0.00022621291642237806 0.034294166957153691 0 -0.001585774530519802 0.034018786338318951 0 -0.0010025014912525296 0.025380207242707658 0 -0.0012364445880375665 0.025393746133438276 0 -0.0010756810622540374 0.025646845714903589 0 -0.00052607610282214348 0.030227054686198823 0 -0.00018811590802277528 0.036095955788326764 0 -0.00044972924891022626 0.035644699686876551 0 0.00031330468116232797 0.034578908088288778 0 0.00022621291642237806 0.034294166957153691 0 6.2052933326539814e-05 0.034674569957787699 0 0.00018426251608180398 0.034682413223479674 0 0.00031330468116232797 0.034578908088288778 0 0.00022621291642237806 0.034294166957153691 0 0.00013090128010565576 0.033286777793707839 0 0.00088479341237394677 0.032124952954065727 0 0.00022621291642237806 0.034294166957153691 0 0.00022932705982308082 0.034607871521693694 0 0.0003463818627526961 0.03476371881221902 0 0.00032740147495670141 0.034255472465455551 0 0.00049574616584524014 0.033255178136393775 0 0.00025693298624168736 0.034510710924152345 0 0.00022621291642237806 0.034294166957153691 0 0.00022932705982308082 0.034607871521693694 0 0.00031330468116232797 0.034578908088288778 0 0.00025693298624168736 0.034510710924152345 0 0.00022621291642237806 0.034294166957153691 0 0.00022621291642237806 0.034294166957153691 0 0.00013090128010565576 0.033286777793707839 0 -0.00056924068259003554 0.033326246356464154 0 0.00022621291642237806 0.034294166957153691 0 -0.00056924068259003554 0.033326246356464154 0 -0.001585774530519802 0.034018786338318951 0 -0.00056924068259003554 0.033326246356464154 0 -0.001585774530519802 0.034018786338318951 0 -0.0010048949769104131 0.032265252940237077 0 0.00013090128010565576 0.033286777793707839 0 -0.00056924068259003554 0.033326246356464154 0 -3.5137760201096286e-05 0.032795444768187444 0 -0.0012772006873920329 0.030037579819231251 0 -0.0022986546268514603 0.027787003647950309 0 -0.0010756810622540374 0.025646845714903589 0 -0.00077436587180280654 0.025737935515564359 0 -0.00093360202151871147 0.025893964865211193 0 -0.0010756810622540374 0.025646845714903589 0 -0.00077436587180280654 0.025737935515564359 0 -0.0008544425952545238 0.025502951157641188 0 -0.00077436587180280654 0.025737935515564359 0 -0.0008544425952545238 0.025502951157641188 0 -0.00061694671078057182 0.025445689700387672 0 -0.00079557419758276131 0.025256158842911717 0 -0.0008544425952545238 0.025502951157641188 0 -0.00061694671078057182 0.025445689700387672 0 -0.0010025014912525296 0.025380207242707658 0 -0.0010756810622540374 0.025646845714903589 0 -0.0008544425952545238 0.025502951157641188 0 -0.0055857258652233311 0.015999264962322689 0 -0.0044122059249615984 0.01559582812121061 0 -0.00704046718732313 0.013296114474451502 0 -0.0062493755584409486 0.013335332978555509 0 -0.0061854273046028242 0.012579744088420558 0 -0.0035486479126839864 0.019361561223319789 0 -0.0034897350697210157 0.019204608842820634 0 -0.0033283153084771168 0.019145387272393764 0 -0.0035486479126839864 0.019361561223319789 0 -0.0034897350697210157 0.019204608842820634 0 -0.0036321372946008352 0.019293995954667988 0 -0.0078953983139592489 0.014070075226349666 0 -0.00704046718732313 0.013296114474451502 0 -0.0071134979276515692 0.014079704875471015 0 -0.0036581359512594582 0.01999762869864603 0 -0.0055857258652233311 0.015999264962322689 0 -0.0037968192772744828 0.019587917471214199 0 -0.0035486479126839864 0.019361561223319789 0 -0.0036321372946008352 0.019293995954667988 0 -0.0036581359512594582 0.01999762869864603 0 -0.0021283048027013187 0.023100180387754663 0 -0.0062493755584409486 0.013335332978555509 0 -0.0061689201884885317 0.014044726079291079 0 -0.0071134979276515692 0.014079704875471015 0 -0.00704046718732313 0.013296114474451502 0 -0.0062493755584409486 0.013335332978555509 0 -0.0071134979276515692 0.014079704875471015 0 -0.0054777311917018952 0.013171799369229142 0 -0.0062493755584409486 0.013335332978555509 0 -0.0061689201884885317 0.014044726079291079 0 -0.0054777311917018952 0.013171799369229142 0 -0.005370802013262667 0.01426798125048 0 -0.0061689201884885317 0.014044726079291079 0 -0.0054777311917018952 0.013171799369229142 0 -0.0047586730424540062 0.013746972578423867 0 -0.005370802013262667 0.01426798125048 0 -0.0044254658683911124 0.013657215695050877 0 -0.0039970661494988661 0.014193160882850213 0 -0.0031037152725190728 0.014658447025835398 0 -0.0031261329265842392 0.014866887327835736 0 -0.003275028577799897 0.014725141023073429 0 -0.0044254658683911124 0.013657215695050877 0 -0.0044122059249615984 0.01559582812121061 0 -0.0054777311917018952 0.013171799369229142 0 -0.0062493755584409486 0.013335332978555509 0 -0.0061854273046028242 0.012579744088420558 0 -0.0031037152725190728 0.014658447025835398 0 -0.0028788686557246531 0.014869518831014984 0 -0.0029718751025148951 0.014955965470701531 0 -0.0044122059249615984 0.01559582812121061 0 -0.0029794215938439088 0.014710837547041968 0 -0.0028987759880487064 0.014909092575038169 0 -0.0029718751025148951 0.014955965470701531 0 -0.002869338343738646 0.015035761623104358 0 -0.0031037152725190728 0.014658447025835398 0 -0.0029718751025148951 0.014955965470701531 0 -0.0031261329265842392 0.014866887327835736 0 -0.0029718751025148951 0.014955965470701531 0 -0.0031261329265842392 0.014866887327835736 0 -0.003077765529902729 0.015047215920251808 0 -0.0031261329265842392 0.014866887327835736 0 -0.003077765529902729 0.015047215920251808 0 -0.0032015545807109243 0.014943503973975775 0 -0.003077765529902729 0.015047215920251808 0 -0.0032098052552730193 0.015087401997033935 0 -0.0032015545807109243 0.014943503973975775 0 -0.003077765529902729 0.015047215920251808 0 -0.0030143942856280938 0.015205478698337577 0 -0.0031355192068273181 0.015201771894300001 0 -0.003077765529902729 0.015047215920251808 0 -0.0031355192068273181 0.015201771894300001 0 -0.0032098052552730193 0.015087401997033935 0 -0.0029271189957638488 0.015144617868122191 0 -0.0027374015164362462 0.01507813332062234 0 -0.0028952976264782848 0.015313328981044557 0 -0.002869338343738646 0.015035761623104358 0 -0.0029271189957638488 0.015144617868122191 0 -0.0027374015164362462 0.01507813332062234 0 -0.0029718751025148951 0.014955965470701531 0 -0.002869338343738646 0.015035761623104358 0 -0.0029271189957638488 0.015144617868122191 0 -0.0029718751025148951 0.014955965470701531 0 -0.003077765529902729 0.015047215920251808 0 -0.0029271189957638488 0.015144617868122191 0 -0.003077765529902729 0.015047215920251808 0 -0.0029271189957638488 0.015144617868122191 0 -0.0030143942856280938 0.015205478698337577 0 -0.00038277712269661518 0.023849532749737414 0 -0.00033468311121640605 0.024069110866913868 0 -0.00045129021568992385 0.024157058145432984 0 -0.0017068307328013108 0.020718942616504005 0 -0.0016050122613474375 0.019495982428846273 0 -0.0044122059249615984 0.01559582812121061 0 -0.0017068307328013108 0.020718942616504005 0 -0.0034897350697210157 0.019204608842820634 0 -0.0033283153084771168 0.019145387272393764 0 -0.0034752449756092663 0.019029275265677513 0 -0.0028987759880487064 0.014909092575038169 0 -0.002869338343738646 0.015035761623104358 0 -0.0027374015164362462 0.01507813332062234 0 -0.0034897350697210157 0.019204608842820634 0 -0.0036321372946008352 0.019293995954667988 0 -0.0034752449756092663 0.019029275265677513 0 -0.0021283048027013187 0.023100180387754663 0 -0.0017068307328013108 0.020718942616504005 0 -0.00079557419758276131 0.025256158842911717 0 -0.00061694671078057182 0.025445689700387672 0 -0.00047135314854713161 0.025145275756116667 0 -0.00038277712269661518 0.023849532749737414 0 -0.00021732709864876867 0.024012382478003653 0 -0.00033468311121640605 0.024069110866913868 0 -0.00079557419758276131 0.025256158842911717 0 -0.00047135314854713161 0.025145275756116667 0 -0.00063862344816418832 0.025014545900224013 0 -0.0017068307328013108 0.020718942616504005 0 -2.1974615045283637e-05 0.024987795822325777 0 -4.4798011168299569e-05 0.024172427234935481 0 -0.00021732709864876867 0.024012382478003653 0 -0.00023486781268996826 0.024154293849819104 0 -0.00021732709864876867 0.024012382478003653 0 -0.00023486781268996826 0.024154293849819104 0 -0.00033468311121640605 0.024069110866913868 0 -0.00023486781268996826 0.024154293849819104 0 -0.0003635298468009826 0.02415043967928631 0 -0.0002708995935724198 0.024271594347602461 0 -0.00033468311121640605 0.024069110866913868 0 -0.0003635298468009826 0.02415043967928631 0 -0.00045129021568992385 0.024157058145432984 0 -0.00023486781268996826 0.024154293849819104 0 -0.00033468311121640605 0.024069110866913868 0 -0.0003635298468009826 0.02415043967928631 0 -0.0003635298468009826 0.02415043967928631 0 -0.00040236734693655055 0.024061019849481315 0 -0.00045129021568992385 0.024157058145432984 0 -0.0011547982903615725 0.024089996560880914 0 -0.00077010448174972667 0.023870524173600902 0 -0.00040236734693655055 0.024061019849481315 0 -0.0003635298468009826 0.02415043967928631 0 -0.0002708995935724198 0.024271594347602461 0 -0.00040236734693655055 0.024061019849481315 0 -0.00068854707802327541 0.024168246808906665 0 -0.00041850635646467556 0.024086337623189624 0 -0.00077010448174972667 0.023870524173600902 0 -0.00047093650731753968 0.023783160444863241 0 -0.00040236734693655055 0.024061019849481315 0 -0.0011547982903615725 0.024089996560880914 0 -0.0010693592850893388 0.02375923049952481 0 -0.00077010448174972667 0.023870524173600902 0 -0.00010644695469756336 0.02424872796049057 0 -0.00023486781268996826 0.024154293849819104 0 -0.0002708995935724198 0.024271594347602461 0 -0.0013512969501970153 0.023962752486523204 0 -0.0011547982903615725 0.024089996560880914 0 -0.0012836408106661659 0.023876051758502968 0 -0.0011547982903615725 0.024089996560880914 0 -0.0012836408106661659 0.023876051758502968 0 -0.0010693592850893388 0.02375923049952481 0 -0.0012836408106661659 0.023876051758502968 0 -0.0013289203856668569 0.023665155395248664 0 -0.0010693592850893388 0.02375923049952481 0 -0.0013289203856668569 0.023665155395248664 0 -0.0010693592850893388 0.02375923049952481 0 -0.0010187066476044077 0.023335901515211331 0 -0.0010693592850893388 0.02375923049952481 0 -0.00077010448174972667 0.023870524173600902 0 -0.00075354375023757168 0.023590636589929236 0 -0.00077010448174972667 0.023870524173600902 0 -0.00075354375023757168 0.023590636589929236 0 -0.00047093650731753968 0.023783160444863241 0 -0.0010693592850893388 0.02375923049952481 0 -0.00075354375023757168 0.023590636589929236 0 -0.0010187066476044077 0.023335901515211331 0 -0.00075354375023757168 0.023590636589929236 0 -0.0010187066476044077 0.023335901515211331 0 -0.00069517977170377313 0.023198346872966322 0 -0.00075354375023757168 0.023590636589929236 0 -0.00069517977170377313 0.023198346872966322 0 -0.00031875656828207874 0.023445271107510227 0 -0.00095327706589848826 0.022812629433440233 0 -0.00061686402547000659 0.022891204715051398 0 -0.00069517977170377313 0.023198346872966322 0 -0.00095327706589848826 0.022812629433440233 0 -0.0010187066476044077 0.023335901515211331 0 -0.00069517977170377313 0.023198346872966322 0 -0.0012766312410369123 0.022773393340064799 0 -0.00095327706589848826 0.022812629433440233 0 -0.0010187066476044077 0.023335901515211331 0 -0.0013915127029206446 0.023770257256308019 0 -0.0013489294843418633 0.023754819209121324 0 -0.0013289203856668569 0.023665155395248664 0 -0.0012766312410369123 0.022773393340064799 0 -0.0013289203856668569 0.023665155395248664 0 -0.0010187066476044077 0.023335901515211331 0 -0.0011758958933265314 0.023324683226271684 0 -0.0013671194571273806 0.02361054678753742 0 0.00045865628732555814 0.02305649431415964 0 -0.00028599686466137912 0.022968274775265099 0 -0.00031875656828207874 0.023445271107510227 0 -0.00061686402547000659 0.022891204715051398 0 -0.00069517977170377313 0.023198346872966322 0 -0.00028599686466137912 0.022968274775265099 0 -0.00069517977170377313 0.023198346872966322 0 -0.00028599686466137912 0.022968274775265099 0 -0.00031875656828207874 0.023445271107510227 0 -0.00075354375023757168 0.023590636589929236 0 -0.00031875656828207874 0.023445271107510227 0 -0.00047093650731753968 0.023783160444863241 0 -0.00031875656828207874 0.023445271107510227 0 -0.00047093650731753968 0.023783160444863241 0 -0.00011602808301147041 0.023870264147964084 0 -0.0031009833703818405 0.015598721040314865 0 -0.0030389901418270263 0.015481116529039525 0 -0.0031981583021645633 0.0154651183719175 0 0.00045865628732555814 0.02305649431415964 0 -0.00031875656828207874 0.023445271107510227 0 -0.00011602808301147041 0.023870264147964084 0 -0.0014257811574093211 0.02016731530581975 0 -0.0015411742235191782 0.019540867768055172 0 -0.0030389901418270263 0.015481116529039525 0 -0.0031268596322939599 0.01535716533299363 0 -0.003185303505269522 0.015401799011233426 0 -0.0030389901418270263 0.015481116529039525 0 -0.0031268596322939599 0.01535716533299363 0 -0.0030397352224169776 0.015305540274945996 0 -0.0015411742235191782 0.019540867768055172 0 -0.0016050122613474375 0.019495982428846273 0 -0.0030389901418270263 0.015481116529039525 0 -0.0028952976264782848 0.015313328981044557 0 -0.0030397352224169776 0.015305540274945996 0 -0.00011602808301147041 0.023870264147964084 0 -0.00040236734693655055 0.024061019849481315 0 -0.00045129021568992385 0.024157058145432984 0 -0.00047093650731753968 0.023783160444863241 0 -0.00011602808301147041 0.023870264147964084 0 -0.00040236734693655055 0.024061019849481315 0 -0.0029271189957638488 0.015144617868122191 0 -0.0028952976264782848 0.015313328981044557 0 -0.0030143942856280938 0.015205478698337577 0 -0.0028952976264782848 0.015313328981044557 0 -0.0030397352224169776 0.015305540274945996 0 -0.0030143942856280938 0.015205478698337577 0 -0.0031268596322939599 0.01535716533299363 0 -0.0030397352224169776 0.015305540274945996 0 -0.0031355192068273181 0.015201771894300001 0 -0.0030397352224169776 0.015305540274945996 0 -0.0030143942856280938 0.015205478698337577 0 -0.0031355192068273181 0.015201771894300001 0 -0.0032489657710217056 0.015193260082557605 0 -0.0032849658328066231 0.01534038004720056 0 -0.003398200115890382 0.015040393951737317 0 -0.0031268596322939599 0.01535716533299363 0 -0.0031355192068273181 0.015201771894300001 0 -0.0032030194941228616 0.015297061775216902 0 -0.0031355192068273181 0.015201771894300001 0 -0.0032489657710217056 0.015193260082557605 0 -0.0032030194941228616 0.015297061775216902 0 -0.0032489657710217056 0.015193260082557605 0 -0.0032030194941228616 0.015297061775216902 0 -0.0032849658328066231 0.01534038004720056 0 -0.003270370304341858 0.015124601913020912 0 -0.0033746254641349571 0.014846740019624566 0 -0.0033615960795296482 0.014839290247786604 0 -0.0032460984816789469 0.014899856580547212 0 -0.0033647979976318501 0.014652941183416316 0 -0.003412250587292357 0.014788823809063491 0 -0.0033615960795296482 0.014839290247786604 0 -0.0033647979976318501 0.014652941183416316 0 -0.0033615960795296482 0.014839290247786604 0 -0.0034099484907777087 0.014947739703732376 0 -0.0032460984816789469 0.014899856580547212 0 -0.003412250587292357 0.014788823809063491 0 -0.0033615960795296482 0.014839290247786604 0 -0.0034531302419667205 0.014937231567249432 0 -0.0034099484907777087 0.014947739703732376 0 -0.0033770044348437138 0.015395236011560488 0 -0.0035010344347740337 0.014951973968115142 0 -0.00085891778107956404 0.0097908533091731267 0 -0.00081012601534910414 0.0097993116851470934 0 -0.00082527843198197171 0.009842108547249321 0 -0.0034099484907777087 0.014947739703732376 0 -0.0032460984816789469 0.014899856580547212 0 -0.0033770044348437138 0.015395236011560488 0 -0.0020664140154402506 0.012720660725234064 0 -0.0023242157811362439 0.012144397552680092 0 -0.0033615960795296482 0.014839290247786604 0 -0.0034099484907777087 0.014947739703732376 0 -0.0034531302419667205 0.014937231567249432 0 -0.0030028605360109019 0.012695908393507208 0 -0.0023242157811362439 0.012144397552680092 0 -0.003270370304341858 0.015124601913020912 0 -0.003203373023692974 0.01544102873215388 0 -0.0032849658328066231 0.01534038004720056 0 -0.003185303505269522 0.015401799011233426 0 -0.0031981583021645633 0.0154651183719175 0 -0.0031268596322939599 0.01535716533299363 0 -0.0032030194941228616 0.015297061775216902 0 -0.003185303505269522 0.015401799011233426 0 -0.0032030194941228616 0.015297061775216902 0 -0.0032849658328066231 0.01534038004720056 0 -0.003185303505269522 0.015401799011233426 0 -0.0030389901418270263 0.015481116529039525 0 -0.003185303505269522 0.015401799011233426 0 -0.0031981583021645633 0.0154651183719175 0 -0.0032460984816789469 0.014899856580547212 0 -0.0031981583021645633 0.0154651183719175 0 -0.0033770044348437138 0.015395236011560488 0 -0.00085891778107956404 0.0097908533091731267 0 -0.00080545961374102742 0.0097619135168732947 0 -0.00081012601534910414 0.0097993116851470934 0 -0.00085891778107956404 0.0097908533091731267 0 -0.00079094419696180279 0.0096809540690463436 0 -0.00080545961374102742 0.0097619135168732947 0 -0.00085891778107956404 0.0097908533091731267 0 -0.00079094419696180279 0.0096809540690463436 0 -0.00097930630183887604 0.009528376808078512 0 -0.0020664140154402506 0.012720660725234064 0 -0.0022577531029338445 0.012121192532575112 0 -0.0031981583021645633 0.0154651183719175 0 -0.0033770044348437138 0.015395236011560488 0 -0.0032328192040988087 0.015609887207887875 0 -0.00075128401149564196 0.0093956299308149051 0 -0.00079094419696180279 0.0096809540690463436 0 -0.00097930630183887604 0.009528376808078512 0 -0.0031009833703818405 0.015598721040314865 0 -0.0031981583021645633 0.0154651183719175 0 -0.0032328192040988087 0.015609887207887875 0 1.7533741242893986e-05 0.0096258539115159636 0 -0.00024044984903255666 0.009784345352583235 0 -0.00024887118562391919 0.0095643991918191278 0 -0.00051786482892564464 0.0094799695839969736 0 -0.00024044984903255666 0.009784345352583235 0 -0.00024887118562391919 0.0095643991918191278 0 -0.00077811327132596927 0.009690437728422107 0 -0.00049437694615237534 0.0097580672244914485 0 -0.00051786482892564464 0.0094799695839969736 0 -0.00079094419696180279 0.0096809540690463436 0 -0.00024044984903255666 0.009784345352583235 0 -0.00051786482892564464 0.0094799695839969736 0 -0.00075128401149564196 0.0093956299308149051 0 -0.00079094419696180279 0.0096809540690463436 0 -0.00079094419696180279 0.0096809540690463436 0 -0.00074594059989236024 0.0097386543201514013 0 -0.00077299106969990795 0.0097623309849171301 0 -0.00079094419696180279 0.0096809540690463436 0 -0.00080545961374102742 0.0097619135168732947 0 -0.00077299106969990795 0.0097623309849171301 0 -0.00080545961374102742 0.0097619135168732947 0 -0.00081012601534910414 0.0097993116851470934 0 -0.00077299106969990795 0.0097623309849171301 0 -0.00077299106969990795 0.0097623309849171301 0 -0.00075400544127816047 0.0097596671637506464 0 -0.00075706526966983563 0.0097929029875377435 0 -0.00074594059989236024 0.0097386543201514013 0 -0.00077299106969990795 0.0097623309849171301 0 -0.00075400544127816047 0.0097596671637506464 0 -0.00074313879163012382 0.0097506293648437041 0 -0.00074594059989236024 0.0097386543201514013 0 -0.00075400544127816047 0.0097596671637506464 0 -0.00074313879163012382 0.0097506293648437041 0 -0.00075400544127816047 0.0097596671637506464 0 -0.00075706526966983563 0.0097929029875377435 0 -0.00081012601534910414 0.0097993116851470934 0 -0.00077299106969990795 0.0097623309849171301 0 -0.00075706526966983563 0.0097929029875377435 0 -0.00081012601534910414 0.0097993116851470934 0 -0.00075706526966983563 0.0097929029875377435 0 -0.00082527843198197171 0.009842108547249321 0 -0.0019040333142632125 0.0098751317178045681 0 -0.0025417360993973881 0.0099657569080814044 0 -0.0021800220887567916 0.010210766342459768 0 -0.0011696500075207136 0.0096045473795634707 0 -0.0023242157811362439 0.012144397552680092 0 -0.003412250587292357 0.014788823809063491 0 -0.0034531302419667205 0.014937231567249432 0 -0.003465288563216195 0.014686882337588648 0 -0.0025417360993973881 0.0099657569080814044 0 -0.0021800220887567916 0.010210766342459768 0 -0.0023439528343021892 0.010615222739326489 0 -0.0023242157811362439 0.012144397552680092 0 -0.0029739432687909168 0.012776627039191385 0 -0.0021800220887567916 0.010210766342459768 0 -0.0019301315654876177 0.010388080443408627 0 -0.0023439528343021892 0.010615222739326489 0 -0.0019040333142632125 0.0098751317178045681 0 -0.0021800220887567916 0.010210766342459768 0 -0.0019301315654876177 0.010388080443408627 0 -0.0014586727732250739 0.01029177241111319 0 -0.0019040333142632125 0.0098751317178045681 0 -0.0019301315654876177 0.010388080443408627 0 -0.0015273419483868157 0.010845598402938427 0 -0.0017184734736105291 0.010582241571039912 0 -0.0019574999148840272 0.010805571969904074 0 -0.0017184734736105291 0.010582241571039912 0 -0.0019301315654876177 0.010388080443408627 0 -0.0019574999148840272 0.010805571969904074 0 -0.0019301315654876177 0.010388080443408627 0 -0.0019574999148840272 0.010805571969904074 0 -0.0023439528343021892 0.010615222739326489 0 -0.0021770306444631217 0.010921273797482272 0 -0.0021997831239227118 0.010417712706871802 0 -0.003002126359004344 0.010977740699693116 0 -0.0015273419483868157 0.010845598402938427 0 -0.0019574999148840272 0.010805571969904074 0 -0.0021418273800274086 0.01129755167757431 0 -0.0017653034240180533 0.010397288438856124 0 -0.0027536839145397749 0.012573779998535137 0 -0.0034534480746846482 0.014605960088391838 0 -0.0034373287442979097 0.014640676528113808 0 -0.003465288563216195 0.014686882337588648 0 -0.0019574999148840272 0.010805571969904074 0 -0.0021418273800274086 0.01129755167757431 0 -0.0023439528343021892 0.010615222739326489 0 -0.0027536839145397749 0.012573779998535137 0 -0.0029739432687909168 0.012776627039191385 0 -0.0034199189925329934 0.014627584334238662 0 -0.0034386737366652212 0.014622392870259519 0 -0.0034475302010132983 0.014608478203701238 0 -0.0034199189925329934 0.014627584334238662 0 -0.0034386737366652212 0.014622392870259519 0 -0.0034373287442979097 0.014640676528113808 0 -0.0034534480746846482 0.014605960088391838 0 -0.0034386737366652212 0.014622392870259519 0 -0.0034373287442979097 0.014640676528113808 0 -0.0034534480746846482 0.014605960088391838 0 -0.0034386737366652212 0.014622392870259519 0 -0.0034475302010132983 0.014608478203701238 0 -0.0034373287442979097 0.014640676528113808 0 -0.003465288563216195 0.014686882337588648 0 -0.0033647979976318501 0.014652941183416316 0 -0.003412250587292357 0.014788823809063491 0 -0.003465288563216195 0.014686882337588648 0 -0.0033647979976318501 0.014652941183416316 0 -0.0032489657710217056 0.015193260082557605 0 -0.003398200115890382 0.015040393951737317 0 -0.0032098052552730193 0.015087401997033935 0 -0.003398200115890382 0.015040393951737317 0 -0.0032098052552730193 0.015087401997033935 0 -0.0032015545807109243 0.014943503973975775 0 -0.0031355192068273181 0.015201771894300001 0 -0.0032489657710217056 0.015193260082557605 0 -0.0032098052552730193 0.015087401997033935 0 -0.003398200115890382 0.015040393951737317 0 -0.0032015545807109243 0.014943503973975775 0 -0.003275028577799897 0.014725141023073429 0 -0.0031261329265842392 0.014866887327835736 0 -0.0032015545807109243 0.014943503973975775 0 -0.003275028577799897 0.014725141023073429 0 -0.003398200115890382 0.015040393951737317 0 -0.0034148340014621046 0.014640510574325218 0 -0.003275028577799897 0.014725141023073429 0 -0.0033746254641349571 0.014846740019624566 0 -0.0034136901709878658 0.014655488111699276 0 -0.0034199189925329934 0.014627584334238662 0 -0.0034373287442979097 0.014640676528113808 0 -0.0033647979976318501 0.014652941183416316 0 -0.0034199189925329934 0.014627584334238662 0 -0.0033647979976318501 0.014652941183416316 0 -0.0034148340014621046 0.014640510574325218 0 -0.0034148340014621046 0.014640510574325218 0 -0.003275028577799897 0.014725141023073429 0 -0.0033879292756776426 0.014569569394068478 0 -0.0034199189925329934 0.014627584334238662 0 -0.0034148340014621046 0.014640510574325218 0 -0.0034265309666249625 0.014603605278343788 0 -0.0034148340014621046 0.014640510574325218 0 -0.0033879292756776426 0.014569569394068478 0 -0.0034048944011625332 0.014542484362457803 0 -0.0031037152725190728 0.014658447025835398 0 -0.003275028577799897 0.014725141023073429 0 -0.0033187816226140153 0.014534523892826966 0 -0.003275028577799897 0.014725141023073429 0 -0.0033187816226140153 0.014534523892826966 0 -0.0033879292756776426 0.014569569394068478 0 -0.0033187816226140153 0.014534523892826966 0 -0.0033879292756776426 0.014569569394068478 0 -0.003430541111744644 0.014596427908693648 0 -0.0033879292756776426 0.014569569394068478 0 -0.0034048944011625332 0.014542484362457803 0 -0.003430541111744644 0.014596427908693648 0 -0.0033115357548379209 0.014523133153921595 0 -0.0034048944011625332 0.014542484362457803 0 -0.0032724017750207259 0.014402429037991866 0 -0.0033115357548379209 0.014523133153921595 0 -0.0034048944011625332 0.014542484362457803 0 -0.0033577947321579947 0.01458482800712386 0 -0.003369319861244959 0.013400395893438622 0 -0.0032298535490445975 0.012891502920934364 0 -0.0027904529452111165 0.011630369445270386 0 -0.0035019619060046403 0.012270549126672645 0 -0.0037647940840266794 0.011286723247159222 0 -0.0033115357548379209 0.014523133153921595 0 -0.0031841989106258265 0.014552824478434954 0 -0.0033577947321579947 0.01458482800712386 0 -0.0033115357548379209 0.014523133153921595 0 -0.0031841989106258265 0.014552824478434954 0 -0.0032724017750207259 0.014402429037991866 0 -0.0021770306444631217 0.010921273797482272 0 -0.003002126359004344 0.010977740699693116 0 -0.0028861281962741844 0.011354045357824296 0 -0.0024270433318473472 0.010680429945398437 0 -0.0032298535490445975 0.012891502920934364 0 -0.0034580763976309061 0.014612037440422629 0 -0.0034763476065947105 0.014581706355326358 0 -0.0034475302010132983 0.014608478203701238 0 -0.0027536839145397749 0.012573779998535137 0 -0.0032298535490445975 0.012891502920934364 0 -0.0034048944011625332 0.014542484362457803 0 -0.0034763476065947105 0.014581706355326358 0 -0.0034265309666249625 0.014603605278343788 0 -0.0027536839145397749 0.012573779998535137 0 -0.0033647676071513095 0.013268154584493519 0 -0.0036444143757647712 0.014775846585757445 0 -0.0032298535490445975 0.012891502920934364 0 -0.0034763476065947105 0.014581706355326358 0 -0.0034475302010132983 0.014608478203701238 0 -0.0034265309666249625 0.014603605278343788 0 -0.0034199189925329934 0.014627584334238662 0 -0.0034475302010132983 0.014608478203701238 0 -0.0034265309666249625 0.014603605278343788 0 -0.0034148340014621046 0.014640510574325218 0 -0.0034048944011625332 0.014542484362457803 0 -0.0034265309666249625 0.014603605278343788 0 -0.0033892078074361587 0.01478469401641732 0 -0.0037291210857605572 0.014455610713988055 0 -0.0030342220553195107 0.014738123807258346 0 -0.003375825049543322 0.014804654852926856 0 -0.0033577947321579947 0.01458482800712386 0 -0.0030342220553195107 0.014738123807258346 0 -0.003375825049543322 0.014804654852926856 0 -0.00303912106107729 0.014875066164084407 0 -0.0030342220553195107 0.014738123807258346 0 -0.0031841989106258265 0.014552824478434954 0 -0.0033577947321579947 0.01458482800712386 0 -0.0031197453017595372 0.014086782264300376 0 -0.003369319861244959 0.013400395893438622 0 -0.0034048944011625332 0.014542484362457803 0 -0.0033577947321579947 0.01458482800712386 0 -0.003430541111744644 0.014596427908693648 0 -0.003375825049543322 0.014804654852926856 0 -0.0033577947321579947 0.01458482800712386 0 -0.003430541111744644 0.014596427908693648 0 -0.0039970661494988661 0.014193160882850213 0 -0.0037291210857605572 0.014455610713988055 0 -0.0047586730424540062 0.013746972578423867 0 -0.0048187038613868903 0.014844020945965689 0 -0.005370802013262667 0.01426798125048 0 -0.0047586730424540062 0.013746972578423867 0 -0.004040821253741428 0.014306070218227235 0 -0.0048187038613868903 0.014844020945965689 0 -0.004040821253741428 0.014306070218227235 0 -0.0048187038613868903 0.014844020945965689 0 -0.0040880770351497909 0.015028260860227035 0 -0.003375825049543322 0.014804654852926856 0 -0.004040821253741428 0.014306070218227235 0 -0.0040880770351497909 0.015028260860227035 0 -0.0040880770351497909 0.015028260860227035 0 -0.0044412147072159453 0.015664274894708636 0 -0.0037345834951752971 0.01548358557918475 0 -0.0048187038613868903 0.014844020945965689 0 -0.0044412147072159453 0.015664274894708636 0 -0.0052479027240973719 0.015758499202142524 0 -0.0048187038613868903 0.014844020945965689 0 -0.0040880770351497909 0.015028260860227035 0 -0.0044412147072159453 0.015664274894708636 0 -0.0044412147072159453 0.015664274894708636 0 -0.0047765263800677712 0.016449292451448348 0 -0.0040917098651595046 0.016354959680881763 0 -0.0044412147072159453 0.015664274894708636 0 -0.0047765263800677712 0.016449292451448348 0 -0.0052479027240973719 0.015758499202142524 0 -0.0044412147072159453 0.015664274894708636 0 -0.0037345834951752971 0.01548358557918475 0 -0.0040917098651595046 0.016354959680881763 0 -0.0034488172128920407 0.015867594006211433 0 -0.0037345834951752971 0.01548358557918475 0 -0.0031660457702389596 0.015256240081067936 0 -0.0034488172128920407 0.015867594006211433 0 -0.0037345834951752971 0.01548358557918475 0 -0.0040917098651595046 0.016354959680881763 0 -0.003375825049543322 0.014804654852926856 0 -0.0037345834951752971 0.01548358557918475 0 -0.0031660457702389596 0.015256240081067936 0 -0.003375825049543322 0.014804654852926856 0 -0.0040880770351497909 0.015028260860227035 0 -0.0037345834951752971 0.01548358557918475 0 -0.0027800560614402552 0.014798671234939647 0 -0.00303912106107729 0.014875066164084407 0 -0.0031660457702389596 0.015256240081067936 0 -0.003375825049543322 0.014804654852926856 0 -0.00303912106107729 0.014875066164084407 0 -0.0031660457702389596 0.015256240081067936 0 -0.0027800560614402552 0.014798671234939647 0 -0.0031660457702389596 0.015256240081067936 0 -0.0029205375134330799 0.015382007539661941 0 -0.0031660457702389596 0.015256240081067936 0 -0.0029205375134330799 0.015382007539661941 0 -0.0030972048662684759 0.015832606577984455 0 -0.0034488172128920407 0.015867594006211433 0 -0.0031660457702389596 0.015256240081067936 0 -0.0030972048662684759 0.015832606577984455 0 -0.0027532330191797042 0.015779609085283672 0 -0.0029205375134330799 0.015382007539661941 0 -0.0030972048662684759 0.015832606577984455 0 -0.0030972048662684759 0.015832606577984455 0 -0.0029036804688033872 0.016068725771023022 0 -0.0030839706356944269 0.016255753025614366 0 -0.0027532330191797042 0.015779609085283672 0 -0.0030972048662684759 0.015832606577984455 0 -0.0029036804688033872 0.016068725771023022 0 -0.0030972048662684759 0.015832606577984455 0 -0.0033100371972856176 0.016238348735216436 0 -0.0030839706356944269 0.016255753025614366 0 -0.0034488172128920407 0.015867594006211433 0 -0.0030972048662684759 0.015832606577984455 0 -0.0033100371972856176 0.016238348735216436 0 -0.0033100371972856176 0.016238348735216436 0 -0.003213282772867151 0.016430331023407088 0 -0.0030839706356944269 0.016255753025614366 0 -0.0033100371972856176 0.016238348735216436 0 -0.003213282772867151 0.016430331023407088 0 -0.0033929148766482513 0.01654313617917158 0 -0.003213282772867151 0.016430331023407088 0 -0.0030839706356944269 0.016255753025614366 0 -0.0030377997303237397 0.016462878916024919 0 -0.0028802866248431114 0.016330124756777694 0 -0.0030839706356944269 0.016255753025614366 0 -0.0030377997303237397 0.016462878916024919 0 -0.0028802866248431114 0.016330124756777694 0 -0.0029036804688033872 0.016068725771023022 0 -0.0030839706356944269 0.016255753025614366 0 -0.0034488172128920407 0.015867594006211433 0 -0.0036278261908019318 0.016444330023776713 0 -0.0040917098651595046 0.016354959680881763 0 -0.0034488172128920407 0.015867594006211433 0 -0.0033100371972856176 0.016238348735216436 0 -0.0036278261908019318 0.016444330023776713 0 -0.0033100371972856176 0.016238348735216436 0 -0.0033929148766482513 0.01654313617917158 0 -0.0036278261908019318 0.016444330023776713 0 -0.0036278261908019318 0.016444330023776713 0 -0.0036601061101324221 0.016807147044748189 0 -0.0039018512469617358 0.01673567956829123 0 -0.0033929148766482513 0.01654313617917158 0 -0.0036278261908019318 0.016444330023776713 0 -0.0036601061101324221 0.016807147044748189 0 -0.0036601061101324221 0.016807147044748189 0 -0.0030944349595429534 0.016837217405183597 0 -0.0037936137274180602 0.017189447321071138 0 -0.0033929148766482513 0.01654313617917158 0 -0.0036601061101324221 0.016807147044748189 0 -0.0032321522823745325 0.016655795324632454 0 -0.0030553274795893674 0.016853102121209509 0 -0.0030944349595429534 0.016837217405183597 0 -0.0037936137274180602 0.017189447321071138 0 -0.0036601061101324221 0.016807147044748189 0 -0.0032321522823745325 0.016655795324632454 0 -0.0030944349595429534 0.016837217405183597 0 -0.0030491824581629599 0.016611801170564905 0 -0.0029389563287085512 0.016597612581142715 0 -0.0029287599727545683 0.016470944219003362 0 -0.0030491824581629599 0.016611801170564905 0 -0.0030108580019707083 0.016689039404117676 0 -0.0030870497050968036 0.016716571766179206 0 -0.0030491824581629599 0.016611801170564905 0 -0.0029389563287085512 0.016597612581142715 0 -0.0030108580019707083 0.016689039404117676 0 -0.0028037381437923999 0.016639471550084738 0 -0.0029389563287085512 0.016597612581142715 0 -0.0030108580019707083 0.016689039404117676 0 -0.0028037381437923999 0.016639471550084738 0 -0.0028128096399575807 0.016482049622892611 0 -0.0029389563287085512 0.016597612581142715 0 -0.0028128096399575807 0.016482049622892611 0 -0.0029389563287085512 0.016597612581142715 0 -0.0029287599727545683 0.016470944219003362 0 -0.0028802866248431114 0.016330124756777694 0 -0.0029287599727545683 0.016470944219003362 0 -0.0030377997303237397 0.016462878916024919 0 -0.0028128096399575807 0.016482049622892611 0 -0.0028802866248431114 0.016330124756777694 0 -0.0029287599727545683 0.016470944219003362 0 -0.0030491824581629599 0.016611801170564905 0 -0.0029287599727545683 0.016470944219003362 0 -0.0030377997303237397 0.016462878916024919 0 -0.003213282772867151 0.016430331023407088 0 -0.0030377997303237397 0.016462878916024919 0 -0.0032321522823745325 0.016655795324632454 0 -0.003213282772867151 0.016430331023407088 0 -0.0033929148766482513 0.01654313617917158 0 -0.0032321522823745325 0.016655795324632454 0 -0.0030491824581629599 0.016611801170564905 0 -0.0030377997303237397 0.016462878916024919 0 -0.0032321522823745325 0.016655795324632454 0 -0.0030491824581629599 0.016611801170564905 0 -0.0032321522823745325 0.016655795324632454 0 -0.0030870497050968036 0.016716571766179206 0 -0.0032321522823745325 0.016655795324632454 0 -0.0030944349595429534 0.016837217405183597 0 -0.0030870497050968036 0.016716571766179206 0 -0.0027299573422874578 0.016373904918241949 0 -0.0027437061464150717 0.016383677003902392 0 -0.0030384998981863721 0.016865468791524993 0 -0.0030944349595429534 0.016837217405183597 0 -0.0030279645154269873 0.016759058983604812 0 -0.0030944349595429534 0.016837217405183597 0 -0.0030279645154269873 0.016759058983604812 0 -0.0030870497050968036 0.016716571766179206 0 -0.0030384998981863721 0.016865468791524993 0 -0.0030279645154269873 0.016759058983604812 0 -0.0030108580019707083 0.016689039404117676 0 -0.0030279645154269873 0.016759058983604812 0 -0.0030108580019707083 0.016689039404117676 0 -0.0030870497050968036 0.016716571766179206 0 -0.0028037381437923999 0.016639471550084738 0 -0.0030384998981863721 0.016865468791524993 0 -0.0030108580019707083 0.016689039404117676 0 -0.0025059576411555445 0.015860753120283171 0 -0.0024817032068344264 0.015898809631430928 0 -0.0025333013992269587 0.015893706664782559 0 -0.0024817032068344264 0.015898809631430928 0 -0.002529710117724523 0.015916895211188813 0 -0.0025333013992269587 0.015893706664782559 0 -0.0024700494974809451 0.015925817812266867 0 -0.0024817032068344264 0.015898809631430928 0 -0.002529710117724523 0.015916895211188813 0 -0.0024700494974809451 0.015925817812266867 0 -0.002529710117724523 0.015916895211188813 0 -0.0025339315497712881 0.015970196489274113 0 -0.0039375696223791692 0.017994298702216291 0 -0.0035426462706377349 0.017721587493013634 0 -0.002529710117724523 0.015916895211188813 0 -0.0025333013992269587 0.015893706664782559 0 -0.0026437101360129952 0.015907330711778064 0 -0.0025059576411555445 0.015860753120283171 0 -0.0025333013992269587 0.015893706664782559 0 -0.0026437101360129952 0.015907330711778064 0 -0.0027299573422874578 0.016373904918241949 0 -0.0035426462706377349 0.017721587493013634 0 -0.002529710117724523 0.015916895211188813 0 -0.0025339315497712881 0.015970196489274113 0 -0.0026437101360129952 0.015907330711778064 0 -0.0052298065721835532 0.019977663660000314 0 -0.0051744226123655382 0.020005562453495766 0 -0.0051715420245855665 0.020005696345928855 0 -0.0052298065721835532 0.019977663660000314 0 -0.0051744226123655382 0.020005562453495766 0 -0.0051997638404881153 0.020032375133375319 0 -0.0024365848884310565 0.015952987014488842 0 -0.0024700494974809451 0.015925817812266867 0 -0.0025339315497712881 0.015970196489274113 0 -0.005276339854233353 0.020257909300012485 0 -0.0051506735950152607 0.02001826529051123 0 -0.0051997638404881153 0.020032375133375319 0 -0.005276339854233353 0.020257909300012485 0 -0.0051506735950152607 0.02001826529051123 0 -0.0051066001670994725 0.019793356127376829 0 -0.0051506735950152607 0.02001826529051123 0 -0.0051744226123655382 0.020005562453495766 0 -0.0051997638404881153 0.020032375133375319 0 -0.0051744226123655382 0.020005562453495766 0 -0.0051715420245855665 0.020005696345928855 0 -0.0051468129013758235 0.019977148182347786 0 -0.0051506735950152607 0.02001826529051123 0 -0.0051744226123655382 0.020005562453495766 0 -0.0051468129013758235 0.019977148182347786 0 -0.0035426462706377349 0.017721587493013634 0 -0.0045768017728891174 0.019636506270501539 0 -0.0051506735950152607 0.02001826529051123 0 -0.0051468129013758235 0.019977148182347786 0 -0.0051066001670994725 0.019793356127376829 0 -0.0045768017728891174 0.019636506270501539 0 -0.0050185116674608442 0.019779161043482679 0 -0.0037722043361851729 0.019372967782131312 0 -0.0050140105825267822 0.018407083723093961 0 -0.0051066001670994725 0.019793356127376829 0 -0.0037722043361851729 0.019372967782131312 0 -0.0042498706433470815 0.017285710271507829 0 -0.0050140105825267822 0.018407083723093961 0 -0.0042498706433470815 0.017285710271507829 0 -0.0050825591119432823 0.017188737948104004 0 -0.0050140105825267822 0.018407083723093961 0 -0.0036601061101324221 0.016807147044748189 0 -0.0037936137274180602 0.017189447321071138 0 -0.0042498706433470815 0.017285710271507829 0 -0.0022462835553619482 0.019020651175600548 0 -0.0037722043361851729 0.019372967782131312 0 -0.0042498706433470815 0.017285710271507829 0 -0.0035426462706377349 0.017721587493013634 0 -0.0039690391366039475 0.017464641288532975 0 -0.0036601061101324221 0.016807147044748189 0 -0.0042498706433470815 0.017285710271507829 0 -0.0039018512469617358 0.01673567956829123 0 -0.0042498706433470815 0.017285710271507829 0 -0.0039018512469617358 0.01673567956829123 0 -0.0040917098651595046 0.016354959680881763 0 -0.0036278261908019318 0.016444330023776713 0 -0.0039018512469617358 0.01673567956829123 0 -0.0040917098651595046 0.016354959680881763 0 -0.0047765263800677712 0.016449292451448348 0 -0.0042498706433470815 0.017285710271507829 0 -0.0040917098651595046 0.016354959680881763 0 -0.0047765263800677712 0.016449292451448348 0 -0.0042498706433470815 0.017285710271507829 0 -0.0050825591119432823 0.017188737948104004 0 -0.0050825591119432823 0.017188737948104004 0 -0.005660592387430839 0.016693336136982873 0 -0.0057099677438619051 0.017994871256727822 0 -0.0047765263800677712 0.016449292451448348 0 -0.0050825591119432823 0.017188737948104004 0 -0.005660592387430839 0.016693336136982873 0 -0.005660592387430839 0.016693336136982873 0 -0.0065367934399023029 0.016997284982305603 0 -0.0057099677438619051 0.017994871256727822 0 -0.0065367934399023029 0.016997284982305603 0 -0.0057099677438619051 0.017994871256727822 0 -0.0070036192960546964 0.018435753524161623 0 -0.0057099677438619051 0.017994871256727822 0 -0.0057007274409718155 0.019188327888468523 0 -0.0070036192960546964 0.018435753524161623 0 -0.0050825591119432823 0.017188737948104004 0 -0.0057099677438619051 0.017994871256727822 0 -0.0050140105825267822 0.018407083723093961 0 -0.0057099677438619051 0.017994871256727822 0 -0.0050140105825267822 0.018407083723093961 0 -0.0057007274409718155 0.019188327888468523 0 -0.0051066001670994725 0.019793356127376829 0 -0.0057007274409718155 0.019188327888468523 0 -0.005863659289395748 0.020684425452569665 0 -0.0050140105825267822 0.018407083723093961 0 -0.0051066001670994725 0.019793356127376829 0 -0.0057007274409718155 0.019188327888468523 0 -0.0059084843465459554 0.020773659532448897 0 -0.0062519819758418112 0.020810406917173219 0 -0.0057007274409718155 0.019188327888468523 0 -0.005863659289395748 0.020684425452569665 0 -0.0070036192960546964 0.018435753524161623 0 -0.005863659289395748 0.020684425452569665 0 -0.00512610172255342 0.022052527356008524 0 -0.005623073096137369 0.023159046859982744 0 -0.005863659289395748 0.020684425452569665 0 -0.0054451712328215576 0.020409018738505452 0 -0.0053692412148447569 0.020694065963385383 0 -0.005863659289395748 0.020684425452569665 0 -0.0050694216846360702 0.02132573788683222 0 -0.0053692412148447569 0.020694065963385383 0 -0.005276339854233353 0.020257909300012485 0 -0.0051066001670994725 0.019793356127376829 0 -0.005863659289395748 0.020684425452569665 0 -0.005276339854233353 0.020257909300012485 0 -0.005863659289395748 0.020684425452569665 0 -0.0054451712328215576 0.020409018738505452 0 -0.0039299195662810642 0.021842552202080871 0 -0.00451842532368695 0.021458653952187958 0 -0.0045018543311286701 0.022186331481029414 0 -0.0039299195662810642 0.021842552202080871 0 -0.00451842532368695 0.021458653952187958 0 -0.0043165730069530612 0.020992249548512861 0 -0.0039299195662810642 0.021842552202080871 0 -0.0037403254254140474 0.021234727634346241 0 -0.0043165730069530612 0.020992249548512861 0 -0.005863659289395748 0.020684425452569665 0 -0.0050694216846360702 0.02132573788683222 0 -0.00512610172255342 0.022052527356008524 0 -0.00451842532368695 0.021458653952187958 0 -0.0050694216846360702 0.02132573788683222 0 -0.0048699604020841563 0.020762291353277017 0 -0.0050694216846360702 0.02132573788683222 0 -0.0048699604020841563 0.020762291353277017 0 -0.0053692412148447569 0.020694065963385383 0 -0.00451842532368695 0.021458653952187958 0 -0.0050694216846360702 0.02132573788683222 0 -0.0045018543311286701 0.022186331481029414 0 -0.00512610172255342 0.022052527356008524 0 -0.0045390964333074718 0.0229718143301775 0 -0.0045018543311286701 0.022186331481029414 0 -0.0050694216846360702 0.02132573788683222 0 -0.00512610172255342 0.022052527356008524 0 -0.0045018543311286701 0.022186331481029414 0 -0.00512610172255342 0.022052527356008524 0 -0.0045390964333074718 0.0229718143301775 0 -0.005623073096137369 0.023159046859982744 0 -0.0039299195662810642 0.021842552202080871 0 -0.0045018543311286701 0.022186331481029414 0 -0.0038111824871094528 0.023036225103462787 0 -0.0045390964333074718 0.0229718143301775 0 -0.0039659517196869417 0.023282735653282611 0 -0.0038111824871094528 0.023036225103462787 0 -0.0045390964333074718 0.0229718143301775 0 -0.0045018543311286701 0.022186331481029414 0 -0.0038111824871094528 0.023036225103462787 0 -0.004468248252050876 0.023112269720954984 0 -0.0040761735363085312 0.023641385332425931 0 -0.0045390964333074718 0.0229718143301775 0 -0.0039659517196869417 0.023282735653282611 0 -0.0039982236817997195 0.023727612312613975 0 -0.0045390964333074718 0.0229718143301775 0 -0.0047096249071338307 0.023882130941747532 0 -0.0039937511926115138 0.023784106631413171 0 -0.0047096249071338307 0.023882130941747532 0 -0.005623073096137369 0.023159046859982744 0 -0.0051359670407954078 0.024969741865337299 0 -0.0045390964333074718 0.0229718143301775 0 -0.0047096249071338307 0.023882130941747532 0 -0.005623073096137369 0.023159046859982744 0 -0.0062519819758418112 0.020810406917173219 0 -0.0062173616677790302 0.021030026884164478 0 -0.0065367934399023029 0.016997284982305603 0 -0.0070036192960546964 0.018435753524161623 0 -0.0073857264050560482 0.016901676069582861 0 -0.0051359670407954078 0.024969741865337299 0 -0.0042043787747873922 0.02465638675837983 0 -0.0039371370615086838 0.02579335125169728 0 -0.0047096249071338307 0.023882130941747532 0 -0.0039937511926115138 0.023784106631413171 0 -0.0042043787747873922 0.02465638675837983 0 -0.0047096249071338307 0.023882130941747532 0 -0.0051359670407954078 0.024969741865337299 0 -0.0042043787747873922 0.02465638675837983 0 -0.0073857264050560482 0.016901676069582861 0 -0.007779954710164262 0.015817830013923093 0 -0.0068376384629411004 0.01586238863263954 0 -0.0051359670407954078 0.024969741865337299 0 -0.0044314601391745364 0.027422052369883626 0 -0.0039371370615086838 0.02579335125169728 0 -0.0062173616677790302 0.021030026884164478 0 -0.0062772286802883622 0.02149408444065971 0 -0.0072458731012706853 0.015462862777257298 0 -0.007779954710164262 0.015817830013923093 0 -0.0072916952633536401 0.014938920685461434 0 -0.0072458731012706853 0.015462862777257298 0 -0.007779954710164262 0.015817830013923093 0 -0.0068376384629411004 0.01586238863263954 0 -0.0072458731012706853 0.015462862777257298 0 -0.0068376384629411004 0.01586238863263954 0 -0.0065283412667661482 0.014853272415397738 0 -0.0065367934399023029 0.016997284982305603 0 -0.0073857264050560482 0.016901676069582861 0 -0.0068376384629411004 0.01586238863263954 0 -0.005660592387430839 0.016693336136982873 0 -0.0065367934399023029 0.016997284982305603 0 -0.0060116232937443255 0.016084322694211547 0 -0.0065367934399023029 0.016997284982305603 0 -0.0068376384629411004 0.01586238863263954 0 -0.0060116232937443255 0.016084322694211547 0 -0.0047765263800677712 0.016449292451448348 0 -0.005660592387430839 0.016693336136982873 0 -0.0052479027240973719 0.015758499202142524 0 -0.005660592387430839 0.016693336136982873 0 -0.0060116232937443255 0.016084322694211547 0 -0.0052479027240973719 0.015758499202142524 0 -0.0060116232937443255 0.016084322694211547 0 -0.0052479027240973719 0.015758499202142524 0 -0.005804169438300249 0.015239654682669374 0 -0.0048187038613868903 0.014844020945965689 0 -0.0052479027240973719 0.015758499202142524 0 -0.005804169438300249 0.015239654682669374 0 -0.0068376384629411004 0.01586238863263954 0 -0.005804169438300249 0.015239654682669374 0 -0.0065283412667661482 0.014853272415397738 0 -0.0068376384629411004 0.01586238863263954 0 -0.0060116232937443255 0.016084322694211547 0 -0.005804169438300249 0.015239654682669374 0 -0.005804169438300249 0.015239654682669374 0 -0.005370802013262667 0.01426798125048 0 -0.0065283412667661482 0.014853272415397738 0 -0.0048187038613868903 0.014844020945965689 0 -0.005804169438300249 0.015239654682669374 0 -0.005370802013262667 0.01426798125048 0 -0.005370802013262667 0.01426798125048 0 -0.0061689201884885317 0.014044726079291079 0 -0.0065283412667661482 0.014853272415397738 0 -0.0071134979276515692 0.014079704875471015 0 -0.0072916952633536401 0.014938920685461434 0 -0.0065283412667661482 0.014853272415397738 0 -0.0061689201884885317 0.014044726079291079 0 -0.0071134979276515692 0.014079704875471015 0 -0.0065283412667661482 0.014853272415397738 0 -0.0077485051955559735 0.014658417437358646 0 -0.0071134979276515692 0.014079704875471015 0 -0.0072916952633536401 0.014938920685461434 0 -0.0078953983139592489 0.014070075226349666 0 -0.0077485051955559735 0.014658417437358646 0 -0.0071134979276515692 0.014079704875471015 0 -0.007779954710164262 0.015817830013923093 0 -0.0077485051955559735 0.014658417437358646 0 -0.0072916952633536401 0.014938920685461434 0 -0.0072458731012706853 0.015462862777257298 0 -0.0072916952633536401 0.014938920685461434 0 -0.0065283412667661482 0.014853272415397738 0 -0.0021715773044506761 0.030415327530183472 0 -0.0026721986525477053 0.027828479345421517 0 -0.0021682420870550176 0.030607123889584729 0 -0.0016973121904542829 0.029892472801263274 0 -0.0027679800222868093 0.028385103976586463 0 -0.0021682420870550176 0.030607123889584729 0 -0.0028889937676973856 0.029835148340005984 0 -0.0025408559573403657 0.027231036480629998 0 -0.0027683763703364758 0.030654457448955928 0 -0.0021682420870550176 0.030607123889584729 0 -0.0028889937676973856 0.029835148340005984 0 -0.0021682420870550176 0.030607123889584729 0 -0.0024851768874695366 0.031006220503973048 0 -0.0020388897985947024 0.03108537267089799 0 -0.0027683763703364758 0.030654457448955928 0 -0.0021682420870550176 0.030607123889584729 0 -0.0024851768874695366 0.031006220503973048 0 -0.0021682420870550176 0.030607123889584729 0 -0.0016482698945692535 0.03072911243091497 0 -0.0020388897985947024 0.03108537267089799 0 -0.0016482698945692535 0.03072911243091497 0 -0.0016973121904542829 0.029892472801263274 0 -0.0011015889814735729 0.030660133428684087 0 -0.0021682420870550176 0.030607123889584729 0 -0.0016482698945692535 0.03072911243091497 0 -0.0016973121904542829 0.029892472801263274 0 -0.0062772286802883622 0.02149408444065971 0 -0.0046891474493643212 0.023280991287151671 0 -0.007779954710164262 0.015817830013923093 0 -0.0077485051955559735 0.014658417437358646 0 -0.0082852440819389979 0.014860997919167254 0 -0.0044314601391745364 0.027422052369883626 0 -0.0028889937676973856 0.029835148340005984 0 -0.003273863234880835 0.030502903212869414 0 -0.0027683763703364758 0.030654457448955928 0 -0.0028889937676973856 0.029835148340005984 0 -0.0033776479004560679 0.030634487015923716 0 -0.0052786367024005715 0.027800055652060739 0 -0.0046891474493643212 0.023280991287151671 0 -0.0078953983139592489 0.014070075226349666 0 -0.0077485051955559735 0.014658417437358646 0 -0.0082852440819389979 0.014860997919167254 0 -0.0025086948270135324 0.021688995920745271 0 -0.0043361006839929203 0.025135709993067103 0 -0.0050549360632479619 0.023920254505435064 0 -0.0036581359512594582 0.01999762869864603 0 -0.0046891474493643212 0.023280991287151671 0 -0.0046891474493643212 0.023280991287151671 0 -0.0022986546268514603 0.027787003647950309 0 -0.0036581359512594582 0.01999762869864603 0 -0.0022986546268514603 0.027787003647950309 0 -0.001585774530519802 0.034018786338318951 0 -0.0029848470948284152 0.031448456252044656 0 -0.0017450587996375468 0.031840821325777938 0 -0.0029848470948284152 0.031448456252044656 0 -0.0024851768874695366 0.031006220503973048 0 -0.0020388897985947024 0.03108537267089799 0 -0.0029848470948284152 0.031448456252044656 0 -0.0017450587996375468 0.031840821325777938 0 -0.0020388897985947024 0.03108537267089799 0 -0.0022986546268514603 0.027787003647950309 0 -0.0031736225468996801 0.029339128313643978 0 -0.0027683763703364758 0.030654457448955928 0 -0.0029244182829169635 0.031388245950271759 0 -0.0024851768874695366 0.031006220503973048 0 -0.0027683763703364758 0.030654457448955928 0 -0.0033776479004560679 0.030634487015923716 0 -0.0029244182829169635 0.031388245950271759 0 -0.0016482698945692535 0.03072911243091497 0 -0.0017450587996375468 0.031840821325777938 0 -0.0020388897985947024 0.03108537267089799 0 -0.0016482698945692535 0.03072911243091497 0 -0.0017450587996375468 0.031840821325777938 0 -0.0012523406375759823 0.0314509256701683 0 -0.001585774530519802 0.034018786338318951 0 -0.0017450587996375468 0.031840821325777938 0 -0.0010048949769104131 0.032265252940237077 0 -0.00056924068259003554 0.033326246356464154 0 -0.0003613709675402625 0.032342378306882774 0 -3.5137760201096286e-05 0.032795444768187444 0 -0.00056924068259003554 0.033326246356464154 0 -0.0010048949769104131 0.032265252940237077 0 -0.0003613709675402625 0.032342378306882774 0 -0.0003613709675402625 0.032342378306882774 0 -3.5137760201096286e-05 0.032795444768187444 0 6.7420775828594932e-05 0.032392533674129274 0 -0.0003613709675402625 0.032342378306882774 0 -0.00049502028707081329 0.031860271116719081 0 0.00011634942237390559 0.031991894098053995 0 -0.0003613709675402625 0.032342378306882774 0 0.00011634942237390559 0.031991894098053995 0 6.7420775828594932e-05 0.032392533674129274 0 -0.0010048949769104131 0.032265252940237077 0 -0.0003613709675402625 0.032342378306882774 0 -0.00049502028707081329 0.031860271116719081 0 -0.00049502028707081329 0.031860271116719081 0 -0.0001455052223848388 0.031380982988903711 0 0.00011634942237390559 0.031991894098053995 0 -0.0001455052223848388 0.031380982988903711 0 -0.00079534819111786012 0.031319358917377145 0 -0.0005823046436161896 0.030754538745881386 0 -0.00049502028707081329 0.031860271116719081 0 -0.0001455052223848388 0.031380982988903711 0 -0.00079534819111786012 0.031319358917377145 0 -0.00079534819111786012 0.031319358917377145 0 -0.0012523406375759823 0.0314509256701683 0 -0.0011015889814735729 0.030660133428684087 0 -0.0010048949769104131 0.032265252940237077 0 -0.00049502028707081329 0.031860271116719081 0 -0.00079534819111786012 0.031319358917377145 0 -0.0010048949769104131 0.032265252940237077 0 -0.00079534819111786012 0.031319358917377145 0 -0.0012523406375759823 0.0314509256701683 0 -0.0017450587996375468 0.031840821325777938 0 -0.0010048949769104131 0.032265252940237077 0 -0.0012523406375759823 0.0314509256701683 0 0.00022932705982308082 0.034607871521693694 0 0.0003463818627526961 0.03476371881221902 0 0.00025200920109017444 0.034848152741210406 0 0.00013090128010565576 0.033286777793707839 0 0.00088479341237394677 0.032124952954065727 0 0.00050713142434192235 0.032451088643675789 0 0.00082740258294886136 0.032118584533311179 0 0.00050713142434192235 0.032451088643675789 0 0.00011634942237390559 0.031991894098053995 0 0.00049574616584524014 0.033255178136393775 0 0.0006620640610379082 0.032974675900374062 0 0.00013090128010565576 0.033286777793707839 0 0.00050713142434192235 0.032451088643675789 0 -3.5137760201096286e-05 0.032795444768187444 0 0.00050713142434192235 0.032451088643675789 0 -3.5137760201096286e-05 0.032795444768187444 0 6.7420775828594932e-05 0.032392533674129274 0 0.00050713142434192235 0.032451088643675789 0 0.00011634942237390559 0.031991894098053995 0 6.7420775828594932e-05 0.032392533674129274 0 0.00082740258294886136 0.032118584533311179 0 0.0003954171927614997 0.031408518027605858 0 0.00095331602093655951 0.03080798075935089 0 -0.0001455052223848388 0.031380982988903711 0 0.00011634942237390559 0.031991894098053995 0 0.0003954171927614997 0.031408518027605858 0 0.00082740258294886136 0.032118584533311179 0 0.00011634942237390559 0.031991894098053995 0 0.0003954171927614997 0.031408518027605858 0 0.00035481256914201637 0.033446133504557066 0 0.00057274928004582063 0.033218934312703396 0 0.00039729691566675417 0.033021769319686915 0 0.00049574616584524014 0.033255178136393775 0 0.00036602003730331668 0.032082993727655038 0 0.00049574616584524014 0.033255178136393775 0 0.00027757047211797518 0.034181945816041004 0 0.00010233953349048586 0.034496848073562479 0 6.4763565301238671e-05 0.034633889811780047 0 4.925266783461333e-05 0.034562804932429976 0 0.00036602003730331668 0.032082993727655038 0 0.00034280613173063483 0.031468222898684672 0 0.00036602003730331668 0.032082993727655038 0 -0.0006940783421318388 0.028694355180985315 0 0.00095331602093655951 0.03080798075935089 0 -9.9026353712516603e-05 0.030541031780708893 0 -0.00059216963687480726 0.029118236294896883 0 6.7593922926946403e-05 0.034463082803479629 0 0.00010233953349048586 0.034496848073562479 0 4.925266783461333e-05 0.034562804932429976 0 0.00027757047211797518 0.034181945816041004 0 0.00036602003730331668 0.032082993727655038 0 -0.0001455052223848388 0.031380982988903711 0 0.0003954171927614997 0.031408518027605858 0 -9.9026353712516603e-05 0.030541031780708893 0 0.0003954171927614997 0.031408518027605858 0 0.00095331602093655951 0.03080798075935089 0 -9.9026353712516603e-05 0.030541031780708893 0 -0.0011015889814735729 0.030660133428684087 0 -0.0005823046436161896 0.030754538745881386 0 -0.00084028293512169745 0.029952508038687247 0 -0.0016482698945692535 0.03072911243091497 0 -0.0012523406375759823 0.0314509256701683 0 -0.0011015889814735729 0.030660133428684087 0 -0.00079534819111786012 0.031319358917377145 0 -0.0011015889814735729 0.030660133428684087 0 -0.0005823046436161896 0.030754538745881386 0 -0.0001455052223848388 0.031380982988903711 0 -0.0005823046436161896 0.030754538745881386 0 -9.9026353712516603e-05 0.030541031780708893 0 -0.0005823046436161896 0.030754538745881386 0 -9.9026353712516603e-05 0.030541031780708893 0 -0.00084028293512169745 0.029952508038687247 0 -9.9026353712516603e-05 0.030541031780708893 0 -0.00084028293512169745 0.029952508038687247 0 -0.00059216963687480726 0.029118236294896883 0 -0.0016973121904542829 0.029892472801263274 0 -0.0011015889814735729 0.030660133428684087 0 -0.00084028293512169745 0.029952508038687247 0 -0.0016973121904542829 0.029892472801263274 0 -0.00084028293512169745 0.029952508038687247 0 -0.0016486395232394836 0.029176078094488925 0 -0.00084028293512169745 0.029952508038687247 0 -0.00059216963687480726 0.029118236294896883 0 -0.0016486395232394836 0.029176078094488925 0 -0.00059216963687480726 0.029118236294896883 0 -0.0019768462037531788 0.027605306087056542 0 -0.0016486395232394836 0.029176078094488925 0 -0.00068008484562406498 0.028741847303618857 0 -0.00057182697658824278 0.027455797329715325 0 -0.001720461555065549 0.027567500159643581 0 -0.0006940783421318388 0.028694355180985315 0 -0.0017908221755654245 0.027743343053000972 0 0.000494039088525004 0.030097276867907037 0 -0.00068008484562406498 0.028741847303618857 0 0.000674722360498454 0.028232861190088179 0 -0.00068008484562406498 0.028741847303618857 0 0.000674722360498454 0.028232861190088179 0 -0.00057182697658824278 0.027455797329715325 0 0.000674722360498454 0.028232861190088179 0 2.3951562211139763e-05 0.026797099809729413 0 -0.00057182697658824278 0.027455797329715325 0 0.000674722360498454 0.028232861190088179 0 2.3951562211139763e-05 0.026797099809729413 0 0.00056932253750788969 0.02604738272065903 0 0.00034280613173063483 0.031468222898684672 0 0.00026894366885109197 0.030434118549502807 0 2.3951562211139763e-05 0.026797099809729413 0 -0.00057182697658824278 0.027455797329715325 0 -0.00064289190623330805 0.026454863312554776 0 -0.00057182697658824278 0.027455797329715325 0 -0.0011345954254846202 0.027050794408272922 0 -0.00064289190623330805 0.026454863312554776 0 -0.00057182697658824278 0.027455797329715325 0 -0.0011345954254846202 0.027050794408272922 0 -0.001720461555065549 0.027567500159643581 0 -0.0019768462037531788 0.027605306087056542 0 -0.0027679800222868093 0.028385103976586463 0 -0.0033638657843239393 0.026049616478155554 0 -0.0017908221755654245 0.027743343053000972 0 -0.0032167267032931243 0.025452300039564526 0 -0.0011345954254846202 0.027050794408272922 0 -0.001720461555065549 0.027567500159643581 0 -0.0016814023861212099 0.026606882439263808 0 -0.0019768462037531788 0.027605306087056542 0 -0.0027679800222868093 0.028385103976586463 0 -0.0016486395232394836 0.029176078094488925 0 -0.0016973121904542829 0.029892472801263274 0 -0.0027679800222868093 0.028385103976586463 0 -0.0016486395232394836 0.029176078094488925 0 -0.0044314601391745364 0.027422052369883626 0 -0.0028889937676973856 0.029835148340005984 0 -0.0025408559573403657 0.027231036480629998 0 -0.0026721986525477053 0.027828479345421517 0 -0.0032167267032931243 0.025452300039564526 0 -0.0025408559573403657 0.027231036480629998 0 -0.0039371370615086838 0.02579335125169728 0 -0.0031091816047283875 0.024731744794281613 0 -0.0044314601391745364 0.027422052369883626 0 -0.0025408559573403657 0.027231036480629998 0 -0.0039371370615086838 0.02579335125169728 0 -0.0042043787747873922 0.02465638675837983 0 -0.0039371370615086838 0.02579335125169728 0 -0.0031091816047283875 0.024731744794281613 0 -0.0032167267032931243 0.025452300039564526 0 -0.0035805698111063882 0.024259047484446284 0 -0.0039937511926115138 0.023784106631413171 0 -0.0042043787747873922 0.02465638675837983 0 -0.0031091816047283875 0.024731744794281613 0 -0.0040761735363085312 0.023641385332425931 0 -0.0032167267032931243 0.025452300039564526 0 -0.001720461555065549 0.027567500159643581 0 -0.0030064826975664638 0.026452202275131224 0 -0.0016814023861212099 0.026606882439263808 0 -0.0030064826975664638 0.026452202275131224 0 -0.0016814023861212099 0.026606882439263808 0 -0.0020168488713803246 0.02568101011196347 0 -0.0030064826975664638 0.026452202275131224 0 -0.0020168488713803246 0.02568101011196347 0 -0.0026447632451256421 0.025106474801003809 0 -0.0013339497594121303 0.026120212004138513 0 -0.0020168488713803246 0.02568101011196347 0 -0.0010422612145446241 0.025732766054322759 0 -0.0016814023861212099 0.026606882439263808 0 -0.0013339497594121303 0.026120212004138513 0 -0.0020168488713803246 0.02568101011196347 0 -0.0020168488713803246 0.02568101011196347 0 -0.0017843724885726142 0.024966592357023185 0 -0.0010422612145446241 0.025732766054322759 0 -0.0020168488713803246 0.02568101011196347 0 -0.0017843724885726142 0.024966592357023185 0 -0.0026447632451256421 0.025106474801003809 0 -0.0017843724885726142 0.024966592357023185 0 -0.0026447632451256421 0.025106474801003809 0 -0.0024073263736010676 0.024145410701640196 0 -0.0017843724885726142 0.024966592357023185 0 -0.0024073263736010676 0.024145410701640196 0 -0.0015502160300257372 0.024136748048999575 0 -0.0017843724885726142 0.024966592357023185 0 -0.0015502160300257372 0.024136748048999575 0 -0.0011513620837633215 0.024928463533225705 0 -0.0030064826975664638 0.026452202275131224 0 -0.0035368441580596833 0.025065708835718035 0 -0.0026447632451256421 0.025106474801003809 0 -0.0039982236817997195 0.023727612312613975 0 -0.0034710947672770419 0.024325974625011786 0 -0.0036711471637661157 0.023563470271581045 0 -0.0035805698111063882 0.024259047484446284 0 -0.0038000728195892786 0.023241686030945969 0 -0.0035368441580596833 0.025065708835718035 0 -0.0030433091513066887 0.024123027492353902 0 -0.0038111824871094528 0.023036225103462787 0 -0.0039659517196869417 0.023282735653282611 0 -0.0036711471637661157 0.023563470271581045 0 -0.0038111824871094528 0.023036225103462787 0 -0.0035368441580596833 0.025065708835718035 0 -0.0026447632451256421 0.025106474801003809 0 -0.0030433091513066887 0.024123027492353902 0 -0.0026447632451256421 0.025106474801003809 0 -0.0030433091513066887 0.024123027492353902 0 -0.0024073263736010676 0.024145410701640196 0 -0.0039659517196869417 0.023282735653282611 0 -0.0039982236817997195 0.023727612312613975 0 -0.0036711471637661157 0.023563470271581045 0 -0.0039299195662810642 0.021842552202080871 0 -0.0038111824871094528 0.023036225103462787 0 -0.0031123265160546572 0.022454153783661154 0 -0.0029374934419218036 0.023305733664401175 0 -0.0021285170284599886 0.022954856462467053 0 -0.0031123265160546572 0.022454153783661154 0 -0.0038111824871094528 0.023036225103462787 0 -0.0029374934419218036 0.023305733664401175 0 -0.0031123265160546572 0.022454153783661154 0 -0.0030433091513066887 0.024123027492353902 0 -0.0038111824871094528 0.023036225103462787 0 -0.0029374934419218036 0.023305733664401175 0 -0.0030433091513066887 0.024123027492353902 0 -0.0029374934419218036 0.023305733664401175 0 -0.0024073263736010676 0.024145410701640196 0 -0.0029374934419218036 0.023305733664401175 0 -0.0024073263736010676 0.024145410701640196 0 -0.0021285170284599886 0.022954856462467053 0 -0.0024073263736010676 0.024145410701640196 0 -0.0015502160300257372 0.024136748048999575 0 -0.0021285170284599886 0.022954856462467053 0 -0.0015502160300257372 0.024136748048999575 0 -0.0021285170284599886 0.022954856462467053 0 -0.00098604970840030621 0.023378383014972054 0 -0.0021285170284599886 0.022954856462467053 0 -0.0024666030864418332 0.022112748973269928 0 -0.0031123265160546572 0.022454153783661154 0 -0.0021285170284599886 0.022954856462467053 0 -0.0015589306786238379 0.022246095467805496 0 -0.0024666030864418332 0.022112748973269928 0 -0.0021285170284599886 0.022954856462467053 0 -0.0015589306786238379 0.022246095467805496 0 -0.00098604970840030621 0.023378383014972054 0 -0.0015589306786238379 0.022246095467805496 0 -0.0024666030864418332 0.022112748973269928 0 -0.0022862637096926893 0.021334761093913763 0 -0.0015589306786238379 0.022246095467805496 0 -0.00097203395257009742 0.021457454119805802 0 -0.0022862637096926893 0.021334761093913763 0 -0.0024666030864418332 0.022112748973269928 0 -0.0031748741064222333 0.021619898554759695 0 -0.0022862637096926893 0.021334761093913763 0 -0.0039299195662810642 0.021842552202080871 0 -0.0031748741064222333 0.021619898554759695 0 -0.0037403254254140474 0.021234727634346241 0 -0.0039299195662810642 0.021842552202080871 0 -0.0031748741064222333 0.021619898554759695 0 -0.0031123265160546572 0.022454153783661154 0 -0.0024666030864418332 0.022112748973269928 0 -0.0031748741064222333 0.021619898554759695 0 -0.0031123265160546572 0.022454153783661154 0 -0.00042914344710003662 0.022501932051931621 0 0.00075126169134318228 0.023238929442255064 0 1.7540943137451575e-05 0.020884883974659093 0 0.001825092318777431 0.032302751511917541 0 0.000257040043390695 0.034818467941972894 0 0.0021359262251120724 0.035615240140055543 0 0.0014082292024845807 0.027722594570008575 0 -0.00057795521892978045 0.028500185757780204 0 0.001825092318777431 0.032302751511917541 0 1.3025884221052234e-05 0.033588497059699143 0 0.000257040043390695 0.034818467941972894 0 -0.0015589306786238379 0.022246095467805496 0 -0.00042914344710003662 0.022501932051931621 0 -0.00097203395257009742 0.021457454119805802 0 -0.0015589306786238379 0.022246095467805496 0 -0.00042914344710003662 0.022501932051931621 0 -0.00098604970840030621 0.023378383014972054 0 -0.00030785390861796523 0.023706967612721678 0 -0.00098604970840030621 0.023378383014972054 0 -0.00072369508597511451 0.024486617994237091 0 -0.00042914344710003662 0.022501932051931621 0 -0.00030785390861796523 0.023706967612721678 0 -0.00098604970840030621 0.023378383014972054 0 -0.0015502160300257372 0.024136748048999575 0 -0.00072369508597511451 0.024486617994237091 0 -0.0011513620837633215 0.024928463533225705 0 -0.0015502160300257372 0.024136748048999575 0 -0.00098604970840030621 0.023378383014972054 0 -0.00072369508597511451 0.024486617994237091 0 -0.00030785390861796523 0.023706967612721678 0 -0.00072369508597511451 0.024486617994237091 0 3.0326400108861477e-06 0.025040738853812597 0 0.0014082292024845807 0.027722594570008575 0 0.00064610907508529938 0.026970731664296164 0 0.001825092318777431 0.032302751511917541 0 0.00014308504294067287 0.028167670429217698 0 1.3025884221052234e-05 0.033588497059699143 0 0.00075126169134318228 0.023238929442255064 0 3.0326400108861477e-06 0.025040738853812597 0 0.00058820875422501871 0.026978417566723766 0 -0.00030785390861796523 0.023706967612721678 0 0.00075126169134318228 0.023238929442255064 0 3.0326400108861477e-06 0.025040738853812597 0 -0.00042914344710003662 0.022501932051931621 0 -0.00030785390861796523 0.023706967612721678 0 0.00075126169134318228 0.023238929442255064 0 0.00058820875422501871 0.026978417566723766 0 0.00056932253750788969 0.02604738272065903 0 0.00014308504294067287 0.028167670429217698 0 0.001825092318777431 0.032302751511917541 0 0.00058820875422501871 0.026978417566723766 0 0.00014308504294067287 0.028167670429217698 0 3.0326400108861477e-06 0.025040738853812597 0 -3.5129303731680274e-06 0.02591435759044463 0 -0.0005018042473687545 0.025407381984841739 0 3.0326400108861477e-06 0.025040738853812597 0 -3.5129303731680274e-06 0.02591435759044463 0 0.00058820875422501871 0.026978417566723766 0 -3.5129303731680274e-06 0.02591435759044463 0 0.00058820875422501871 0.026978417566723766 0 -9.6544736642597293e-05 0.026142006070023278 0 -0.00072369508597511451 0.024486617994237091 0 -0.0011513620837633215 0.024928463533225705 0 -0.0005018042473687545 0.025407381984841739 0 -0.0011513620837633215 0.024928463533225705 0 -0.0005018042473687545 0.025407381984841739 0 -0.0010422612145446241 0.025732766054322759 0 -0.0017843724885726142 0.024966592357023185 0 -0.0011513620837633215 0.024928463533225705 0 -0.0010422612145446241 0.025732766054322759 0 -0.00072369508597511451 0.024486617994237091 0 3.0326400108861477e-06 0.025040738853812597 0 -0.0005018042473687545 0.025407381984841739 0 -0.0005018042473687545 0.025407381984841739 0 -9.6544736642597293e-05 0.026142006070023278 0 -0.0010422612145446241 0.025732766054322759 0 -3.5129303731680274e-06 0.02591435759044463 0 -0.0005018042473687545 0.025407381984841739 0 -9.6544736642597293e-05 0.026142006070023278 0 -0.0013339497594121303 0.026120212004138513 0 -0.0010422612145446241 0.025732766054322759 0 -0.00064289190623330805 0.026454863312554776 0 -9.6544736642597293e-05 0.026142006070023278 0 -0.00064289190623330805 0.026454863312554776 0 0.00021841363823634787 0.026349254897072752 0 -9.6544736642597293e-05 0.026142006070023278 0 -0.0010422612145446241 0.025732766054322759 0 -0.00064289190623330805 0.026454863312554776 0 -0.0011345954254846202 0.027050794408272922 0 -0.0016814023861212099 0.026606882439263808 0 -0.00064289190623330805 0.026454863312554776 0 -0.0016814023861212099 0.026606882439263808 0 -0.0013339497594121303 0.026120212004138513 0 -0.00064289190623330805 0.026454863312554776 0 0.00026894366885109197 0.030434118549502807 0 2.1546866223968754e-05 0.031441512939580085 0 0.00058820875422501871 0.026978417566723766 0 0.00021841363823634787 0.026349254897072752 0 0.00056932253750788969 0.02604738272065903 0 0.00058820875422501871 0.026978417566723766 0 -9.6544736642597293e-05 0.026142006070023278 0 0.00021841363823634787 0.026349254897072752 0 2.3951562211139763e-05 0.026797099809729413 0 0.00021841363823634787 0.026349254897072752 0 0.00056932253750788969 0.02604738272065903 0 2.3951562211139763e-05 0.026797099809729413 0 -0.00064289190623330805 0.026454863312554776 0 0.00021841363823634787 0.026349254897072752 0 -1.4606652768545257e-05 0.034708596427818462 0 -5.5418095469203774e-05 0.034688665840472373 0 -0.00020092291278038543 0.03460779925389653 0 -1.4606652768545257e-05 0.034708596427818462 0 -1.4800644543288651e-05 0.034720477713441639 0 -1.1734546506558187e-06 0.034701517605550868 0 -1.4800644543288651e-05 0.034720477713441639 0 -5.5418095469203774e-05 0.034688665840472373 0 1.0789238836619354e-06 0.034709222521835982 0 -1.4606652768545257e-05 0.034708596427818462 0 -1.4800644543288651e-05 0.034720477713441639 0 -5.5418095469203774e-05 0.034688665840472373 0 -1.4800644543288651e-05 0.034720477713441639 0 7.9320879782160002e-06 0.034744512198454133 0 1.0789238836619354e-06 0.034709222521835982 0 -1.4800644543288651e-05 0.034720477713441639 0 7.9320879782160002e-06 0.034744512198454133 0 -1.1734546506558187e-06 0.034701517605550868 0 7.9320879782160002e-06 0.034744512198454133 0 1.0789238836619354e-06 0.034709222521835982 0 2.2459456130327007e-05 0.034721097076173088 0 7.9320879782160002e-06 0.034744512198454133 0 2.2459456130327007e-05 0.034721097076173088 0 2.1456833406575931e-05 0.034801877835311544 0 2.2459456130327007e-05 0.034721097076173088 0 4.8765493366673448e-05 0.034681606328753972 0 2.1456833406575931e-05 0.034801877835311544 0 1.306463926215013e-05 0.034601349716860248 0 5.0540489744370438e-05 0.034409892230870411 0 4.8765493366673448e-05 0.034681606328753972 0 2.2459456130327007e-05 0.034721097076173088 0 1.306463926215013e-05 0.034601349716860248 0 4.8765493366673448e-05 0.034681606328753972 0 1.0789238836619354e-06 0.034709222521835982 0 2.2459456130327007e-05 0.034721097076173088 0 1.306463926215013e-05 0.034601349716860248 0 -5.5418095469203774e-05 0.034688665840472373 0 1.306463926215013e-05 0.034601349716860248 0 -0.00020092291278038543 0.03460779925389653 0 -5.5418095469203774e-05 0.034688665840472373 0 1.0789238836619354e-06 0.034709222521835982 0 1.306463926215013e-05 0.034601349716860248 0 1.306463926215013e-05 0.034601349716860248 0 -0.00020092291278038543 0.03460779925389653 0 4.8762347896787265e-06 0.034424917563721236 0 2.1546866223968754e-05 0.031441512939580085 0 -3.5371455221890257e-05 0.033402475139006599 0 -0.00020092291278038543 0.03460779925389653 0 5.3441300442349031e-05 0.034145306070457404 0 1.3025884221052234e-05 0.033588497059699143 0 -0.00020092291278038543 0.03460779925389653 0 5.3441300442349031e-05 0.034145306070457404 0 4.8762347896787265e-06 0.034424917563721236 0 5.3441300442349031e-05 0.034145306070457404 0 5.0540489744370438e-05 0.034409892230870411 0 1.6265779970804064e-06 0.034369412598743265 0 5.3441300442349031e-05 0.034145306070457404 0 4.8762347896787265e-06 0.034424917563721236 0 5.0540489744370438e-05 0.034409892230870411 0 1.306463926215013e-05 0.034601349716860248 0 4.8762347896787265e-06 0.034424917563721236 0 5.0540489744370438e-05 0.034409892230870411 0 5.0540489744370438e-05 0.034409892230870411 0 3.1281233505557854e-05 0.034575944556142574 0 4.8765493366673448e-05 0.034681606328753972 0 5.0540489744370438e-05 0.034409892230870411 0 3.1281233505557854e-05 0.034575944556142574 0 1.6265779970804064e-06 0.034369412598743265 0 1.6265779970804064e-06 0.034369412598743265 0 7.3960041078932214e-07 0.034697077080431432 0 5.4132346649169611e-05 0.0347106739189154 0 1.6265779970804064e-06 0.034369412598743265 0 -4.0360030148157801e-06 0.034396710142443845 0 5.4132346649169611e-05 0.0347106739189154 0 3.1281233505557854e-05 0.034575944556142574 0 1.6265779970804064e-06 0.034369412598743265 0 7.3960041078932214e-07 0.034697077080431432 0 5.3441300442349031e-05 0.034145306070457404 0 1.6265779970804064e-06 0.034369412598743265 0 1.3025884221052234e-05 0.033588497059699143 0 1.6265779970804064e-06 0.034369412598743265 0 -4.0360030148157801e-06 0.034396710142443845 0 1.3025884221052234e-05 0.033588497059699143 0 -4.0360030148157801e-06 0.034396710142443845 0 1.3025884221052234e-05 0.033588497059699143 0 0.000257040043390695 0.034818467941972894 0 -3.1426237016612016e-08 0.034999665779072084 0 7.3960041078932214e-07 0.034697077080431432 0 1.7023848934135059e-05 0.034794895680365208 0 3.1281233505557854e-05 0.034575944556142574 0 7.3960041078932214e-07 0.034697077080431432 0 1.7023848934135059e-05 0.034794895680365208 0 1.7023848934135059e-05 0.034794895680365208 0 1.9755313082249429e-05 0.0348552017867697 0 4.8765493366673448e-05 0.034681606328753972 0 3.1281233505557854e-05 0.034575944556142574 0 1.7023848934135059e-05 0.034794895680365208 0 4.8765493366673448e-05 0.034681606328753972 0 1.7023848934135059e-05 0.034794895680365208 0 3.9933259653483541e-08 0.034999668133666124 0 1.9755313082249429e-05 0.0348552017867697 0 -3.1426237016612016e-08 0.034999665779072084 0 1.7023848934135059e-05 0.034794895680365208 0 3.9933259653483541e-08 0.034999668133666124 0 3.9933259653483541e-08 0.034999668133666124 0 1.9755313082249429e-05 0.0348552017867697 0 -1.2011606674005731e-08 0.03493626305974646 0 1.9755313082249429e-05 0.0348552017867697 0 4.8765493366673448e-05 0.034681606328753972 0 2.1456833406575931e-05 0.034801877835311544 0 2.1456833406575931e-05 0.034801877835311544 0 5.5326742587142292e-06 0.034852815289009569 0 -1.9186752954903094e-05 0.034726789589349792 0 7.9320879782160002e-06 0.034744512198454133 0 2.1456833406575931e-05 0.034801877835311544 0 -1.9186752954903094e-05 0.034726789589349792 0 5.5326742587142292e-06 0.034852815289009569 0 -1.2011606674005731e-08 0.03493626305974646 0 -1.9186752954903094e-05 0.034726789589349792 0 1.9755313082249429e-05 0.0348552017867697 0 2.1456833406575931e-05 0.034801877835311544 0 5.5326742587142292e-06 0.034852815289009569 0 3.9933259653483541e-08 0.034999668133666124 0 2.5234935300098578e-08 0.034999870140862047 0 -1.2011606674005731e-08 0.03493626305974646 0 1.9755313082249429e-05 0.0348552017867697 0 5.5326742587142292e-06 0.034852815289009569 0 -1.2011606674005731e-08 0.03493626305974646 0 2.5234935300098578e-08 0.034999870140862047 0 -1.2011606674005731e-08 0.03493626305974646 0 7.1978051162654147e-06 0.035003934183796027 0 2.5234935300098578e-08 0.034999870140862047 0 7.1978051162654147e-06 0.035003934183796027 0 2.5353856739334314e-09 0.035000035453322878 0 -1.2011606674005731e-08 0.03493626305974646 0 7.1978051162654147e-06 0.035003934183796027 0 1.6742124680286599e-05 0.035011148738003081 0 7.1978051162654147e-06 0.035003934183796027 0 2.5353856739334314e-09 0.035000035453322878 0 1.8872742577625907e-05 0.034974715397288407 0 7.1978051162654147e-06 0.035003934183796027 0 1.6742124680286599e-05 0.035011148738003081 0 1.8872742577625907e-05 0.034974715397288407 0 1.6742124680286599e-05 0.035011148738003081 0 9.9036930441989506e-05 0.034983022931640961 0 1.8872742577625907e-05 0.034974715397288407 0 -3.0121495926164581e-06 0.034927813079818827 0 1.9787643622086107e-05 0.034846536457979881 0 7.9320879782160002e-06 0.034744512198454133 0 -1.9186752954903094e-05 0.034726789589349792 0 -1.1734546506558187e-06 0.034701517605550868 0 6.4763565301238671e-05 0.034633889811780047 0 -1.4606652768545257e-05 0.034708596427818462 0 -1.1734546506558187e-06 0.034701517605550868 0 6.4763565301238671e-05 0.034633889811780047 0 -1.1734546506558187e-06 0.034701517605550868 0 -1.8483980401952245e-05 0.034610311162692746 0 6.4763565301238671e-05 0.034633889811780047 0 -1.8483980401952245e-05 0.034610311162692746 0 4.925266783461333e-05 0.034562804932429976 0 -1.9186752954903094e-05 0.034726789589349792 0 -1.1734546506558187e-06 0.034701517605550868 0 -1.8483980401952245e-05 0.034610311162692746 0 1.9787643622086107e-05 0.034846536457979881 0 -6.731104957859008e-07 0.034883695001828835 0 9.9036930441989506e-05 0.034983022931640961 0 9.4432739946777671e-05 0.034879738999923172 0 1.8872742577625907e-05 0.034974715397288407 0 0.00027757047211797518 0.034181945816041004 0 -6.731104957859008e-07 0.034883695001828835 0 0.00023813805529624091 0.034869065113708499 0 9.9036930441989506e-05 0.034983022931640961 0 9.4432739946777671e-05 0.034879738999923172 0 6.7593922926946403e-05 0.034463082803479629 0 -1.8483980401952245e-05 0.034610311162692746 0 4.925266783461333e-05 0.034562804932429976 0 0.00022932705982308082 0.034607871521693694 0 0.00025200920109017444 0.034848152741210406 0 0.00015411816209492851 0.034746333110343953 0 0.00023813805529624091 0.034869065113708499 0 0.00015411816209492851 0.034746333110343953 0 9.4432739946777671e-05 0.034879738999923172 0 0.00027757047211797518 0.034181945816041004 0 0.00026873414321924513 0.034877491377194647 0 0.00010288176861747721 0.034795863516450198 0 0.00015411816209492851 0.034746333110343953 0 9.4432739946777671e-05 0.034879738999923172 0 3.6995152917018451e-05 0.034909410533598126 0 0.00010288176861747721 0.034795863516450198 0 9.4432739946777671e-05 0.034879738999923172 0 3.6995152917018451e-05 0.034909410533598126 0 9.4432739946777671e-05 0.034879738999923172 0 1.8872742577625907e-05 0.034974715397288407 0 3.6995152917018451e-05 0.034909410533598126 0 1.2205912011961918e-10 0.034999887857053491 0 1.8872742577625907e-05 0.034974715397288407 0 2.5353856739334314e-09 0.035000035453322878 0 1.2205912011961918e-10 0.034999887857053491 0 1.8872742577625907e-05 0.034974715397288407 0 0.00024871064418196192 0.034235903883280093 0 1.8118044960746974e-07 0.034998954160148039 0 2.7135537743445514e-07 0.034999313793895225 0 0.00024871064418196192 0.034235903883280093 0 1.8118044960746974e-07 0.034998954160148039 0 0.00016133359975237338 0.034420334905240137 0 0.00024871064418196192 0.034235903883280093 0 0.00029430127453882024 0.033717537651051767 0 0.00016133359975237338 0.034420334905240137 0 0.00024871064418196192 0.034235903883280093 0 0.00031518039139342535 0.033195222973531453 0 0.00029430127453882024 0.033717537651051767 0 0.00031518039139342535 0.033195222973531453 0 0.00019800280827765744 0.03332773647467447 0 0.00028073526561503144 0.03377998844315433 0 0.00031518039139342535 0.033195222973531453 0 0.00019800280827765744 0.03332773647467447 0 5.9104159187088684e-05 0.032437582299534348 0 0.00024871064418196192 0.034235903883280093 0 0.00031518039139342535 0.033195222973531453 0 0.00028073526561503144 0.03377998844315433 0 0.00024871064418196192 0.034235903883280093 0 0.00028073526561503144 0.03377998844315433 0 0.0002385893361443661 0.034289846835079706 0 0.00028073526561503144 0.03377998844315433 0 0.00023747208029721131 0.033996312015367958 0 0.0002385893361443661 0.034289846835079706 0 0.00023747208029721131 0.033996312015367958 0 0.00021414834504301355 0.034539828104174414 0 0.0002385893361443661 0.034289846835079706 0 0.00019800280827765744 0.03332773647467447 0 0.00028073526561503144 0.03377998844315433 0 0.00023747208029721131 0.033996312015367958 0 0.00019800280827765744 0.03332773647467447 0 0.00023747208029721131 0.033996312015367958 0 7.8080538283398958e-05 0.033711857041769204 0 0.00023747208029721131 0.033996312015367958 0 0.00012515673296993515 0.034262869798152039 0 7.8080538283398958e-05 0.033711857041769204 0 0.00023747208029721131 0.033996312015367958 0 0.00012515673296993515 0.034262869798152039 0 0.00021414834504301355 0.034539828104174414 0 0.00024871064418196192 0.034235903883280093 0 0.0002385893361443661 0.034289846835079706 0 2.7135537743445514e-07 0.034999313793895225 0 0.00021414834504301355 0.034539828104174414 0 0.0002385893361443661 0.034289846835079706 0 2.7135537743445514e-07 0.034999313793895225 0 0.00021414834504301355 0.034539828104174414 0 2.7135537743445514e-07 0.034999313793895225 0 1.0761506699036069e-07 0.034999662020772274 0 0.00021414834504301355 0.034539828104174414 0 1.0761506699036069e-07 0.034999662020772274 0 0.00011136817241923806 0.034798858183002587 0 0.00021414834504301355 0.034539828104174414 0 0.00011136817241923806 0.034798858183002587 0 0.0001483431915853086 0.034606064928136067 0 0.00011136817241923806 0.034798858183002587 0 3.8276945457507874e-05 0.034831153484113329 0 0.00011077476946887758 0.03473308306010145 0 1.0761506699036069e-07 0.034999662020772274 0 0.00011136817241923806 0.034798858183002587 0 5.6823012040606901e-08 0.034999779121127256 0 0.00011136817241923806 0.034798858183002587 0 5.6823012040606901e-08 0.034999779121127256 0 3.8276945457507874e-05 0.034831153484113329 0 -3.1426237016612016e-08 0.034999665779072084 0 7.3960041078932214e-07 0.034697077080431432 0 3.8276945457507874e-05 0.034831153484113329 0 7.3960041078932214e-07 0.034697077080431432 0 3.8276945457507874e-05 0.034831153484113329 0 5.4132346649169611e-05 0.0347106739189154 0 -3.1426237016612016e-08 0.034999665779072084 0 5.6823012040606901e-08 0.034999779121127256 0 3.8276945457507874e-05 0.034831153484113329 0 -4.0360030148157801e-06 0.034396710142443845 0 0.000257040043390695 0.034818467941972894 0 5.4132346649169611e-05 0.0347106739189154 0 0.000257040043390695 0.034818467941972894 0 5.4132346649169611e-05 0.0347106739189154 0 0.00012486375253617407 0.034695957293354014 0 3.8276945457507874e-05 0.034831153484113329 0 5.4132346649169611e-05 0.0347106739189154 0 0.00011077476946887758 0.03473308306010145 0 5.4132346649169611e-05 0.0347106739189154 0 0.00012486375253617407 0.034695957293354014 0 0.00011077476946887758 0.03473308306010145 0 2.7343417757386761e-05 0.034523356369394867 0 0.00014194562514548934 0.034719631725419905 0 0.00012486375253617407 0.034695957293354014 0 0.00013903705123223975 0.034551343871859368 0 0.00011077476946887758 0.03473308306010145 0 5.3033075455427515e-05 0.034605997242383481 0 0.00011077476946887758 0.03473308306010145 0 0.0001483431915853086 0.034606064928136067 0 0.00011136817241923806 0.034798858183002587 0 0.00011077476946887758 0.03473308306010145 0 0.0001483431915853086 0.034606064928136067 0 0.00012515673296993515 0.034262869798152039 0 0.00021414834504301355 0.034539828104174414 0 0.0001483431915853086 0.034606064928136067 0 0.00012515673296993515 0.034262869798152039 0 5.3033075455427515e-05 0.034605997242383481 0 0.0001483431915853086 0.034606064928136067 0 0.00012515673296993515 0.034262869798152039 0 5.3033075455427515e-05 0.034605997242383481 0 -0.00016150057272074024 0.034346098923015191 0 2.7343417757386761e-05 0.034523356369394867 0 0.00015723463480316884 0.034625125583602513 0 8.6607788742227609e-07 0.034286585783762868 0 -0.00019093939208440728 0.034398707880126597 0 1.4292476087045551e-05 0.034531917625003974 0 0.00013903705123223975 0.034551343871859368 0 8.6607788742227609e-07 0.034286585783762868 0 1.4292476087045551e-05 0.034531917625003974 0 8.6607788742227609e-07 0.034286585783762868 0 -0.00019093939208440728 0.034398707880126597 0 -0.00029749617494297635 0.034006832917853051 0 -0.0012710225090681361 0.030622120588530706 0 -0.0010167049285123811 0.031404643905311898 0 -0.0023440628217215112 0.026925203600797278 0 -0.0014023331037540075 0.027598238811937213 0 -0.0020579614290230164 0.028677725261536627 0 -0.0023440628217215112 0.026925203600797278 0 -0.0015340862638867226 0.025991950048051597 0 -0.0014023331037540075 0.027598238811937213 0 -0.0012710225090681361 0.030622120588530706 0 -0.0013060010884682768 0.030181616993000704 0 -0.0023440628217215112 0.026925203600797278 0 -0.0024928228962983094 0.025409894427152555 0 -0.0015340862638867226 0.025991950048051597 0 -0.00019093939208440728 0.034398707880126597 0 1.4292476087045551e-05 0.034531917625003974 0 -5.8512155586108204e-05 0.034629238195972481 0 0.00012486375253617407 0.034695957293354014 0 1.4292476087045551e-05 0.034531917625003974 0 -5.8512155586108204e-05 0.034629238195972481 0 0.00012486375253617407 0.034695957293354014 0 0.00013903705123223975 0.034551343871859368 0 1.4292476087045551e-05 0.034531917625003974 0 -0.0013060010884682768 0.030181616993000704 0 -0.00057795521892978045 0.028500185757780204 0 0.00012486375253617407 0.034695957293354014 0 -5.8512155586108204e-05 0.034629238195972481 0 4.8278744737734698e-05 0.034762735828982261 0 -0.0024928228962983094 0.025409894427152555 0 -0.0011431292519473056 0.024727533343534065 0 -0.0015340862638867226 0.025991950048051597 0 -0.0024928228962983094 0.025409894427152555 0 -0.0027325088711408255 0.024080742561479799 0 -0.0011431292519473056 0.024727533343534065 0 -0.00042914344710003662 0.022501932051931621 0 -0.00097203395257009742 0.021457454119805802 0 1.7540943137451575e-05 0.020884883974659093 0 -0.00057795521892978045 0.028500185757780204 0 -0.0018834427657379298 0.021687333357966555 0 -0.00097203395257009742 0.021457454119805802 0 1.7540943137451575e-05 0.020884883974659093 0 -0.0018570578070456472 0.020265055217138058 0 0.000257040043390695 0.034818467941972894 0 0.00012486375253617407 0.034695957293354014 0 4.8278744737734698e-05 0.034762735828982261 0 0.0016794781522266697 0.035118128166642039 0 -0.00057795521892978045 0.028500185757780204 0 -0.0033836949673307299 0.020841360193017109 0 -0.002850002428914266 0.020300822881306989 0 -0.0037724230833789969 0.020339577060733548 0 -0.0033836949673307299 0.020841360193017109 0 -0.0022862637096926893 0.021334761093913763 0 -0.002850002428914266 0.020300822881306989 0 -0.0033836949673307299 0.020841360193017109 0 -0.0037724230833789969 0.020339577060733548 0 -0.0040211999846417089 0.020662967085130084 0 -0.0031748741064222333 0.021619898554759695 0 -0.0033836949673307299 0.020841360193017109 0 -0.0037403254254140474 0.021234727634346241 0 -0.0033836949673307299 0.020841360193017109 0 -0.0037403254254140474 0.021234727634346241 0 -0.0040211999846417089 0.020662967085130084 0 -0.0031748741064222333 0.021619898554759695 0 -0.0033836949673307299 0.020841360193017109 0 -0.0022862637096926893 0.021334761093913763 0 -0.00097203395257009742 0.021457454119805802 0 -0.0022862637096926893 0.021334761093913763 0 -0.002850002428914266 0.020300822881306989 0 -0.0010884099947968606 0.021393580989044633 0 -0.0026783211755512658 0.020479391055581622 0 -0.00097203395257009742 0.021457454119805802 0 -0.0018570578070456472 0.020265055217138058 0 -0.0025638862390787846 0.02058000974569589 0 -0.0018834427657379298 0.021687333357966555 0 -0.0014646705273984419 0.022768236899671848 0 -0.0026783211755512658 0.020479391055581622 0 -0.0040630667786150316 0.019907208623949752 0 -0.0011431292519473056 0.024727533343534065 0 0.00026908741330313374 0.025437979633714119 0 -0.00050542846965733964 0.025717071887020656 0 -0.0025638862390787846 0.02058000974569589 0 -0.0034198525228041274 0.01984762183510325 0 -0.0038701933173414353 0.01996056548931445 0 -0.002850002428914266 0.020300822881306989 0 -0.0037724230833789969 0.020339577060733548 0 -0.004268064627203509 0.019839659623820581 0 -0.0018570578070456472 0.020265055217138058 0 -0.0025638862390787846 0.02058000974569589 0 -0.0034198525228041274 0.01984762183510325 0 0.00026908741330313374 0.025437979633714119 0 0.00014414329288307576 0.025848020513690943 0 -0.00050542846965733964 0.025717071887020656 0 0.00014414329288307576 0.025848020513690943 0 -0.00050542846965733964 0.025717071887020656 0 -0.00043884961420388328 0.026671493419073107 0 0.00026908741330313374 0.025437979633714119 0 0.00014414329288307576 0.025848020513690943 0 0.0003444770903256745 0.025527179326102663 0 -0.0011431292519473056 0.024727533343534065 0 -0.0015340862638867226 0.025991950048051597 0 -0.00050542846965733964 0.025717071887020656 0 -0.0015340862638867226 0.025991950048051597 0 -0.00050542846965733964 0.025717071887020656 0 -0.00043884961420388328 0.026671493419073107 0 -0.0015340862638867226 0.025991950048051597 0 -0.0014023331037540075 0.027598238811937213 0 -0.00043884961420388328 0.026671493419073107 0 -0.0014023331037540075 0.027598238811937213 0 -0.00043884961420388328 0.026671493419073107 0 -0.00051053003036571844 0.028534676834970983 0 -0.00047862387282267342 0.026592902030481796 0 0.00047614874673242846 0.026742109120173059 0 -0.00043884961420388328 0.026671493419073107 0 -0.00051053003036571844 0.028534676834970983 0 0.00074351034298824107 0.028412955403952868 0 0.00014414329288307576 0.025848020513690943 0 -0.00043884961420388328 0.026671493419073107 0 0.00054696146469696472 0.025177592096525911 0 -0.00051053003036571844 0.028534676834970983 0 0.00039659479110272359 0.02939569411336548 0 0.00074351034298824107 0.028412955403952868 0 -0.00019000866271362413 0.029963309158865928 0 -0.00051053003036571844 0.028534676834970983 0 0.00039659479110272359 0.02939569411336548 0 -0.00019000866271362413 0.029963309158865928 0 0.00027776495363510177 0.030066033560712104 0 0.00039659479110272359 0.02939569411336548 0 -0.00019000866271362413 0.029963309158865928 0 -0.001105112464471 0.029505815375914353 0 -0.00096660182245078313 0.030129803996954189 0 -0.00066561761797835693 0.029155055962620042 0 -0.0010167049285123811 0.031404643905311898 0 -0.00019000866271362413 0.029963309158865928 0 -0.00096660182245078313 0.030129803996954189 0 -0.00051888726824096351 0.031408692202833287 0 -0.0014023331037540075 0.027598238811937213 0 -0.00051053003036571844 0.028534676834970983 0 -0.0020579614290230164 0.028677725261536627 0 -0.00019000866271362413 0.029963309158865928 0 -0.00051053003036571844 0.028534676834970983 0 -0.0020579614290230164 0.028677725261536627 0 0.00015723463480316884 0.034625125583602513 0 -0.0010167049285123811 0.031404643905311898 0 -0.00068540014040998482 0.033931321681617707 0 -0.0001616842360336333 0.033916984352939904 0 -0.00014920857770578611 0.033068860922392682 0 -0.00016150057272074024 0.034346098923015191 0 -0.00068540014040998482 0.033931321681617707 0 -0.0001616842360336333 0.033916984352939904 0 0.00012515673296993515 0.034262869798152039 0 -0.00016150057272074024 0.034346098923015191 0 -0.0001616842360336333 0.033916984352939904 0 0.00012515673296993515 0.034262869798152039 0 -0.0001616842360336333 0.033916984352939904 0 7.8080538283398958e-05 0.033711857041769204 0 -0.0001616842360336333 0.033916984352939904 0 -0.00014920857770578611 0.033068860922392682 0 7.8080538283398958e-05 0.033711857041769204 0 0.00019800280827765744 0.03332773647467447 0 -0.00014920857770578611 0.033068860922392682 0 7.8080538283398958e-05 0.033711857041769204 0 -0.0010167049285123811 0.031404643905311898 0 -0.0008095560150801805 0.031656527876114671 0 -0.00014920857770578611 0.033068860922392682 0 -0.00079947388461626932 0.033065259198771499 0 -0.00051888726824096351 0.031408692202833287 0 -0.00068540014040998482 0.033931321681617707 0 -0.00014920857770578611 0.033068860922392682 0 -0.00079947388461626932 0.033065259198771499 0 -0.00014920857770578611 0.033068860922392682 0 5.9104159187088684e-05 0.032437582299534348 0 -0.00051888726824096351 0.031408692202833287 0 -0.0008095560150801805 0.031656527876114671 0 -0.00064507868657665587 0.031466364009132365 0 0.00019800280827765744 0.03332773647467447 0 -0.00014920857770578611 0.033068860922392682 0 5.9104159187088684e-05 0.032437582299534348 0 0.00031518039139342535 0.033195222973531453 0 5.9104159187088684e-05 0.032437582299534348 0 0.00021798829401935656 0.032335129302304637 0 5.9104159187088684e-05 0.032437582299534348 0 0.00021798829401935656 0.032335129302304637 0 -4.8514257128630177e-07 0.031560654656842414 0 5.9104159187088684e-05 0.032437582299534348 0 -4.8514257128630177e-07 0.031560654656842414 0 -0.00051888726824096351 0.031408692202833287 0 -4.8514257128630177e-07 0.031560654656842414 0 5.9297273884301338e-05 0.030772925379014483 0 -0.00051888726824096351 0.031408692202833287 0 5.9297273884301338e-05 0.030772925379014483 0 5.6293691039199507e-05 0.030566824675591298 0 -0.00051888726824096351 0.031408692202833287 0 5.9297273884301338e-05 0.030772925379014483 0 5.6293691039199507e-05 0.030566824675591298 0 0.00032974359288850025 0.03010444023319276 0 5.6293691039199507e-05 0.030566824675591298 0 0.00027776495363510177 0.030066033560712104 0 0.00032974359288850025 0.03010444023319276 0 -0.00019000866271362413 0.029963309158865928 0 5.6293691039199507e-05 0.030566824675591298 0 0.00027776495363510177 0.030066033560712104 0 -0.00019000866271362413 0.029963309158865928 0 5.6293691039199507e-05 0.030566824675591298 0 -0.00051888726824096351 0.031408692202833287 0 0.00051507972416048754 0.029749810262482194 0 0.00042665694416148291 0.029652631171699882 0 0.00051329014170632128 0.029517025611440231 0 0.00051507972416048754 0.029749810262482194 0 0.00032974359288850025 0.03010444023319276 0 0.00042665694416148291 0.029652631171699882 0 0.00027776495363510177 0.030066033560712104 0 0.00051507972416048754 0.029749810262482194 0 0.00032974359288850025 0.03010444023319276 0 0.00032974359288850025 0.03010444023319276 0 0.00042665694416148291 0.029652631171699882 0 0.0003878213013565441 0.029078809479970092 0 0.00042665694416148291 0.029652631171699882 0 0.00021587819148693885 0.029323630426716863 0 0.0003878213013565441 0.029078809479970092 0 0.00012367534457688535 0.029172051747789886 0 -0.0003295179930954328 0.029738038355816208 0 0.00021587819148693885 0.029323630426716863 0 0.0001758492276474829 0.029356543076523318 0 6.4815865893649908e-05 0.029175141358801403 0 0.00021587819148693885 0.029323630426716863 0 0.00051329014170632128 0.029517025611440231 0 0.0001758492276474829 0.029356543076523318 0 0.00042665694416148291 0.029652631171699882 0 0.00021587819148693885 0.029323630426716863 0 0.00051329014170632128 0.029517025611440231 0 0.00051329014170632128 0.029517025611440231 0 0.00032892385609957432 0.029544770443758972 0 0.00069534762518876797 0.029349560252061251 0 0.00051329014170632128 0.029517025611440231 0 0.00032892385609957432 0.029544770443758972 0 0.0001758492276474829 0.029356543076523318 0 -0.0016214769530220343 0.021735736132930738 0 -0.0013061214533063889 0.02317233261116395 0 -9.2778642328806014e-05 0.023489992165203876 0 -0.0016214769530220343 0.021735736132930738 0 -0.0013061214533063889 0.02317233261116395 0 -0.0025235165192437105 0.022985412874482976 0 -0.00070342926800694551 0.02560388860210008 0 0.00022794860374688046 0.026375220013455745 0 0.00022794860374688046 0.026375220013455745 0 0.00047614874673242846 0.026742109120173059 0 0.00069534762518876797 0.029349560252061251 0 0.00066142505823099521 0.029378355363234122 0 0.00074351034298824107 0.028412955403952868 0 0.00051507972416048754 0.029749810262482194 0 0.00051329014170632128 0.029517025611440231 0 0.00066142505823099521 0.029378355363234122 0 0.00051329014170632128 0.029517025611440231 0 0.00069534762518876797 0.029349560252061251 0 0.00066142505823099521 0.029378355363234122 0 0.00027776495363510177 0.030066033560712104 0 0.00051507972416048754 0.029749810262482194 0 0.00039659479110272359 0.02939569411336548 0 0.00051507972416048754 0.029749810262482194 0 0.00066142505823099521 0.029378355363234122 0 0.00039659479110272359 0.02939569411336548 0 0.00066142505823099521 0.029378355363234122 0 0.00039659479110272359 0.02939569411336548 0 0.00074351034298824107 0.028412955403952868 0 0.00054696146469696472 0.025177592096525911 0 0.00027497895633120991 0.024959338128973996 0 0.0003444770903256745 0.025527179326102663 0 0.00014414329288307576 0.025848020513690943 0 0.00054696146469696472 0.025177592096525911 0 0.0003444770903256745 0.025527179326102663 0 -9.2778642328806014e-05 0.023489992165203876 0 0.00054696146469696472 0.025177592096525911 0 0.00027497895633120991 0.024959338128973996 0 -9.2778642328806014e-05 0.023489992165203876 0 0.00027497895633120991 0.024959338128973996 0 -0.00010399325685162259 0.024608771774499591 0 0.00027497895633120991 0.024959338128973996 0 -0.00010399325685162259 0.024608771774499591 0 0.00025843030730652211 0.025398509738804566 0 -0.0047293055881733759 0.019735301792470825 0 -0.0040630667786150316 0.019907208623949752 0 -0.0047763109261947352 0.019763570280634475 0 -0.0045524504707697474 0.019752610696579166 0 -0.0038701933173414353 0.01996056548931445 0 -0.0047763109261947352 0.019763570280634475 0 -0.0046591297529541978 0.019919157322032744 0 -0.004268064627203509 0.019839659623820581 0 0.00027497895633120991 0.024959338128973996 0 0.00025843030730652211 0.025398509738804566 0 0.0003444770903256745 0.025527179326102663 0 -0.0047763109261947352 0.019763570280634475 0 -0.0046591297529541978 0.019919157322032744 0 -0.0049391535823534397 0.01994728142942731 0 -0.0034198525228041274 0.01984762183510325 0 -0.0045524504707697474 0.019752610696579166 0 -0.0038701933173414353 0.01996056548931445 0 -0.0014646705273984419 0.022768236899671848 0 -0.0021489211380088672 0.022547045367875627 0 0.00026908741330313374 0.025437979633714119 0 0.00025843030730652211 0.025398509738804566 0 0.0003444770903256745 0.025527179326102663 0 -0.0037724230833789969 0.020339577060733548 0 -0.0042692146564408257 0.020238727841720861 0 -0.0040211999846417089 0.020662967085130084 0 -0.0037724230833789969 0.020339577060733548 0 -0.004268064627203509 0.019839659623820581 0 -0.0042692146564408257 0.020238727841720861 0 -0.0042692146564408257 0.020238727841720861 0 -0.0045538912949636308 0.020092824147701294 0 -0.0044913170931793703 0.020438468330297607 0 -0.004268064627203509 0.019839659623820581 0 -0.0042692146564408257 0.020238727841720861 0 -0.0045538912949636308 0.020092824147701294 0 -0.0046591297529541978 0.019919157322032744 0 -0.004268064627203509 0.019839659623820581 0 -0.0045538912949636308 0.020092824147701294 0 -0.0046591297529541978 0.019919157322032744 0 -0.0045538912949636308 0.020092824147701294 0 -0.0047946552126786751 0.020036609144926606 0 -0.0046591297529541978 0.019919157322032744 0 -0.0047946552126786751 0.020036609144926606 0 -0.0049391535823534397 0.01994728142942731 0 -0.0047946552126786751 0.020036609144926606 0 -0.0050327739021424206 0.020142962196791087 0 -0.0049391535823534397 0.01994728142942731 0 -0.0047946552126786751 0.020036609144926606 0 -0.0048401298990323732 0.020295261154114695 0 -0.0050327739021424206 0.020142962196791087 0 -0.0048401298990323732 0.020295261154114695 0 -0.0051805483568538842 0.020413691734744055 0 -0.0050327739021424206 0.020142962196791087 0 -0.0045538912949636308 0.020092824147701294 0 -0.0048401298990323732 0.020295261154114695 0 -0.0044913170931793703 0.020438468330297607 0 -0.0045538912949636308 0.020092824147701294 0 -0.0047946552126786751 0.020036609144926606 0 -0.0048401298990323732 0.020295261154114695 0 -0.0048401298990323732 0.020295261154114695 0 -0.0048699604020841563 0.020762291353277017 0 -0.0044913170931793703 0.020438468330297607 0 -0.0048401298990323732 0.020295261154114695 0 -0.0048699604020841563 0.020762291353277017 0 -0.0051805483568538842 0.020413691734744055 0 -0.0048699604020841563 0.020762291353277017 0 -0.0053692412148447569 0.020694065963385383 0 -0.0051805483568538842 0.020413691734744055 0 -0.0048699604020841563 0.020762291353277017 0 -0.0043165730069530612 0.020992249548512861 0 -0.0044913170931793703 0.020438468330297607 0 -0.00451842532368695 0.021458653952187958 0 -0.0048699604020841563 0.020762291353277017 0 -0.0043165730069530612 0.020992249548512861 0 -0.0037403254254140474 0.021234727634346241 0 -0.0043165730069530612 0.020992249548512861 0 -0.0040211999846417089 0.020662967085130084 0 -0.0043165730069530612 0.020992249548512861 0 -0.0040211999846417089 0.020662967085130084 0 -0.0044913170931793703 0.020438468330297607 0 -0.0042692146564408257 0.020238727841720861 0 -0.0040211999846417089 0.020662967085130084 0 -0.0044913170931793703 0.020438468330297607 0 -0.0054451712328215576 0.020409018738505452 0 -0.0053201925072357799 0.02014453195693483 0 -0.005302530960720738 0.020120697977080618 0 -0.005276339854233353 0.020257909300012485 0 -0.0054451712328215576 0.020409018738505452 0 -0.005302530960720738 0.020120697977080618 0 -0.0054451712328215576 0.020409018738505452 0 -0.0053692412148447569 0.020694065963385383 0 -0.0051805483568538842 0.020413691734744055 0 -0.0054451712328215576 0.020409018738505452 0 -0.0051805483568538842 0.020413691734744055 0 -0.0052498074087071909 0.020229248967230828 0 -0.0052498074087071909 0.020229248967230828 0 -0.0051924600275506643 0.020035549998632409 0 -0.0053201925072357799 0.02014453195693483 0 -0.0051805483568538842 0.020413691734744055 0 -0.0052498074087071909 0.020229248967230828 0 -0.0050327739021424206 0.020142962196791087 0 -0.0052498074087071909 0.020229248967230828 0 -0.0050327739021424206 0.020142962196791087 0 -0.0051924600275506643 0.020035549998632409 0 -0.0050327739021424206 0.020142962196791087 0 -0.0051924600275506643 0.020035549998632409 0 -0.0049391535823534397 0.01994728142942731 0 -0.0053201925072357799 0.02014453195693483 0 -0.0052843244091176304 0.0199078059041293 0 -0.005302530960720738 0.020120697977080618 0 -0.0051924600275506643 0.020035549998632409 0 -0.0053201925072357799 0.02014453195693483 0 -0.0052843244091176304 0.0199078059041293 0 -0.0054451712328215576 0.020409018738505452 0 -0.0052498074087071909 0.020229248967230828 0 -0.0053201925072357799 0.02014453195693483 0 -0.0052843244091176304 0.0199078059041293 0 -0.0051197928830796846 0.019872167511429787 0 -0.0052424997314212103 0.019741317809780827 0 -0.0047763109261947352 0.019763570280634475 0 -0.0045524504707697474 0.019752610696579166 0 -0.0052424997314212103 0.019741317809780827 0 -0.0021489211380088672 0.022547045367875627 0 -0.0030360653780169555 0.022088188390319591 0 -0.0047763109261947352 0.019763570280634475 0 -0.0051197928830796846 0.019872167511429787 0 -0.0052424997314212103 0.019741317809780827 0 -0.0051924600275506643 0.020035549998632409 0 -0.0052843244091176304 0.0199078059041293 0 -0.0051197928830796846 0.019872167511429787 0 -0.0051924600275506643 0.020035549998632409 0 -0.0049391535823534397 0.01994728142942731 0 -0.0051197928830796846 0.019872167511429787 0 -0.0047763109261947352 0.019763570280634475 0 -0.0049391535823534397 0.01994728142942731 0 -0.0051197928830796846 0.019872167511429787 0 -0.0013061214533063889 0.02317233261116395 0 -9.2778642328806014e-05 0.023489992165203876 0 -0.00089502623375781242 0.024466892952323075 0 -0.00010399325685162259 0.024608771774499591 0 0.00025843030730652211 0.025398509738804566 0 -0.00089502623375781242 0.024466892952323075 0 -9.2778642328806014e-05 0.023489992165203876 0 -0.00010399325685162259 0.024608771774499591 0 -0.00089502623375781242 0.024466892952323075 0 -0.0052843244091176304 0.0199078059041293 0 -0.0052424997314212103 0.019741317809780827 0 -0.0052515819976682795 0.019749471175490786 0 -0.0013061214533063889 0.02317233261116395 0 -0.00089502623375781242 0.024466892952323075 0 -0.0025235165192437105 0.022985412874482976 0 -0.0030360653780169555 0.022088188390319591 0 -0.0037952914399988209 0.021455100239540947 0 -0.0052628821376262134 0.019728166974043917 0 -0.005269223252208053 0.019846260518807703 0 -0.0052515819976682795 0.019749471175490786 0 -0.005269223252208053 0.019846260518807703 0 -0.0052437075391562936 0.019941790414744545 0 -0.0052471522729714091 0.019795983055320692 0 -0.0052628821376262134 0.019728166974043917 0 -0.005269223252208053 0.019846260518807703 0 -0.0052471522729714091 0.019795983055320692 0 -0.0052843244091176304 0.0199078059041293 0 -0.005269223252208053 0.019846260518807703 0 -0.0052515819976682795 0.019749471175490786 0 -0.0052843244091176304 0.0199078059041293 0 -0.005269223252208053 0.019846260518807703 0 -0.005302530960720738 0.020120697977080618 0 -0.005269223252208053 0.019846260518807703 0 -0.005302530960720738 0.020120697977080618 0 -0.0052437075391562936 0.019941790414744545 0 -0.005302530960720738 0.020120697977080618 0 -0.0052437075391562936 0.019941790414744545 0 -0.0051997638404881153 0.020032375133375319 0 -0.005276339854233353 0.020257909300012485 0 -0.005302530960720738 0.020120697977080618 0 -0.0051997638404881153 0.020032375133375319 0 -0.0052298065721835532 0.019977663660000314 0 -0.0052417873994716679 0.019868097427041181 0 -0.0053179907984380022 0.019853846624382911 0 -0.0039375696223791692 0.017994298702216291 0 -0.0038707079364231943 0.017925732970944665 0 -0.0052437075391562936 0.019941790414744545 0 -0.0051997638404881153 0.020032375133375319 0 -0.0052417873994716679 0.019868097427041181 0 -0.0052298065721835532 0.019977663660000314 0 -0.0051997638404881153 0.020032375133375319 0 -0.0052417873994716679 0.019868097427041181 0 -0.0052437075391562936 0.019941790414744545 0 -0.0052417873994716679 0.019868097427041181 0 -0.0052471522729714091 0.019795983055320692 0 -0.0052417873994716679 0.019868097427041181 0 -0.0052423133475555704 0.019691442284469708 0 -0.0052471522729714091 0.019795983055320692 0 -0.0052417873994716679 0.019868097427041181 0 -0.0053050363634603503 0.019735516515754 0 -0.0053179907984380022 0.019853846624382911 0 -0.0052417873994716679 0.019868097427041181 0 -0.0052423133475555704 0.019691442284469708 0 -0.0053050363634603503 0.019735516515754 0 -0.0052423133475555704 0.019691442284469708 0 -0.005206555729212285 0.019559043785159509 0 -0.0053042826535627799 0.019603789728847118 0 -0.0052423133475555704 0.019691442284469708 0 -0.005244775814809228 0.019644072693474519 0 -0.005206555729212285 0.019559043785159509 0 -0.0052423133475555704 0.019691442284469708 0 -0.0052471522729714091 0.019795983055320692 0 -0.005244775814809228 0.019644072693474519 0 -0.0052628821376262134 0.019728166974043917 0 -0.005244775814809228 0.019644072693474519 0 -0.0052599509877542874 0.019672738390719504 0 -0.0052628821376262134 0.019728166974043917 0 -0.0052471522729714091 0.019795983055320692 0 -0.005244775814809228 0.019644072693474519 0 -0.005244775814809228 0.019644072693474519 0 -0.0052362630671785393 0.019531707993595895 0 -0.0052689213480248045 0.019629120571353562 0 -0.005244775814809228 0.019644072693474519 0 -0.0052599509877542874 0.019672738390719504 0 -0.0052689213480248045 0.019629120571353562 0 -0.005244775814809228 0.019644072693474519 0 -0.005206555729212285 0.019559043785159509 0 -0.0052362630671785393 0.019531707993595895 0 -0.005206555729212285 0.019559043785159509 0 -0.0052362630671785393 0.019531707993595895 0 -0.0051360493477329502 0.019339475300226373 0 -0.0052362630671785393 0.019531707993595895 0 -0.0052827563130971675 0.019622895754165846 0 -0.0051360493477329502 0.019339475300226373 0 -0.0052362630671785393 0.019531707993595895 0 -0.0052827563130971675 0.019622895754165846 0 -0.0052689213480248045 0.019629120571353562 0 -0.0044879436923228782 0.017890044968126888 0 -0.0042455522449429709 0.018907939503679919 0 -0.0038373930765803082 0.018183091637934724 0 -0.0044879436923228782 0.017890044968126888 0 -0.0042455522449429709 0.018907939503679919 0 -0.0051716617306451478 0.018461395979666537 0 -0.0043142833354443228 0.019432665238696259 0 -0.0042455522449429709 0.018907939503679919 0 -0.0043441919138613371 0.020042431892235802 0 -0.0042788009287251993 0.019110812165447924 0 -0.0046993434151748831 0.01926919176744676 0 -0.0043142833354443228 0.019432665238696259 0 -0.0042455522449429709 0.018907939503679919 0 -0.0041353136377802894 0.01906724913631402 0 -0.0042455522449429709 0.018907939503679919 0 -0.0041353136377802894 0.01906724913631402 0 -0.0038607638642284689 0.018775946506967046 0 -0.0040996444639516093 0.019979100805244721 0 -0.0034111170756926323 0.020188583150871457 0 -0.0043374779845691226 0.019401558360426962 0 -0.0043142833354443228 0.019432665238696259 0 -0.0040996444639516093 0.019979100805244721 0 -0.0043374779845691226 0.019401558360426962 0 -0.0043142833354443228 0.019432665238696259 0 -0.0040996444639516093 0.019979100805244721 0 -0.0043441919138613371 0.020042431892235802 0 -0.0040996444639516093 0.019979100805244721 0 -0.004066217618649704 0.020431710996165867 0 -0.0038151971364757762 0.020651218157749215 0 -0.0040996444639516093 0.019979100805244721 0 -0.0043441919138613371 0.020042431892235802 0 -0.004066217618649704 0.020431710996165867 0 -0.0046993434151748831 0.01926919176744676 0 -0.0048402006554200058 0.019886119554760832 0 -0.0050523588428647969 0.018638111245446943 0 -0.0048402006554200058 0.019886119554760832 0 -0.0052827563130971675 0.019622895754165846 0 -0.0052689213480248045 0.019629120571353562 0 -0.0052596037051248958 0.019663073005042636 0 -0.0044879436923228782 0.017890044968126888 0 -0.0051716617306451478 0.018461395979666537 0 -0.0060741920885208642 0.018078295032181363 0 -0.0043441919138613371 0.020042431892235802 0 -0.004066217618649704 0.020431710996165867 0 -0.0039640592276183164 0.021079805283245497 0 -0.0052599509877542874 0.019672738390719504 0 -0.0052689213480248045 0.019629120571353562 0 -0.0052596037051248958 0.019663073005042636 0 -0.0048402006554200058 0.019886119554760832 0 -0.0037952914399988209 0.021455100239540947 0 -0.0041588350498019296 0.021259797497366499 0 -0.0037353613267485483 0.021358912152673711 0 -0.0025235165192437105 0.022985412874482976 0 -0.0052628821376262134 0.019728166974043917 0 -0.0052599509877542874 0.019672738390719504 0 -0.0052596037051248958 0.019663073005042636 0 -0.0052628821376262134 0.019728166974043917 0 -0.0052596037051248958 0.019663073005042636 0 -0.0052515819976682795 0.019749471175490786 0 -0.0037353613267485483 0.021358912152673711 0 -0.0028831759185652985 0.021428334969807256 0 -0.0034419211005762675 0.020899855083664307 0 -0.0039640592276183164 0.021079805283245497 0 -0.0037353613267485483 0.021358912152673711 0 -0.0038151971364757762 0.020651218157749215 0 -0.004066217618649704 0.020431710996165867 0 -0.0039640592276183164 0.021079805283245497 0 -0.0038151971364757762 0.020651218157749215 0 -0.0048402006554200058 0.019886119554760832 0 -0.0041759429029506658 0.020227840523066077 0 -0.0016214769530220343 0.021735736132930738 0 -0.0025235165192437105 0.022985412874482976 0 -0.0028831759185652985 0.021428334969807256 0 -0.0037353613267485483 0.021358912152673711 0 -0.0025235165192437105 0.022985412874482976 0 -0.0028831759185652985 0.021428334969807256 0 -0.00070342926800694551 0.02560388860210008 0 -0.0017383752167340282 0.024945031564495356 0 0.00032892385609957432 0.029544770443758972 0 -5.4860438964496134e-05 0.029446633230491331 0 0.0001758492276474829 0.029356543076523318 0 -0.0016214769530220343 0.021735736132930738 0 -0.0028831759185652985 0.021428334969807256 0 -0.0034111170756926323 0.020188583150871457 0 -0.0040996444639516093 0.019979100805244721 0 -0.0038151971364757762 0.020651218157749215 0 -0.0034111170756926323 0.020188583150871457 0 -0.0037353613267485483 0.021358912152673711 0 -0.0038151971364757762 0.020651218157749215 0 -0.0034419211005762675 0.020899855083664307 0 -0.0038151971364757762 0.020651218157749215 0 -0.0034419211005762675 0.020899855083664307 0 -0.0034111170756926323 0.020188583150871457 0 -0.0028831759185652985 0.021428334969807256 0 -0.0034419211005762675 0.020899855083664307 0 -0.0034111170756926323 0.020188583150871457 0 -5.4860438964496134e-05 0.029446633230491331 0 -0.00014691494660721381 0.029265405958930287 0 -0.00040727801759738591 0.029278951623438482 0 -0.00014691494660721381 0.029265405958930287 0 0.0001758492276474829 0.029356543076523318 0 6.4815865893649908e-05 0.029175141358801403 0 -5.4860438964496134e-05 0.029446633230491331 0 -0.00014691494660721381 0.029265405958930287 0 0.0001758492276474829 0.029356543076523318 0 -0.0003295179930954328 0.029738038355816208 0 -0.0021346677992643307 0.025385864437989913 0 -0.00014691494660721381 0.029265405958930287 0 6.4815865893649908e-05 0.029175141358801403 0 -0.00032507508515957446 0.029072037254401672 0 -0.0042779469061939345 0.019369510930224567 0 -0.0040287696643723052 0.019325944722387439 0 -0.0041353136377802894 0.01906724913631402 0 -0.00089951175613903135 0.024069952768975632 0 -0.00095192314730441273 0.024050069096774401 0 -0.00089777352921185688 0.024053073534798592 0 -0.0021346677992643307 0.025385864437989913 0 -0.0025356908021632605 0.021397229198017075 0 -0.0042779469061939345 0.019369510930224567 0 -0.0041353136377802894 0.01906724913631402 0 -0.0042079801631286096 0.019175577873415482 0 -0.0043142833354443228 0.019432665238696259 0 -0.0041353136377802894 0.01906724913631402 0 -0.0042079801631286096 0.019175577873415482 0 -0.0021346677992643307 0.025385864437989913 0 -0.0022859128746056151 0.023475954888296513 0 -0.0033897860477359013 0.018951356607601711 0 -0.0022859128746056151 0.023475954888296513 0 -0.00014691494660721381 0.029265405958930287 0 -0.00032507508515957446 0.029072037254401672 0 -0.00040727801759738591 0.029278951623438482 0 -0.0017383752167340282 0.024945031564495356 0 -0.0022859128746056151 0.023475954888296513 0 -0.0009420544963954393 0.023981279148996233 0 -0.00086150347324246985 0.023963736511675989 0 -0.0010444121801942673 0.023899114598303649 0 -0.0009420544963954393 0.023981279148996233 0 -0.00081525457131824809 0.024124065460128848 0 -0.00086150347324246985 0.023963736511675989 0 -0.00095192314730441273 0.024050069096774401 0 -0.00089777352921185688 0.024053073534798592 0 -0.0009420544963954393 0.023981279148996233 0 -0.00089777352921185688 0.024053073534798592 0 -0.0009420544963954393 0.023981279148996233 0 -0.00081525457131824809 0.024124065460128848 0 -0.0021346677992643307 0.025385864437989913 0 -0.0013986757691888136 0.026169115124874808 0 -0.00089951175613903135 0.024069952768975632 0 -0.00089777352921185688 0.024053073534798592 0 -0.00081525457131824809 0.024124065460128848 0 -0.0010024162874404819 0.029273193836536617 0 -0.0026206148051545319 0.029275123867280352 0 -0.002078826498040968 0.027650988157681581 0 -0.0010024162874404819 0.029273193836536617 0 -0.0003826999591851893 0.027876418310196261 0 -0.002078826498040968 0.027650988157681581 0 -0.0003826999591851893 0.027876418310196261 0 -0.002078826498040968 0.027650988157681581 0 -0.00086773918143831638 0.025028389203782878 0 -0.00081525457131824809 0.024124065460128848 0 -0.00086773918143831638 0.025028389203782878 0 -0.00066565051276341435 0.024056989812083818 0 -0.0013986757691888136 0.026169115124874808 0 -0.00092028323938828191 0.024940769993292471 0 -0.00086773918143831638 0.025028389203782878 0 -0.00066565051276341435 0.024056989812083818 0 -0.00049730587592650155 0.02327284004634118 0 -0.00081525457131824809 0.024124065460128848 0 -0.00066565051276341435 0.024056989812083818 0 -0.00086150347324246985 0.023963736511675989 0 -0.00086150347324246985 0.023963736511675989 0 -0.00091979943250278381 0.023687928455694576 0 -0.0010890564200795687 0.023781204591306438 0 -0.00066565051276341435 0.024056989812083818 0 -0.00086150347324246985 0.023963736511675989 0 -0.00091979943250278381 0.023687928455694576 0 -0.00066565051276341435 0.024056989812083818 0 -0.00091979943250278381 0.023687928455694576 0 -0.00076599412813112408 0.022652753624496209 0 -0.00076599412813112408 0.022652753624496209 0 -0.0003867350286841773 0.021556475901447769 0 -0.00081861942025358858 0.021616361985805306 0 -0.00076599412813112408 0.022652753624496209 0 -0.00049730587592650155 0.02327284004634118 0 -0.0003867350286841773 0.021556475901447769 0 -0.00066565051276341435 0.024056989812083818 0 -0.00076599412813112408 0.022652753624496209 0 -0.00049730587592650155 0.02327284004634118 0 -0.00049730587592650155 0.02327284004634118 0 -0.0003867350286841773 0.021556475901447769 0 -0.00015884554190756593 0.022792499611416658 0 -0.0003867350286841773 0.021556475901447769 0 1.2048441307936897e-06 0.01967523286938035 0 -0.00054009981744993678 0.019535035980459244 0 -0.0003867350286841773 0.021556475901447769 0 1.2048441307936897e-06 0.01967523286938035 0 -0.00015884554190756593 0.022792499611416658 0 1.2048441307936897e-06 0.01967523286938035 0 -0.00015884554190756593 0.022792499611416658 0 7.119486063031301e-09 0.023390908440738663 0 -0.00086773918143831638 0.025028389203782878 0 -0.00049730587592650155 0.02327284004634118 0 -0.00015884554190756593 0.022792499611416658 0 -0.00086773918143831638 0.025028389203782878 0 -0.00015884554190756593 0.022792499611416658 0 -6.4234866702622101e-05 0.025176685321607987 0 7.119486063031301e-09 0.023390908440738663 0 0.00026629827428231099 0.026292088939883249 0 1.4103722683692986e-06 0.028361161122918199 0 -6.4234866702622101e-05 0.025176685321607987 0 0.00026629827428231099 0.026292088939883249 0 0.00017704417563764205 0.027358530540719128 0 -6.4234866702622101e-05 0.025176685321607987 0 7.119486063031301e-09 0.023390908440738663 0 0.00026629827428231099 0.026292088939883249 0 -0.00015884554190756593 0.022792499611416658 0 -6.4234866702622101e-05 0.025176685321607987 0 7.119486063031301e-09 0.023390908440738663 0 0.00026629827428231099 0.026292088939883249 0 0.00037806043861358707 0.029007776936227823 0 0.00030549959005557345 0.028734019347320887 0 0.00026629827428231099 0.026292088939883249 0 0.00017704417563764205 0.027358530540719128 0 0.00037806043861358707 0.029007776936227823 0 0.00017704417563764205 0.027358530540719128 0 0.0003878213013565441 0.029078809479970092 0 0.00037806043861358707 0.029007776936227823 0 -0.0003826999591851893 0.027876418310196261 0 -0.00086773918143831638 0.025028389203782878 0 0.00017704417563764205 0.027358530540719128 0 -0.00086773918143831638 0.025028389203782878 0 -6.4234866702622101e-05 0.025176685321607987 0 0.00017704417563764205 0.027358530540719128 0 -0.0003826999591851893 0.027876418310196261 0 0.00017704417563764205 0.027358530540719128 0 0.0003878213013565441 0.029078809479970092 0 0.00021587819148693885 0.029323630426716863 0 -0.0003826999591851893 0.027876418310196261 0 0.0003878213013565441 0.029078809479970092 0 0.00021587819148693885 0.029323630426716863 0 -0.0010024162874404819 0.029273193836536617 0 -0.0003826999591851893 0.027876418310196261 0 0.00032974359288850025 0.03010444023319276 0 0.0003878213013565441 0.029078809479970092 0 0.00030074899361170603 0.02985236330584749 0 0.0003878213013565441 0.029078809479970092 0 0.00030074899361170603 0.02985236330584749 0 0.00037806043861358707 0.029007776936227823 0 0.00020696939830980364 0.030731227815557007 0 0.00030074899361170603 0.02985236330584749 0 0.00037806043861358707 0.029007776936227823 0 5.9297273884301338e-05 0.030772925379014483 0 0.00020696939830980364 0.030731227815557007 0 0.00030074899361170603 0.02985236330584749 0 5.9297273884301338e-05 0.030772925379014483 0 0.00032974359288850025 0.03010444023319276 0 0.00030074899361170603 0.02985236330584749 0 -4.8514257128630177e-07 0.031560654656842414 0 5.9297273884301338e-05 0.030772925379014483 0 0.00020696939830980364 0.030731227815557007 0 -4.8514257128630177e-07 0.031560654656842414 0 0.00020696939830980364 0.030731227815557007 0 0.00029699479010330019 0.031522372077740224 0 0.00021798829401935656 0.032335129302304637 0 -4.8514257128630177e-07 0.031560654656842414 0 0.00029699479010330019 0.031522372077740224 0 0.00021798829401935656 0.032335129302304637 0 0.00029699479010330019 0.031522372077740224 0 0.00041570756493620179 0.032804138631216194 0 0.00020696939830980364 0.030731227815557007 0 0.00029699479010330019 0.031522372077740224 0 0.00036053980276688703 0.030325198379651315 0 0.00029699479010330019 0.031522372077740224 0 0.0005001261633052216 0.031399756531136302 0 0.00057536443748893676 0.032453188900672031 0 0.00029699479010330019 0.031522372077740224 0 0.00036053980276688703 0.030325198379651315 0 0.0005001261633052216 0.031399756531136302 0 0.00036053980276688703 0.030325198379651315 0 0.00044225228452380948 0.030622585220667818 0 0.0005001261633052216 0.031399756531136302 0 0.00020696939830980364 0.030731227815557007 0 0.00036053980276688703 0.030325198379651315 0 0.00037806043861358707 0.029007776936227823 0 0.00036053980276688703 0.030325198379651315 0 0.00037806043861358707 0.029007776936227823 0 0.00030549959005557345 0.028734019347320887 0 0.00026629827428231099 0.026292088939883249 0 0.00030549959005557345 0.028734019347320887 0 1.4103722683692986e-06 0.028361161122918199 0 1.4103722683692986e-06 0.028361161122918199 0 0.00044225228452380948 0.030622585220667818 0 0.00030663389228661927 0.031931126760336354 0 0.00030549959005557345 0.028734019347320887 0 1.4103722683692986e-06 0.028361161122918199 0 0.00044225228452380948 0.030622585220667818 0 0.00036053980276688703 0.030325198379651315 0 0.00030549959005557345 0.028734019347320887 0 0.00044225228452380948 0.030622585220667818 0 0.00044225228452380948 0.030622585220667818 0 0.00054215986217962073 0.032048905580150416 0 0.0005001261633052216 0.031399756531136302 0 1.4103722683692986e-06 0.028361161122918199 0 0.00030663389228661927 0.031931126760336354 0 3.1407870652681376e-07 0.03499925673741304 0 0.00054215986217962073 0.032048905580150416 0 0.00030663389228661927 0.031931126760336354 0 0.0002010963439103794 0.033546452113135387 0 0.00044225228452380948 0.030622585220667818 0 0.00054215986217962073 0.032048905580150416 0 0.00030663389228661927 0.031931126760336354 0 3.1407870652681376e-07 0.03499925673741304 0 0.0002010963439103794 0.033546452113135387 0 -5.1591823632060111e-07 0.034992817298074373 0 0.00030663389228661927 0.031931126760336354 0 3.1407870652681376e-07 0.03499925673741304 0 0.0002010963439103794 0.033546452113135387 0 0.00054215986217962073 0.032048905580150416 0 0.0002010963439103794 0.033546452113135387 0 0.00019691711478842056 0.032761131510422536 0 0.0002010963439103794 0.033546452113135387 0 -5.1591823632060111e-07 0.034992817298074373 0 0.00019691711478842056 0.032761131510422536 0 1.380368075219138e-07 0.034999396977165302 0 0.00022312974034304739 0.033824211641097009 0 -1.0251698228023302e-07 0.034999369875483327 0 7.3448512921643776e-05 0.03453458179301775 0 7.7998497842812393e-05 0.034897898520042762 0 9.9559686359023013e-08 0.035000243146558939 0 -1.0251698228023302e-07 0.034999369875483327 0 7.7998497842812393e-05 0.034897898520042762 0 -1.0251698228023302e-07 0.034999369875483327 0 7.3448512921643776e-05 0.03453458179301775 0 1.1377990258687872e-07 0.034998759373843669 0 7.3448512921643776e-05 0.03453458179301775 0 0.00035945104712290876 0.034203666264878967 0 0.0002551134967737993 0.033848599727101004 0 7.3448512921643776e-05 0.03453458179301775 0 7.7998497842812393e-05 0.034897898520042762 0 0.00035945104712290876 0.034203666264878967 0 0.00022312974034304739 0.033824211641097009 0 0.00043762931044556756 0.033085304117411292 0 0.00054215986217962073 0.032048905580150416 0 0.0005001261633052216 0.031399756531136302 0 0.0006288204809900208 0.031919839628797346 0 0.00054215986217962073 0.032048905580150416 0 0.00019691711478842056 0.032761131510422536 0 0.0006288204809900208 0.031919839628797346 0 0.0005001261633052216 0.031399756531136302 0 0.00057536443748893676 0.032453188900672031 0 0.0006288204809900208 0.031919839628797346 0 0.00057536443748893676 0.032453188900672031 0 0.00035945104712290876 0.034203666264878967 0 0.0002551134967737993 0.033848599727101004 0 0.00053893266794690492 0.032607961241276399 0 0.00043762931044556756 0.033085304117411292 0 0.00057536443748893676 0.032453188900672031 0 0.00041570756493620179 0.032804138631216194 0 0.0002551134967737993 0.033848599727101004 0 0.00029699479010330019 0.031522372077740224 0 0.00057536443748893676 0.032453188900672031 0 0.00041570756493620179 0.032804138631216194 0 0.00031518039139342535 0.033195222973531453 0 0.00021798829401935656 0.032335129302304637 0 0.00041570756493620179 0.032804138631216194 0 0.00041570756493620179 0.032804138631216194 0 0.00029430127453882024 0.033717537651051767 0 0.0002551134967737993 0.033848599727101004 0 0.00031518039139342535 0.033195222973531453 0 0.00041570756493620179 0.032804138631216194 0 0.00029430127453882024 0.033717537651051767 0 0.00029430127453882024 0.033717537651051767 0 0.00016133359975237338 0.034420334905240137 0 0.0002551134967737993 0.033848599727101004 0 1.8118044960746974e-07 0.034998954160148039 0 0.00016133359975237338 0.034420334905240137 0 1.1377990258687872e-07 0.034998759373843669 0 0.00016133359975237338 0.034420334905240137 0 1.1377990258687872e-07 0.034998759373843669 0 0.0002551134967737993 0.033848599727101004 0 7.3448512921643776e-05 0.03453458179301775 0 1.1377990258687872e-07 0.034998759373843669 0 0.0002551134967737993 0.033848599727101004 0 0.0012481932489966565 0.0046634701554519545 0 0.0013762061586654372 0.0047329248605165585 0 0.0012857696872119711 0.0045458736364390072 0 0.0012481932489966565 0.0046634701554519545 0 0.0010934065428593867 0.0046705772500579782 0 0.0012857696872119711 0.0045458736364390072 0 0.0012481932489966565 0.0046634701554519545 0 0.0010934065428593867 0.0046705772500579782 0 0.0012537664565247318 0.0048312216345476732 0 0.0012481932489966565 0.0046634701554519545 0 0.0013762061586654372 0.0047329248605165585 0 0.0012537664565247318 0.0048312216345476732 0 0.0013762061586654372 0.0047329248605165585 0 0.0015230747472479511 0.0045440860211475647 0 0.0016103906162163661 0.0047901264269870729 0 0.0013762061586654372 0.0047329248605165585 0 0.0015230747472479511 0.0045440860211475647 0 0.0012857696872119711 0.0045458736364390072 0 0.00051051347363744489 0.00015376963350956281 0 0.0013171507553053215 0.00067738672072141255 0 0.00097806708677506478 0.00072219519823140917 0 0.00095252383984476517 0.0017543163061819859 0 0.00063803847074124552 0.0067354567970651672 0 -0.002578720126396589 0.015063033241436243 0 -0.0021908574291587806 0.015490817297322872 0 -0.002130646300836992 0.015795462691456607 0 0.0015230747472479511 0.0045440860211475647 0 0.0012857696872119711 0.0045458736364390072 0 0.0011921153578416869 0.0043727943586111193 0 -0.00093153925075183618 0.010569113589929098 0 0.00063803847074124552 0.0067354567970651672 0 0.0010934065428593867 0.0046705772500579782 0 0.0012857696872119711 0.0045458736364390072 0 0.0011921153578416869 0.0043727943586111193 0 -0.0021413301777016319 0.01563669121654487 0 -0.0021908574291587806 0.015490817297322872 0 -0.002130646300836992 0.015795462691456607 0 -0.0021413301777016319 0.01563669121654487 0 -0.002130646300836992 0.015795462691456607 0 -0.0021337933641326005 0.015750216004895012 0 -0.0021413301777016319 0.01563669121654487 0 -0.0020727528460460676 0.015734878062969901 0 -0.0021337933641326005 0.015750216004895012 0 -0.0021413301777016319 0.01563669121654487 0 -0.0020199829945649287 0.015712032925813781 0 -0.0020027627797736046 0.01559736395461341 0 -0.0021413301777016319 0.01563669121654487 0 -0.0020199829945649287 0.015712032925813781 0 -0.0020727528460460676 0.015734878062969901 0 -0.0020199829945649287 0.015712032925813781 0 -0.0020727528460460676 0.015734878062969901 0 -0.0019983499339206023 0.015795925018566838 0 -0.0020199829945649287 0.015712032925813781 0 -0.0019410242469493294 0.015773179841713648 0 -0.0019983499339206023 0.015795925018566838 0 -0.0020199829945649287 0.015712032925813781 0 -0.0019410242469493294 0.015773179841713648 0 -0.0019019908553696715 0.015688894678625165 0 -0.0020199829945649287 0.015712032925813781 0 -0.0019019908553696715 0.015688894678625165 0 -0.0020027627797736046 0.01559736395461341 0 -0.0019019908553696715 0.015688894678625165 0 -0.0020027627797736046 0.01559736395461341 0 -0.0019027718263631556 0.015496115291305837 0 -0.0020027627797736046 0.01559736395461341 0 -0.0019027718263631556 0.015496115291305837 0 -0.0020389995017811358 0.015431096774383295 0 -0.0020027627797736046 0.01559736395461341 0 -0.0020389995017811358 0.015431096774383295 0 -0.0021908574291587806 0.015490817297322872 0 -0.0020389995017811358 0.015431096774383295 0 -0.0021908574291587806 0.015490817297322872 0 -0.0021724395074738342 0.015310162573027256 0 -0.0021413301777016319 0.01563669121654487 0 -0.0020027627797736046 0.01559736395461341 0 -0.0021908574291587806 0.015490817297322872 0 -0.0018609702666232547 0.015811099528961117 0 -0.0018862416605140615 0.015811986924212363 0 -0.0018640156098110447 0.015878767441380216 0 -0.0018609702666232547 0.015811099528961117 0 -0.0018640156098110447 0.015878767441380216 0 -0.0018608328779995699 0.015912470071908973 0 -0.0019019908553696715 0.015688894678625165 0 -0.0018609702666232547 0.015811099528961117 0 -0.0018862416605140615 0.015811986924212363 0 -0.0019410242469493294 0.015773179841713648 0 -0.0019019908553696715 0.015688894678625165 0 -0.0018862416605140615 0.015811986924212363 0 -0.0019019908553696715 0.015688894678625165 0 -0.0018609702666232547 0.015811099528961117 0 -0.0018537228891227517 0.015674332554398124 0 -0.0019019908553696715 0.015688894678625165 0 -0.0019027718263631556 0.015496115291305837 0 -0.0018537228891227517 0.015674332554398124 0 -0.0018609702666232547 0.015811099528961117 0 -0.0018667088013177586 0.015882442746791913 0 -0.0018608328779995699 0.015912470071908973 0 -0.0018609702666232547 0.015811099528961117 0 -0.0018537228891227517 0.015674332554398124 0 -0.0018667088013177586 0.015882442746791913 0 -0.0017976332447570259 0.015100346494861347 0 -0.00068856543753645989 0.014257355174732023 0 -0.0018537228891227517 0.015674332554398124 0 -0.0019468846807933636 0.016060906663474536 0 -0.0019261952562640502 0.016030857856196786 0 -0.0018537228891227517 0.015674332554398124 0 -0.0018146511810243141 0.015119872174588961 0 -0.0019468846807933636 0.016060906663474536 0 -0.0018537228891227517 0.015674332554398124 0 -0.0019261952562640502 0.016030857856196786 0 -0.0018667088013177586 0.015882442746791913 0 -0.0019027718263631556 0.015496115291305837 0 -0.0018537228891227517 0.015674332554398124 0 -0.0018146511810243141 0.015119872174588961 0 -0.0020389995017811358 0.015431096774383295 0 -0.0021724395074738342 0.015310162573027256 0 -0.0018146511810243141 0.015119872174588961 0 -0.002578720126396589 0.015063033241436243 0 -0.0021908574291587806 0.015490817297322872 0 -0.0021724395074738342 0.015310162573027256 0 -0.002578720126396589 0.015063033241436243 0 -0.0021724395074738342 0.015310162573027256 0 -0.0018146511810243141 0.015119872174588961 0 -0.0019027718263631556 0.015496115291305837 0 -0.0020389995017811358 0.015431096774383295 0 -0.0018146511810243141 0.015119872174588961 0 -0.002578720126396589 0.015063033241436243 0 -0.0018146511810243141 0.015119872174588961 0 -0.0010405089747986859 0.012829792343021045 0 -0.00093153925075183618 0.010569113589929098 0 -0.00060133611338911445 0.0079789125785350683 0 -0.002578720126396589 0.015063033241436243 0 -0.0010405089747986859 0.012829792343021045 0 -0.0019657053606673405 0.011011882282926558 0 -0.0018146511810243141 0.015119872174588961 0 -0.0010405089747986859 0.012829792343021045 0 0.00086248962550443224 0.012386779882219257 0 -0.0010405089747986859 0.012829792343021045 0 0.00086248962550443224 0.012386779882219257 0 0.00015696308296360445 0.010845651832347765 0 0.00086248962550443224 0.012386779882219257 0 0.00015696308296360445 0.010845651832347765 0 0.0010599348364090516 0.010792171802039596 0 0.00015696308296360445 0.010845651832347765 0 0.0010599348364090516 0.010792171802039596 0 0.00075027084313590542 0.009627871333668353 0 0.00015696308296360445 0.010845651832347765 0 0.00075027084313590542 0.009627871333668353 0 -7.919799281453577e-06 0.0094403058947327527 0 -0.0010405089747986859 0.012829792343021045 0 0.00015696308296360445 0.010845651832347765 0 -0.0019657053606673405 0.011011882282926558 0 0.00015696308296360445 0.010845651832347765 0 -0.0019657053606673405 0.011011882282926558 0 -7.919799281453577e-06 0.0094403058947327527 0 0.00058570797276886891 0.005093958332322404 0 0.0014927590846481337 0.0051910953478499873 0 0.0016596255536876084 0.0060071370352135379 0 0.0010934065428593867 0.0046705772500579782 0 0.00058570797276886891 0.005093958332322404 0 0.0012537664565247318 0.0048312216345476732 0 0.00058570797276886891 0.005093958332322404 0 0.0012537664565247318 0.0048312216345476732 0 0.0014927590846481337 0.0051910953478499873 0 0.0013762061586654372 0.0047329248605165585 0 0.0012537664565247318 0.0048312216345476732 0 0.0016209551010843873 0.0049457887536581407 0 0.0012537664565247318 0.0048312216345476732 0 0.0016209551010843873 0.0049457887536581407 0 0.0014927590846481337 0.0051910953478499873 0 0.0013762061586654372 0.0047329248605165585 0 0.0016209551010843873 0.0049457887536581407 0 0.0016103906162163661 0.0047901264269870729 0 0.0014927590846481337 0.0051910953478499873 0 0.0018349920095826506 0.0050630980605845966 0 0.0016596255536876084 0.0060071370352135379 0 0.0016209551010843873 0.0049457887536581407 0 0.0014927590846481337 0.0051910953478499873 0 0.0018349920095826506 0.0050630980605845966 0 0.0016209551010843873 0.0049457887536581407 0 0.0018349920095826506 0.0050630980605845966 0 0.0017243879637540321 0.0048846450194212302 0 0.0018349920095826506 0.0050630980605845966 0 0.0017243879637540321 0.0048846450194212302 0 0.0016356058256463209 0.0044436052665005731 0 0.0017243879637540321 0.0048846450194212302 0 0.0013520641430305703 0.0045169146777419332 0 0.0016356058256463209 0.0044436052665005731 0 0.0017243879637540321 0.0048846450194212302 0 0.0014055107031922358 0.0049141585075248269 0 0.001694362452627936 0.0048427817542262726 0 0.0016209551010843873 0.0049457887536581407 0 0.0017243879637540321 0.0048846450194212302 0 0.0016103906162163661 0.0047901264269870729 0 0.0017243879637540321 0.0048846450194212302 0 0.0016103906162163661 0.0047901264269870729 0 0.001694362452627936 0.0048427817542262726 0 0.0013520641430305703 0.0045169146777419332 0 0.0014055107031922358 0.0049141585075248269 0 0.0008227914869340454 0.0046726356363575262 0 0.0013520641430305703 0.0045169146777419332 0 0.0009444288404405175 0.0041259532849938028 0 0.0008227914869340454 0.0046726356363575262 0 0.0017243879637540321 0.0048846450194212302 0 0.0013520641430305703 0.0045169146777419332 0 0.0014055107031922358 0.0049141585075248269 0 0.00025922995335109011 0.002158314792999232 0 -0.0001316202601836506 0.0021361682357253671 0 -0.00081940786899838494 -0.00051045275005032035 0 -0.0012509832410908409 -0.00065509038464152901 0 -0.0011844690102831865 -0.0003755215133395598 0 -0.001036756065107988 -2.2783882931756091e-05 0 -0.00023284698821194946 -0.00025448896821517376 0 -0.00067683948305515343 0.00052241609796380237 0 -0.00081940786899838494 -0.00051045275005032035 0 -0.001036756065107988 -2.2783882931756091e-05 0 -0.00023284698821194946 -0.00025448896821517376 0 -0.00081940786899838494 -0.00051045275005032035 0 -0.001036756065107988 -2.2783882931756091e-05 0 -0.0011844690102831865 -0.0003755215133395598 0 0.00025922995335109011 0.002158314792999232 0 0.00076040547092128864 0.0023866665442615863 0 -0.00023284698821194946 -0.00025448896821517376 0 -6.759689113278045e-05 0.00064341703454348317 0 -0.00067683948305515343 0.00052241609796380237 0 0.00051051347363744489 0.00015376963350956281 0 -0.00023284698821194946 -0.00025448896821517376 0 -6.759689113278045e-05 0.00064341703454348317 0 0.00095252383984476517 0.0017543163061819859 0 0.00076040547092128864 0.0023866665442615863 0 0.0015230747472479511 0.0045440860211475647 0 0.0016103906162163661 0.0047901264269870729 0 0.001694362452627936 0.0048427817542262726 0 0.00051051347363744489 0.00015376963350956281 0 -6.759689113278045e-05 0.00064341703454348317 0 0.00050772175738961493 0.00082453224897084448 0 -6.759689113278045e-05 0.00064341703454348317 0 -0.00067683948305515343 0.00052241609796380237 0 -0.00051643870249974916 0.001501903156494262 0 -6.759689113278045e-05 0.00064341703454348317 0 0.00020655641243573733 0.0014007400317171902 0 -0.00051643870249974916 0.001501903156494262 0 -6.759689113278045e-05 0.00064341703454348317 0 0.00020655641243573733 0.0014007400317171902 0 0.00050772175738961493 0.00082453224897084448 0 -0.001036756065107988 -2.2783882931756091e-05 0 -0.00067683948305515343 0.00052241609796380237 0 -0.001044711259026962 0.00066187301631324491 0 -0.001036756065107988 -2.2783882931756091e-05 0 -0.001044711259026962 0.00066187301631324491 0 -0.0014304767396484562 9.1773379218744572e-05 0 -0.00098995363437357213 0.00073434148129139314 0 -0.00047812042384324941 0.0012194930739333075 0 -0.00067683948305515343 0.00052241609796380237 0 -0.001044711259026962 0.00066187301631324491 0 -0.00051643870249974916 0.001501903156494262 0 -0.001044711259026962 0.00066187301631324491 0 -0.0011397462588467551 0.0010953721406486852 0 -0.0015178130076320723 0.00073033877713592362 0 -0.00029442136009861516 0.0020196464085422547 0 -0.00084153599447600927 0.0015552044428156938 0 -0.00038692168712895755 0.0010171539954077948 0 -0.001044711259026962 0.00066187301631324491 0 -0.0011397462588467551 0.0010953721406486852 0 -0.00038692168712895755 0.0010171539954077948 0 -0.0011397462588467551 0.0010953721406486852 0 -0.00084153599447600927 0.0015552044428156938 0 -0.00038692168712895755 0.0010171539954077948 0 -0.0010040872981085973 0.0020546585840163067 0 -0.00084153599447600927 0.0015552044428156938 0 -0.0013345489061536199 0.0016045766100804633 0 -0.0011397462588467551 0.0010953721406486852 0 -0.00084153599447600927 0.0015552044428156938 0 -0.0013345489061536199 0.0016045766100804633 0 -0.00029442136009861516 0.0020196464085422547 0 -0.00038692168712895755 0.0010171539954077948 0 0.00033400466569245824 0.0015002725002349932 0 0.00020655641243573733 0.0014007400317171902 0 -0.00051643870249974916 0.001501903156494262 0 0.00017985128110244844 0.0022688424371324844 0 0.00020655641243573733 0.0014007400317171902 0 0.00017985128110244844 0.0022688424371324844 0 0.00070763981327089174 0.0018251240191849104 0 -0.00047812042384324941 0.0012194930739333075 0 0.00040499000047731771 0.0020853369536301129 0 0.00052986265267453364 0.0014235433853338852 0 0.00040499000047731771 0.0020853369536301129 0 0.00017985128110244844 0.0022688424371324844 0 0.0010649407007009195 0.0022805804978395239 0 0.00070763981327089174 0.0018251240191849104 0 0.00093382898886235533 0.0029536970468970435 0 0.00017985128110244844 0.0022688424371324844 0 0.0010649407007009195 0.0022805804978395239 0 0.0010649407007009195 0.0022805804978395239 0 0.0016470693789268072 0.0021674447088694485 0 0.0016880512251434257 0.0025741648834027102 0 0.00093382898886235533 0.0029536970468970435 0 0.0010649407007009195 0.0022805804978395239 0 0.0016880512251434257 0.0025741648834027102 0 0.0010649407007009195 0.0022805804978395239 0 0.0012219743492825703 0.0019020900735853892 0 0.0016470693789268072 0.0021674447088694485 0 0.0010649407007009195 0.0022805804978395239 0 0.0012219743492825703 0.0019020900735853892 0 0.00070763981327089174 0.0018251240191849104 0 0.0012219743492825703 0.0019020900735853892 0 0.0010100750080478645 0.0016024790157464261 0 0.0012973120433183835 0.0015961363168682885 0 0.0012219743492825703 0.0019020900735853892 0 0.0010100750080478645 0.0016024790157464261 0 0.00070763981327089174 0.0018251240191849104 0 0.0012219743492825703 0.0019020900735853892 0 0.0012973120433183835 0.0015961363168682885 0 0.0016097055532391705 0.001710829184749345 0 0.0010100750080478645 0.0016024790157464261 0 0.00070763981327089174 0.0018251240191849104 0 0.00071890580422812652 0.001331841433548491 0 0.00020655641243573733 0.0014007400317171902 0 0.00070763981327089174 0.0018251240191849104 0 0.00071890580422812652 0.001331841433548491 0 0.00020655641243573733 0.0014007400317171902 0 0.00071890580422812652 0.001331841433548491 0 0.00050772175738961493 0.00082453224897084448 0 0.00071890580422812652 0.001331841433548491 0 0.0011007350769231604 0.0013574166342951706 0 0.00094926796184444855 0.0010326357195796451 0 0.00071890580422812652 0.001331841433548491 0 0.00050772175738961493 0.00082453224897084448 0 0.00094926796184444855 0.0010326357195796451 0 0.0010100750080478645 0.0016024790157464261 0 0.00071890580422812652 0.001331841433548491 0 0.0011007350769231604 0.0013574166342951706 0 0.0010100750080478645 0.0016024790157464261 0 0.0011007350769231604 0.0013574166342951706 0 0.0012973120433183835 0.0015961363168682885 0 0.0012973120433183835 0.0015961363168682885 0 0.0014167286465453716 0.0013715925303282052 0 0.0016097055532391705 0.001710829184749345 0 0.0011007350769231604 0.0013574166342951706 0 0.0012973120433183835 0.0015961363168682885 0 0.0014167286465453716 0.0013715925303282052 0 0.0011007350769231604 0.0013574166342951706 0 0.0014167286465453716 0.0013715925303282052 0 0.0012044422128432298 0.0011656138078775008 0 0.0014167286465453716 0.0013715925303282052 0 0.0012044422128432298 0.0011656138078775008 0 0.0013715059152512579 0.0010956935138990084 0 0.0014167286465453716 0.0013715925303282052 0 0.0013715059152512579 0.0010956935138990084 0 0.0015818412855294439 0.001212591367557954 0 0.0011007350769231604 0.0013574166342951706 0 0.0012044422128432298 0.0011656138078775008 0 0.00094926796184444855 0.0010326357195796451 0 0.0011816122399749378 0.00097011544752925261 0 0.0012978383169637185 0.00080277639991376383 0 0.00097806708677506478 0.00072219519823140917 0 0.0011816122399749378 0.00097011544752925261 0 0.00097806708677506478 0.00072219519823140917 0 0.00094926796184444855 0.0010326357195796451 0 0.0012044422128432298 0.0011656138078775008 0 0.0011816122399749378 0.00097011544752925261 0 0.00094926796184444855 0.0010326357195796451 0 0.0014228797740849491 0.00094042408324279106 0 0.0013143132725008766 0.00070049635773107783 0 0.0016364661776560954 0.0010397958862823219 0 0.0013715059152512579 0.0010956935138990084 0 0.0013185891464665108 0.00095216855218405356 0 0.0014228797740849491 0.00094042408324279106 0 0.0013715059152512579 0.0010956935138990084 0 0.0014228797740849491 0.00094042408324279106 0 0.0015087998950101184 0.0010762933225573416 0 0.0011816122399749378 0.00097011544752925261 0 0.0013715059152512579 0.0010956935138990084 0 0.0013185891464665108 0.00095216855218405356 0 0.0012044422128432298 0.0011656138078775008 0 0.0011816122399749378 0.00097011544752925261 0 0.0013715059152512579 0.0010956935138990084 0 0.0011816122399749378 0.00097011544752925261 0 0.0013185891464665108 0.00095216855218405356 0 0.0012978383169637185 0.00080277639991376383 0 0.0013185891464665108 0.00095216855218405356 0 0.0014228797740849491 0.00094042408324279106 0 0.0012978383169637185 0.00080277639991376383 0 0.0014228797740849491 0.00094042408324279106 0 0.0012978383169637185 0.00080277639991376383 0 0.0013143132725008766 0.00070049635773107783 0 0.00093757510654844168 0.0046938153977215506 0 0.00063803847074124552 0.0067354567970651672 0 0.0012978383169637185 0.00080277639991376383 0 0.0013171507553053215 0.00067738672072141255 0 0.00097806708677506478 0.00072219519823140917 0 0.00051051347363744489 0.00015376963350956281 0 0.00097806708677506478 0.00072219519823140917 0 0.00050772175738961493 0.00082453224897084448 0 0.00097806708677506478 0.00072219519823140917 0 0.00050772175738961493 0.00082453224897084448 0 0.00094926796184444855 0.0010326357195796451 0 -0.0018829352872222571 0.015938490922254214 0 -0.0018690101844768131 0.01591446237683233 0 -0.0018809826210119808 0.015877077505498157 0 -0.0018690101844768131 0.01591446237683233 0 -0.0018653430130768233 0.015930008429594047 0 -0.0018747908024412589 0.015938082722439417 0 -0.0018829352872222571 0.015938490922254214 0 -0.0018690101844768131 0.01591446237683233 0 -0.0018747908024412589 0.015938082722439417 0 -0.0018690101844768131 0.01591446237683233 0 -0.0018640156098110447 0.015878767441380216 0 -0.0018809826210119808 0.015877077505498157 0 -0.0018640156098110447 0.015878767441380216 0 -0.0018653430130768233 0.015930008429594047 0 -0.0018608328779995699 0.015912470071908973 0 -0.0018690101844768131 0.01591446237683233 0 -0.0018640156098110447 0.015878767441380216 0 -0.0018653430130768233 0.015930008429594047 0 -0.0018829352872222571 0.015938490922254214 0 -0.0018809826210119808 0.015877077505498157 0 -0.0019217956140572996 0.015842707636993875 0 -0.0018862416605140615 0.015811986924212363 0 -0.0018640156098110447 0.015878767441380216 0 -0.0018809826210119808 0.015877077505498157 0 -0.0019410242469493294 0.015773179841713648 0 -0.0018862416605140615 0.015811986924212363 0 -0.0019217956140572996 0.015842707636993875 0 -0.0018862416605140615 0.015811986924212363 0 -0.0018809826210119808 0.015877077505498157 0 -0.0019217956140572996 0.015842707636993875 0 -0.0018829352872222571 0.015938490922254214 0 -0.0019217956140572996 0.015842707636993875 0 -0.0019983499339206023 0.015795925018566838 0 0.00063803847074124552 0.0067354567970651672 0 -0.00018654727041882428 0.0083761883398055133 0 -0.0020859269923197967 0.015724603660409169 0 -0.0020173912507557156 0.01557407911691846 0 -0.0021337933641326005 0.015750216004895012 0 -0.0018829352872222571 0.015938490922254214 0 -0.0019983499339206023 0.015795925018566838 0 -0.0019410242469493294 0.015773179841713648 0 -0.0019217956140572996 0.015842707636993875 0 -0.0019983499339206023 0.015795925018566838 0 -0.002130646300836992 0.015795462691456607 0 -0.0021337933641326005 0.015750216004895012 0 -0.0021528690346520286 0.01516516385246652 0 -0.0021337933641326005 0.015750216004895012 0 -0.0021528690346520286 0.01516516385246652 0 -0.0021806180988351255 0.015178427541155851 0 0.0013143132725008766 0.00070049635773107783 0 0.0020017934017469673 0.0011936997601273262 0 0.0016364661776560954 0.0010397958862823219 0 -0.0020727528460460676 0.015734878062969901 0 -0.0021337933641326005 0.015750216004895012 0 -0.0019983499339206023 0.015795925018566838 0 0.0016364661776560954 0.0010397958862823219 0 0.0015818412855294439 0.001212591367557954 0 0.001710436708438253 0.0011898275550547793 0 0.0016364661776560954 0.0010397958862823219 0 0.0018491470095519298 0.001194303681239508 0 0.001710436708438253 0.0011898275550547793 0 0.0016364661776560954 0.0010397958862823219 0 0.0015087998950101184 0.0010762933225573416 0 0.0015818412855294439 0.001212591367557954 0 0.0013715059152512579 0.0010956935138990084 0 0.0015087998950101184 0.0010762933225573416 0 0.0015818412855294439 0.001212591367557954 0 0.0014228797740849491 0.00094042408324279106 0 0.0016364661776560954 0.0010397958862823219 0 0.0015087998950101184 0.0010762933225573416 0 0.0020017934017469673 0.0011936997601273262 0 0.0016364661776560954 0.0010397958862823219 0 0.0018491470095519298 0.001194303681239508 0 0.0020017934017469673 0.0011936997601273262 0 0.0019093887972192823 0.0013389203263837175 0 0.0020159673328272276 0.0014667771997073137 0 0.0020017934017469673 0.0011936997601273262 0 0.0018491470095519298 0.001194303681239508 0 0.0019093887972192823 0.0013389203263837175 0 0.0018491470095519298 0.001194303681239508 0 0.0017745383493624801 0.0013128487801872092 0 0.0019093887972192823 0.0013389203263837175 0 0.0018491470095519298 0.001194303681239508 0 0.0017745383493624801 0.0013128487801872092 0 0.001710436708438253 0.0011898275550547793 0 0.0017745383493624801 0.0013128487801872092 0 0.001659382370529743 0.0014371292880905383 0 0.0018632501655246611 0.0015488981965735282 0 0.0017745383493624801 0.0013128487801872092 0 0.0019093887972192823 0.0013389203263837175 0 0.0018632501655246611 0.0015488981965735282 0 0.0019093887972192823 0.0013389203263837175 0 0.0018632501655246611 0.0015488981965735282 0 0.0020159673328272276 0.0014667771997073137 0 0.0017745383493624801 0.0013128487801872092 0 0.0015818412855294439 0.001212591367557954 0 0.001710436708438253 0.0011898275550547793 0 0.0017745383493624801 0.0013128487801872092 0 0.0015818412855294439 0.001212591367557954 0 0.001659382370529743 0.0014371292880905383 0 0.0014167286465453716 0.0013715925303282052 0 0.0015818412855294439 0.001212591367557954 0 0.001659382370529743 0.0014371292880905383 0 0.0014167286465453716 0.0013715925303282052 0 0.001659382370529743 0.0014371292880905383 0 0.0016097055532391705 0.001710829184749345 0 0.001659382370529743 0.0014371292880905383 0 0.0018632501655246611 0.0015488981965735282 0 0.0016097055532391705 0.001710829184749345 0 0.0018632501655246611 0.0015488981965735282 0 0.0020732779532184058 0.001684732792788747 0 0.0020159673328272276 0.0014667771997073137 0 -0.0020173912507557156 0.01557407911691846 0 -0.002070454586591657 0.015429508577075809 0 0.0020017934017469673 0.0011936997601273262 0 0.0022376167190967813 0.00160817920892656 0 0.0026520910361524505 0.0017065927176147997 0 0.0018632501655246611 0.0015488981965735282 0 0.0020732779532184058 0.001684732792788747 0 0.0020282799558630211 0.0019506777368558294 0 -0.0021528690346520286 0.01516516385246652 0 -0.0021806180988351255 0.015178427541155851 0 -0.0021992809150346714 0.014831344203263978 0 -0.00018654727041882428 0.0083761883398055133 0 8.1381059464452946e-05 0.0078192611324923566 0 -0.0018829352872222571 0.015938490922254214 0 -0.0018747908024412589 0.015938082722439417 0 -0.0018840207148804891 0.015929807252423385 0 0.0020732779532184058 0.001684732792788747 0 0.0022376167190967813 0.00160817920892656 0 0.0022241185410021539 0.0018208186618130665 0 0.0020732779532184058 0.001684732792788747 0 0.0020159673328272276 0.0014667771997073137 0 0.0022376167190967813 0.00160817920892656 0 0.0020017934017469673 0.0011936997601273262 0 0.0020159673328272276 0.0014667771997073137 0 0.0022376167190967813 0.00160817920892656 0 0.0022376167190967813 0.00160817920892656 0 0.0024180568360114871 0.0018136567141178524 0 0.0026520910361524505 0.0017065927176147997 0 0.0022376167190967813 0.00160817920892656 0 0.0024180568360114871 0.0018136567141178524 0 0.0022241185410021539 0.0018208186618130665 0 0.0023769422020368386 0.0020297921725074232 0 0.0020282799558630211 0.0019506777368558294 0 0.0022606508828679817 0.0024931038401447814 0 0.0024180568360114871 0.0018136567141178524 0 0.0023769422020368386 0.0020297921725074232 0 0.0025793278275529578 0.0019900364001100585 0 0.0024180568360114871 0.0018136567141178524 0 0.0023769422020368386 0.0020297921725074232 0 0.0022241185410021539 0.0018208186618130665 0 0.0020732779532184058 0.001684732792788747 0 0.0020282799558630211 0.0019506777368558294 0 0.0022241185410021539 0.0018208186618130665 0 0.0023769422020368386 0.0020297921725074232 0 0.0020282799558630211 0.0019506777368558294 0 0.0022241185410021539 0.0018208186618130665 0 0.0023769422020368386 0.0020297921725074232 0 0.0022606508828679817 0.0024931038401447814 0 0.0025996783289430341 0.0022694488781838185 0 0.0020282799558630211 0.0019506777368558294 0 0.0016470693789268072 0.0021674447088694485 0 0.0022606508828679817 0.0024931038401447814 0 0.0012219743492825703 0.0019020900735853892 0 0.0016097055532391705 0.001710829184749345 0 0.0016470693789268072 0.0021674447088694485 0 0.0018632501655246611 0.0015488981965735282 0 0.0020282799558630211 0.0019506777368558294 0 0.0016097055532391705 0.001710829184749345 0 0.0020282799558630211 0.0019506777368558294 0 0.0016097055532391705 0.001710829184749345 0 0.0016470693789268072 0.0021674447088694485 0 0.0016470693789268072 0.0021674447088694485 0 0.0016880512251434257 0.0025741648834027102 0 0.0022606508828679817 0.0024931038401447814 0 0.0022683081018368858 0.0030551336375106149 0 0.0016880512251434257 0.0025741648834027102 0 0.0022606508828679817 0.0024931038401447814 0 0.0022683081018368858 0.0030551336375106149 0 0.0022606508828679817 0.0024931038401447814 0 0.0027666320952351286 0.002567870217985403 0 0.0024561882093846366 0.017488779795773859 0 0.0025968241226223738 0.018230545866695182 0 0.0019814561086843796 0.017977182434043528 0 0.0027575428873535916 0.010432974766187011 0 0.0030956315527449476 0.01005825738482396 0 0.0022606508828679817 0.0024931038401447814 0 0.0027666320952351286 0.002567870217985403 0 0.0025996783289430341 0.0022694488781838185 0 0.0023769422020368386 0.0020297921725074232 0 0.0025996783289430341 0.0022694488781838185 0 0.0025793278275529578 0.0019900364001100585 0 0.002841315777581112 0.0021283829149037364 0 0.003238880742030428 0.0021699177530841588 0 0.0026520910361524505 0.0017065927176147997 0 0.0025996783289430341 0.0022694488781838185 0 0.002841315777581112 0.0021283829149037364 0 0.0025793278275529578 0.0019900364001100585 0 0.0027666320952351286 0.002567870217985403 0 0.0025996783289430341 0.0022694488781838185 0 0.002841315777581112 0.0021283829149037364 0 0.0024180568360114871 0.0018136567141178524 0 0.0025793278275529578 0.0019900364001100585 0 0.0026520910361524505 0.0017065927176147997 0 0.002841315777581112 0.0021283829149037364 0 0.0025793278275529578 0.0019900364001100585 0 0.0026520910361524505 0.0017065927176147997 0 0.0030956315527449476 0.01005825738482396 0 0.0004083918005836395 0.012021424782508568 0 0.0027666320952351286 0.002567870217985403 0 0.002841315777581112 0.0021283829149037364 0 0.003238880742030428 0.0021699177530841588 0 0.0004083918005836395 0.012021424782508568 0 8.1381059464452946e-05 0.0078192611324923566 0 -0.0021223966839508993 0.014794437959121434 0 -0.002114886434549647 0.014788774324115002 0 -0.0022048786199871766 0.014835517396976056 0 0.0004083918005836395 0.012021424782508568 0 -0.0018098877567900096 0.014968680721662849 0 0.0025968241226223738 0.018230545866695182 0 0.0016445783957855546 0.018550568340369864 0 0.0019814561086843796 0.017977182434043528 0 0.0025968241226223738 0.018230545866695182 0 0.00171494557273667 0.019037000419129941 0 0.0016445783957855546 0.018550568340369864 0 0.0016445783957855546 0.018550568340369864 0 0.0019814561086843796 0.017977182434043528 0 0.0014250007319805988 0.017939423131632444 0 0.0015670256195398787 0.018518608253209941 0 0.00060889937721944674 0.017969700681310454 0 0.00171494557273667 0.019037000419129941 0 0.00099344903063386196 0.018444497048606141 0 0.00017038904052712152 0.018296533834005094 0 0.0016445783957855546 0.018550568340369864 0 0.00099344903063386196 0.018444497048606141 0 0.00044223877689904744 0.017883264501851084 0 0.0016445783957855546 0.018550568340369864 0 0.0014250007319805988 0.017939423131632444 0 0.00074337653450541705 0.018029529191913047 0 0.00099344903063386196 0.018444497048606141 0 0.00044223877689904744 0.017883264501851084 0 0.00017038904052712152 0.018296533834005094 0 -0.00027487743850188571 0.017789244176319136 0 0.00044223877689904744 0.017883264501851084 0 0.00017038904052712152 0.018296533834005094 0 -0.0021906166129967183 0.01593109090813832 0 -0.002187284525095552 0.015948143462581183 0 -0.0021464012140774576 0.015923223488657452 0 -0.002137514835620248 0.015915989021240282 0 -0.0021906166129967183 0.01593109090813832 0 -0.0020702393712949047 0.015931794445429425 0 -0.0021946199528701652 0.015912520243868054 0 -0.0020673889415145576 0.015957852344399549 0 -0.002187284525095552 0.015948143462581183 0 -0.0022153293117908278 0.015982879769859463 0 -0.0022359689147102911 0.015967486130717964 0 -0.0021906166129967183 0.01593109090813832 0 -0.002187284525095552 0.015948143462581183 0 -0.0022359689147102911 0.015967486130717964 0 -0.002187284525095552 0.015948143462581183 0 -0.0021678900562159585 0.015950164637820646 0 -0.0021464012140774576 0.015923223488657452 0 -0.0021678900562159585 0.015950164637820646 0 -0.0022153293117908278 0.015982879769859463 0 -0.002169230518286029 0.015973224068110071 0 -0.0021678900562159585 0.015950164637820646 0 -0.0021288310777324146 0.015938019013874916 0 -0.002169230518286029 0.015973224068110071 0 -0.002187284525095552 0.015948143462581183 0 -0.0021678900562159585 0.015950164637820646 0 -0.0022153293117908278 0.015982879769859463 0 -0.0019148872077594864 0.015903961869272121 0 -0.002137514835620248 0.015915989021240282 0 -0.0020702393712949047 0.015931794445429425 0 -0.0019148872077594864 0.015903961869272121 0 -0.0019380680537539054 0.015927751123347846 0 -0.0020702393712949047 0.015931794445429425 0 0.0004083918005836395 0.012021424782508568 0 -0.0008821973652002298 0.017981973150664996 0 -0.0018098877567900096 0.014968680721662849 0 -0.0020673889415145576 0.015957852344399549 0 0.00171494557273667 0.019037000419129941 0 0.0016445783957855546 0.018550568340369864 0 0.00099344903063386196 0.018444497048606141 0 -0.0020801450219650104 0.015917731286965747 0 -0.0021464012140774576 0.015923223488657452 0 -0.0021288310777324146 0.015938019013874916 0 -0.0021678900562159585 0.015950164637820646 0 -0.0021464012140774576 0.015923223488657452 0 -0.0021288310777324146 0.015938019013874916 0 -0.002033881013778801 0.015867690597650745 0 -0.0020923126982669502 0.015928807897180992 0 -0.0020185966058112723 0.015923051501959998 0 -0.0020801450219650104 0.015917731286965747 0 -0.0021288310777324146 0.015938019013874916 0 -0.0020923126982669502 0.015928807897180992 0 -0.0018098877567900096 0.014968680721662849 0 -0.002239034338271139 0.015675642679710854 0 -0.0020716473813090354 0.015956587705018517 0 -0.0020923126982669502 0.015928807897180992 0 -0.0020185966058112723 0.015923051501959998 0 -0.0020716473813090354 0.015956587705018517 0 -0.0020923126982669502 0.015928807897180992 0 -0.0021222983359512541 0.015969235948411695 0 -0.0021288310777324146 0.015938019013874916 0 -0.0020923126982669502 0.015928807897180992 0 -0.0021222983359512541 0.015969235948411695 0 -0.0021288310777324146 0.015938019013874916 0 -0.0021222983359512541 0.015969235948411695 0 -0.002169230518286029 0.015973224068110071 0 -0.0021222983359512541 0.015969235948411695 0 -0.0021631814975838653 0.015997959763274935 0 -0.0021291284525256629 0.01601821775578138 0 -0.0021222983359512541 0.015969235948411695 0 -0.0020733055894542438 0.015992606013744783 0 -0.0021291284525256629 0.01601821775578138 0 -0.0020716473813090354 0.015956587705018517 0 -0.0020733055894542438 0.015992606013744783 0 -0.0020177095760749307 0.015964580201180179 0 -0.0020716473813090354 0.015956587705018517 0 -0.0021222983359512541 0.015969235948411695 0 -0.0020733055894542438 0.015992606013744783 0 -0.0022153293117908278 0.015982879769859463 0 -0.0022048830139653822 0.016010084380914096 0 -0.0022435110514452909 0.016022482871189601 0 -0.0022153293117908278 0.015982879769859463 0 -0.002169230518286029 0.015973224068110071 0 -0.0022048830139653822 0.016010084380914096 0 -0.0021222983359512541 0.015969235948411695 0 -0.002169230518286029 0.015973224068110071 0 -0.0021631814975838653 0.015997959763274935 0 -0.002169230518286029 0.015973224068110071 0 -0.0021631814975838653 0.015997959763274935 0 -0.0022048830139653822 0.016010084380914096 0 -0.0021631814975838653 0.015997959763274935 0 -0.0021831016856257292 0.016035185144500641 0 -0.0021291284525256629 0.01601821775578138 0 -0.0021631814975838653 0.015997959763274935 0 -0.0022048830139653822 0.016010084380914096 0 -0.0021831016856257292 0.016035185144500641 0 -0.0022048830139653822 0.016010084380914096 0 -0.0022290838322981069 0.01605654888126248 0 -0.0022435110514452909 0.016022482871189601 0 -0.0022048830139653822 0.016010084380914096 0 -0.0022290838322981069 0.01605654888126248 0 -0.0021831016856257292 0.016035185144500641 0 -0.0022290838322981069 0.01605654888126248 0 -0.0022020171286148355 0.016081428335251904 0 -0.0022327316032520373 0.01614249129982873 0 -0.0022290838322981069 0.01605654888126248 0 -0.0021831016856257292 0.016035185144500641 0 -0.0022020171286148355 0.016081428335251904 0 -0.0021831016856257292 0.016035185144500641 0 -0.0022020171286148355 0.016081428335251904 0 -0.0021649736998003216 0.016059920015080529 0 -0.0022020171286148355 0.016081428335251904 0 -0.0021830972869833236 0.016107938887163834 0 -0.0022327316032520373 0.01614249129982873 0 -0.0022020171286148355 0.016081428335251904 0 -0.0021649736998003216 0.016059920015080529 0 -0.0021830972869833236 0.016107938887163834 0 -0.0020733055894542438 0.015992606013744783 0 -0.0020560265299796473 0.016032075435544677 0 -0.0021291284525256629 0.01601821775578138 0 -0.0020733055894542438 0.015992606013744783 0 -0.0020560265299796473 0.016032075435544677 0 -0.0020089832316607442 0.01599838923320512 0 -0.0021831016856257292 0.016035185144500641 0 -0.0021291284525256629 0.01601821775578138 0 -0.0021649736998003216 0.016059920015080529 0 -0.0021291284525256629 0.01601821775578138 0 -0.0021649736998003216 0.016059920015080529 0 -0.0021217104930537898 0.016066697432929638 0 -0.0020560265299796473 0.016032075435544677 0 -0.0021291284525256629 0.01601821775578138 0 -0.0021217104930537898 0.016066697432929638 0 -0.0021217104930537898 0.016066697432929638 0 -0.0021830972869833236 0.016107938887163834 0 -0.0020765863734045847 0.01615179836265054 0 -0.0021649736998003216 0.016059920015080529 0 -0.0021217104930537898 0.016066697432929638 0 -0.0021830972869833236 0.016107938887163834 0 -0.0021217104930537898 0.016066697432929638 0 -0.0020524600714054353 0.016081928225335614 0 -0.0020765863734045847 0.01615179836265054 0 -0.0020560265299796473 0.016032075435544677 0 -0.0021217104930537898 0.016066697432929638 0 -0.0020524600714054353 0.016081928225335614 0 -0.0020560265299796473 0.016032075435544677 0 -0.0020524600714054353 0.016081928225335614 0 -0.0019889555243359602 0.016040436916380501 0 -0.0019889555243359602 0.016040436916380501 0 -0.0019251811050485584 0.016021845792447659 0 -0.0019724645408338384 0.016138459179943911 0 -0.0020524600714054353 0.016081928225335614 0 -0.0019889555243359602 0.016040436916380501 0 -0.0019724645408338384 0.016138459179943911 0 -0.0019889555243359602 0.016040436916380501 0 -0.0020089832316607442 0.01599838923320512 0 -0.0019593206833718058 0.01600136986005099 0 -0.0020560265299796473 0.016032075435544677 0 -0.0019889555243359602 0.016040436916380501 0 -0.0020089832316607442 0.01599838923320512 0 -0.0020089832316607442 0.01599838923320512 0 -0.0019593206833718058 0.01600136986005099 0 -0.0019626654372179417 0.015972860650023832 0 -0.0019198506782523641 0.015972308855434963 0 -0.0019593206833718058 0.01600136986005099 0 -0.0019251811050485584 0.016021845792447659 0 -0.0019198506782523641 0.015972308855434963 0 -0.0019593206833718058 0.01600136986005099 0 -0.0019626654372179417 0.015972860650023832 0 -0.0019889555243359602 0.016040436916380501 0 -0.0019593206833718058 0.01600136986005099 0 -0.0019251811050485584 0.016021845792447659 0 -0.0019251811050485584 0.016021845792447659 0 -0.0018863783240355453 0.015963965398263287 0 -0.0018778900793284539 0.015978393859406265 0 -0.0018653430130768233 0.015930008429594047 0 -0.0018608328779995699 0.015912470071908973 0 -0.0018778900793284539 0.015978393859406265 0 -0.0018653430130768233 0.015930008429594047 0 -0.0018863783240355453 0.015963965398263287 0 -0.0018778900793284539 0.015978393859406265 0 -0.0018653430130768233 0.015930008429594047 0 -0.0018747908024412589 0.015938082722439417 0 -0.0018863783240355453 0.015963965398263287 0 -0.0018747908024412589 0.015938082722439417 0 -0.0018863783240355453 0.015963965398263287 0 -0.001894412612306247 0.015951288003293505 0 -0.0019198506782523641 0.015972308855434963 0 -0.0019251811050485584 0.016021845792447659 0 -0.0018863783240355453 0.015963965398263287 0 -0.0019198506782523641 0.015972308855434963 0 -0.0018863783240355453 0.015963965398263287 0 -0.001894412612306247 0.015951288003293505 0 -0.0021806180988351255 0.015178427541155851 0 -0.0021992809150346714 0.014831344203263978 0 -0.0022048786199871766 0.014835517396976056 0 -0.0019198506782523641 0.015972308855434963 0 -0.0019234968530739572 0.015953003055416599 0 -0.001894412612306247 0.015951288003293505 0 -0.0021223966839508993 0.014794437959121434 0 -0.0021992809150346714 0.014831344203263978 0 -0.0022048786199871766 0.014835517396976056 0 -0.0019234968530739572 0.015953003055416599 0 -0.001894412612306247 0.015951288003293505 0 -0.0018840207148804891 0.015929807252423385 0 -0.0019234968530739572 0.015953003055416599 0 -0.0018840207148804891 0.015929807252423385 0 -0.0019693159355992336 0.015944139024512541 0 -0.0018747908024412589 0.015938082722439417 0 -0.001894412612306247 0.015951288003293505 0 -0.0018840207148804891 0.015929807252423385 0 -0.0018098877567900096 0.014968680721662849 0 -0.002070454586591657 0.015429508577075809 0 -0.002033881013778801 0.015867690597650745 0 -0.0018840207148804891 0.015929807252423385 0 -0.0020185966058112723 0.015923051501959998 0 -0.0018840207148804891 0.015929807252423385 0 -0.0020185966058112723 0.015923051501959998 0 -0.0019693159355992336 0.015944139024512541 0 -0.0020716473813090354 0.015956587705018517 0 -0.0020185966058112723 0.015923051501959998 0 -0.0020177095760749307 0.015964580201180179 0 -0.0020185966058112723 0.015923051501959998 0 -0.0020177095760749307 0.015964580201180179 0 -0.0019693159355992336 0.015944139024512541 0 -0.0020177095760749307 0.015964580201180179 0 -0.0019626654372179417 0.015972860650023832 0 -0.0019693159355992336 0.015944139024512541 0 -0.0020733055894542438 0.015992606013744783 0 -0.0020089832316607442 0.01599838923320512 0 -0.0020177095760749307 0.015964580201180179 0 -0.0020089832316607442 0.01599838923320512 0 -0.0020177095760749307 0.015964580201180179 0 -0.0019626654372179417 0.015972860650023832 0 -0.0019234968530739572 0.015953003055416599 0 -0.0019626654372179417 0.015972860650023832 0 -0.0019693159355992336 0.015944139024512541 0 -0.0019198506782523641 0.015972308855434963 0 -0.0019234968530739572 0.015953003055416599 0 -0.0019626654372179417 0.015972860650023832 0 -0.0053050363634603503 0.019735516515754 0 -0.0053179907984380022 0.019853846624382911 0 -0.0054189271385031677 0.019672160589813217 0 -0.0024365848884310565 0.015952987014488842 0 -0.0024350323638540833 0.016004613029723128 0 -0.0023663856419291556 0.01596010797592946 0 -0.0024350323638540833 0.016004613029723128 0 -0.0023663856419291556 0.01596010797592946 0 -0.0023513989501999675 0.016029039535422878 0 -0.0023663856419291556 0.01596010797592946 0 -0.0023513989501999675 0.016029039535422878 0 -0.0023143785534816591 0.015960612175384956 0 -0.0038707079364231943 0.017925732970944665 0 -0.0038641397178025357 0.017853453002900227 0 -0.0023513989501999675 0.016029039535422878 0 -0.0022848786947424374 0.015979259596137267 0 -0.0022756372005752739 0.016009600663976411 0 -0.0023513989501999675 0.016029039535422878 0 -0.0022848786947424374 0.015979259596137267 0 -0.0023143785534816591 0.015960612175384956 0 -0.0022898282092387885 0.015917017145464833 0 -0.0023663856419291556 0.01596010797592946 0 -0.0023143785534816591 0.015960612175384956 0 -0.0022898282092387885 0.015917017145464833 0 -0.0023143785534816591 0.015960612175384956 0 -0.0022646977224199359 0.015949604871004164 0 -0.0022848786947424374 0.015979259596137267 0 -0.0023143785534816591 0.015960612175384956 0 -0.0022646977224199359 0.015949604871004164 0 -0.0022898282092387885 0.015917017145464833 0 -0.002137514835620248 0.015915989021240282 0 -0.0021906166129967183 0.01593109090813832 0 -0.0022848786947424374 0.015979259596137267 0 -0.0022646977224199359 0.015949604871004164 0 -0.0022359689147102911 0.015967486130717964 0 -0.0010940020813145618 0.017614567374325138 0 -0.00027487743850188571 0.017789244176319136 0 0.00017038904052712152 0.018296533834005094 0 -0.0022898282092387885 0.015917017145464833 0 -0.0021906166129967183 0.01593109090813832 0 -0.0022646977224199359 0.015949604871004164 0 -0.0017393190121283097 0.016623096675966492 0 -0.0008821973652002298 0.017981973150664996 0 -0.0021906166129967183 0.01593109090813832 0 -0.0022646977224199359 0.015949604871004164 0 -0.0022359689147102911 0.015967486130717964 0 -0.0022848786947424374 0.015979259596137267 0 -0.0022359689147102911 0.015967486130717964 0 -0.0022756372005752739 0.016009600663976411 0 -0.0022153293117908278 0.015982879769859463 0 -0.0022359689147102911 0.015967486130717964 0 -0.0022756372005752739 0.016009600663976411 0 -0.0022756372005752739 0.016009600663976411 0 -0.0022435110514452909 0.016022482871189601 0 -0.0022839367066909834 0.016056359400259009 0 -0.0022153293117908278 0.015982879769859463 0 -0.0022756372005752739 0.016009600663976411 0 -0.0022435110514452909 0.016022482871189601 0 -0.0022290838322981069 0.01605654888126248 0 -0.0022435110514452909 0.016022482871189601 0 -0.0022839367066909834 0.016056359400259009 0 -0.0039806311072596899 0.017801367430550177 0 -0.0031217515964273531 0.017518568820150557 0 -0.0022290838322981069 0.01605654888126248 0 -0.0022839367066909834 0.016056359400259009 0 -0.0022327316032520373 0.01614249129982873 0 -0.0054565274195523357 0.019497943666707557 0 -0.0054390883135667497 0.019476872144947196 0 -0.0053955775670291696 0.019456775211150204 0 -0.0054296793442566533 0.019491353727866208 0 -0.0053970808718334599 0.01943742432094353 0 -0.0054390883135667497 0.019476872144947196 0 -0.0054565274195523357 0.019497943666707557 0 -0.0054296793442566533 0.019491353727866208 0 -0.0054390883135667497 0.019476872144947196 0 -0.0023513989501999675 0.016029039535422878 0 -0.0022756372005752739 0.016009600663976411 0 -0.0022839367066909834 0.016056359400259009 0 -0.0038641397178025357 0.017853453002900227 0 -0.0039806311072596899 0.017801367430550177 0 -0.0054189271385031677 0.019672160589813217 0 -0.0054565274195523357 0.019497943666707557 0 -0.0054296793442566533 0.019491353727866208 0 -0.0054189271385031677 0.019672160589813217 0 -0.0054296793442566533 0.019491353727866208 0 -0.0053802356337199044 0.019535591155655639 0 -0.0054189271385031677 0.019672160589813217 0 -0.0053802356337199044 0.019535591155655639 0 -0.0053042826535627799 0.019603789728847118 0 -0.0054296793442566533 0.019491353727866208 0 -0.0053970808718334599 0.01943742432094353 0 -0.0053802356337199044 0.019535591155655639 0 -0.0053970808718334599 0.01943742432094353 0 -0.0053802356337199044 0.019535591155655639 0 -0.0053144678898030947 0.019482379780066478 0 -0.0053970808718334599 0.01943742432094353 0 -0.0053144678898030947 0.019482379780066478 0 -0.0051360493477329502 0.019339475300226373 0 -0.0045520710884473332 0.018913854572170288 0 -0.0050531802679504648 0.019248587828594014 0 -0.005206555729212285 0.019559043785159509 0 -0.0051360493477329502 0.019339475300226373 0 -0.0053042826535627799 0.019603789728847118 0 -0.0053802356337199044 0.019535591155655639 0 -0.0053144678898030947 0.019482379780066478 0 -0.0053042826535627799 0.019603789728847118 0 -0.0053144678898030947 0.019482379780066478 0 -0.0051360493477329502 0.019339475300226373 0 -0.0053042826535627799 0.019603789728847118 0 -0.0052423133475555704 0.019691442284469708 0 -0.0053050363634603503 0.019735516515754 0 -0.0053042826535627799 0.019603789728847118 0 -0.0053050363634603503 0.019735516515754 0 -0.0054189271385031677 0.019672160589813217 0 -0.0053042826535627799 0.019603789728847118 0 -0.0038607638642284689 0.018775946506967046 0 -0.0035512147649436276 0.018361937095212045 0 -0.0038695057551769219 0.018575420647061525 0 -0.0042455522449429709 0.018907939503679919 0 -0.0038607638642284689 0.018775946506967046 0 -0.0038695057551769219 0.018575420647061525 0 -0.0038607638642284689 0.018775946506967046 0 -0.0035231836889228936 0.018559098891048276 0 -0.0035512147649436276 0.018361937095212045 0 -0.0035231836889228936 0.018559098891048276 0 -0.0035512147649436276 0.018361937095212045 0 -0.0033009609028826475 0.018328498644524155 0 -0.0035512147649436276 0.018361937095212045 0 -0.0038373930765803082 0.018183091637934724 0 -0.0033426713041984106 0.018004119545902801 0 -0.0042455522449429709 0.018907939503679919 0 -0.0038695057551769219 0.018575420647061525 0 -0.0038373930765803082 0.018183091637934724 0 -0.0035512147649436276 0.018361937095212045 0 -0.0038695057551769219 0.018575420647061525 0 -0.0038373930765803082 0.018183091637934724 0 -0.0050523588428647969 0.018638111245446943 0 -0.0037769766299576026 0.018362416074893837 0 -0.0039130001389605321 0.018396601567600371 0 -0.0051360493477329502 0.019339475300226373 0 -0.0043544119236345515 0.019116010975236988 0 -0.0044879436923228782 0.017890044968126888 0 -0.0038373930765803082 0.018183091637934724 0 -0.0032151380908529577 0.017668621654636809 0 -0.0052827563130971675 0.019622895754165846 0 -0.0051360493477329502 0.019339475300226373 0 -0.0043544119236345515 0.019116010975236988 0 -0.0038373930765803082 0.018183091637934724 0 -0.0033426713041984106 0.018004119545902801 0 -0.0032151380908529577 0.017668621654636809 0 -0.0032151380908529577 0.017668621654636809 0 -0.0028901771767108324 0.017750282623604084 0 -0.0026462388205792638 0.017710513347685045 0 -0.0030739055302611358 0.017874346500774397 0 -0.0032151380908529577 0.017668621654636809 0 -0.0028901771767108324 0.017750282623604084 0 -0.0033426713041984106 0.018004119545902801 0 -0.0030739055302611358 0.017874346500774397 0 -0.0032151380908529577 0.017668621654636809 0 -0.0039130001389605321 0.018396601567600371 0 -0.0043544119236345515 0.019116010975236988 0 -0.0026462388205792638 0.017710513347685045 0 -0.0037769766299576026 0.018362416074893837 0 -0.0028032756706308465 0.017843602846998791 0 -0.0033426713041984106 0.018004119545902801 0 -0.0030739055302611358 0.017874346500774397 0 -0.0031370498398884464 0.018034423396708427 0 -0.0030739055302611358 0.017874346500774397 0 -0.0028901771767108324 0.017750282623604084 0 -0.0028570363536227464 0.017892071506557288 0 -0.0028570363536227464 0.017892071506557288 0 -0.0031370498398884464 0.018034423396708427 0 -0.0030141095638320978 0.018210924441108854 0 -0.0030739055302611358 0.017874346500774397 0 -0.0028570363536227464 0.017892071506557288 0 -0.0031370498398884464 0.018034423396708427 0 -0.0035512147649436276 0.018361937095212045 0 -0.0031370498398884464 0.018034423396708427 0 -0.0033009609028826475 0.018328498644524155 0 -0.0035512147649436276 0.018361937095212045 0 -0.0033426713041984106 0.018004119545902801 0 -0.0031370498398884464 0.018034423396708427 0 -0.0033009609028826475 0.018328498644524155 0 -0.0030141095638320978 0.018210924441108854 0 -0.0033034027873468427 0.018491706132939423 0 -0.0031370498398884464 0.018034423396708427 0 -0.0033009609028826475 0.018328498644524155 0 -0.0030141095638320978 0.018210924441108854 0 -0.0035231836889228936 0.018559098891048276 0 -0.0033009609028826475 0.018328498644524155 0 -0.0033034027873468427 0.018491706132939423 0 -0.0028570363536227464 0.017892071506557288 0 -0.0030141095638320978 0.018210924441108854 0 -0.0026812700073013517 0.017996328040040272 0 -0.0030141095638320978 0.018210924441108854 0 -0.0026812700073013517 0.017996328040040272 0 -0.0027953630492588894 0.018281587744109633 0 -0.0026812700073013517 0.017996328040040272 0 -0.0023807004703866965 0.017810381056410213 0 -0.0026123599468185136 0.017793165270006826 0 -0.0026812700073013517 0.017996328040040272 0 -0.0023807004703866965 0.017810381056410213 0 -0.0025397852217341264 0.018071112445557331 0 -0.0023807004703866965 0.017810381056410213 0 -0.0024099869326260929 0.017654140169565798 0 -0.0026123599468185136 0.017793165270006826 0 -0.0024099869326260929 0.017654140169565798 0 -0.0026123599468185136 0.017793165270006826 0 -0.0025414621856441333 0.01768317146374225 0 -0.0026123599468185136 0.017793165270006826 0 -0.0026786204162070064 0.017721165388240565 0 -0.0025414621856441333 0.01768317146374225 0 -0.0028570363536227464 0.017892071506557288 0 -0.0026812700073013517 0.017996328040040272 0 -0.0026123599468185136 0.017793165270006826 0 -0.0028570363536227464 0.017892071506557288 0 -0.0026123599468185136 0.017793165270006826 0 -0.0026786204162070064 0.017721165388240565 0 -0.0045520710884473332 0.018913854572170288 0 -0.0040097562875378145 0.018559888806251621 0 -0.0028901771767108324 0.017750282623604084 0 -0.0026786204162070064 0.017721165388240565 0 -0.0026462388205792638 0.017710513347685045 0 -0.0039130001389605321 0.018396601567600371 0 -0.0023526167710568647 0.017395315085133516 0 -0.0026462388205792638 0.017710513347685045 0 -0.0028901771767108324 0.017750282623604084 0 -0.0028570363536227464 0.017892071506557288 0 -0.0026786204162070064 0.017721165388240565 0 -0.0026462388205792638 0.017710513347685045 0 -0.0024329361132740543 0.017564388805865649 0 -0.0025558440079964874 0.017655276478572995 0 -0.0023526167710568647 0.017395315085133516 0 -0.0026462388205792638 0.017710513347685045 0 -0.0024329361132740543 0.017564388805865649 0 -0.0024329361132740543 0.017564388805865649 0 -0.0025558440079964874 0.017655276478572995 0 -0.0023999679964296409 0.017569866743893665 0 -0.0026786204162070064 0.017721165388240565 0 -0.0026462388205792638 0.017710513347685045 0 -0.0025558440079964874 0.017655276478572995 0 -0.0026786204162070064 0.017721165388240565 0 -0.0025558440079964874 0.017655276478572995 0 -0.0025414621856441333 0.01768317146374225 0 -0.0024099869326260929 0.017654140169565798 0 -0.0025414621856441333 0.01768317146374225 0 -0.0023999679964296409 0.017569866743893665 0 -0.0025558440079964874 0.017655276478572995 0 -0.0025414621856441333 0.01768317146374225 0 -0.0023999679964296409 0.017569866743893665 0 -0.0040097562875378145 0.018559888806251621 0 -0.0031217515964273531 0.017518568820150557 0 -0.0022756194386700048 0.017420324993984156 0 -0.0021677485389558411 0.01735480058530002 0 -0.0021025259528029659 0.017306821528347786 0 -0.0024099869326260929 0.017654140169565798 0 -0.0022673693074717451 0.017494867433344035 0 -0.0023999679964296409 0.017569866743893665 0 -0.0023526167710568647 0.017395315085133516 0 -0.0022756194386700048 0.017420324993984156 0 -0.0021025259528029659 0.017306821528347786 0 -0.0022673693074717451 0.017494867433344035 0 -0.0023999679964296409 0.017569866743893665 0 -0.0022756194386700048 0.017420324993984156 0 -0.0024329361132740543 0.017564388805865649 0 -0.0023999679964296409 0.017569866743893665 0 -0.0022756194386700048 0.017420324993984156 0 -0.0023526167710568647 0.017395315085133516 0 -0.0024329361132740543 0.017564388805865649 0 -0.0022756194386700048 0.017420324993984156 0 -0.0022756194386700048 0.017420324993984156 0 -0.0021849608842163036 0.017384268190010706 0 -0.0021677485389558411 0.01735480058530002 0 -0.0021849608842163036 0.017384268190010706 0 -0.0021677485389558411 0.01735480058530002 0 -0.0021191944255151275 0.017303950237985293 0 -0.0022673693074717451 0.017494867433344035 0 -0.0022756194386700048 0.017420324993984156 0 -0.0021849608842163036 0.017384268190010706 0 -0.0022673693074717451 0.017494867433344035 0 -0.0021849608842163036 0.017384268190010706 0 -0.0021481218636081709 0.017362963513255985 0 -0.0021849608842163036 0.017384268190010706 0 -0.0021481218636081709 0.017362963513255985 0 -0.0021191944255151275 0.017303950237985293 0 -0.0021481218636081709 0.017362963513255985 0 -0.0022432213784077276 0.017537367180128362 0 -0.0021195521362053966 0.017350577635898843 0 -0.0022673693074717451 0.017494867433344035 0 -0.0021481218636081709 0.017362963513255985 0 -0.0022432213784077276 0.017537367180128362 0 -0.0023807004703866965 0.017810381056410213 0 -0.0024099869326260929 0.017654140169565798 0 -0.0022432213784077276 0.017537367180128362 0 -0.0024099869326260929 0.017654140169565798 0 -0.0022673693074717451 0.017494867433344035 0 -0.0022432213784077276 0.017537367180128362 0 -0.0023807004703866965 0.017810381056410213 0 -0.0022432213784077276 0.017537367180128362 0 -0.0021936512893756116 0.017610963021962529 0 -0.0022432213784077276 0.017537367180128362 0 -0.0021936512893756116 0.017610963021962529 0 -0.0021195521362053966 0.017350577635898843 0 -0.0021936512893756116 0.017610963021962529 0 -0.0021195521362053966 0.017350577635898843 0 -0.0020901157940112973 0.017308030609586966 0 -0.0021936512893756116 0.017610963021962529 0 -0.0021468875102181838 0.017526059601254522 0 -0.0020901157940112973 0.017308030609586966 0 -0.0021936512893756116 0.017610963021962529 0 -0.0021468875102181838 0.017526059601254522 0 -0.0022429506490098091 0.018015101314319187 0 -0.0023807004703866965 0.017810381056410213 0 -0.0021936512893756116 0.017610963021962529 0 -0.0022429506490098091 0.018015101314319187 0 -0.0021468875102181838 0.017526059601254522 0 -0.0021643785768209784 0.017631486222421954 0 -0.0022429506490098091 0.018015101314319187 0 0.0013156216295623902 0.016598862527532482 0 -0.001487283741685951 0.017572344850604688 0 -0.0021468875102181838 0.017526059601254522 0 -0.0021643785768209784 0.017631486222421954 0 -0.0019729039049776451 0.017112369442115739 0 0.0083014088840787231 0.014088290188043879 0 0.0048767751992982592 0.012295533097206287 0 0.006860588406095095 0.011756929297827229 0 0.00064879807872284705 0.017442500401249072 0 0.00043120251474705281 0.017460808922725918 0 0.00082498817550982816 0.017701552920567621 0 -0.0012763013940575974 0.019764508077968441 0 0.0021806820974434966 0.016034502469162805 0 -0.0013509397204952917 0.024000919364953667 0 -0.0013961875138392363 0.023842293337075104 0 -0.0015759679358933322 0.023811326066618729 0 0.0013156216295623902 0.016598862527532482 0 0.0021806820974434966 0.016034502469162805 0 0.0013156216295623902 0.016598862527532482 0 -0.0012763013940575974 0.019764508077968441 0 -0.0024519954983665626 0.018859585564209021 0 -0.0026636907241843711 0.018742279983632325 0 -0.0033207683594653186 0.019126392283848045 0 -0.0016128409462774446 0.018913490882005127 0 -0.0023650075281116127 0.018953561497161299 0 -0.0022429506490098091 0.018015101314319187 0 -0.0013509397204952917 0.024000919364953667 0 -0.0012230097355244926 0.023921022998474203 0 -0.0011059952318305769 0.024024705124005008 0 -0.0012763013940575974 0.019764508077968441 0 -0.0023485632078002858 0.021720500865394971 0 -0.0012763013940575974 0.019764508077968441 0 -0.0023062752213285232 0.019016718841274718 0 -0.0013509397204952917 0.024000919364953667 0 -0.0012230097355244926 0.023921022998474203 0 -0.0013961875138392363 0.023842293337075104 0 -0.0026340601477000147 0.018327457405290834 0 -0.0027953630492588894 0.018281587744109633 0 -0.0029478181992758524 0.018659528416325257 0 -0.0026636907241843711 0.018742279983632325 0 -0.0026340601477000147 0.018327457405290834 0 -0.0029478181992758524 0.018659528416325257 0 -0.0023650075281116127 0.018953561497161299 0 -0.0026636907241843711 0.018742279983632325 0 -0.0022429506490098091 0.018015101314319187 0 -0.0026636907241843711 0.018742279983632325 0 -0.0026340601477000147 0.018327457405290834 0 -0.0022429506490098091 0.018015101314319187 0 -0.0026340601477000147 0.018327457405290834 0 -0.0022429506490098091 0.018015101314319187 0 -0.0025397852217341264 0.018071112445557331 0 -0.0023807004703866965 0.017810381056410213 0 -0.0022429506490098091 0.018015101314319187 0 -0.0025397852217341264 0.018071112445557331 0 -0.0026812700073013517 0.017996328040040272 0 -0.0025397852217341264 0.018071112445557331 0 -0.0027953630492588894 0.018281587744109633 0 -0.0026340601477000147 0.018327457405290834 0 -0.0025397852217341264 0.018071112445557331 0 -0.0027953630492588894 0.018281587744109633 0 -0.0030141095638320978 0.018210924441108854 0 -0.0027953630492588894 0.018281587744109633 0 -0.0031607480963636342 0.018591896771033196 0 -0.0031607480963636342 0.018591896771033196 0 -0.0033034027873468427 0.018491706132939423 0 -0.0035948676030697966 0.018814944642342624 0 -0.0030141095638320978 0.018210924441108854 0 -0.0031607480963636342 0.018591896771033196 0 -0.0033034027873468427 0.018491706132939423 0 -0.0031607480963636342 0.018591896771033196 0 -0.0033207683594653186 0.019126392283848045 0 -0.0035948676030697966 0.018814944642342624 0 -0.0027953630492588894 0.018281587744109633 0 -0.0031607480963636342 0.018591896771033196 0 -0.0029478181992758524 0.018659528416325257 0 -0.0031607480963636342 0.018591896771033196 0 -0.0029478181992758524 0.018659528416325257 0 -0.0033207683594653186 0.019126392283848045 0 -0.0026636907241843711 0.018742279983632325 0 -0.0029478181992758524 0.018659528416325257 0 -0.0033207683594653186 0.019126392283848045 0 -0.0012230097355244926 0.023921022998474203 0 -0.0011059952318305769 0.024024705124005008 0 -0.0010440666299370599 0.023942864225859093 0 -0.0025356908021632605 0.021397229198017075 0 -0.0023485632078002858 0.021720500865394971 0 -0.00095192314730441273 0.024050069096774401 0 -0.0011059952318305769 0.024024705124005008 0 -0.0010440666299370599 0.023942864225859093 0 -0.0040287696643723052 0.019325944722387439 0 -0.0033207683594653186 0.019126392283848045 0 -0.0035948676030697966 0.018814944642342624 0 -0.0040287696643723052 0.019325944722387439 0 -0.0041353136377802894 0.01906724913631402 0 -0.0035948676030697966 0.018814944642342624 0 -0.0041353136377802894 0.01906724913631402 0 -0.0038607638642284689 0.018775946506967046 0 -0.0035948676030697966 0.018814944642342624 0 -0.0038607638642284689 0.018775946506967046 0 -0.0035231836889228936 0.018559098891048276 0 -0.0035948676030697966 0.018814944642342624 0 -0.0035231836889228936 0.018559098891048276 0 -0.0033034027873468427 0.018491706132939423 0 -0.0035948676030697966 0.018814944642342624 0 -0.0019826641381457655 0.016593272763877426 0 -0.0019860442582577522 0.016278534885198457 0 -0.0018301286490407702 0.016422767357686024 0 -0.0019187832781969024 0.016175855720919157 0 -0.0019826641381457655 0.016593272763877426 0 -0.0019860442582577522 0.016278534885198457 0 -0.0019261952562640502 0.016030857856196786 0 -0.0019187832781969024 0.016175855720919157 0 -0.0019860442582577522 0.016278534885198457 0 -0.0019468846807933636 0.016060906663474536 0 -0.0019261952562640502 0.016030857856196786 0 -0.0019860442582577522 0.016278534885198457 0 -0.0019261952562640502 0.016030857856196786 0 -0.0018950593650595533 0.016015651326881864 0 -0.0019187832781969024 0.016175855720919157 0 -0.0018950593650595533 0.016015651326881864 0 -0.0018778900793284539 0.015978393859406265 0 -0.0019187832781969024 0.016175855720919157 0 -0.0018950593650595533 0.016015651326881864 0 -0.0018667088013177586 0.015882442746791913 0 -0.0018608328779995699 0.015912470071908973 0 -0.0019261952562640502 0.016030857856196786 0 -0.0018950593650595533 0.016015651326881864 0 -0.0018667088013177586 0.015882442746791913 0 -0.0018950593650595533 0.016015651326881864 0 -0.0018608328779995699 0.015912470071908973 0 -0.0018778900793284539 0.015978393859406265 0 -0.0019251811050485584 0.016021845792447659 0 -0.0018778900793284539 0.015978393859406265 0 -0.0019187832781969024 0.016175855720919157 0 -0.0019251811050485584 0.016021845792447659 0 -0.0019187832781969024 0.016175855720919157 0 -0.0019724645408338384 0.016138459179943911 0 -0.0019187832781969024 0.016175855720919157 0 -0.0019724645408338384 0.016138459179943911 0 -0.0019826641381457655 0.016593272763877426 0 -0.0020765863734045847 0.01615179836265054 0 -0.0022203788158462784 0.016163699152153283 0 -0.0019826641381457655 0.016593272763877426 0 -0.0023757972408772758 0.016145475361929496 0 -0.0022203788158462784 0.016163699152153283 0 -0.0019826641381457655 0.016593272763877426 0 -0.0019724645408338384 0.016138459179943911 0 -0.0020765863734045847 0.01615179836265054 0 -0.0019826641381457655 0.016593272763877426 0 -0.0031217515964273531 0.017518568820150557 0 -0.0017420850888062328 0.016460939958025726 0 -0.0020524600714054353 0.016081928225335614 0 -0.0019724645408338384 0.016138459179943911 0 -0.0020765863734045847 0.01615179836265054 0 -0.0021830972869833236 0.016107938887163834 0 -0.0020765863734045847 0.01615179836265054 0 -0.0022203788158462784 0.016163699152153283 0 -0.0021025259528029659 0.017306821528347786 0 -0.0021191944255151275 0.017303950237985293 0 -0.0020506566654842381 0.017104934054527426 0 -0.0021830972869833236 0.016107938887163834 0 -0.0022327316032520373 0.01614249129982873 0 -0.0022203788158462784 0.016163699152153283 0 -0.0031217515964273531 0.017518568820150557 0 -0.002390819083561784 0.016989738739615606 0 -0.0021677485389558411 0.01735480058530002 0 -0.0021025259528029659 0.017306821528347786 0 -0.0021191944255151275 0.017303950237985293 0 -0.0021025259528029659 0.017306821528347786 0 -0.0020506566654842381 0.017104934054527426 0 -0.0019826641381457655 0.016593272763877426 0 -0.0021481218636081709 0.017362963513255985 0 -0.0020506566654842381 0.017104934054527426 0 -0.0021195521362053966 0.017350577635898843 0 -0.0021481218636081709 0.017362963513255985 0 -0.0021191944255151275 0.017303950237985293 0 -0.0020506566654842381 0.017104934054527426 0 -0.0020506566654842381 0.017104934054527426 0 -0.0020478869408814622 0.017153403722205706 0 -0.0019540195943345156 0.016900703428433608 0 -0.0020506566654842381 0.017104934054527426 0 -0.0020478869408814622 0.017153403722205706 0 -0.0021195521362053966 0.017350577635898843 0 -0.0020478869408814622 0.017153403722205706 0 -0.0021195521362053966 0.017350577635898843 0 -0.0020901157940112973 0.017308030609586966 0 -0.0020506566654842381 0.017104934054527426 0 -0.0019826641381457655 0.016593272763877426 0 -0.0019540195943345156 0.016900703428433608 0 -0.0019540195943345156 0.016900703428433608 0 -0.0018143267340852763 0.016591591880846263 0 -0.0018301286490407702 0.016422767357686024 0 -0.0019826641381457655 0.016593272763877426 0 -0.0019540195943345156 0.016900703428433608 0 -0.0018301286490407702 0.016422767357686024 0 -0.0019540195943345156 0.016900703428433608 0 -0.0018143267340852763 0.016591591880846263 0 -0.0019729039049776451 0.017112369442115739 0 -0.0021468875102181838 0.017526059601254522 0 -0.0020901157940112973 0.017308030609586966 0 -0.0019729039049776451 0.017112369442115739 0 -0.0020478869408814622 0.017153403722205706 0 -0.0019540195943345156 0.016900703428433608 0 -0.0020901157940112973 0.017308030609586966 0 -0.0019540195943345156 0.016900703428433608 0 -0.0020901157940112973 0.017308030609586966 0 -0.0019729039049776451 0.017112369442115739 0 0.0083014088840787231 0.014088290188043879 0 0.0038805135586747765 0.014564087347392379 0 0.0048767751992982592 0.012295533097206287 0 0.0013156216295623902 0.016598862527532482 0 0.0012094194495548367 0.01577835767734188 0 0.0038805135586747765 0.014564087347392379 0 0.0048767751992982592 0.012295533097206287 0 0.002886908916584162 0.01123803874465356 0 -0.0018143267340852763 0.016591591880846263 0 -0.0019729039049776451 0.017112369442115739 0 -0.0016284159347163564 0.015970478528865982 0 0.0012094194495548367 0.01577835767734188 0 -0.0017465679642292755 0.015976939904270668 0 -8.9126474488940055e-05 0.013286153229665202 0 0.0027986378105864067 0.011316217762106787 0 0.0038805135586747765 0.014564087347392379 0 0.00067636620600799795 0.01438085257102658 0 -0.0016284159347163564 0.015970478528865982 0 0.00067636620600799795 0.01438085257102658 0 -0.0022342620611895169 0.015864286278876615 0 0.002886908916584162 0.01123803874465356 0 0.0038805135586747765 0.014564087347392379 0 0.00067636620600799795 0.01438085257102658 0 0.002886908916584162 0.01123803874465356 0 0.0018713697985037567 0.010637990152888292 0 0.0016920201226971817 0.010833697321949644 0 0.002886908916584162 0.01123803874465356 0 0.0018713697985037567 0.010637990152888292 0 0.0014739922785150146 0.010592229648026225 0 0.0016920201226971817 0.010833697321949644 0 0.0014739922785150146 0.010592229648026225 0 0.0012715900828511541 0.010241094765289996 0 0.001567848097386098 0.01029012660849263 0 0.0018713697985037567 0.010637990152888292 0 0.0014739922785150146 0.010592229648026225 0 0.001567848097386098 0.01029012660849263 0 0.00067636620600799795 0.01438085257102658 0 -0.0022342620611895169 0.015864286278876615 0 -0.0016284159347163564 0.015970478528865982 0 -0.0018143267340852763 0.016591591880846263 0 -0.0016284159347163564 0.015970478528865982 0 -0.0018301286490407702 0.016422767357686024 0 -0.0022342620611895169 0.015864286278876615 0 -0.0016284159347163564 0.015970478528865982 0 -0.0018301286490407702 0.016422767357686024 0 -0.0022342620611895169 0.015864286278876615 0 -0.0019860442582577522 0.016278534885198457 0 -0.0018301286490407702 0.016422767357686024 0 -0.0019468846807933636 0.016060906663474536 0 -0.0022342620611895169 0.015864286278876615 0 -0.0019860442582577522 0.016278534885198457 0 -0.00068856543753645989 0.014257355174732023 0 -8.9126474488940055e-05 0.013286153229665202 0 0.00086248962550443224 0.012386779882219257 0 0.0016920201226971817 0.010833697321949644 0 0.0010599348364090516 0.010792171802039596 0 0.0014739922785150146 0.010592229648026225 0 0.0016920201226971817 0.010833697321949644 0 0.0010599348364090516 0.010792171802039596 0 0.0014739922785150146 0.010592229648026225 0 0.0010599348364090516 0.010792171802039596 0 0.0012715900828511541 0.010241094765289996 0 0.0010599348364090516 0.010792171802039596 0 0.0012715900828511541 0.010241094765289996 0 0.00075027084313590542 0.009627871333668353 0 0.00075027084313590542 0.009627871333668353 0 0.001216297613016734 0.0096132415351049081 0 0.00079527633974488384 0.0088218295688196353 0 0.00075027084313590542 0.009627871333668353 0 0.00079527633974488384 0.0088218295688196353 0 0.00036563531030952531 0.0086447049880769167 0 0.0012715900828511541 0.010241094765289996 0 0.00075027084313590542 0.009627871333668353 0 0.001216297613016734 0.0096132415351049081 0 0.00079527633974488384 0.0088218295688196353 0 0.00096965678447494578 0.0085151306430135288 0 0.00048405853245352549 0.0083545676603818918 0 0.001216297613016734 0.0096132415351049081 0 0.00079527633974488384 0.0088218295688196353 0 0.0014117487630224052 0.0092588771115285993 0 0.0014117487630224052 0.0092588771115285993 0 0.0028371261968573348 0.0091440135716136101 0 0.00096965678447494578 0.0085151306430135288 0 0.00079527633974488384 0.0088218295688196353 0 0.0014117487630224052 0.0092588771115285993 0 0.00096965678447494578 0.0085151306430135288 0 0.0014117487630224052 0.0092588771115285993 0 0.0016469353933252395 0.0099065574643638823 0 0.0020712070592201538 0.0099222282718835746 0 0.001216297613016734 0.0096132415351049081 0 0.0014117487630224052 0.0092588771115285993 0 0.0016469353933252395 0.0099065574643638823 0 0.0012715900828511541 0.010241094765289996 0 0.001216297613016734 0.0096132415351049081 0 0.001567848097386098 0.01029012660849263 0 0.001216297613016734 0.0096132415351049081 0 0.0016469353933252395 0.0099065574643638823 0 0.001567848097386098 0.01029012660849263 0 0.0016469353933252395 0.0099065574643638823 0 0.0019444161534625621 0.010417869829268296 0 0.0020712070592201538 0.0099222282718835746 0 0.0018713697985037567 0.010637990152888292 0 0.001567848097386098 0.01029012660849263 0 0.0019444161534625621 0.010417869829268296 0 0.0016469353933252395 0.0099065574643638823 0 0.001567848097386098 0.01029012660849263 0 0.0019444161534625621 0.010417869829268296 0 0.0018713697985037567 0.010637990152888292 0 0.0019444161534625621 0.010417869829268296 0 0.002886908916584162 0.01123803874465356 0 0.0014117487630224052 0.0092588771115285993 0 0.0020712070592201538 0.0099222282718835746 0 0.0028371261968573348 0.0091440135716136101 0 0.0019444161534625621 0.010417869829268296 0 0.002886908916584162 0.01123803874465356 0 0.0020712070592201538 0.0099222282718835746 0 0.002886908916584162 0.01123803874465356 0 0.0020712070592201538 0.0099222282718835746 0 0.0028371261968573348 0.0091440135716136101 0 0.0048767751992982592 0.012295533097206287 0 0.0028371261968573348 0.0091440135716136101 0 0.006860588406095095 0.011756929297827229 0 -0.00068679168454623693 0.014333596866862393 0 0.0021806820974434966 0.016034502469162805 0 0.0020146523761888141 0.0082714850298007004 0 0.0021806820974434966 0.016034502469162805 0 0.001156631632595559 0.0087581969925299933 0 0.0010341492455391377 0.0088256793023298412 0 0.0016537025341149714 0.0098110001588404498 0 0.0010341492455391377 0.0088256793023298412 0 0.00076268608428994009 0.008837284726896228 0 0.0016537025341149714 0.0098110001588404498 0 0.0048767751992982592 0.012295533097206287 0 0.002886908916584162 0.01123803874465356 0 0.0028371261968573348 0.0091440135716136101 0 0.0010651630658939544 0.0087904758146271824 0 0.0010341492455391377 0.0088256793023298412 0 0.00081717892929464926 0.0087119460993958977 0 -0.00068679168454623693 0.014333596866862393 0 0.00022637837354208974 0.01339828497669044 0 -0.00068679168454623693 0.014333596866862393 0 0.00010559964405713665 0.0079164671539374981 0 0.0010651630658939544 0.0087904758146271824 0 0.00081717892929464926 0.0087119460993958977 0 0.00076793143431421373 0.0086376462664735608 0 0.0020146523761888141 0.0082714850298007004 0 0.0010447422279199997 0.0087722764861600452 0 0.00076268608428994009 0.008837284726896228 0 0.00081717892929464926 0.0087119460993958977 0 0.00096965678447494578 0.0085151306430135288 0 0.0010341492455391377 0.0088256793023298412 0 0.00076268608428994009 0.008837284726896228 0 0.00081717892929464926 0.0087119460993958977 0 0.00076793143431421373 0.0086376462664735608 0 0.00065938512176962917 0.0086893082121056418 0 0.00096965678447494578 0.0085151306430135288 0 0.00081717892929464926 0.0087119460993958977 0 0.00076793143431421373 0.0086376462664735608 0 0.00096965678447494578 0.0085151306430135288 0 0.00010559964405713665 0.0079164671539374981 0 0.00076699654255823297 0.008863855325099387 0 0.00033622822934685996 0.0082958769620254825 0 0.00018191939688205641 0.0087161948544624557 0 0.00065938512176962917 0.0086893082121056418 0 4.8552090810150346e-05 0.0078534011490451749 0 0.00033622822934685996 0.0082958769620254825 0 -0.00010443667177382101 0.0084150921868436472 0 0.00033622822934685996 0.0082958769620254825 0 -0.00010443667177382101 0.0084150921868436472 0 0.00018191939688205641 0.0087161948544624557 0 -0.00010443667177382101 0.0084150921868436472 0 0.00018191939688205641 0.0087161948544624557 0 -0.00030137804863457449 0.0089203202000975382 0 -0.00030137804863457449 0.0089203202000975382 0 -0.00033329734894525846 0.0095845051000502928 0 0.00030203615079686338 0.0092585256115778822 0 0.00018191939688205641 0.0087161948544624557 0 -0.00030137804863457449 0.0089203202000975382 0 0.00030203615079686338 0.0092585256115778822 0 0.00018191939688205641 0.0087161948544624557 0 0.00065938512176962917 0.0086893082121056418 0 0.00030203615079686338 0.0092585256115778822 0 0.00065938512176962917 0.0086893082121056418 0 0.00061856445236521944 0.0088737454756238048 0 0.00030203615079686338 0.0092585256115778822 0 0.00065938512176962917 0.0086893082121056418 0 0.00061856445236521944 0.0088737454756238048 0 0.00077092236916820518 0.0084952639376793346 0 0.00077092236916820518 0.0084952639376793346 0 0.00096965678447494578 0.0085151306430135288 0 0.00048405853245352549 0.0083545676603818918 0 0.00065938512176962917 0.0086893082121056418 0 0.00077092236916820518 0.0084952639376793346 0 0.00096965678447494578 0.0085151306430135288 0 -0.0009420544963954393 0.023981279148996233 0 -0.0010444121801942673 0.023899114598303649 0 -0.0010647162841999583 0.023817682630377226 0 -0.0010444121801942673 0.023899114598303649 0 -0.0010647162841999583 0.023817682630377226 0 -0.0012062604096924447 0.023842008420130918 0 -0.0009420544963954393 0.023981279148996233 0 -0.0010440666299370599 0.023942864225859093 0 -0.0010647162841999583 0.023817682630377226 0 -0.00095192314730441273 0.024050069096774401 0 -0.0009420544963954393 0.023981279148996233 0 -0.0010440666299370599 0.023942864225859093 0 -0.0012230097355244926 0.023921022998474203 0 -0.0010440666299370599 0.023942864225859093 0 -0.0011711995432249296 0.023816981316739216 0 -0.0010440666299370599 0.023942864225859093 0 -0.0011711995432249296 0.023816981316739216 0 -0.0010647162841999583 0.023817682630377226 0 -0.0011711995432249296 0.023816981316739216 0 -0.0010647162841999583 0.023817682630377226 0 -0.0012364113389725757 0.023616731997621869 0 -0.0011198553116984196 0.023559610238080807 0 -0.0009615111797083262 0.024315707604701094 0 -0.0010647162841999583 0.023817682630377226 0 -0.0012364113389725757 0.023616731997621869 0 -0.001039933867446651 0.023417402821777032 0 -0.0012364113389725757 0.023616731997621869 0 -0.0014505545422913123 0.023362644956953817 0 -0.001039933867446651 0.023417402821777032 0 -0.0012364113389725757 0.023616731997621869 0 -0.0013898632165188348 0.023580494883026555 0 -0.0014505545422913123 0.023362644956953817 0 -0.0012364113389725757 0.023616731997621869 0 -0.0013898632165188348 0.023580494883026555 0 -0.001346579782476109 0.023739443303866119 0 -0.0011711995432249296 0.023816981316739216 0 -0.0012364113389725757 0.023616731997621869 0 -0.001346579782476109 0.023739443303866119 0 -0.0012230097355244926 0.023921022998474203 0 -0.0011711995432249296 0.023816981316739216 0 -0.001346579782476109 0.023739443303866119 0 -0.0012230097355244926 0.023921022998474203 0 -0.0013961875138392363 0.023842293337075104 0 -0.001346579782476109 0.023739443303866119 0 -0.0013961875138392363 0.023842293337075104 0 -0.001346579782476109 0.023739443303866119 0 -0.0014699453265952453 0.023746703617678177 0 -0.0017321138732207062 0.023495099680230103 0 -0.0015759679358933322 0.023811326066618729 0 -0.0015276160834950491 0.023605996054747915 0 -0.001346579782476109 0.023739443303866119 0 -0.0014699453265952453 0.023746703617678177 0 -0.0015276160834950491 0.023605996054747915 0 -0.0014699453265952453 0.023746703617678177 0 -0.0015759679358933322 0.023811326066618729 0 -0.0015276160834950491 0.023605996054747915 0 -0.0013961875138392363 0.023842293337075104 0 -0.0014699453265952453 0.023746703617678177 0 -0.0015759679358933322 0.023811326066618729 0 -0.0017321138732207062 0.023495099680230103 0 -0.0015276160834950491 0.023605996054747915 0 -0.0014505545422913123 0.023362644956953817 0 -0.00068679168454623693 0.014333596866862393 0 -0.0012332376763692636 0.015679896823671779 0 -0.0013898632165188348 0.023580494883026555 0 -0.0015276160834950491 0.023605996054747915 0 -0.0014505545422913123 0.023362644956953817 0 -0.0013898632165188348 0.023580494883026555 0 -0.001346579782476109 0.023739443303866119 0 -0.0015276160834950491 0.023605996054747915 0 4.8552090810150346e-05 0.0078534011490451749 0 -0.00010443667177382101 0.0084150921868436472 0 -0.0008502829307099818 0.0083314263985500778 0 -0.00010443667177382101 0.0084150921868436472 0 -0.0008502829307099818 0.0083314263985500778 0 -0.00030137804863457449 0.0089203202000975382 0 -0.0008502829307099818 0.0083314263985500778 0 -0.00030137804863457449 0.0089203202000975382 0 -0.0010532378598875165 0.0092696187888330617 0 -0.00030137804863457449 0.0089203202000975382 0 -0.0010532378598875165 0.0092696187888330617 0 -0.00033329734894525846 0.0095845051000502928 0 -0.0010532378598875165 0.0092696187888330617 0 -0.0019010829482349217 0.0089428989190313817 0 -0.0017910848305630284 0.010036136499991726 0 -0.0008502829307099818 0.0083314263985500778 0 -0.0010532378598875165 0.0092696187888330617 0 -0.0019010829482349217 0.0089428989190313817 0 -0.0012332376763692636 0.015679896823671779 0 -0.00096543961967665397 0.018659806677843237 0 -0.0014505545422913123 0.023362644956953817 0 -0.001039933867446651 0.023417402821777032 0 -0.0010792647777479731 0.023107492197709408 0 -0.0012062604096924447 0.023842008420130918 0 -0.001373683457364148 0.023595179001080317 0 -0.0010890564200795687 0.023781204591306438 0 -0.0009615111797083262 0.024315707604701094 0 -0.00096543961967665397 0.018659806677843237 0 -0.00096543961967665397 0.018659806677843237 0 -0.0020402386788555757 0.015151089194578476 0 -0.0018239752741121005 0.022937871809998209 0 -0.001056271121529243 0.022533403633168622 0 -0.0020155835624709726 0.021456299122241788 0 -0.00096543961967665397 0.018659806677843237 0 -0.0015768065047986775 0.023180766627355139 0 -0.00091979943250278381 0.023687928455694576 0 -0.00076599412813112408 0.022652753624496209 0 -0.001267687759265973 0.023381604226524286 0 -0.00091979943250278381 0.023687928455694576 0 -0.001267687759265973 0.023381604226524286 0 -0.0010890564200795687 0.023781204591306438 0 -0.001373683457364148 0.023595179001080317 0 -0.001267687759265973 0.023381604226524286 0 -0.0010890564200795687 0.023781204591306438 0 -0.0010444121801942673 0.023899114598303649 0 -0.0012062604096924447 0.023842008420130918 0 -0.0010890564200795687 0.023781204591306438 0 -0.00086150347324246985 0.023963736511675989 0 -0.0010444121801942673 0.023899114598303649 0 -0.0010890564200795687 0.023781204591306438 0 1.2048441307936897e-06 0.01967523286938035 0 -6.5612244193233367e-06 0.014826924428719518 0 -0.00054009981744993678 0.019535035980459244 0 -0.0003867350286841773 0.021556475901447769 0 -0.00081861942025358858 0.021616361985805306 0 -0.00054009981744993678 0.019535035980459244 0 -0.00081861942025358858 0.021616361985805306 0 -0.0020155835624709726 0.021456299122241788 0 -0.00054009981744993678 0.019535035980459244 0 -0.001056271121529243 0.022533403633168622 0 -0.00081861942025358858 0.021616361985805306 0 -0.0020155835624709726 0.021456299122241788 0 -0.00076599412813112408 0.022652753624496209 0 -0.001056271121529243 0.022533403633168622 0 -0.00081861942025358858 0.021616361985805306 0 -0.00062222866993470228 0.022586615071334939 0 -0.0015768065047986775 0.023180766627355139 0 -0.0020155835624709726 0.021456299122241788 0 -0.0017477266787365459 0.018836067448984896 0 -0.00054009981744993678 0.019535035980459244 0 -0.0020402386788555757 0.015151089194578476 0 -0.0014892835294942606 0.015449035147796587 0 -0.0017910848305630284 0.010036136499991726 0 -0.00079323883944901012 0.010318291360904 0 -0.0015682981834977501 0.011683944403659456 0 -0.0010532378598875165 0.0092696187888330617 0 -0.0017910848305630284 0.010036136499991726 0 -0.00079323883944901012 0.010318291360904 0 -0.0010532378598875165 0.0092696187888330617 0 -0.00033329734894525846 0.0095845051000502928 0 -0.00079323883944901012 0.010318291360904 0 -0.00033329734894525846 0.0095845051000502928 0 -0.00079323883944901012 0.010318291360904 0 4.3063074939995138e-05 0.010213176890995658 0 -0.00079323883944901012 0.010318291360904 0 -0.00014226904006896842 0.011732902631785809 0 4.3063074939995138e-05 0.010213176890995658 0 -0.00014226904006896842 0.011732902631785809 0 -4.0636326854978057e-06 0.01481577402554154 0 1.2945735359792657e-06 0.012742582413529591 0 -7.1159986549051829e-07 0.014820196280462258 0 -0.0014892835294942606 0.015449035147796587 0 -0.00014226904006896842 0.011732902631785809 0 -4.0636326854978057e-06 0.01481577402554154 0 -0.0015682981834977501 0.011683944403659456 0 -0.00079323883944901012 0.010318291360904 0 -0.00014226904006896842 0.011732902631785809 0 -0.0015682981834977501 0.011683944403659456 0 -6.5612244193233367e-06 0.014826924428719518 0 -0.0017477266787365459 0.018836067448984896 0 -0.00054009981744993678 0.019535035980459244 0 0.00058920659499912603 0.0091580853536244022 0 0.00029768758047096853 0.010468892921693193 0 0.00043310085756601078 0.0091821043026817963 0 0.00065365035443927045 0.0083402944376079358 0 0.00058920659499912603 0.0091580853536244022 0 0.00043310085756601078 0.0091821043026817963 0 0.00065365035443927045 0.0083402944376079358 0 0.00043310085756601078 0.0091821043026817963 0 0.00046430918741038424 0.0080027125756670456 0 0.00077092236916820518 0.0084952639376793346 0 0.00065365035443927045 0.0083402944376079358 0 0.00058920659499912603 0.0091580853536244022 0 0.00077092236916820518 0.0084952639376793346 0 0.00065365035443927045 0.0083402944376079358 0 0.00060669407026876343 0.0081249627326881076 0 0.00061856445236521944 0.0088737454756238048 0 0.00077092236916820518 0.0084952639376793346 0 0.00058920659499912603 0.0091580853536244022 0 0.00058920659499912603 0.0091580853536244022 0 0.00030203615079686338 0.0092585256115778822 0 0.00030785983693665123 0.0097609491823056234 0 0.00061856445236521944 0.0088737454756238048 0 0.00058920659499912603 0.0091580853536244022 0 0.00030203615079686338 0.0092585256115778822 0 -0.00033329734894525846 0.0095845051000502928 0 0.00030203615079686338 0.0092585256115778822 0 4.3063074939995138e-05 0.010213176890995658 0 0.00030203615079686338 0.0092585256115778822 0 4.3063074939995138e-05 0.010213176890995658 0 0.00030785983693665123 0.0097609491823056234 0 4.3063074939995138e-05 0.010213176890995658 0 0.00030785983693665123 0.0097609491823056234 0 0.00029768758047096853 0.010468892921693193 0 0.00058920659499912603 0.0091580853536244022 0 0.00030785983693665123 0.0097609491823056234 0 0.00029768758047096853 0.010468892921693193 0 -0.00014226904006896842 0.011732902631785809 0 4.3063074939995138e-05 0.010213176890995658 0 0.00029768758047096853 0.010468892921693193 0 -0.00014226904006896842 0.011732902631785809 0 0.00029768758047096853 0.010468892921693193 0 1.2945735359792657e-06 0.012742582413529591 0 0.00029768758047096853 0.010468892921693193 0 1.2945735359792657e-06 0.012742582413529591 0 3.8461477230722393e-07 0.010664939345927608 0 0.00029768758047096853 0.010468892921693193 0 3.8461477230722393e-07 0.010664939345927608 0 0.00043310085756601078 0.0091821043026817963 0 0.00043310085756601078 0.0091821043026817963 0 7.291674431855467e-07 0.0085882800855529625 0 0.00046430918741038424 0.0080027125756670456 0 3.8461477230722393e-07 0.010664939345927608 0 0.00043310085756601078 0.0091821043026817963 0 7.291674431855467e-07 0.0085882800855529625 0 7.291674431855467e-07 0.0085882800855529625 0 0.0002557153859858159 0.0072960498179345645 0 0.00046430918741038424 0.0080027125756670456 0 7.291674431855467e-07 0.0085882800855529625 0 0.0002557153859858159 0.0072960498179345645 0 4.5559703511694134e-07 0.006511291872674488 0 0.0002557153859858159 0.0072960498179345645 0 0.00046430918741038424 0.0080027125756670456 0 0.00038382276448862385 0.007028081120080144 0 1.3851667929325567e-07 0.0044341846617638458 0 0.00017234096917778967 0.0059669205963012346 0 2.8629230019908939e-05 0.0051489969969346966 0 1.3851667929325567e-07 0.0044341846617638458 0 4.5559703511694134e-07 0.006511291872674488 0 0.00017234096917778967 0.0059669205963012346 0 0.0002557153859858159 0.0072960498179345645 0 4.5559703511694134e-07 0.006511291872674488 0 0.00017234096917778967 0.0059669205963012346 0 0.0002557153859858159 0.0072960498179345645 0 0.00017234096917778967 0.0059669205963012346 0 0.00038382276448862385 0.007028081120080144 0 0.00017234096917778967 0.0059669205963012346 0 0.00020160209848005451 0.0062370491830058732 0 0.00038382276448862385 0.007028081120080144 0 0.00017234096917778967 0.0059669205963012346 0 2.8629230019908939e-05 0.0051489969969346966 0 0.00020160209848005451 0.0062370491830058732 0 0.00020160209848005451 0.0062370491830058732 0 5.2449625321835374e-05 0.0068073195956075919 0 -2.7398853194168054e-05 0.0057204104241965759 0 2.8629230019908939e-05 0.0051489969969346966 0 0.00020160209848005451 0.0062370491830058732 0 -2.7398853194168054e-05 0.0057204104241965759 0 0.00020160209848005451 0.0062370491830058732 0 0.00035946501013971416 0.0070934741219325177 0 0.00038382276448862385 0.007028081120080144 0 0.00035946501013971416 0.0070934741219325177 0 0.00046948136999476123 0.0077335323462695742 0 0.00027820186344798168 0.0075661331327447527 0 0.00035946501013971416 0.0070934741219325177 0 5.2449625321835374e-05 0.0068073195956075919 0 0.00027820186344798168 0.0075661331327447527 0 0.00020160209848005451 0.0062370491830058732 0 0.00035946501013971416 0.0070934741219325177 0 5.2449625321835374e-05 0.0068073195956075919 0 5.2449625321835374e-05 0.0068073195956075919 0 -4.6091871023639387e-05 0.0077682624424297289 0 -0.0011390460091177065 0.0069384372070734395 0 0.00065365035443927045 0.0083402944376079358 0 0.00046430918741038424 0.0080027125756670456 0 0.00054124254972175362 0.0077037059020898949 0 0.00035946501013971416 0.0070934741219325177 0 0.00038382276448862385 0.007028081120080144 0 0.00054124254972175362 0.0077037059020898949 0 0.00046430918741038424 0.0080027125756670456 0 0.00038382276448862385 0.007028081120080144 0 0.00054124254972175362 0.0077037059020898949 0 0.00035946501013971416 0.0070934741219325177 0 0.00054124254972175362 0.0077037059020898949 0 0.00046948136999476123 0.0077335323462695742 0 0.00054124254972175362 0.0077037059020898949 0 0.00060669407026876343 0.0081249627326881076 0 0.00046948136999476123 0.0077335323462695742 0 0.00065365035443927045 0.0083402944376079358 0 0.00054124254972175362 0.0077037059020898949 0 0.00060669407026876343 0.0081249627326881076 0 0.00077092236916820518 0.0084952639376793346 0 0.00060669407026876343 0.0081249627326881076 0 0.00048405853245352549 0.0083545676603818918 0 0.00060669407026876343 0.0081249627326881076 0 0.00048405853245352549 0.0083545676603818918 0 0.00043111030074007305 0.0082966886027563604 0 0.00060669407026876343 0.0081249627326881076 0 0.00046948136999476123 0.0077335323462695742 0 0.00043111030074007305 0.0082966886027563604 0 0.00046948136999476123 0.0077335323462695742 0 0.00027820186344798168 0.0075661331327447527 0 0.00043111030074007305 0.0082966886027563604 0 0.00027820186344798168 0.0075661331327447527 0 -4.6091871023639387e-05 0.0077682624424297289 0 0.00043111030074007305 0.0082966886027563604 0 5.2449625321835374e-05 0.0068073195956075919 0 0.00027820186344798168 0.0075661331327447527 0 -4.6091871023639387e-05 0.0077682624424297289 0 0.0020023826305879473 0.0060877727844289437 0 0.0023607608425654293 0.0061177570415829885 0 0.0017413660515691078 0.0090446871447292469 0 0.0019120408890588106 0.0079144526021800703 0 0.0022080558341386696 0.0088116101378028569 0 0.0017413660515691078 0.0090446871447292469 0 0.00043111030074007305 0.0082966886027563604 0 0.0019120408890588106 0.0079144526021800703 0 0.00086545895663938538 0.0087242056237584378 0 0.00043084677838754287 0.0081918782272943167 0 0.00043111030074007305 0.0082966886027563604 0 0.00088758601978175956 0.0076462269862714281 0 0.0019120408890588106 0.0079144526021800703 0 0.00088758601978175956 0.0076462269862714281 0 0.0019120408890588106 0.0079144526021800703 0 0.0016596255536876084 0.0060071370352135379 0 0.002237549970502792 0.0044349099773321934 0 0.0016596255536876084 0.0060071370352135379 0 0.0018723464731107587 0.004767183606055294 0 0.0020023826305879473 0.0060877727844289437 0 0.0016858149753865197 0.0059070043977798876 0 0.0018349920095826506 0.0050630980605845966 0 0.0016596255536876084 0.0060071370352135379 0 0.0018723464731107587 0.004767183606055294 0 0.00088758601978175956 0.0076462269862714281 0 0.0016596255536876084 0.0060071370352135379 0 -0.00022902797431694313 0.0078760615235149972 0 0.00058570797276886891 0.005093958332322404 0 0.0016596255536876084 0.0060071370352135379 0 -0.00022902797431694313 0.0078760615235149972 0 -0.0019657053606673405 0.011011882282926558 0 -0.00022902797431694313 0.0078760615235149972 0 -7.919799281453577e-06 0.0094403058947327527 0 -0.00060133611338911445 0.0079789125785350683 0 -0.00034181332457525746 0.0080110899415675833 0 -0.00022902797431694313 0.0078760615235149972 0 -7.919799281453577e-06 0.0094403058947327527 0 0.00036563531030952531 0.0086447049880769167 0 0.00075027084313590542 0.009627871333668353 0 -7.919799281453577e-06 0.0094403058947327527 0 0.00036563531030952531 0.0086447049880769167 0 0.00048405853245352549 0.0083545676603818918 0 -0.00022902797431694313 0.0078760615235149972 0 0.00036563531030952531 0.0086447049880769167 0 0.00079527633974488384 0.0088218295688196353 0 0.00048405853245352549 0.0083545676603818918 0 0.00036563531030952531 0.0086447049880769167 0 0.00043111030074007305 0.0082966886027563604 0 0.00088758601978175956 0.0076462269862714281 0 -0.00022902797431694313 0.0078760615235149972 0 0.00048405853245352549 0.0083545676603818918 0 0.00043111030074007305 0.0082966886027563604 0 -0.00022902797431694313 0.0078760615235149972 0 0.0015384275636297477 0.00390969597400646 0 0.0012948976110218654 0.003898974324062613 0 0.0013913620594515621 0.0034067304399351007 0 0.0015384275636297477 0.00390969597400646 0 0.0012948976110218654 0.003898974324062613 0 0.0016356058256463209 0.0044436052665005731 0 0.0012948976110218654 0.003898974324062613 0 0.00097555311773636101 0.0036301612169621677 0 0.0011200041327054391 0.0030910306813717566 0 0.0012948976110218654 0.003898974324062613 0 0.00097555311773636101 0.0036301612169621677 0 0.0009444288404405175 0.0041259532849938028 0 0.0013520641430305703 0.0045169146777419332 0 0.0012948976110218654 0.003898974324062613 0 0.0009444288404405175 0.0041259532849938028 0 0.0013520641430305703 0.0045169146777419332 0 0.0012948976110218654 0.003898974324062613 0 0.0016356058256463209 0.0044436052665005731 0 0.0018349920095826506 0.0050630980605845966 0 0.0016356058256463209 0.0044436052665005731 0 0.0018723464731107587 0.004767183606055294 0 0.002237549970502792 0.0044349099773321934 0 0.0018723464731107587 0.004767183606055294 0 0.0017621495573474648 0.0041267093292978565 0 0.0016356058256463209 0.0044436052665005731 0 0.0018723464731107587 0.004767183606055294 0 0.0017621495573474648 0.0041267093292978565 0 0.0015384275636297477 0.00390969597400646 0 0.0016356058256463209 0.0044436052665005731 0 0.0017621495573474648 0.0041267093292978565 0 0.0015384275636297477 0.00390969597400646 0 0.0017621495573474648 0.0041267093292978565 0 0.0016263072684677775 0.0035718978682654124 0 0.0017621495573474648 0.0041267093292978565 0 0.0016263072684677775 0.0035718978682654124 0 0.0019375600352831881 0.003622452341801129 0 0.0016263072684677775 0.0035718978682654124 0 0.0019375600352831881 0.003622452341801129 0 0.0017415067059848599 0.0032167046654340858 0 0.0016263072684677775 0.0035718978682654124 0 0.0017415067059848599 0.0032167046654340858 0 0.0015081653247311362 0.0030965101290769486 0 0.002237549970502792 0.0044349099773321934 0 0.0019375600352831881 0.003622452341801129 0 0.0022770223465680751 0.0033579099331067508 0 0.002237549970502792 0.0044349099773321934 0 0.0017621495573474648 0.0041267093292978565 0 0.0019375600352831881 0.003622452341801129 0 0.0017413660515691078 0.0090446871447292469 0 0.0022080558341386696 0.0088116101378028569 0 0.0025315168610613205 0.0094405094887942218 0 0.0022770223465680751 0.0033579099331067508 0 0.0019966703329735136 0.003004690642797605 0 0.0020510208735885684 0.0025142845396213783 0 0.0023607608425654293 0.0061177570415829885 0 0.0010141654398535586 0.0060915148445857461 0 0.00086545895663938538 0.0087242056237584378 0 0.0010141654398535586 0.0060915148445857461 0 0.0019375600352831881 0.003622452341801129 0 0.0022770223465680751 0.0033579099331067508 0 0.0019966703329735136 0.003004690642797605 0 0.0017415067059848599 0.0032167046654340858 0 0.001691105924814325 0.0027741288043744965 0 0.0015081653247311362 0.0030965101290769486 0 0.0019966703329735136 0.003004690642797605 0 0.0017415067059848599 0.0032167046654340858 0 0.001691105924814325 0.0027741288043744965 0 0.0019375600352831881 0.003622452341801129 0 0.0019966703329735136 0.003004690642797605 0 0.0017415067059848599 0.0032167046654340858 0 0.0019966703329735136 0.003004690642797605 0 0.001691105924814325 0.0027741288043744965 0 0.0018853847011087469 0.0027163346918181496 0 0.0019966703329735136 0.003004690642797605 0 0.0020510208735885684 0.0025142845396213783 0 0.0018853847011087469 0.0027163346918181496 0 0.001691105924814325 0.0027741288043744965 0 0.0014126584281784601 0.0026912989147579169 0 0.0015349753466315501 0.0024197712404130942 0 0.001691105924814325 0.0027741288043744965 0 0.0014126584281784601 0.0026912989147579169 0 0.0015081653247311362 0.0030965101290769486 0 0.0014126584281784601 0.0026912989147579169 0 0.0011424404777449304 0.0024529252241794587 0 0.0013034004980738852 0.0023854745554171206 0 0.0014126584281784601 0.0026912989147579169 0 0.0013096377812305024 0.0029413310376772885 0 0.0011424404777449304 0.0024529252241794587 0 0.0014126584281784601 0.0026912989147579169 0 0.0013096377812305024 0.0029413310376772885 0 0.0015081653247311362 0.0030965101290769486 0 0.0016263072684677775 0.0035718978682654124 0 0.0015081653247311362 0.0030965101290769486 0 0.0013913620594515621 0.0034067304399351007 0 0.0013096377812305024 0.0029413310376772885 0 0.0015081653247311362 0.0030965101290769486 0 0.0013913620594515621 0.0034067304399351007 0 0.0015384275636297477 0.00390969597400646 0 0.0016263072684677775 0.0035718978682654124 0 0.0013913620594515621 0.0034067304399351007 0 0.0012948976110218654 0.003898974324062613 0 0.0013913620594515621 0.0034067304399351007 0 0.0011200041327054391 0.0030910306813717566 0 0.0013096377812305024 0.0029413310376772885 0 0.0013913620594515621 0.0034067304399351007 0 0.0011200041327054391 0.0030910306813717566 0 0.0013096377812305024 0.0029413310376772885 0 0.0011200041327054391 0.0030910306813717566 0 0.0011424404777449304 0.0024529252241794587 0 0.0011200041327054391 0.0030910306813717566 0 0.0011424404777449304 0.0024529252241794587 0 0.00093551823347633449 0.0023440487019366599 0 0.0011424404777449304 0.0024529252241794587 0 0.00098958763000016781 0.0020742965644719958 0 0.0011316664186175128 0.0021958679374476527 0 0.0011046823287422234 0.0019519015963494531 0 0.00074918939812923351 0.0018111133319987482 0 0.0011316664186175128 0.0021958679374476527 0 0.0013356561514442206 0.0021608314984520164 0 0.00093265769886541686 0.0019404647050844371 0 0.0011424404777449304 0.0024529252241794587 0 0.00098958763000016781 0.0020742965644719958 0 0.00093879482386821189 0.0020699625140721736 0 0.00098958763000016781 0.0020742965644719958 0 0.0011316664186175128 0.0021958679374476527 0 0.00093265769886541686 0.0019404647050844371 0 0.0011424404777449304 0.0024529252241794587 0 0.0011316664186175128 0.0021958679374476527 0 0.0013034004980738852 0.0023854745554171206 0 0.00090791029813088939 0.0016482793374048461 0 0.0008335293922312508 0.0016222401282868267 0 0.00073190440196792543 0.0015593354054679544 0 0.0014126584281784601 0.0026912989147579169 0 0.0013034004980738852 0.0023854745554171206 0 0.0015349753466315501 0.0024197712404130942 0 0.0015349753466315501 0.0024197712404130942 0 0.0015720288240726335 0.0022682771496804395 0 0.0013356561514442206 0.0021608314984520164 0 0.00081539817554218978 0.0023225861170740954 0 0.0011046823287422234 0.0019519015963494531 0 0.0013034004980738852 0.0023854745554171206 0 0.0015349753466315501 0.0024197712404130942 0 0.0013356561514442206 0.0021608314984520164 0 0.0011316664186175128 0.0021958679374476527 0 0.0013034004980738852 0.0023854745554171206 0 0.0013356561514442206 0.0021608314984520164 0 0.00014845727417082946 0.0027751610543968277 0 0.00014546322238992725 0.0025653079297544945 0 0.00010600218245347088 0.002501908969104545 0 0.00081539817554218978 0.0023225861170740954 0 0.00022261571775775054 0.0022136166214298393 0 0.00014845727417082946 0.0027751610543968277 0 0.00012617331099798394 0.0027355724466261153 0 0.00014546322238992725 0.0025653079297544945 0 0.00012617331099798394 0.0027355724466261153 0 7.1054353279110638e-05 0.0028128406268315767 0 -0.00034879704133481353 0.0036644081619485033 0 7.1054353279110638e-05 0.0028128406268315767 0 0.00014546322238992725 0.0025653079297544945 0 9.6498456668939843e-05 0.0023196248120397663 0 0.00012617331099798394 0.0027355724466261153 0 7.1054353279110638e-05 0.0028128406268315767 0 0.00014546322238992725 0.0025653079297544945 0 0.0008335293922312508 0.0016222401282868267 0 0.00073190440196792543 0.0015593354054679544 0 0.00069893788598956476 0.0015754186839747051 0 0.00014546322238992725 0.0025653079297544945 0 0.00010600218245347088 0.002501908969104545 0 4.3673647628195124e-05 0.0021183797019681074 0 0.00014546322238992725 0.0025653079297544945 0 4.3673647628195124e-05 0.0021183797019681074 0 9.6498456668939843e-05 0.0023196248120397663 0 0.00010600218245347088 0.002501908969104545 0 4.3673647628195124e-05 0.0021183797019681074 0 -0.00024330908078244726 0.0020700530457204366 0 5.2449625321835374e-05 0.0068073195956075919 0 -0.0004862524807438409 0.0057511619048737387 0 -2.7398853194168054e-05 0.0057204104241965759 0 5.2449625321835374e-05 0.0068073195956075919 0 -0.0011390460091177065 0.0069384372070734395 0 -0.0012729956338128885 0.0066707581079010238 0 -0.0001479558903465735 0.0070320799114404224 0 -0.0002798133737336623 0.0047835232025323637 0 0.0010141654398535586 0.0060915148445857461 0 -0.0002798133737336623 0.0047835232025323637 0 0.0010141654398535586 0.0060915148445857461 0 0.00011186749372235268 0.0034757566633823295 0 -0.0007326961549597806 0.0022186819849029297 0 -0.0011972960290867808 0.0021429447074551695 0 -0.00049240955395311121 0.0027364928264027571 0 0.0008981350926596086 0.0051392870499941262 0 -0.00029958629950823111 0.0043249899471176452 0 0.00052438380197659734 0.0044089185489818491 0 0.00011186749372235268 0.0034757566633823295 0 -0.0002798133737336623 0.0047835232025323637 0 0.0020510208735885684 0.0025142845396213783 0 0.0017890537340700793 0.0023284343043798277 0 0.0018272844157065928 0.0025576002359042451 0 0.0020510208735885684 0.0025142845396213783 0 0.0018853847011087469 0.0027163346918181496 0 0.0018272844157065928 0.0025576002359042451 0 0.001691105924814325 0.0027741288043744965 0 0.0018853847011087469 0.0027163346918181496 0 0.0018272844157065928 0.0025576002359042451 0 0.0017890537340700793 0.0023284343043798277 0 0.0018272844157065928 0.0025576002359042451 0 0.001703281744481125 0.0024923711980788079 0 0.001691105924814325 0.0027741288043744965 0 0.0015349753466315501 0.0024197712404130942 0 0.001703281744481125 0.0024923711980788079 0 0.001691105924814325 0.0027741288043744965 0 0.0018272844157065928 0.0025576002359042451 0 0.001703281744481125 0.0024923711980788079 0 0.0015349753466315501 0.0024197712404130942 0 0.0015720288240726335 0.0022682771496804395 0 0.0017890537340700793 0.0023284343043798277 0 0.00081539817554218978 0.0023225861170740954 0 0.00011186749372235268 0.0034757566633823295 0 0.0015349753466315501 0.0024197712404130942 0 0.0017890537340700793 0.0023284343043798277 0 0.001703281744481125 0.0024923711980788079 0 0.00014845727417082946 0.0027751610543968277 0 0.00012617331099798394 0.0027355724466261153 0 0.0001896194396961067 0.0027824840440175479 0 -0.0002798133737336623 0.0047835232025323637 0 -0.00062518457713147085 0.0034594887885674398 0 -0.0011972960290867808 0.0021429447074551695 0 -0.00049240955395311121 0.0027364928264027571 0 -0.00034879704133481353 0.0036644081619485033 0 -0.0004862524807438409 0.0057511619048737387 0 -0.00034879704133481353 0.0036644081619485033 0 -0.00018330510652267098 0.0048305928123655011 0 0.00012617331099798394 0.0027355724466261153 0 -0.0007326961549597806 0.0022186819849029297 0 -0.00049240955395311121 0.0027364928264027571 0 -0.00015920927880123099 0.0025719829740932778 0 0.00011186749372235268 0.0034757566633823295 0 0.00012617331099798394 0.0027355724466261153 0 -0.00049240955395311121 0.0027364928264027571 0 -0.00034879704133481353 0.0036644081619485033 0 -0.0004862524807438409 0.0057511619048737387 0 -0.00018330510652267098 0.0048305928123655011 0 -2.7398853194168054e-05 0.0057204104241965759 0 2.8629230019908939e-05 0.0051489969969346966 0 -0.00018330510652267098 0.0048305928123655011 0 -2.7398853194168054e-05 0.0057204104241965759 0 2.8629230019908939e-05 0.0051489969969346966 0 -0.00018330510652267098 0.0048305928123655011 0 -0.00010470547603433339 0.0038098758099629148 0 -0.00034879704133481353 0.0036644081619485033 0 -0.00010470547603433339 0.0038098758099629148 0 3.2629766614593382e-05 0.0024713568411207695 0 -0.00034879704133481353 0.0036644081619485033 0 -0.00018330510652267098 0.0048305928123655011 0 -0.00010470547603433339 0.0038098758099629148 0 -0.00010470547603433339 0.0038098758099629148 0 -2.5495567639432612e-07 0.0023575365203800844 0 3.2629766614593382e-05 0.0024713568411207695 0 1.3851667929325567e-07 0.0044341846617638458 0 -0.00010470547603433339 0.0038098758099629148 0 -2.5495567639432612e-07 0.0023575365203800844 0 1.3851667929325567e-07 0.0044341846617638458 0 2.8629230019908939e-05 0.0051489969969346966 0 -0.00010470547603433339 0.0038098758099629148 0 4.0824295086869952e-05 0.001519178523289119 0 9.6498456668939843e-05 0.0023196248120397663 0 3.2629766614593382e-05 0.0024713568411207695 0 4.0824295086869952e-05 0.001519178523289119 0 4.3673647628195124e-05 0.0021183797019681074 0 -0.00018126469677724326 0.0014937610691426115 0 4.0824295086869952e-05 0.001519178523289119 0 4.3673647628195124e-05 0.0021183797019681074 0 9.6498456668939843e-05 0.0023196248120397663 0 7.1054353279110638e-05 0.0028128406268315767 0 9.6498456668939843e-05 0.0023196248120397663 0 3.2629766614593382e-05 0.0024713568411207695 0 7.1054353279110638e-05 0.0028128406268315767 0 -0.00034879704133481353 0.0036644081619485033 0 3.2629766614593382e-05 0.0024713568411207695 0 -2.5495567639432612e-07 0.0023575365203800844 0 3.2629766614593382e-05 0.0024713568411207695 0 9.6978462042713132e-07 0.00028005491290136503 0 4.0824295086869952e-05 0.001519178523289119 0 3.2629766614593382e-05 0.0024713568411207695 0 9.6978462042713132e-07 0.00028005491290136503 0 4.0824295086869952e-05 0.001519178523289119 0 9.6978462042713132e-07 0.00028005491290136503 0 -9.2587150730280213e-05 0.00034549680003072812 0 9.6978462042713132e-07 0.00028005491290136503 0 -9.2587150730280213e-05 0.00034549680003072812 0 -3.084230094393084e-06 -0.0017944353366868367 0 -0.00053677029045849547 0.0017597346978512694 0 -0.00018126469677724326 0.0014937610691426115 0 -0.00097458065821940634 0.00082889420718644557 0 -9.2587150730280213e-05 0.00034549680003072812 0 -0.00018126469677724326 0.0014937610691426115 0 -0.00097458065821940634 0.00082889420718644557 0 4.0824295086869952e-05 0.001519178523289119 0 -9.2587150730280213e-05 0.00034549680003072812 0 -0.00018126469677724326 0.0014937610691426115 0 -0.00053677029045849547 0.0017597346978512694 0 -0.00018126469677724326 0.0014937610691426115 0 -0.00024330908078244726 0.0020700530457204366 0 4.3673647628195124e-05 0.0021183797019681074 0 -0.00018126469677724326 0.0014937610691426115 0 -0.00024330908078244726 0.0020700530457204366 0 -0.00042225348521246416 -0.00097633306373359145 0 0.00061933903198635345 0.00010950994277043187 0 0.00016371098607564924 -0.0026994171348978537 0 1.8939555328653403e-05 -0.0027307635410223599 0 0.00018637739605053172 -0.0026713580157104034 0 -0.00053677029045849547 0.0017597346978512694 0 -0.00097458065821940634 0.00082889420718644557 0 -0.00090023799208308432 0.0021465434076793806 0 0.00016371098607564924 -0.0026994171348978537 0 1.8939555328653403e-05 -0.0027307635410223599 0 0.00020504638169272093 -0.0028561685820229759 0 -0.00042225348521246416 -0.00097633306373359145 0 -2.3674908649674733e-07 -0.0017970574796914755 0 1.8939555328653403e-05 -0.0027307635410223599 0 3.4699132416482144e-07 -0.0018001045220646665 0 0.00020504638169272093 -0.0028561685820229759 0 -9.2587150730280213e-05 0.00034549680003072812 0 -0.00097458065821940634 0.00082889420718644557 0 -3.084230094393084e-06 -0.0017944353366868367 0 3.4699132416482144e-07 -0.0018001045220646665 0 0.00020504638169272093 -0.0028561685820229759 0 -4.7234925672570751e-07 -0.003726641291856867 0 -4.7234925672570751e-07 -0.003726641291856867 0 -0.00013204923213127654 -0.0033343487025303026 0 -0.00069263694968247789 -0.0048533076686716279 0 0.00020504638169272093 -0.0028561685820229759 0 -4.7234925672570751e-07 -0.003726641291856867 0 -0.00013204923213127654 -0.0033343487025303026 0 -0.00013204923213127654 -0.0033343487025303026 0 -0.00069263694968247789 -0.0048533076686716279 0 -0.00096652256872141473 -0.0027996604464833289 0 -0.00013204923213127654 -0.0033343487025303026 0 -0.00032224406251858364 -0.0021263249836446685 0 0.00015107307259543189 -0.0027087675064911072 0 -0.00013204923213127654 -0.0033343487025303026 0 -0.00032224406251858364 -0.0021263249836446685 0 -0.00096652256872141473 -0.0027996604464833289 0 -0.00032224406251858364 -0.0021263249836446685 0 -0.00096652256872141473 -0.0027996604464833289 0 -0.0015290420855540226 -0.0015192169348293113 0 -0.00032224406251858364 -0.0021263249836446685 0 0.00015107307259543189 -0.0027087675064911072 0 0.00019936021624394437 -0.0025886503462748014 0 0.00020504638169272093 -0.0028561685820229759 0 -0.00013204923213127654 -0.0033343487025303026 0 0.00015107307259543189 -0.0027087675064911072 0 0.00016371098607564924 -0.0026994171348978537 0 0.00020504638169272093 -0.0028561685820229759 0 0.00015107307259543189 -0.0027087675064911072 0 0.00016371098607564924 -0.0026994171348978537 0 0.00015107307259543189 -0.0027087675064911072 0 0.00019936021624394437 -0.0025886503462748014 0 0.0010118904763073125 -0.001475844207848908 0 -5.5611157378553128e-05 -0.00060622131247704738 0 0.0028181144232454656 -0.00034235515401250893 0 -0.00029563184667079476 -0.0021566662072598775 0 0.00060008030833343313 -0.0019817315534429946 0 -0.00032224406251858364 -0.0021263249836446685 0 0.0010118904763073125 -0.001475844207848908 0 -5.5611157378553128e-05 -0.00060622131247704738 0 0.00027708357730358245 -0.0006853874611475664 0 0.0011613729568858298 0.00068864398206667859 0 -0.00032224406251858364 -0.0021263249836446685 0 -0.00089142504572712711 -0.0003215629581671015 0 -0.0015290420855540226 -0.0015192169348293113 0 -0.00032224406251858364 -0.0021263249836446685 0 -5.5611157378553128e-05 -0.00060622131247704738 0 -0.00089142504572712711 -0.0003215629581671015 0 -5.5611157378553128e-05 -0.00060622131247704738 0 -0.00089142504572712711 -0.0003215629581671015 0 -0.00030462468961748012 0.00041852224639238127 0 -0.00089142504572712711 -0.0003215629581671015 0 -0.00081833473591760115 0.00084257909875159044 0 -0.00030462468961748012 0.00041852224639238127 0 -0.00081833473591760115 0.00084257909875159044 0 -0.00030462468961748012 0.00041852224639238127 0 -0.0002021755238125149 0.001220280054835576 0 -0.00089142504572712711 -0.0003215629581671015 0 -0.00081833473591760115 0.00084257909875159044 0 -0.0015315930927391171 0.00043138328067408914 0 -5.5611157378553128e-05 -0.00060622131247704738 0 0.00028527623591460973 0.00081988370602531025 0 0.00096555046362958852 0.00033796570994217956 0 -5.5611157378553128e-05 -0.00060622131247704738 0 -0.00030462468961748012 0.00041852224639238127 0 0.00028527623591460973 0.00081988370602531025 0 -0.00030462468961748012 0.00041852224639238127 0 0.00028527623591460973 0.00081988370602531025 0 -0.0002021755238125149 0.001220280054835576 0 0.00092231178104839793 0.0016769782321345975 0 0.0011613729568858298 0.00068864398206667859 0 0.00028527623591460973 0.00081988370602531025 0 0.00085625964534342828 0.0016389483606473747 0 0.00096555046362958852 0.00033796570994217956 0 0.00085625964534342828 0.0016389483606473747 0 0.00088476018388567617 0.00189909473689413 0 0.0009162343826793481 0.0019165936458715002 0 0.00093265769886541686 0.0019404647050844371 0 0.00088476018388567617 0.00189909473689413 0 0.0009162343826793481 0.0019165936458715002 0 0.00085625964534342828 0.0016389483606473747 0 0.00093879482386821189 0.0020699625140721736 0 0.00088476018388567617 0.00189909473689413 0 0.00093879482386821189 0.0020699625140721736 0 0.00093307940480860262 0.0019981103488661916 0 0.00088476018388567617 0.00189909473689413 0 0.00098958763000016781 0.0020742965644719958 0 0.00093879482386821189 0.0020699625140721736 0 0.00093307940480860262 0.0019981103488661916 0 0.00093307940480860262 0.0019981103488661916 0 0.00093265769886541686 0.0019404647050844371 0 0.00088476018388567617 0.00189909473689413 0 0.00098958763000016781 0.0020742965644719958 0 0.00093307940480860262 0.0019981103488661916 0 0.00093265769886541686 0.0019404647050844371 0 0.00073190440196792543 0.0015593354054679544 0 0.00069893788598956476 0.0015754186839747051 0 0.00056563423006845005 0.0014918134668928343 0 0.00022261571775775054 0.0022136166214298393 0 0.00061933903198635345 0.00010950994277043187 0 0.00069893788598956476 0.0015754186839747051 0 0.00056563423006845005 0.0014918134668928343 0 0.00057165040666901014 0.0015405366960528528 0 0.00010600218245347088 0.002501908969104545 0 -0.00024330908078244726 0.0020700530457204366 0 -0.00090023799208308432 0.0021465434076793806 0 0.00074918939812923351 0.0018111133319987482 0 0.0011613729568858298 0.00068864398206667859 0 -0.00053677029045849547 0.0017597346978512694 0 -0.00024330908078244726 0.0020700530457204366 0 -0.00090023799208308432 0.0021465434076793806 0 0.00060008030833343313 -0.0019817315534429946 0 0.00061933903198635345 0.00010950994277043187 0 0.00016371098607564924 -0.0026994171348978537 0 0.00019936021624394437 -0.0025886503462748014 0 0.00018637739605053172 -0.0026713580157104034 0 0.0010118904763073125 -0.001475844207848908 0 0.0027237653431718438 -0.0010900243042374401 0 0.0028181144232454656 -0.00034235515401250893 0 0.00061933903198635345 0.00010950994277043187 0 0.0011613729568858298 0.00068864398206667859 0 -6.6759810867688128e-05 -0.0091759125604522623 0 -4.8842031842809391e-06 -0.0092183718928602765 0 -0.00012142056342876821 -0.0085846936835409643 0 -8.5020004735518654e-05 -0.0095836379482059156 0 -6.6759810867688128e-05 -0.0091759125604522623 0 -0.00012142056342876821 -0.0085846936835409643 0 -6.6759810867688128e-05 -0.0091759125604522623 0 -4.8842031842809391e-06 -0.0092183718928602765 0 -3.4107815966409854e-05 -0.010052917785863031 0 -8.5020004735518654e-05 -0.0095836379482059156 0 -6.6759810867688128e-05 -0.0091759125604522623 0 -3.4107815966409854e-05 -0.010052917785863031 0 -4.8842031842809391e-06 -0.0092183718928602765 0 3.1927624664047695e-07 -0.0075861364730551223 0 -3.8027764651075507e-08 -0.0095152476048513766 0 -4.8842031842809391e-06 -0.0092183718928602765 0 3.1927624664047695e-07 -0.0075861364730551223 0 -0.00012142056342876821 -0.0085846936835409643 0 3.1927624664047695e-07 -0.0075861364730551223 0 -0.00012142056342876821 -0.0085846936835409643 0 -0.00039229042267618415 -0.0082420778594160856 0 3.1927624664047695e-07 -0.0075861364730551223 0 -0.00039229042267618415 -0.0082420778594160856 0 -1.6276918269768891e-06 -0.0056569239356468407 0 -0.0015074327264327989 -0.010082726848880737 0 -0.00064690805832579891 -0.0085884336339336308 0 -8.5020004735518654e-05 -0.0095836379482059156 0 -0.00012142056342876821 -0.0085846936835409643 0 -0.00039229042267618415 -0.0082420778594160856 0 -0.0029697475018751491 -0.010718512077922699 0 -0.00039229042267618415 -0.0082420778594160856 0 -0.0011982973909854485 -0.0090933279165191765 0 -0.00061772813733190952 -0.0082639557362543907 0 -0.00039229042267618415 -0.0082420778594160856 0 -0.0011982973909854485 -0.0090933279165191765 0 -0.00061772813733190952 -0.0082639557362543907 0 -0.00039229042267618415 -0.0082420778594160856 0 -0.00034447438808712499 -0.0066893611464923074 0 -0.00039229042267618415 -0.0082420778594160856 0 -1.6276918269768891e-06 -0.0056569239356468407 0 -0.00034447438808712499 -0.0066893611464923074 0 -1.6276918269768891e-06 -0.0056569239356468407 0 -0.00034447438808712499 -0.0066893611464923074 0 -0.00069263694968247789 -0.0048533076686716279 0 -4.7234925672570751e-07 -0.003726641291856867 0 -1.6276918269768891e-06 -0.0056569239356468407 0 -0.00069263694968247789 -0.0048533076686716279 0 -0.00061772813733190952 -0.0082639557362543907 0 -0.00034447438808712499 -0.0066893611464923074 0 -0.00069263694968247789 -0.0048533076686716279 0 -0.0027059229123449985 -0.0022562628386827975 0 -0.00069263694968247789 -0.0048533076686716279 0 -0.00096652256872141473 -0.0027996604464833289 0 -0.0014307684199478393 -0.0053671363361992921 0 -0.00088938289913074618 -0.0050252592667017456 0 -0.0027059229123449985 -0.0022562628386827975 0 -0.00096652256872141473 -0.0027996604464833289 0 -0.0015290420855540226 -0.0015192169348293113 0 -0.0027059229123449985 -0.0022562628386827975 0 -0.0015290420855540226 -0.0015192169348293113 0 -0.0025277903137818176 -0.00089416668805965293 0 -0.0015290420855540226 -0.0015192169348293113 0 -0.0017437613755549323 -0.00045725560066270073 0 -0.0025277903137818176 -0.00089416668805965293 0 -0.00089142504572712711 -0.0003215629581671015 0 -0.0015290420855540226 -0.0015192169348293113 0 -0.0017437613755549323 -0.00045725560066270073 0 -0.0015315930927391171 0.00043138328067408914 0 -0.0027102994149557761 0.00036457170536456982 0 -0.0019349479025978558 0.0010772777306116462 0 -0.0017437613755549323 -0.00045725560066270073 0 -0.0015315930927391171 0.00043138328067408914 0 -0.0027102994149557761 0.00036457170536456982 0 -0.0017437613755549323 -0.00045725560066270073 0 -0.0027102994149557761 0.00036457170536456982 0 -0.0025277903137818176 -0.00089416668805965293 0 -0.00089142504572712711 -0.0003215629581671015 0 -0.0017437613755549323 -0.00045725560066270073 0 -0.0015315930927391171 0.00043138328067408914 0 -0.0027102994149557761 0.00036457170536456982 0 -0.0033970663703688209 -0.00048765932268796732 0 -0.0039526977413933146 0.00074918717582879348 0 -0.0027102994149557761 0.00036457170536456982 0 -0.0033970663703688209 -0.00048765932268796732 0 -0.0025277903137818176 -0.00089416668805965293 0 -0.00061772813733190952 -0.0082639557362543907 0 -0.0008528384878655525 -0.0084053151474230477 0 -0.0011982973909854485 -0.0090933279165191765 0 -0.0027059229123449985 -0.0022562628386827975 0 -0.0033970663703688209 -0.00048765932268796732 0 -0.0025277903137818176 -0.00089416668805965293 0 -0.0014307684199478393 -0.0053671363361992921 0 -0.0023695223321694146 -0.0036483985421166972 0 -0.0008528384878655525 -0.0084053151474230477 0 -0.0011982973909854485 -0.0090933279165191765 0 -0.0020377867297802807 -0.0082158252402041894 0 -0.0023695223321694146 -0.0036483985421166972 0 -0.0033625391646948818 -0.0083829272273102627 0 -0.0008528384878655525 -0.0084053151474230477 0 -0.0020377867297802807 -0.0082158252402041894 0 -0.0016466272343277496 -0.0072141692060765528 0 -0.0031738366429274567 -0.011210310155509674 0 -0.0033625391646948818 -0.0083829272273102627 0 -0.004096341110859208 -0.013426034260546922 0 -0.0032740421555222774 -0.014751116292149957 0 -0.0043331823366563474 -0.014815224954019711 0 -0.004096341110859208 -0.013426034260546922 0 -0.0032740421555222774 -0.014751116292149957 0 -0.0025598909422880692 -0.013265036215340482 0 -0.0011982973909854485 -0.0090933279165191765 0 -0.0020377867297802807 -0.0082158252402041894 0 -0.0029601218436317023 -0.010753223576288775 0 -0.004096341110859208 -0.013426034260546922 0 -0.0029601218436317023 -0.010753223576288775 0 -0.0025598909422880692 -0.013265036215340482 0 -0.0029697475018751491 -0.010718512077922699 0 -0.0011982973909854485 -0.0090933279165191765 0 -0.0029601218436317023 -0.010753223576288775 0 -0.0029697475018751491 -0.010718512077922699 0 -0.0029601218436317023 -0.010753223576288775 0 -0.0025598909422880692 -0.013265036215340482 0 -0.0031738366429274567 -0.011210310155509674 0 -0.0029370445322970317 -0.01062756442917093 0 -0.0033974551099734355 -0.015789870151627975 0 -0.0032453014298591525 -0.016062238038487883 0 -0.0029118393722007726 -0.015917556451543628 0 -0.0033974551099734355 -0.015789870151627975 0 -0.0034003277313096741 -0.015626173982681825 0 -0.0029118393722007726 -0.015917556451543628 0 -0.0034003277313096741 -0.015626173982681825 0 -0.0028539547443931219 -0.015508690246712895 0 -0.0029118393722007726 -0.015917556451543628 0 -0.0034003277313096741 -0.015626173982681825 0 -0.0032740421555222774 -0.014751116292149957 0 -0.0043331823366563474 -0.014815224954019711 0 -0.0034003277313096741 -0.015626173982681825 0 -0.0032740421555222774 -0.014751116292149957 0 -0.0028539547443931219 -0.015508690246712895 0 -0.0033974551099734355 -0.015789870151627975 0 -0.0034003277313096741 -0.015626173982681825 0 -0.0035228821184714581 -0.015341818740638778 0 -0.0039526977413933146 0.00074918717582879348 0 -0.003127240794853848 0.0019650405727668161 0 -0.0028694202864865005 0.0012102584125535671 0 -0.0024705827772790517 -0.016864202111253793 0 -0.0033625391646948818 -0.0083829272273102627 0 -0.0035228821184714581 -0.015341818740638778 0 -0.0034959726546306444 -0.015721032702729464 0 -0.0035986167004898894 -0.015809529762952305 0 -0.0033974551099734355 -0.015789870151627975 0 -0.0035228821184714581 -0.015341818740638778 0 -0.0034959726546306444 -0.015721032702729464 0 -0.0033625391646948818 -0.0083829272273102627 0 -0.0033640178504617296 -0.0067108844484459187 0 -0.0039526977413933146 0.00074918717582879348 0 -0.0030773383292905018 0.0019399924916038687 0 -0.003127240794853848 0.0019650405727668161 0 -0.0033974551099734355 -0.015789870151627975 0 -0.0034959726546306444 -0.015721032702729464 0 -0.0034618506234981262 -0.015932561326567361 0 -0.0034959726546306444 -0.015721032702729464 0 -0.0035986167004898894 -0.015809529762952305 0 -0.0034618506234981262 -0.015932561326567361 0 -0.003127240794853848 0.0019650405727668161 0 -0.0028694202864865005 0.0012102584125535671 0 -0.0022490811236264056 0.0018820125583417216 0 -0.003127240794853848 0.0019650405727668161 0 -0.0022490811236264056 0.0018820125583417216 0 -0.0019155630773609452 0.0028252665236032986 0 -0.0027102994149557761 0.00036457170536456982 0 -0.0039526977413933146 0.00074918717582879348 0 -0.0028694202864865005 0.0012102584125535671 0 -0.0027102994149557761 0.00036457170536456982 0 -0.0028694202864865005 0.0012102584125535671 0 -0.0019349479025978558 0.0010772777306116462 0 -0.0028694202864865005 0.0012102584125535671 0 -0.0019349479025978558 0.0010772777306116462 0 -0.0022490811236264056 0.0018820125583417216 0 -0.00081833473591760115 0.00084257909875159044 0 -0.0015315930927391171 0.00043138328067408914 0 -0.0019349479025978558 0.0010772777306116462 0 -0.0019349479025978558 0.0010772777306116462 0 -0.0022490811236264056 0.0018820125583417216 0 -0.0013578758692411805 0.0018818859615945061 0 -0.0022490811236264056 0.0018820125583417216 0 -0.0019155630773609452 0.0028252665236032986 0 -0.0013578758692411805 0.0018818859615945061 0 -0.0050472144571329621 0.00080425746958138003 0 -0.0055364295341882065 -0.0010554412331607926 0 -0.0038634340775398923 -0.00092138682477414195 0 -0.0050472144571329621 0.00080425746958138003 0 -0.0055364295341882065 -0.0010554412331607926 0 -0.0070679458243038881 -0.0004294558399487293 0 -0.0055364295341882065 -0.0010554412331607926 0 -0.0038634340775398923 -0.00092138682477414195 0 -0.0051378026334208578 -0.0020501324248665704 0 -0.003655282374856877 -0.016187274023880364 0 -0.0034935139082337596 -0.016096521127734527 0 -0.0034655838387692151 -0.016336166110776953 0 -0.003139083794176436 0.001968567192511512 0 -0.0034759438033827336 0.0018167539694658439 0 -0.0035986167004898894 -0.015809529762952305 0 -0.003655282374856877 -0.016187274023880364 0 -0.0034935139082337596 -0.016096521127734527 0 -0.0033640178504617296 -0.0067108844484459187 0 -0.0038499881260976154 -0.0088829164829265315 0 -0.0030773383292905018 0.0019399924916038687 0 -0.0050472144571329621 0.00080425746958138003 0 -0.0038634340775398923 -0.00092138682477414195 0 -0.0030773383292905018 0.0019399924916038687 0 -0.003127240794853848 0.0019650405727668161 0 -0.0050472144571329621 0.00080425746958138003 0 -0.0035986167004898894 -0.015809529762952305 0 -0.0034618506234981262 -0.015932561326567361 0 -0.0034935139082337596 -0.016096521127734527 0 -0.0033974551099734355 -0.015789870151627975 0 -0.0034618506234981262 -0.015932561326567361 0 -0.0032453014298591525 -0.016062238038487883 0 -0.0034935139082337596 -0.016096521127734527 0 -0.0032925550118436562 -0.016257858298495579 0 -0.0032453014298591525 -0.016062238038487883 0 -0.0034618506234981262 -0.015932561326567361 0 -0.0034935139082337596 -0.016096521127734527 0 -0.0032453014298591525 -0.016062238038487883 0 -0.0034935139082337596 -0.016096521127734527 0 -0.0032925550118436562 -0.016257858298495579 0 -0.0034655838387692151 -0.016336166110776953 0 -0.0032925550118436562 -0.016257858298495579 0 -0.0032453014298591525 -0.016062238038487883 0 -0.0029525592748100024 -0.016356626171849367 0 -0.0032925550118436562 -0.016257858298495579 0 -0.0032990104411345393 -0.016525029093585771 0 -0.0029525592748100024 -0.016356626171849367 0 -0.0032453014298591525 -0.016062238038487883 0 -0.0029525592748100024 -0.016356626171849367 0 -0.0029118393722007726 -0.015917556451543628 0 0.00041709293472345297 0.0030226656092832904 0 0.00081509343337830571 0.0027231907189444794 0 0.00050629749101650736 0.0020053259866937906 0 0.00041709293472345297 0.0030226656092832904 0 0.00050629749101650736 0.0020053259866937906 0 -0.00039057972447538832 0.0019536124648207127 0 0.00041709293472345297 0.0030226656092832904 0 0.00081509343337830571 0.0027231907189444794 0 0.00077034247352539362 0.0032279630186054682 0 0.0011200041327054391 0.0030910306813717566 0 0.00081509343337830571 0.0027231907189444794 0 0.00077034247352539362 0.0032279630186054682 0 0.0011200041327054391 0.0030910306813717566 0 0.00081509343337830571 0.0027231907189444794 0 0.00093551823347633449 0.0023440487019366599 0 0.00081509343337830571 0.0027231907189444794 0 0.00093551823347633449 0.0023440487019366599 0 0.00050629749101650736 0.0020053259866937906 0 0.0011424404777449304 0.0024529252241794587 0 0.00093879482386821189 0.0020699625140721736 0 0.00093551823347633449 0.0023440487019366599 0 0.00085625964534342828 0.0016389483606473747 0 0.00093879482386821189 0.0020699625140721736 0 0.00093551823347633449 0.0023440487019366599 0 0.00028527623591460973 0.00081988370602531025 0 0.00085625964534342828 0.0016389483606473747 0 0.00050629749101650736 0.0020053259866937906 0 0.00085625964534342828 0.0016389483606473747 0 0.00093551823347633449 0.0023440487019366599 0 0.00050629749101650736 0.0020053259866937906 0 0.00028527623591460973 0.00081988370602531025 0 0.00050629749101650736 0.0020053259866937906 0 -0.0002021755238125149 0.001220280054835576 0 -0.00081833473591760115 0.00084257909875159044 0 -0.00039057972447538832 0.0019536124648207127 0 -0.0002021755238125149 0.001220280054835576 0 0.00050629749101650736 0.0020053259866937906 0 -0.00039057972447538832 0.0019536124648207127 0 -0.0002021755238125149 0.001220280054835576 0 -0.00081833473591760115 0.00084257909875159044 0 -0.0019349479025978558 0.0010772777306116462 0 -0.0013578758692411805 0.0018818859615945061 0 -0.00081833473591760115 0.00084257909875159044 0 -0.00039057972447538832 0.0019536124648207127 0 -0.0013578758692411805 0.0018818859615945061 0 -0.00039057972447538832 0.0019536124648207127 0 -0.0013578758692411805 0.0018818859615945061 0 -0.00093598773772030964 0.0025477060452795473 0 -0.0019155630773609452 0.0028252665236032986 0 -0.0013578758692411805 0.0018818859615945061 0 -0.00093598773772030964 0.0025477060452795473 0 0.00041709293472345297 0.0030226656092832904 0 -0.00039057972447538832 0.0019536124648207127 0 -0.00022562901814640141 0.0033956028395351005 0 -0.00048879957716829118 0.0017684987168878554 0 -6.1891244986469527e-05 0.0037499101398365403 0 -0.00039057972447538832 0.0019536124648207127 0 -0.0003195513562721574 0.0028146106270763561 0 -0.00093598773772030964 0.0025477060452795473 0 -0.0003195513562721574 0.0028146106270763561 0 -0.00093598773772030964 0.0025477060452795473 0 -0.0008844374690632756 0.0032742730902039119 0 -0.0019155630773609452 0.0028252665236032986 0 -0.00093598773772030964 0.0025477060452795473 0 -0.0008844374690632756 0.0032742730902039119 0 -0.0034759438033827336 0.0018167539694658439 0 -0.0039147480140913592 0.0012769932365833765 0 -0.0055364295341882065 -0.0010554412331607926 0 -0.0070679458243038881 -0.0004294558399487293 0 -0.0067592215379128559 -0.0013011667424795987 0 -0.0070679458243038881 -0.0004294558399487293 0 -0.0067592215379128559 -0.0013011667424795987 0 -0.0081657409436835682 -0.0010569106441589711 0 -0.0003195513562721574 0.0028146106270763561 0 -0.0008844374690632756 0.0032742730902039119 0 -0.00046359956315788337 0.0034570077514687637 0 -0.0003195513562721574 0.0028146106270763561 0 -0.00046359956315788337 0.0034570077514687637 0 -0.00015121927326365627 0.0036259101185629181 0 -6.1891244986469527e-05 0.0037499101398365403 0 -0.00099007700831961324 0.00095161567225823438 0 -0.0039147480140913592 0.0012769932365833765 0 -0.0033004876118672708 -0.00040096155284568717 0 -0.0027191001455907598 -0.0039705849535261002 0 -0.0022501689685423165 -0.0037177764401931275 0 -0.0026640044532244217 -0.0034557924872011098 0 -0.0033004876118672708 -0.00040096155284568717 0 -0.00099007700831961324 0.00095161567225823438 0 -0.00022562901814640141 0.0033956028395351005 0 3.1126020622043454e-05 0.0042804445061373087 0 0.00053946595113796877 0.0037152106976918726 0 3.1126020622043454e-05 0.0042804445061373087 0 0.00053946595113796877 0.0037152106976918726 0 0.00059793876981483233 0.0042015550493639279 0 0.00041709293472345297 0.0030226656092832904 0 -0.00022562901814640141 0.0033956028395351005 0 0.00053946595113796877 0.0037152106976918726 0 0.00041709293472345297 0.0030226656092832904 0 0.00053946595113796877 0.0037152106976918726 0 0.00077034247352539362 0.0032279630186054682 0 0.00097555311773636101 0.0036301612169621677 0 0.0011200041327054391 0.0030910306813717566 0 0.00077034247352539362 0.0032279630186054682 0 0.00097555311773636101 0.0036301612169621677 0 0.00053946595113796877 0.0037152106976918726 0 0.00077034247352539362 0.0032279630186054682 0 0.00097555311773636101 0.0036301612169621677 0 0.00053946595113796877 0.0037152106976918726 0 0.0009444288404405175 0.0041259532849938028 0 0.00053946595113796877 0.0037152106976918726 0 0.00059793876981483233 0.0042015550493639279 0 0.0009444288404405175 0.0041259532849938028 0 0.00059793876981483233 0.0042015550493639279 0 0.0009444288404405175 0.0041259532849938028 0 0.0008227914869340454 0.0046726356363575262 0 3.1126020622043454e-05 0.0042804445061373087 0 0.00059793876981483233 0.0042015550493639279 0 0.0008227914869340454 0.0046726356363575262 0 -0.0022501689685423165 -0.0037177764401931275 0 -0.0018836174721799511 -0.0026129128138437387 0 -0.0026640044532244217 -0.0034557924872011098 0 -0.0015576378402511718 -0.00079040497266879358 0 -0.0012509832410908409 -0.00065509038464152901 0 -0.0014966475244927199 -0.00052787046243695684 0 -0.00099007700831961324 0.00095161567225823438 0 -0.0001316202601836506 0.0021361682357253671 0 -0.00099007700831961324 0.00095161567225823438 0 -0.001883227616667552 -0.0022435988362014586 0 -0.0018836174721799511 -0.0026129128138437387 0 -0.0022671415057375012 -0.001781465612906431 0 -0.0025974694904506079 -0.002433549530839739 0 -0.0012509832410908409 -0.00065509038464152901 0 -0.0014966475244927199 -0.00052787046243695684 0 -0.0011844690102831865 -0.0003755215133395598 0 -0.0014966475244927199 -0.00052787046243695684 0 -0.0011844690102831865 -0.0003755215133395598 0 -0.0014446497125306208 -0.00018233497003165001 0 -0.001036756065107988 -2.2783882931756091e-05 0 -0.0011844690102831865 -0.0003755215133395598 0 -0.0014446497125306208 -0.00018233497003165001 0 -0.0015408626676583783 -0.0012941296559583031 0 -0.0023975622610608429 -0.00072014343646560966 0 -0.0022671415057375012 -0.001781465612906431 0 -0.0018836174721799511 -0.0026129128138437387 0 -0.0015408626676583783 -0.0012941296559583031 0 -0.0022671415057375012 -0.001781465612906431 0 -0.001883227616667552 -0.0022435988362014586 0 -0.0014658900012062181 -0.00057898391620928567 0 -0.0015408626676583783 -0.0012941296559583031 0 -0.0014304767396484562 9.1773379218744572e-05 0 -0.001991421788601371 -0.00016094680787200792 0 -0.0015408626676583783 -0.0012941296559583031 0 -0.0023975622610608429 -0.00072014343646560966 0 -0.001991421788601371 -0.00016094680787200792 0 -0.001036756065107988 -2.2783882931756091e-05 0 -0.0014446497125306208 -0.00018233497003165001 0 -0.0014304767396484562 9.1773379218744572e-05 0 -0.0014658900012062181 -0.00057898391620928567 0 -0.0014297418504965176 -4.5167086569973856e-05 0 -0.0035261317491627458 -0.0011053136558957155 0 -0.002887502299797967 -0.00059070599434724838 0 -0.0029443593363784343 0.00024753299708234471 0 -0.0038954627060212581 -0.0038910658222488423 0 -0.0039304886847130989 -0.0034554564047308022 0 -0.0033060501220023653 -0.0023002207347792409 0 -0.0035261317491627458 -0.0011053136558957155 0 -0.002887502299797967 -0.00059070599434724838 0 -0.0028188218589946896 -0.0013192048058773421 0 -0.0038954627060212581 -0.0038910658222488423 0 -0.0039304886847130989 -0.0034554564047308022 0 -0.0037460722247659307 -0.0036775780126741728 0 -0.0038954627060212581 -0.0038910658222488423 0 -0.003725169468070888 -0.0036135187441764674 0 -0.0037460722247659307 -0.0036775780126741728 0 -0.002887502299797967 -0.00059070599434724838 0 -0.0023975622610608429 -0.00072014343646560966 0 -0.0027066291497971845 -0.00015845133546077249 0 -0.002887502299797967 -0.00059070599434724838 0 -0.0023975622610608429 -0.00072014343646560966 0 -0.0028188218589946896 -0.0013192048058773421 0 -0.0023975622610608429 -0.00072014343646560966 0 -0.0028188218589946896 -0.0013192048058773421 0 -0.0022671415057375012 -0.001781465612906431 0 -0.0022671415057375012 -0.001781465612906431 0 -0.0027980574608645033 -0.0020265294524948493 0 -0.0025974694904506079 -0.002433549530839739 0 -0.0028188218589946896 -0.0013192048058773421 0 -0.0022671415057375012 -0.001781465612906431 0 -0.0027980574608645033 -0.0020265294524948493 0 -0.0028188218589946896 -0.0013192048058773421 0 -0.0027980574608645033 -0.0020265294524948493 0 -0.0032143138773046724 -0.002001919287860897 0 -0.0038954627060212581 -0.0038910658222488423 0 -0.0037771914520980518 -0.0028854214136360455 0 -0.003725169468070888 -0.0036135187441764674 0 -0.0036814173319191196 -0.0024793015031835198 0 -0.0037813007530049189 -0.0028595552972400613 0 -0.0035261317491627458 -0.0011053136558957155 0 -0.0032143138773046724 -0.002001919287860897 0 -0.0037771914520980518 -0.0028854214136360455 0 -0.0035261317491627458 -0.0011053136558957155 0 -0.0028188218589946896 -0.0013192048058773421 0 -0.0032143138773046724 -0.002001919287860897 0 -0.0032143138773046724 -0.002001919287860897 0 -0.003175838659351172 -0.0026377268869173681 0 -0.0037771914520980518 -0.0028854214136360455 0 -0.003175838659351172 -0.0026377268869173681 0 -0.0037771914520980518 -0.0028854214136360455 0 -0.0037001740051765715 -0.0032170116821510172 0 -0.0018836174721799511 -0.0026129128138437387 0 -0.0025974694904506079 -0.002433549530839739 0 -0.0028427711753193753 -0.0030493521084721089 0 -0.0027980574608645033 -0.0020265294524948493 0 -0.003175838659351172 -0.0026377268869173681 0 -0.0025974694904506079 -0.002433549530839739 0 -0.0027980574608645033 -0.0020265294524948493 0 -0.0032143138773046724 -0.002001919287860897 0 -0.003175838659351172 -0.0026377268869173681 0 -0.003175838659351172 -0.0026377268869173681 0 -0.0025974694904506079 -0.002433549530839739 0 -0.0028427711753193753 -0.0030493521084721089 0 -0.0028427711753193753 -0.0030493521084721089 0 -0.0026640044532244217 -0.0034557924872011098 0 -0.0037001740051765715 -0.0032170116821510172 0 -0.0018836174721799511 -0.0026129128138437387 0 -0.0028427711753193753 -0.0030493521084721089 0 -0.0026640044532244217 -0.0034557924872011098 0 -0.0027191001455907598 -0.0039705849535261002 0 -0.0026640044532244217 -0.0034557924872011098 0 -0.0037001740051765715 -0.0032170116821510172 0 -0.0067592215379128559 -0.0013011667424795987 0 -0.0081657409436835682 -0.0010569106441589711 0 -0.0062882302385672932 -0.0025889898737180192 0 -0.0033004876118672708 -0.00040096155284568717 0 -0.0056269663391815862 -0.0028370814834331728 0 -0.003175838659351172 -0.0026377268869173681 0 -0.0028427711753193753 -0.0030493521084721089 0 -0.0037001740051765715 -0.0032170116821510172 0 -0.0055364295341882065 -0.0010554412331607926 0 -0.0067592215379128559 -0.0013011667424795987 0 -0.0062882302385672932 -0.0025889898737180192 0 -0.0055364295341882065 -0.0010554412331607926 0 -0.0062882302385672932 -0.0025889898737180192 0 -0.0051378026334208578 -0.0020501324248665704 0 -0.0038634340775398923 -0.00092138682477414195 0 -0.0051378026334208578 -0.0020501324248665704 0 -0.0048915281465171413 -0.003686178338212102 0 -0.0062882302385672932 -0.0025889898737180192 0 -0.0051378026334208578 -0.0020501324248665704 0 -0.0048915281465171413 -0.003686178338212102 0 -0.0056269663391815862 -0.0028370814834331728 0 -0.0040563460954034956 -0.008735866003034139 0 -0.0038499881260976154 -0.0088829164829265315 0 -0.0040563460954034956 -0.008735866003034139 0 -0.003655282374856877 -0.016187274023880364 0 -0.0035766819667878004 -0.016403796852746011 0 -0.0034655838387692151 -0.016336166110776953 0 -0.003655282374856877 -0.016187274023880364 0 -0.0036554111919636762 -0.016410615599029801 0 -0.0037478881480618649 -0.016446451771913183 0 -0.003655282374856877 -0.016187274023880364 0 -0.0035766819667878004 -0.016403796852746011 0 -0.0036554111919636762 -0.016410615599029801 0 -0.0035766819667878004 -0.016403796852746011 0 -0.0036554111919636762 -0.016410615599029801 0 -0.0035808533605016304 -0.016503747721158243 0 -0.0035808533605016304 -0.016503747721158243 0 -0.0036946346993504261 -0.016504006248677757 0 -0.0035000161140442084 -0.016689889599696608 0 -0.0038764422397562265 -0.008656983323820271 0 -0.0043576289612399892 -0.016737696091407381 0 -0.0036554111919636762 -0.016410615599029801 0 -0.0035808533605016304 -0.016503747721158243 0 -0.0036946346993504261 -0.016504006248677757 0 -0.0035766819667878004 -0.016403796852746011 0 -0.0035808533605016304 -0.016503747721158243 0 -0.0034829579676415303 -0.016496515954188769 0 -0.0037771914520980518 -0.0028854214136360455 0 -0.0034991744641078826 -0.0031256702720203807 0 -0.0036087670267866512 -0.0031671956908735119 0 -0.0037771914520980518 -0.0028854214136360455 0 -0.0034991744641078826 -0.0031256702720203807 0 -0.003637994073396625 -0.0029744894536867994 0 -0.0034991744641078826 -0.0031256702720203807 0 -0.0036087670267866512 -0.0031671956908735119 0 -0.0035319386710730961 -0.0033494814488163474 0 -0.0037771914520980518 -0.0028854214136360455 0 -0.0036087670267866512 -0.0031671956908735119 0 -0.0036317162190090515 -0.0033912905516744135 0 -0.0037771914520980518 -0.0028854214136360455 0 -0.0037001740051765715 -0.0032170116821510172 0 -0.003637994073396625 -0.0029744894536867994 0 -0.0036554111919636762 -0.016410615599029801 0 -0.0036946346993504261 -0.016504006248677757 0 -0.0037478881480618649 -0.016446451771913183 0 -0.0038764422397562265 -0.008656983323820271 0 -0.0040563460954034956 -0.008735866003034139 0 -0.0050451873536078058 -0.023308962098288574 0 -0.0041818610144824676 -0.023601970617108451 0 -0.0044042959400372363 -0.021707132367163998 0 -0.0043876605068053111 -0.020686706132813121 0 -0.0035921584395871772 -0.018836660488255927 0 -0.0032990104411345393 -0.016525029093585771 0 -0.0034655838387692151 -0.016336166110776953 0 -0.0034829579676415303 -0.016496515954188769 0 -0.0032925550118436562 -0.016257858298495579 0 -0.0032990104411345393 -0.016525029093585771 0 -0.0034655838387692151 -0.016336166110776953 0 -0.0035766819667878004 -0.016403796852746011 0 -0.0034655838387692151 -0.016336166110776953 0 -0.0034829579676415303 -0.016496515954188769 0 -0.0050451873536078058 -0.023308962098288574 0 -0.0049792803671242841 -0.024292204162962575 0 -0.0058283885007834307 -0.024633284981551325 0 -0.0032990104411345393 -0.016525029093585771 0 -0.0034829579676415303 -0.016496515954188769 0 -0.0035000161140442084 -0.016689889599696608 0 -0.0035808533605016304 -0.016503747721158243 0 -0.0034829579676415303 -0.016496515954188769 0 -0.0035000161140442084 -0.016689889599696608 0 -0.0043876605068053111 -0.020686706132813121 0 -0.0043576289612399892 -0.016737696091407381 0 -0.0050451873536078058 -0.023308962098288574 0 -0.0049792803671242841 -0.024292204162962575 0 -0.0041818610144824676 -0.023601970617108451 0 -0.0049792803671242841 -0.024292204162962575 0 -0.0040976192394952156 -0.024717743581743376 0 -0.0041818610144824676 -0.023601970617108451 0 -0.0046835918434643495 -0.024855101781976613 0 -0.0042419600311865736 -0.025258607945502356 0 -0.0040976192394952156 -0.024717743581743376 0 -0.0049792803671242841 -0.024292204162962575 0 -0.0046835918434643495 -0.024855101781976613 0 -0.0040976192394952156 -0.024717743581743376 0 -0.0049792803671242841 -0.024292204162962575 0 -0.0051339009805461983 -0.024758270697753344 0 -0.0046835918434643495 -0.024855101781976613 0 -0.0046835918434643495 -0.024855101781976613 0 -0.0050111071442021631 -0.025295478216525148 0 -0.0042419600311865736 -0.025258607945502356 0 -0.0051339009805461983 -0.024758270697753344 0 -0.0046835918434643495 -0.024855101781976613 0 -0.0050111071442021631 -0.025295478216525148 0 -0.0043576289612399892 -0.016737696091407381 0 -0.0039391170373455353 -0.025774688242147414 0 -0.0051339009805461983 -0.024758270697753344 0 -0.0058283885007834307 -0.024633284981551325 0 -0.0050111071442021631 -0.025295478216525148 0 -0.0038657264145130188 -0.02582541993910753 0 -0.0042249054547210084 -0.025144009531573551 0 -0.004271487809691229 -0.025218528066073664 0 -0.0049792803671242841 -0.024292204162962575 0 -0.0051339009805461983 -0.024758270697753344 0 -0.0058283885007834307 -0.024633284981551325 0 -0.0042249054547210084 -0.025144009531573551 0 -0.0022765485201489011 -0.023943890618750196 0 -0.003835651505981726 -0.023375014844459325 0 -0.0038657264145130188 -0.02582541993910753 0 -0.0042249054547210084 -0.025144009531573551 0 -0.0022765485201489011 -0.023943890618750196 0 -0.0041751989087443668 -0.025297167805439075 0 -0.0049904486489135208 -0.02431539025833147 0 -0.0042249054547210084 -0.025144009531573551 0 -0.004271487809691229 -0.025218528066073664 0 -0.0042355685660932741 -0.026410370948241665 0 -0.004271487809691229 -0.025218528066073664 0 -0.0042355685660932741 -0.026410370948241665 0 -0.0039589690898921767 -0.025796132466153764 0 -0.0050111071442021631 -0.025295478216525148 0 -0.0042419600311865736 -0.025258607945502356 0 -0.0039589690898921767 -0.025796132466153764 0 -0.0039391170373455353 -0.025774688242147414 0 -0.0043030771501660842 -0.025529435286489866 0 -0.0037771914520980518 -0.0028854214136360455 0 -0.003725169468070888 -0.0036135187441764674 0 -0.0036317162190090515 -0.0033912905516744135 0 -0.0035870315692716026 -0.0035643264849783561 0 -0.003725169468070888 -0.0036135187441764674 0 -0.0036317162190090515 -0.0033912905516744135 0 -0.0035870315692716026 -0.0035643264849783561 0 -0.0036317162190090515 -0.0033912905516744135 0 -0.0035319386710730961 -0.0033494814488163474 0 -0.0036087670267866512 -0.0031671956908735119 0 -0.0036317162190090515 -0.0033912905516744135 0 -0.0035319386710730961 -0.0033494814488163474 0 -0.0035870315692716026 -0.0035643264849783561 0 -0.0035319386710730961 -0.0033494814488163474 0 -0.0033983927874065359 -0.003464059305432093 0 -0.0034991744641078826 -0.0031256702720203807 0 -0.0035319386710730961 -0.0033494814488163474 0 -0.0033983927874065359 -0.003464059305432093 0 -0.0031374518838441115 -0.0035493805779595981 0 -0.0033983927874065359 -0.003464059305432093 0 -0.003393715907434822 -0.0038282192225518263 0 -0.0034991744641078826 -0.0031256702720203807 0 -0.0031374518838441115 -0.0035493805779595981 0 -0.0033983927874065359 -0.003464059305432093 0 -0.0043576289612399892 -0.016737696091407381 0 -0.0025259298407304918 -0.013276127414920359 0 -0.0035870315692716026 -0.0035643264849783561 0 -0.0033983927874065359 -0.003464059305432093 0 -0.003393715907434822 -0.0038282192225518263 0 -0.003393715907434822 -0.0038282192225518263 0 -0.0037460722247659307 -0.0036775780126741728 0 -0.0036943044755488783 -0.0038505112260150951 0 -0.0035870315692716026 -0.0035643264849783561 0 -0.003393715907434822 -0.0038282192225518263 0 -0.0037460722247659307 -0.0036775780126741728 0 -0.0035870315692716026 -0.0035643264849783561 0 -0.003725169468070888 -0.0036135187441764674 0 -0.0037460722247659307 -0.0036775780126741728 0 -0.0039304886847130989 -0.0034554564047308022 0 -0.0037460722247659307 -0.0036775780126741728 0 -0.0036943044755488783 -0.0038505112260150951 0 -0.0022765485201489011 -0.023943890618750196 0 -0.0024117656548301196 -0.022331957580171702 0 -0.000890944431846403 -0.02180755049623713 0 -0.003393715907434822 -0.0038282192225518263 0 -0.0036943044755488783 -0.0038505112260150951 0 -0.0036508699972219874 -0.0046185591158838689 0 -0.0036943044755488783 -0.0038505112260150951 0 -0.0036508699972219874 -0.0046185591158838689 0 -0.0038698300375985682 -0.0041172984511391774 0 -0.0025259298407304918 -0.013276127414920359 0 -0.0026293882389493025 -0.01417045853007157 0 -0.0022765485201489011 -0.023943890618750196 0 -0.0024117656548301196 -0.022331957580171702 0 -0.003835651505981726 -0.023375014844459325 0 -0.0024117656548301196 -0.022331957580171702 0 -0.0025096602411060812 -0.021338243472013695 0 -0.0038007338336537078 -0.021898076831117917 0 -0.0025096602411060812 -0.021338243472013695 0 -0.0038007338336537078 -0.021898076831117917 0 -0.0032312757663780283 -0.020659443207267533 0 -0.0024117656548301196 -0.022331957580171702 0 -0.0025096602411060812 -0.021338243472013695 0 -0.0016454662925020672 -0.021150483594664236 0 -0.0024117656548301196 -0.022331957580171702 0 -0.0016454662925020672 -0.021150483594664236 0 -0.000890944431846403 -0.02180755049623713 0 -0.0016454662925020672 -0.021150483594664236 0 -0.000890944431846403 -0.02180755049623713 0 -0.0010530010140695344 -0.020307763691509197 0 -0.0042355685660932741 -0.026410370948241665 0 -0.0035529624472712216 -0.026666387831519572 0 -0.0039589690898921767 -0.025796132466153764 0 -0.0042249054547210084 -0.025144009531573551 0 -0.0053804016153868595 -0.02277598322671644 0 -0.003835651505981726 -0.023375014844459325 0 -0.0053804016153868595 -0.02277598322671644 0 -0.003835651505981726 -0.023375014844459325 0 -0.0038007338336537078 -0.021898076831117917 0 -0.0024117656548301196 -0.022331957580171702 0 -0.003835651505981726 -0.023375014844459325 0 -0.0038007338336537078 -0.021898076831117917 0 -0.0038007338336537078 -0.021898076831117917 0 -0.0042944007937657678 -0.020898358124021906 0 -0.0032312757663780283 -0.020659443207267533 0 -0.0038007338336537078 -0.021898076831117917 0 -0.0050464531857787598 -0.021467102997035869 0 -0.0042944007937657678 -0.020898358124021906 0 -0.0053804016153868595 -0.02277598322671644 0 -0.0038007338336537078 -0.021898076831117917 0 -0.0050464531857787598 -0.021467102997035869 0 -0.0049904486489135208 -0.02431539025833147 0 -0.003893391703771652 -0.025351899240150442 0 -0.0053804016153868595 -0.02277598322671644 0 -0.0050464531857787598 -0.021467102997035869 0 -0.0064682699906088246 -0.020641608641397247 0 -0.0050464531857787598 -0.021467102997035869 0 -0.0052138756536227251 -0.020580501019341287 0 -0.0064682699906088246 -0.020641608641397247 0 -0.0052138756536227251 -0.020580501019341287 0 -0.0054896477877505742 -0.01959235456844349 0 -0.0064682699906088246 -0.020641608641397247 0 -0.0052138756536227251 -0.020580501019341287 0 -0.0046358904498988293 -0.020006097733473515 0 -0.0042944007937657678 -0.020898358124021906 0 -0.0050464531857787598 -0.021467102997035869 0 -0.0052138756536227251 -0.020580501019341287 0 -0.0042944007937657678 -0.020898358124021906 0 -0.0052138756536227251 -0.020580501019341287 0 -0.0046358904498988293 -0.020006097733473515 0 -0.0054896477877505742 -0.01959235456844349 0 -0.0046358904498988293 -0.020006097733473515 0 -0.0042944007937657678 -0.020898358124021906 0 -0.0037155644190235335 -0.019969359133223587 0 -0.0046358904498988293 -0.020006097733473515 0 -0.0037155644190235335 -0.019969359133223587 0 -0.0040621824461604993 -0.019404842561942609 0 -0.0042944007937657678 -0.020898358124021906 0 -0.0037155644190235335 -0.019969359133223587 0 -0.0032312757663780283 -0.020659443207267533 0 -0.0037155644190235335 -0.019969359133223587 0 -0.003296707469614431 -0.019118228356217133 0 -0.0040621824461604993 -0.019404842561942609 0 -0.003296707469614431 -0.019118228356217133 0 -0.0039941890048198108 -0.018533777334914563 0 -0.0040621824461604993 -0.019404842561942609 0 -0.003296707469614431 -0.019118228356217133 0 -0.0039941890048198108 -0.018533777334914563 0 -0.0029866393667663553 -0.018330496091208442 0 -0.0039941890048198108 -0.018533777334914563 0 -0.0040621824461604993 -0.019404842561942609 0 -0.0047192370166893706 -0.019296531208051609 0 -0.0046358904498988293 -0.020006097733473515 0 -0.0040621824461604993 -0.019404842561942609 0 -0.0047192370166893706 -0.019296531208051609 0 -0.0039941890048198108 -0.018533777334914563 0 -0.0047192370166893706 -0.019296531208051609 0 -0.0054298088558136035 -0.019034485913354035 0 -0.005433535966365202 -0.019066516859917084 0 -0.0054896477877505742 -0.01959235456844349 0 -0.0064682699906088246 -0.020641608641397247 0 -0.0047192370166893706 -0.019296531208051609 0 -0.0054298088558136035 -0.019034485913354035 0 -0.0054896477877505742 -0.01959235456844349 0 -0.0046358904498988293 -0.020006097733473515 0 -0.0047192370166893706 -0.019296531208051609 0 -0.0054896477877505742 -0.01959235456844349 0 -0.0034938371965218761 -0.028072410833003245 0 -0.0032584352752302276 -0.028239603737826177 0 -0.0033386735948130585 -0.028399700858519575 0 -0.0042760492609636583 -0.023044311558136053 0 -0.0045105245679531369 -0.0202594850565249 0 -0.0010530010140695344 -0.020307763691509197 0 -0.0020872414484068564 -0.020377903883411846 0 -0.0017211504560798075 -0.019331032210541933 0 -0.0010530010140695344 -0.020307763691509197 0 -0.0017211504560798075 -0.019331032210541933 0 -0.00064997701317356731 -0.019375411152879919 0 -0.0016454662925020672 -0.021150483594664236 0 -0.0010530010140695344 -0.020307763691509197 0 -0.0020872414484068564 -0.020377903883411846 0 -0.0025096602411060812 -0.021338243472013695 0 -0.0020872414484068564 -0.020377903883411846 0 -0.0032312757663780283 -0.020659443207267533 0 -0.0025096602411060812 -0.021338243472013695 0 -0.0016454662925020672 -0.021150483594664236 0 -0.0020872414484068564 -0.020377903883411846 0 -0.0037155644190235335 -0.019969359133223587 0 -0.0032312757663780283 -0.020659443207267533 0 -0.0027796716791518659 -0.019740248978739942 0 -0.0020872414484068564 -0.020377903883411846 0 -0.0032312757663780283 -0.020659443207267533 0 -0.0027796716791518659 -0.019740248978739942 0 -0.0020872414484068564 -0.020377903883411846 0 -0.0027796716791518659 -0.019740248978739942 0 -0.0017211504560798075 -0.019331032210541933 0 -0.0027796716791518659 -0.019740248978739942 0 -0.0025562943600146919 -0.018937723243391488 0 -0.0017211504560798075 -0.019331032210541933 0 -0.0037155644190235335 -0.019969359133223587 0 -0.003296707469614431 -0.019118228356217133 0 -0.0027796716791518659 -0.019740248978739942 0 -0.003296707469614431 -0.019118228356217133 0 -0.0027796716791518659 -0.019740248978739942 0 -0.0025562943600146919 -0.018937723243391488 0 -0.003296707469614431 -0.019118228356217133 0 -0.0025562943600146919 -0.018937723243391488 0 -0.0029866393667663553 -0.018330496091208442 0 -0.0025562943600146919 -0.018937723243391488 0 -0.0017211504560798075 -0.019331032210541933 0 -0.0020040060173252472 -0.018178469142239806 0 -0.0025562943600146919 -0.018937723243391488 0 -0.0020040060173252472 -0.018178469142239806 0 -0.0029866393667663553 -0.018330496091208442 0 -0.0017211504560798075 -0.019331032210541933 0 -0.0010047406915984845 -0.018554882671220081 0 -0.0020040060173252472 -0.018178469142239806 0 -0.0017211504560798075 -0.019331032210541933 0 -0.0010047406915984845 -0.018554882671220081 0 -0.00064997701317356731 -0.019375411152879919 0 -0.0010047406915984845 -0.018554882671220081 0 -0.00013718745025295874 -0.018691593984873502 0 -0.00064997701317356731 -0.019375411152879919 0 -0.00013718745025295874 -0.018691593984873502 0 0.00037130502287272015 -0.01979381303105051 0 0.00063057833373885547 -0.017737024001717904 0 -0.0014385810856868647 -0.0087583128518281591 0 0.0014551088679468354 -0.014792553919506585 0 -0.00013718745025295874 -0.018691593984873502 0 -0.00064997701317356731 -0.019375411152879919 0 0.00037130502287272015 -0.01979381303105051 0 -0.0010530010140695344 -0.020307763691509197 0 -0.00064997701317356731 -0.019375411152879919 0 0.00037130502287272015 -0.01979381303105051 0 -0.000890944431846403 -0.02180755049623713 0 -0.0010530010140695344 -0.020307763691509197 0 0.00037130502287272015 -0.01979381303105051 0 -0.0014385810856868647 -0.0087583128518281591 0 -0.0041378382580714102 -0.0017607815559469975 0 -0.0032310475640792329 0.0011119252027521746 0 -0.0025982752485357898 0.00082667982150582168 0 -0.0038139662702103543 -0.0015379300886711968 0 -0.0026293882389493025 -0.01417045853007157 0 -0.0014385810856868647 -0.0087583128518281591 0 -0.0023896289519191784 0.00076329682237014659 0 -0.0025982752485357898 0.00082667982150582168 0 -0.0025730714574259848 0.00054818454623089782 0 -0.0023896289519191784 0.00076329682237014659 0 -0.0025982752485357898 0.00082667982150582168 0 -0.0023422176147257063 0.00099907114644171209 0 -0.0023896289519191784 0.00076329682237014659 0 -0.0023422176147257063 0.00099907114644171209 0 -0.0020766207689893036 0.00090783874991184422 0 -0.0032310475640792329 0.0011119252027521746 0 -0.0025982752485357898 0.00082667982150582168 0 -0.002453418557403378 0.0012890789053137037 0 -0.0025982752485357898 0.00082667982150582168 0 -0.0023422176147257063 0.00099907114644171209 0 -0.002453418557403378 0.0012890789053137037 0 -0.0023422176147257063 0.00099907114644171209 0 -0.002453418557403378 0.0012890789053137037 0 -0.0021077775493841731 0.0012926786844470785 0 0.0018180909583917326 -0.0092551261068720223 0 0.0019370511589822776 -0.009048754796094129 0 0.0020098321711478182 -0.0090820431446940516 0 -0.0014385810856868647 -0.0087583128518281591 0 0.00015459401655073019 -0.0027975051326697077 0 -0.0032310475640792329 0.0011119252027521746 0 -0.002453418557403378 0.0012890789053137037 0 -0.0023751055828103895 0.0017916464609243682 0 -0.002453418557403378 0.0012890789053137037 0 -0.0022180640111422261 0.0015354824250936201 0 -0.0021077775493841731 0.0012926786844470785 0 -0.002453418557403378 0.0012890789053137037 0 -0.0022180640111422261 0.0015354824250936201 0 -0.0023751055828103895 0.0017916464609243682 0 -0.0022180640111422261 0.0015354824250936201 0 -0.0018748931305532664 0.001722600786592116 0 -0.0021077775493841731 0.0012926786844470785 0 -0.0022180640111422261 0.0015354824250936201 0 -0.0018748931305532664 0.001722600786592116 0 -0.0023751055828103895 0.0017916464609243682 0 -0.0018748931305532664 0.001722600786592116 0 -0.0021077775493841731 0.0012926786844470785 0 -0.0016470034088304629 0.0012234449525388878 0 -0.0011397462588467551 0.0010953721406486852 0 -0.0013345489061536199 0.0016045766100804633 0 -0.0016470034088304629 0.0012234449525388878 0 -0.0018748931305532664 0.001722600786592116 0 -0.0013345489061536199 0.0016045766100804633 0 -0.0016470034088304629 0.0012234449525388878 0 -0.0011397462588467551 0.0010953721406486852 0 -0.0016470034088304629 0.0012234449525388878 0 -0.0015178130076320723 0.00073033877713592362 0 -0.0016470034088304629 0.0012234449525388878 0 -0.0020766207689893036 0.00090783874991184422 0 -0.0015178130076320723 0.00073033877713592362 0 -0.0023422176147257063 0.00099907114644171209 0 -0.0021077775493841731 0.0012926786844470785 0 -0.0020766207689893036 0.00090783874991184422 0 -0.0021077775493841731 0.0012926786844470785 0 -0.0016470034088304629 0.0012234449525388878 0 -0.0020766207689893036 0.00090783874991184422 0 -0.0023896289519191784 0.00076329682237014659 0 -0.0020766207689893036 0.00090783874991184422 0 -0.0020977989320836391 0.00053191410210038997 0 -0.0020977989320836391 0.00053191410210038997 0 -0.0015178130076320723 0.00073033877713592362 0 -0.0014304767396484562 9.1773379218744572e-05 0 -0.0020766207689893036 0.00090783874991184422 0 -0.0020977989320836391 0.00053191410210038997 0 -0.0015178130076320723 0.00073033877713592362 0 -0.001044711259026962 0.00066187301631324491 0 -0.0015178130076320723 0.00073033877713592362 0 -0.0014304767396484562 9.1773379218744572e-05 0 -0.0023975622610608429 -0.00072014343646560966 0 -0.001991421788601371 -0.00016094680787200792 0 -0.0023882051632115862 7.7636040087420986e-05 0 -0.0020977989320836391 0.00053191410210038997 0 -0.001991421788601371 -0.00016094680787200792 0 -0.0023882051632115862 7.7636040087420986e-05 0 -0.0020977989320836391 0.00053191410210038997 0 -0.0014304767396484562 9.1773379218744572e-05 0 -0.001991421788601371 -0.00016094680787200792 0 -0.0023975622610608429 -0.00072014343646560966 0 -0.0023882051632115862 7.7636040087420986e-05 0 -0.0027066291497971845 -0.00015845133546077249 0 -0.002887502299797967 -0.00059070599434724838 0 -0.0027066291497971845 -0.00015845133546077249 0 -0.0029443593363784343 0.00024753299708234471 0 -0.0023882051632115862 7.7636040087420986e-05 0 -0.0027066291497971845 -0.00015845133546077249 0 -0.0025960224456241356 0.00031546565795967168 0 -0.0027066291497971845 -0.00015845133546077249 0 -0.0029443593363784343 0.00024753299708234471 0 -0.0025960224456241356 0.00031546565795967168 0 -0.0039304886847130989 -0.0034554564047308022 0 -0.0038698300375985682 -0.0041172984511391774 0 -0.0043086514668560852 -0.0046229655710549444 0 -0.0039954799263513625 -0.0039564003469167979 0 -0.0041378382580714102 -0.0017607815559469975 0 -0.0036814173319191196 -0.0024793015031835198 0 -0.0031338126385170215 -0.0010054747668977436 0 -0.0039304886847130989 -0.0034554564047308022 0 -0.0033060501220023653 -0.0023002207347792409 0 -0.0038139662702103543 -0.0015379300886711968 0 -0.0039304886847130989 -0.0034554564047308022 0 -0.0036943044755488783 -0.0038505112260150951 0 -0.0038698300375985682 -0.0041172984511391774 0 -0.0036508699972219874 -0.0046185591158838689 0 -0.0044583943621823987 -0.0060771741175811361 0 -0.0043086514668560852 -0.0046229655710549444 0 -0.0025982752485357898 0.00082667982150582168 0 -0.0033060501220023653 -0.0023002207347792409 0 -0.0038139662702103543 -0.0015379300886711968 0 -0.0036508699972219874 -0.0046185591158838689 0 -0.0038698300375985682 -0.0041172984511391774 0 -0.0043086514668560852 -0.0046229655710549444 0 -0.0025982752485357898 0.00082667982150582168 0 -0.0029443593363784343 0.00024753299708234471 0 -0.0025730714574259848 0.00054818454623089782 0 -0.002635709920321444 0.00072129902943091268 0 -0.0031338126385170215 -0.0010054747668977436 0 -0.0023896289519191784 0.00076329682237014659 0 -0.0020977989320836391 0.00053191410210038997 0 -0.0025730714574259848 0.00054818454623089782 0 -0.0020977989320836391 0.00053191410210038997 0 -0.0025730714574259848 0.00054818454623089782 0 -0.0025960224456241356 0.00031546565795967168 0 -0.0020977989320836391 0.00053191410210038997 0 -0.0023882051632115862 7.7636040087420986e-05 0 -0.0025960224456241356 0.00031546565795967168 0 -0.0029443593363784343 0.00024753299708234471 0 -0.0025730714574259848 0.00054818454623089782 0 -0.0025960224456241356 0.00031546565795967168 0 -0.00064195290048816027 -0.027384074559307411 0 -0.0001412875531069175 -0.027445869634264011 0 -0.00054007126435039112 -0.027748982084034111 0 -0.00064195290048816027 -0.027384074559307411 0 -0.00043174927001886392 -0.026980423503557054 0 -0.0001412875531069175 -0.027445869634264011 0 -0.00064195290048816027 -0.027384074559307411 0 -0.0010727288729824481 -0.027435173086683112 0 -0.0008734822384102621 -0.026974266536212505 0 -0.0010727288729824481 -0.027435173086683112 0 -0.0008734822384102621 -0.026974266536212505 0 -0.0013619660903928107 -0.026897107207085613 0 -0.0008734822384102621 -0.026974266536212505 0 -0.0013619660903928107 -0.026897107207085613 0 -0.00094084420080571855 -0.026289763222592771 0 -0.0008734822384102621 -0.026974266536212505 0 -0.00043174927001886392 -0.026980423503557054 0 -0.00094084420080571855 -0.026289763222592771 0 -0.00064195290048816027 -0.027384074559307411 0 -0.0008734822384102621 -0.026974266536212505 0 -0.00043174927001886392 -0.026980423503557054 0 -0.00043174927001886392 -0.026980423503557054 0 6.6476495828956064e-05 -0.027202184576350798 0 -0.0001412875531069175 -0.027445869634264011 0 6.6476495828956064e-05 -0.027202184576350798 0 0.00027153226273320423 -0.027065866587532399 0 0.0003285039588613889 -0.027468384587218543 0 6.6476495828956064e-05 -0.027202184576350798 0 0.00017239564293239308 -0.027497940258831725 0 0.0003285039588613889 -0.027468384587218543 0 0.00017239564293239308 -0.027497940258831725 0 -0.0001412875531069175 -0.027445869634264011 0 0.0001874757410066414 -0.027774725715346938 0 0.00017239564293239308 -0.027497940258831725 0 0.0001874757410066414 -0.027774725715346938 0 0.0003311615882302171 -0.027641508631083316 0 0.00017239564293239308 -0.027497940258831725 0 0.0003285039588613889 -0.027468384587218543 0 0.0003311615882302171 -0.027641508631083316 0 6.6476495828956064e-05 -0.027202184576350798 0 0.00017239564293239308 -0.027497940258831725 0 -0.0001412875531069175 -0.027445869634264011 0 -0.0001412875531069175 -0.027445869634264011 0 0.0001874757410066414 -0.027774725715346938 0 -0.00054007126435039112 -0.027748982084034111 0 -0.00012515716282622641 -0.027758835535667749 0 -0.00045539792027054322 -0.027935680271168283 0 -0.00030712669497277525 -0.028058382255202623 0 1.7270929948506536e-05 -0.027761761449601057 0 -0.00050079404843637236 -0.027760248267104784 0 -0.00012515716282622641 -0.027758835535667749 0 -0.00045539792027054322 -0.027935680271168283 0 -0.00054007126435039112 -0.027748982084034111 0 -0.00012515716282622641 -0.027758835535667749 0 -0.00030712669497277525 -0.028058382255202623 0 9.8665729219251584e-05 -0.027943145797845858 0 -0.00030712669497277525 -0.028058382255202623 0 -0.00015928568210550706 -0.028174457532783803 0 -0.00026818481089701759 -0.02820288484416273 0 -0.00030712669497277525 -0.028058382255202623 0 -7.7672865907928745e-05 -0.028035485838065016 0 -0.00015928568210550706 -0.028174457532783803 0 -0.00028864715165217932 -0.0280581973315948 0 2.3121758618107017e-06 -0.027988140659682838 0 -0.00030712669497277525 -0.028058382255202623 0 -0.00026818481089701759 -0.02820288484416273 0 -0.00039680197391959044 -0.02821229286375759 0 -0.00045539792027054322 -0.027935680271168283 0 -0.00030712669497277525 -0.028058382255202623 0 -0.00039680197391959044 -0.02821229286375759 0 -0.0007797492950357037 -0.027931828138230554 0 -0.0009301737220953932 -0.028033490604023808 0 -0.00097808191193934999 -0.028058777803939661 0 -0.00045539792027054322 -0.027935680271168283 0 -0.0007797492950357037 -0.027931828138230554 0 -0.00039680197391959044 -0.02821229286375759 0 -0.00079427970286411397 -0.02795502652688419 0 -0.00067844803177956033 -0.028075429889546255 0 -0.0007797492950357037 -0.027931828138230554 0 -0.00097690555595672871 -0.027991531976827133 0 -0.0009301737220953932 -0.028033490604023808 0 -0.0007797492950357037 -0.027931828138230554 0 -0.0008792921129123231 -0.02776626253581049 0 -0.00097690555595672871 -0.027991531976827133 0 -0.00064195290048816027 -0.027384074559307411 0 -0.00054007126435039112 -0.027748982084034111 0 -0.0008792921129123231 -0.02776626253581049 0 -0.00045539792027054322 -0.027935680271168283 0 -0.0007797492950357037 -0.027931828138230554 0 -0.00054007126435039112 -0.027748982084034111 0 -0.0007797492950357037 -0.027931828138230554 0 -0.00054007126435039112 -0.027748982084034111 0 -0.0008792921129123231 -0.02776626253581049 0 -0.0010727288729824481 -0.027435173086683112 0 -0.0008792921129123231 -0.02776626253581049 0 -0.0011892633746004367 -0.027936265603825415 0 -0.00064195290048816027 -0.027384074559307411 0 -0.0010727288729824481 -0.027435173086683112 0 -0.0008792921129123231 -0.02776626253581049 0 -0.0008792921129123231 -0.02776626253581049 0 -0.00097690555595672871 -0.027991531976827133 0 -0.0011892633746004367 -0.027936265603825415 0 -0.00097690555595672871 -0.027991531976827133 0 -0.0011892633746004367 -0.027936265603825415 0 -0.0010997114928806206 -0.028028208360642317 0 -0.0011892633746004367 -0.027936265603825415 0 -0.0016817307312130363 -0.027947298209882527 0 -0.0012176468895340881 -0.028064587999072545 0 -0.0016817307312130363 -0.027947298209882527 0 -0.0019806036248635819 -0.027510035825789696 0 -0.0025060655980971383 -0.027603993558600458 0 -0.0016817307312130363 -0.027947298209882527 0 -0.0019806036248635819 -0.027510035825789696 0 -0.001527857949295127 -0.027513074640091444 0 -0.0010727288729824481 -0.027435173086683112 0 -0.0011892633746004367 -0.027936265603825415 0 -0.001527857949295127 -0.027513074640091444 0 -0.0011892633746004367 -0.027936265603825415 0 -0.0016817307312130363 -0.027947298209882527 0 -0.001527857949295127 -0.027513074640091444 0 -0.0022983166873237863 -0.028994076422006892 0 -0.003893391703771652 -0.025351899240150442 0 -0.0030752991946421757 -0.028095534038103921 0 -0.0026402355986414024 -0.028216551439262053 0 -0.0030722592022820079 -0.027364518205278493 0 -0.0034938371965218761 -0.028072410833003245 0 -0.0030752991946421757 -0.028095534038103921 0 -0.0030722592022820079 -0.027364518205278493 0 -0.0030752991946421757 -0.028095534038103921 0 -0.0028804009388985687 -0.02829415000193657 0 -0.0031203921397242912 -0.028389384534451185 0 -0.0030752991946421757 -0.028095534038103921 0 -0.0032584352752302276 -0.028239603737826177 0 -0.0031203921397242912 -0.028389384534451185 0 -0.0034938371965218761 -0.028072410833003245 0 -0.0030752991946421757 -0.028095534038103921 0 -0.0032584352752302276 -0.028239603737826177 0 -0.0030752991946421757 -0.028095534038103921 0 -0.0028804009388985687 -0.02829415000193657 0 -0.0026402355986414024 -0.028216551439262053 0 -0.0028804009388985687 -0.02829415000193657 0 -0.0026402355986414024 -0.028216551439262053 0 -0.002738042928499931 -0.028429346743295843 0 -0.0016817307312130363 -0.027947298209882527 0 -0.0026402355986414024 -0.028216551439262053 0 -0.002738042928499931 -0.028429346743295843 0 -0.0016817307312130363 -0.027947298209882527 0 -0.0015869223528602217 -0.028017830348953783 0 -0.0015989128908129283 -0.028024501673347177 0 -0.0016106825490596463 -0.02786742443748615 0 -0.0023309702741768092 -0.028486829477289217 0 -0.0016817307312130363 -0.027947298209882527 0 -0.0026402355986414024 -0.028216551439262053 0 -0.0025060655980971383 -0.027603993558600458 0 -0.0026402355986414024 -0.028216551439262053 0 -0.0025060655980971383 -0.027603993558600458 0 -0.003165268073298106 -0.027521007177758568 0 -0.0019806036248635819 -0.027510035825789696 0 -0.0025060655980971383 -0.027603993558600458 0 -0.0024118549222501453 -0.027246586946095774 0 -0.0025060655980971383 -0.027603993558600458 0 -0.003165268073298106 -0.027521007177758568 0 -0.0030249410393704285 -0.02717444813254484 0 -0.0042760492609636583 -0.023044311558136053 0 -0.003893391703771652 -0.025351899240150442 0 -0.003893391703771652 -0.025351899240150442 0 -0.0035402173356897807 -0.027402348197618862 0 -0.0035529624472712216 -0.026666387831519572 0 -0.0030249410393704285 -0.02717444813254484 0 -0.0031556982856771093 -0.026379749531664425 0 -0.0042355685660932741 -0.026410370948241665 0 -0.0034580617462628333 -0.027779536483434217 0 -0.0035529624472712216 -0.026666387831519572 0 -0.0034580617462628333 -0.027779536483434217 0 -0.0035529624472712216 -0.026666387831519572 0 -0.0030249410393704285 -0.02717444813254484 0 -0.0030249410393704285 -0.02717444813254484 0 -0.002569558428550423 -0.02680881411374517 0 -0.0031556982856771093 -0.026379749531664425 0 -0.0030249410393704285 -0.02717444813254484 0 -0.0024118549222501453 -0.027246586946095774 0 -0.002569558428550423 -0.02680881411374517 0 -0.0025060655980971383 -0.027603993558600458 0 -0.0030249410393704285 -0.02717444813254484 0 -0.0024118549222501453 -0.027246586946095774 0 -0.0024118549222501453 -0.027246586946095774 0 -0.002569558428550423 -0.02680881411374517 0 -0.0020010934117143599 -0.027099790050841781 0 -0.002569558428550423 -0.02680881411374517 0 -0.0024597685829916617 -0.026197095961251915 0 -0.0031556982856771093 -0.026379749531664425 0 -0.0035529624472712216 -0.026666387831519572 0 -0.0031556982856771093 -0.026379749531664425 0 -0.0039589690898921767 -0.025796132466153764 0 -0.001527857949295127 -0.027513074640091444 0 -0.0020010934117143599 -0.027099790050841781 0 -0.0013619660903928107 -0.026897107207085613 0 -0.0010727288729824481 -0.027435173086683112 0 -0.001527857949295127 -0.027513074640091444 0 -0.0013619660903928107 -0.026897107207085613 0 -0.0019806036248635819 -0.027510035825789696 0 -0.001527857949295127 -0.027513074640091444 0 -0.0020010934117143599 -0.027099790050841781 0 -0.002569558428550423 -0.02680881411374517 0 -0.0020010934117143599 -0.027099790050841781 0 -0.0018761337699733391 -0.026621100357205302 0 -0.0019806036248635819 -0.027510035825789696 0 -0.0024118549222501453 -0.027246586946095774 0 -0.0020010934117143599 -0.027099790050841781 0 -0.0020010934117143599 -0.027099790050841781 0 -0.0018761337699733391 -0.026621100357205302 0 -0.0013619660903928107 -0.026897107207085613 0 -0.0024597685829916617 -0.026197095961251915 0 -0.0018761337699733391 -0.026621100357205302 0 -0.0016256638833102976 -0.02613983952174366 0 -0.002569558428550423 -0.02680881411374517 0 -0.0024597685829916617 -0.026197095961251915 0 -0.0018761337699733391 -0.026621100357205302 0 -0.0018761337699733391 -0.026621100357205302 0 -0.0013619660903928107 -0.026897107207085613 0 -0.0016256638833102976 -0.02613983952174366 0 -0.0013619660903928107 -0.026897107207085613 0 -0.0016256638833102976 -0.02613983952174366 0 -0.00094084420080571855 -0.026289763222592771 0 -0.0016256638833102976 -0.02613983952174366 0 -0.0012795535857007853 -0.025154113559580454 0 -0.00094084420080571855 -0.026289763222592771 0 -0.0024597685829916617 -0.026197095961251915 0 -0.0016256638833102976 -0.02613983952174366 0 -0.0023113503881856665 -0.025351186356938338 0 -0.0016256638833102976 -0.02613983952174366 0 -0.0023113503881856665 -0.025351186356938338 0 -0.0012795535857007853 -0.025154113559580454 0 -0.0023113503881856665 -0.025351186356938338 0 -0.0012795535857007853 -0.025154113559580454 0 -0.0020680892119858251 -0.023562253686590463 0 -0.0031556982856771093 -0.026379749531664425 0 -0.0033497714511526349 -0.025493853284729875 0 -0.0039589690898921767 -0.025796132466153764 0 -0.0042419600311865736 -0.025258607945502356 0 -0.0033497714511526349 -0.025493853284729875 0 -0.0039589690898921767 -0.025796132466153764 0 -0.0024597685829916617 -0.026197095961251915 0 -0.0023113503881856665 -0.025351186356938338 0 -0.0033497714511526349 -0.025493853284729875 0 -0.0024597685829916617 -0.026197095961251915 0 -0.0031556982856771093 -0.026379749531664425 0 -0.0033497714511526349 -0.025493853284729875 0 -0.0023113503881856665 -0.025351186356938338 0 -0.0033497714511526349 -0.025493853284729875 0 -0.0032203376858509223 -0.024389570548189059 0 -0.0042419600311865736 -0.025258607945502356 0 -0.0033497714511526349 -0.025493853284729875 0 -0.0040976192394952156 -0.024717743581743376 0 -0.0033497714511526349 -0.025493853284729875 0 -0.0040976192394952156 -0.024717743581743376 0 -0.0032203376858509223 -0.024389570548189059 0 -0.0041818610144824676 -0.023601970617108451 0 -0.0032203376858509223 -0.024389570548189059 0 -0.0032965467130749685 -0.022968363791815553 0 -0.0040976192394952156 -0.024717743581743376 0 -0.0041818610144824676 -0.023601970617108451 0 -0.0032203376858509223 -0.024389570548189059 0 -0.0032203376858509223 -0.024389570548189059 0 -0.0032965467130749685 -0.022968363791815553 0 -0.0020680892119858251 -0.023562253686590463 0 -0.0032965467130749685 -0.022968363791815553 0 -0.0020680892119858251 -0.023562253686590463 0 -0.0024358411664892328 -0.021820950698590757 0 -0.0041818610144824676 -0.023601970617108451 0 -0.0032965467130749685 -0.022968363791815553 0 -0.0044042959400372363 -0.021707132367163998 0 -0.001243630064274202 -0.025097502920979481 0 -0.0007277157013077548 -0.024022634113153946 0 -0.0012795535857007853 -0.025154113559580454 0 -0.0020680892119858251 -0.023562253686590463 0 -0.00039602049633867732 -0.023167376880192443 0 -0.0023113503881856665 -0.025351186356938338 0 -0.0032203376858509223 -0.024389570548189059 0 -0.0020680892119858251 -0.023562253686590463 0 -0.0020680892119858251 -0.023562253686590463 0 -0.0024358411664892328 -0.021820950698590757 0 -0.00097537216483239097 -0.021774940670949615 0 -0.0020680892119858251 -0.023562253686590463 0 -0.00039602049633867732 -0.023167376880192443 0 -0.00097537216483239097 -0.021774940670949615 0 -0.0007277157013077548 -0.024022634113153946 0 -0.00087837035362162488 -0.022848282374656727 0 -0.0011166556558072855 -0.024911342526946403 0 -0.0008235916165763717 -0.024746428320243059 0 -0.00089342914281220916 -0.02425549640271164 0 -0.0008235916165763717 -0.024746428320243059 0 -0.00047847771133435724 -0.024839829033621079 0 -0.00089342914281220916 -0.02425549640271164 0 -0.0011166556558072855 -0.024911342526946403 0 -0.0008235916165763717 -0.024746428320243059 0 -0.00076555747527908696 -0.025073381392052528 0 -0.00064011774119724328 -0.025511173664799994 0 -0.0010366826810569211 -0.02636641056759563 0 -0.0012124854433409906 -0.024900872817047434 0 -0.00064011774119724328 -0.025511173664799994 0 -0.0010366826810569211 -0.02636641056759563 0 -0.00064221403658116084 -0.02643982311033382 0 -0.0008235916165763717 -0.024746428320243059 0 -0.00047847771133435724 -0.024839829033621079 0 -0.00076555747527908696 -0.025073381392052528 0 -0.00047847771133435724 -0.024839829033621079 0 -0.00047166444475092842 -0.025408232372496377 0 -0.00076555747527908696 -0.025073381392052528 0 -0.00047847771133435724 -0.024839829033621079 0 -0.00047166444475092842 -0.025408232372496377 0 1.3939042016810271e-07 -0.025653247958579029 0 -0.0010366826810569211 -0.02636641056759563 0 -0.00064221403658116084 -0.02643982311033382 0 -1.5476151129105343e-05 -0.02736335552743464 0 -0.00080596229281550906 -0.025796950137559418 0 -5.3775146011492548e-05 -0.026449464220442927 0 -0.00047166444475092842 -0.025408232372496377 0 -0.00076555747527908696 -0.025073381392052528 0 -0.00085358437488004216 -0.025442305846869122 0 -0.0011166556558072855 -0.024911342526946403 0 -0.00076555747527908696 -0.025073381392052528 0 -0.00085358437488004216 -0.025442305846869122 0 -0.0012795535857007853 -0.025154113559580454 0 -0.0011166556558072855 -0.024911342526946403 0 -0.00085358437488004216 -0.025442305846869122 0 -0.0012795535857007853 -0.025154113559580454 0 -0.00085358437488004216 -0.025442305846869122 0 -0.00094084420080571855 -0.026289763222592771 0 -0.00085358437488004216 -0.025442305846869122 0 -0.00031264356808388092 -0.02635672528642001 0 -0.00094084420080571855 -0.026289763222592771 0 -0.00047166444475092842 -0.025408232372496377 0 -0.00031264356808388092 -0.02635672528642001 0 1.3939042016810271e-07 -0.025653247958579029 0 -0.00047166444475092842 -0.025408232372496377 0 -0.00085358437488004216 -0.025442305846869122 0 -0.00031264356808388092 -0.02635672528642001 0 -0.00043174927001886392 -0.026980423503557054 0 -0.00031264356808388092 -0.02635672528642001 0 -0.00094084420080571855 -0.026289763222592771 0 0.00027153226273320423 -0.027065866587532399 0 0.00039199863684819284 -0.027465951451027683 0 0.0003285039588613889 -0.027468384587218543 0 6.6476495828956064e-05 -0.027202184576350798 0 -0.00031264356808388092 -0.02635672528642001 0 0.00027153226273320423 -0.027065866587532399 0 -0.00043174927001886392 -0.026980423503557054 0 6.6476495828956064e-05 -0.027202184576350798 0 -0.00031264356808388092 -0.02635672528642001 0 0.00024426318204547965 -0.026994915656616561 0 -5.3775146011492548e-05 -0.026449464220442927 0 -0.00031264356808388092 -0.02635672528642001 0 0.00027153226273320423 -0.027065866587532399 0 1.3939042016810271e-07 -0.025653247958579029 0 0.00027153226273320423 -0.027065866587532399 0 0.00027058988637113297 -0.027329840714740584 0 0.00039427868976579409 -0.027574895218425099 0 0.00027153226273320423 -0.027065866587532399 0 0.00027058988637113297 -0.027329840714740584 0 -1.5476151129105343e-05 -0.02736335552743464 0 0.00027058988637113297 -0.027329840714740584 0 4.5492396956727096e-05 -0.027086310187933831 0 0.00025726376667989148 -0.027019748970728182 0 -0.00064221403658116084 -0.02643982311033382 0 4.5492396956727096e-05 -0.027086310187933831 0 -1.5476151129105343e-05 -0.02736335552743464 0 0.00027058988637113297 -0.027329840714740584 0 4.5492396956727096e-05 -0.027086310187933831 0 -1.5476151129105343e-05 -0.02736335552743464 0 -0.00064221403658116084 -0.02643982311033382 0 0.0012745010174743589 -0.026058001482538642 0 0.00042217526211683882 -0.02524798057563872 0 -0.00059106324201860542 -0.026478098799554588 0 0.00069475775537864511 -0.026539433377268582 0 -0.00064221403658116084 -0.02643982311033382 0 4.5492396956727096e-05 -0.027086310187933831 0 0.00025726376667989148 -0.027019748970728182 0 -0.00064011774119724328 -0.025511173664799994 0 -0.00064221403658116084 -0.02643982311033382 0 0.00042217526211683882 -0.02524798057563872 0 0.00027058988637113297 -0.027329840714740584 0 0.00025726376667989148 -0.027019748970728182 0 0.00042181801821471345 -0.027416606837845338 0 0.0012745010174743589 -0.026058001482538642 0 0.0018594920466287234 -0.025048746689630457 0 0.00042217526211683882 -0.02524798057563872 0 0.0018594920466287234 -0.025048746689630457 0 0.00078467084899830428 -0.024019793008625043 0 0.00042217526211683882 -0.02524798057563872 0 0.0018594920466287234 -0.025048746689630457 0 0.00078467084899830428 -0.024019793008625043 0 0.0020750879933743127 -0.023838109346887432 0 0.00096055367966530554 -0.022734614820178509 0 0.00078467084899830428 -0.024019793008625043 0 0.0020750879933743127 -0.023838109346887432 0 0.00096055367966530554 -0.022734614820178509 0 0.0020750879933743127 -0.023838109346887432 0 0.0022222011893500947 -0.022326854043604339 0 -0.00036512613798986678 -0.022717351665096079 0 0.00078467084899830428 -0.024019793008625043 0 -0.00041954958583798974 -0.024431968670672585 0 0.00096055367966530554 -0.022734614820178509 0 -0.00036512613798986678 -0.022717351665096079 0 0.00036729453433080779 -0.021930731339343236 0 0.00096055367966530554 -0.022734614820178509 0 -0.00036512613798986678 -0.022717351665096079 0 0.00078467084899830428 -0.024019793008625043 0 0.00078467084899830428 -0.024019793008625043 0 0.00042217526211683882 -0.02524798057563872 0 -0.00041954958583798974 -0.024431968670672585 0 -0.00064011774119724328 -0.025511173664799994 0 0.00042217526211683882 -0.02524798057563872 0 -0.00041954958583798974 -0.024431968670672585 0 -0.00064011774119724328 -0.025511173664799994 0 -0.0012124854433409906 -0.024900872817047434 0 -0.00041954958583798974 -0.024431968670672585 0 -0.0010366826810569211 -0.02636641056759563 0 -0.0012124854433409906 -0.024900872817047434 0 -0.00254253719359599 -0.024284554902724329 0 -0.00080596229281550906 -0.025796950137559418 0 -0.00087837035362162488 -0.022848282374656727 0 -0.0012124854433409906 -0.024900872817047434 0 -0.0013423561818995927 -0.023831930367154152 0 -0.00254253719359599 -0.024284554902724329 0 -0.0012124854433409906 -0.024900872817047434 0 -0.0013423561818995927 -0.023831930367154152 0 -0.00041954958583798974 -0.024431968670672585 0 -0.00039602049633867732 -0.023167376880192443 0 9.0031243470672299e-05 -0.021363552449133936 0 -0.00097537216483239097 -0.021774940670949615 0 9.0031243470672299e-05 -0.021363552449133936 0 -0.00046579503223190711 -0.020709508710406228 0 -0.00097537216483239097 -0.021774940670949615 0 -0.00087837035362162488 -0.022848282374656727 0 -0.00096329781964121276 -0.021081572962547382 0 -0.0013423561818995927 -0.023831930367154152 0 -0.00254253719359599 -0.024284554902724329 0 -0.0018462282527704 -0.022773980946364347 0 -0.00050820608512508838 -0.020662585206600356 0 -0.00046579503223190711 -0.020709508710406228 0 -0.00062960499356761162 -0.020611394901141205 0 -0.00087837035362162488 -0.022848282374656727 0 -0.0011802746823636212 -0.021711599218779947 0 -0.00046579503223190711 -0.020709508710406228 0 -0.00063648031604747511 -0.020494674282472224 0 -0.00083344317072308585 -0.020244344611724495 0 -0.00046579503223190711 -0.020709508710406228 0 -0.00062960499356761162 -0.020611394901141205 0 -0.00063648031604747511 -0.020494674282472224 0 -0.00036512613798986678 -0.022717351665096079 0 -0.0018462282527704 -0.022773980946364347 0 -0.00077009445107028402 -0.021065206044103838 0 -0.00036512613798986678 -0.022717351665096079 0 -0.0013423561818995927 -0.023831930367154152 0 -0.00041954958583798974 -0.024431968670672585 0 -0.00036512613798986678 -0.022717351665096079 0 -0.0013423561818995927 -0.023831930367154152 0 -0.0018462282527704 -0.022773980946364347 0 -0.00077009445107028402 -0.021065206044103838 0 -0.00073964671810797364 -0.020593324563989841 0 -0.00062055151406881616 -0.021334115809093487 0 -0.00036512613798986678 -0.022717351665096079 0 -0.00077009445107028402 -0.021065206044103838 0 -0.00062055151406881616 -0.021334115809093487 0 -0.00043730090247563747 -0.019246127639932574 0 0.00015408367867792902 -0.019860489426769028 0 -0.0011802746823636212 -0.021711599218779947 0 -0.00088769111697781277 -0.021163317661474553 0 -0.00063648031604747511 -0.020494674282472224 0 -0.00073964671810797364 -0.020593324563989841 0 -0.00083344317072308585 -0.020244344611724495 0 -0.00062960499356761162 -0.020611394901141205 0 -0.00063648031604747511 -0.020494674282472224 0 -0.00073964671810797364 -0.020593324563989841 0 -0.00062960499356761162 -0.020611394901141205 0 -0.00077009445107028402 -0.021065206044103838 0 -0.00073964671810797364 -0.020593324563989841 0 0.00012430837792082509 -0.017850634415547479 0 0.0002949142271240912 -0.017313984617078587 0 -0.00038332954629058809 -0.016622366274757629 0 0.0002949142271240912 -0.017313984617078587 0 0.00072456866875509501 -0.017968003750921214 0 0.00063772107306654495 -0.018335946053197986 0 0.00012430837792082509 -0.017850634415547479 0 0.0002949142271240912 -0.017313984617078587 0 0.00063772107306654495 -0.018335946053197986 0 0.0002949142271240912 -0.017313984617078587 0 0.00072456866875509501 -0.017968003750921214 0 0.0005809300307090783 -0.016868489353877143 0 0.0010845531487268271 -0.018780027292169616 0 0.0018372851291927131 -0.020535772966623202 0 0.00063772107306654495 -0.018335946053197986 0 0.00072456866875509501 -0.017968003750921214 0 0.0010845531487268271 -0.018780027292169616 0 0.00063772107306654495 -0.018335946053197986 0 0.00072456866875509501 -0.017968003750921214 0 0.0010845531487268271 -0.018780027292169616 0 0.0014604134135141895 -0.018135019616525697 0 0.0018372851291927131 -0.020535772966623202 0 0.0014604134135141895 -0.018135019616525697 0 0.0029944167251523407 -0.019676225172950135 0 0.0010845531487268271 -0.018780027292169616 0 0.0018372851291927131 -0.020535772966623202 0 0.0014604134135141895 -0.018135019616525697 0 0.00096055367966530554 -0.022734614820178509 0 0.0018372851291927131 -0.020535772966623202 0 0.0022222011893500947 -0.022326854043604339 0 0.00096055367966530554 -0.022734614820178509 0 0.0018372851291927131 -0.020535772966623202 0 0.00036729453433080779 -0.021930731339343236 0 0.0018372851291927131 -0.020535772966623202 0 0.00036729453433080779 -0.021930731339343236 0 -0.00062055151406881616 -0.021334115809093487 0 0.0018538620578087814 -0.020360865594628009 0 0.00015408367867792902 -0.019860489426769028 0 -0.00036512613798986678 -0.022717351665096079 0 0.00036729453433080779 -0.021930731339343236 0 -0.00062055151406881616 -0.021334115809093487 0 -0.0029525592748100024 -0.016356626171849367 0 -0.0023540683771935654 -0.016032322778722418 0 -0.0029118393722007726 -0.015917556451543628 0 -0.0035921584395871772 -0.018836660488255927 0 -0.0029313611989419861 -0.017796655161523758 0 -0.0044042959400372363 -0.021707132367163998 0 -0.0027472878521050074 -0.020639930409804576 0 -0.0024358411664892328 -0.021820950698590757 0 -0.0032965467130749685 -0.022968363791815553 0 -0.0044042959400372363 -0.021707132367163998 0 -0.0024358411664892328 -0.021820950698590757 0 -0.0044042959400372363 -0.021707132367163998 0 -0.0027472878521050074 -0.020639930409804576 0 -0.0036001837553075681 -0.01958628134235909 0 -0.0027472878521050074 -0.020639930409804576 0 -0.0015097640471892408 -0.018972242940692711 0 -0.0036001837553075681 -0.01958628134235909 0 -0.0027472878521050074 -0.020639930409804576 0 -0.0013220407794582601 -0.020659771680935704 0 -0.0015097640471892408 -0.018972242940692711 0 -0.0024358411664892328 -0.021820950698590757 0 -0.00097537216483239097 -0.021774940670949615 0 -0.0013220407794582601 -0.020659771680935704 0 -0.0027472878521050074 -0.020639930409804576 0 -0.0024358411664892328 -0.021820950698590757 0 -0.0013220407794582601 -0.020659771680935704 0 -0.00046579503223190711 -0.020709508710406228 0 -0.00097537216483239097 -0.021774940670949615 0 -0.0013220407794582601 -0.020659771680935704 0 -0.00046579503223190711 -0.020709508710406228 0 -0.0013220407794582601 -0.020659771680935704 0 -0.00083344317072308585 -0.020244344611724495 0 -0.0013220407794582601 -0.020659771680935704 0 -0.00083344317072308585 -0.020244344611724495 0 -0.0015097640471892408 -0.018972242940692711 0 -0.00043730090247563747 -0.019246127639932574 0 -0.0015580753093993116 -0.019047937021113487 0 0.00012430837792082509 -0.017850634415547479 0 -0.00075685299639087857 -0.017418611307214449 0 -0.0015097640471892408 -0.018972242940692711 0 -0.00073964671810797364 -0.020593324563989841 0 -0.00083344317072308585 -0.020244344611724495 0 -0.0015097640471892408 -0.018972242940692711 0 -0.00038332954629058809 -0.016622366274757629 0 -0.00075685299639087857 -0.017418611307214449 0 -0.0016988318735586911 -0.016222020372331697 0 0.00012430837792082509 -0.017850634415547479 0 -0.00038332954629058809 -0.016622366274757629 0 -0.00075685299639087857 -0.017418611307214449 0 -0.00075685299639087857 -0.017418611307214449 0 -0.0016988318735586911 -0.016222020372331697 0 -0.0015097640471892408 -0.018972242940692711 0 -0.0016988318735586911 -0.016222020372331697 0 -0.0015097640471892408 -0.018972242940692711 0 -0.0036001837553075681 -0.01958628134235909 0 -0.001749369050318364 -0.016239872082879764 0 -0.0029313611989419861 -0.017796655161523758 0 -0.0016988318735586911 -0.016222020372331697 0 -0.0023540683771935654 -0.016032322778722418 0 -0.0022738677288916599 -0.015720035562421086 0 -0.0016988318735586911 -0.016222020372331697 0 -0.0022738677288916599 -0.015720035562421086 0 -0.0018634892548724906 -0.014760276385057088 0 -0.0022738677288916599 -0.015720035562421086 0 -0.0024323194688566077 -0.014899406722908138 0 -0.0018634892548724906 -0.014760276385057088 0 -0.0022738677288916599 -0.015720035562421086 0 -0.0024323194688566077 -0.014899406722908138 0 -0.0028539547443931219 -0.015508690246712895 0 -0.0032740421555222774 -0.014751116292149957 0 -0.0024323194688566077 -0.014899406722908138 0 -0.0028539547443931219 -0.015508690246712895 0 -0.0022738677288916599 -0.015720035562421086 0 -0.0028539547443931219 -0.015508690246712895 0 -0.0029118393722007726 -0.015917556451543628 0 -0.0023540683771935654 -0.016032322778722418 0 -0.0022738677288916599 -0.015720035562421086 0 -0.0029118393722007726 -0.015917556451543628 0 -0.0029697475018751491 -0.010718512077922699 0 -0.0025598909422880692 -0.013265036215340482 0 -0.001822048412712642 -0.013159920068976297 0 -0.0015074327264327989 -0.010082726848880737 0 -0.00096288538823666517 -0.012156627371775563 0 -0.0025598909422880692 -0.013265036215340482 0 -0.0018634892548724906 -0.014760276385057088 0 -0.001822048412712642 -0.013159920068976297 0 -0.0032740421555222774 -0.014751116292149957 0 -0.0024323194688566077 -0.014899406722908138 0 -0.0025598909422880692 -0.013265036215340482 0 -0.0024323194688566077 -0.014899406722908138 0 -0.0025598909422880692 -0.013265036215340482 0 -0.0018634892548724906 -0.014760276385057088 0 -8.3806033777794516e-05 -0.011217283651985016 0 -0.00015777054152182123 -0.012868809172173619 0 -2.0782500509096898e-05 -0.01129591864629469 0 -0.0018634892548724906 -0.014760276385057088 0 -0.001822048412712642 -0.013159920068976297 0 -0.0010081213568536882 -0.01462632299584038 0 -0.00096288538823666517 -0.012156627371775563 0 -0.00055264861955449038 -0.013753243131902711 0 -0.0016988318735586911 -0.016222020372331697 0 -0.0018634892548724906 -0.014760276385057088 0 -0.0010081213568536882 -0.01462632299584038 0 -0.00038332954629058809 -0.016622366274757629 0 -0.0016988318735586911 -0.016222020372331697 0 -0.0010081213568536882 -0.01462632299584038 0 -0.00038332954629058809 -0.016622366274757629 0 -0.0010081213568536882 -0.01462632299584038 0 5.3186766592972195e-05 -0.015998830437030362 0 -0.00055264861955449038 -0.013753243131902711 0 -1.6188823363275781e-05 -0.015352684011326344 0 -0.00015777054152182123 -0.012868809172173619 0 -0.00018979688037060882 -0.014628032966046142 0 -2.8774237080068386e-05 -0.0137138506557654 0 -0.00015777054152182123 -0.012868809172173619 0 1.2443671883948622e-05 -0.012568307812180398 0 -2.8774237080068386e-05 -0.0137138506557654 0 1.2443671883948622e-05 -0.012568307812180398 0 5.7028900240129104e-08 -0.011444343434240457 0 1.9377301368681277e-07 -0.013372645756596011 0 1.2443671883948622e-05 -0.012568307812180398 0 5.7028900240129104e-08 -0.011444343434240457 0 -2.0782500509096898e-05 -0.01129591864629469 0 -0.00015777054152182123 -0.012868809172173619 0 1.2443671883948622e-05 -0.012568307812180398 0 -2.0782500509096898e-05 -0.01129591864629469 0 -8.3806033777794516e-05 -0.011217283651985016 0 -2.0782500509096898e-05 -0.01129591864629469 0 -3.4107815966409854e-05 -0.010052917785863031 0 5.7028900240129104e-08 -0.011444343434240457 0 -2.0782500509096898e-05 -0.01129591864629469 0 -3.8027764651075507e-08 -0.0095152476048513766 0 -2.0782500509096898e-05 -0.01129591864629469 0 -3.8027764651075507e-08 -0.0095152476048513766 0 -3.4107815966409854e-05 -0.010052917785863031 0 -4.8842031842809391e-06 -0.0092183718928602765 0 -3.8027764651075507e-08 -0.0095152476048513766 0 -3.4107815966409854e-05 -0.010052917785863031 0 -8.5020004735518654e-05 -0.0095836379482059156 0 -8.3806033777794516e-05 -0.011217283651985016 0 -3.4107815966409854e-05 -0.010052917785863031 0 0.0013843912654566018 -0.015760793816500675 0 0.0005809300307090783 -0.016868489353877143 0 0.00035385041769628068 -0.014789240642726079 0 0.0013843912654566018 -0.015760793816500675 0 0.0027161282527701871 -0.014822145682584742 0 0.0030527770502152599 -0.016662434861279191 0 0.0013843912654566018 -0.015760793816500675 0 0.0014604134135141895 -0.018135019616525697 0 0.0030527770502152599 -0.016662434861279191 0 0.00072456866875509501 -0.017968003750921214 0 0.0014604134135141895 -0.018135019616525697 0 0.0005809300307090783 -0.016868489353877143 0 0.0013843912654566018 -0.015760793816500675 0 0.0014604134135141895 -0.018135019616525697 0 0.0005809300307090783 -0.016868489353877143 0 0.0002949142271240912 -0.017313984617078587 0 0.0005809300307090783 -0.016868489353877143 0 5.3186766592972195e-05 -0.015998830437030362 0 0.00065073481627889976 -0.016632920169769312 0 -1.6188823363275781e-05 -0.015352684011326344 0 0.0002949142271240912 -0.017313984617078587 0 -0.00038332954629058809 -0.016622366274757629 0 5.3186766592972195e-05 -0.015998830437030362 0 -0.00018979688037060882 -0.014628032966046142 0 0.00035385041769628068 -0.014789240642726079 0 -2.8774237080068386e-05 -0.0137138506557654 0 0.0005809300307090783 -0.016868489353877143 0 -0.00018979688037060882 -0.014628032966046142 0 0.00035385041769628068 -0.014789240642726079 0 0.00035385041769628068 -0.014789240642726079 0 0.00026532793670767843 -0.014052387783351562 0 -2.8774237080068386e-05 -0.0137138506557654 0 1.2443671883948622e-05 -0.012568307812180398 0 -2.8774237080068386e-05 -0.0137138506557654 0 5.5347857388895027e-05 -0.013581740510245693 0 0.00026532793670767843 -0.014052387783351562 0 -2.8774237080068386e-05 -0.0137138506557654 0 5.5347857388895027e-05 -0.013581740510245693 0 1.9377301368681277e-07 -0.013372645756596011 0 5.5347857388895027e-05 -0.013581740510245693 0 4.0165834964649449e-06 -0.014353738293827975 0 1.2443671883948622e-05 -0.012568307812180398 0 1.9377301368681277e-07 -0.013372645756596011 0 5.5347857388895027e-05 -0.013581740510245693 0 0.00020100103894594317 -0.014616901852751361 0 0.00047562724488116385 -0.014749488526680319 0 1.9377301368681277e-07 -0.013372645756596011 0 4.0165834964649449e-06 -0.014353738293827975 0 2.2864923197690736e-07 -0.015302931170566846 0 4.0165834964649449e-06 -0.014353738293827975 0 2.2864923197690736e-07 -0.015302931170566846 0 0.00016227659556360897 -0.016278424947649708 0 0.00026532793670767843 -0.014052387783351562 0 5.5347857388895027e-05 -0.013581740510245693 0 4.0165834964649449e-06 -0.014353738293827975 0 0.00026532793670767843 -0.014052387783351562 0 4.0165834964649449e-06 -0.014353738293827975 0 0.0008632078462685297 -0.013905712443897321 0 2.2864923197690736e-07 -0.015302931170566846 0 0.00016227659556360897 -0.016278424947649708 0 -3.2987483135171596e-07 -0.017229348722931182 0 0.00035385041769628068 -0.014789240642726079 0 0.00026532793670767843 -0.014052387783351562 0 0.0008632078462685297 -0.013905712443897321 0 0.0013843912654566018 -0.015760793816500675 0 0.00035385041769628068 -0.014789240642726079 0 0.0008632078462685297 -0.013905712443897321 0 0.0013843912654566018 -0.015760793816500675 0 0.0008632078462685297 -0.013905712443897321 0 0.0027161282527701871 -0.014822145682584742 0 0.00047562724488116385 -0.014749488526680319 0 0.001077079756235697 -0.017948564430817601 0 0.00016227659556360897 -0.016278424947649708 0 -3.2987483135171596e-07 -0.017229348722931182 0 -0.00036293255170053595 -0.016122338648828352 0 -1.0247834757265798e-06 -0.017231983677641973 0 0.001077079756235697 -0.017948564430817601 0 -2.2634792093947896e-06 -0.017234894499542384 0 -2.3767924758962021e-05 -0.018896306062562433 0 9.8137671708409954e-07 -0.019113051497385597 0 -2.2634792093947896e-06 -0.017234894499542384 0 -2.3767924758962021e-05 -0.018896306062562433 0 -0.00064071206153888519 -0.019976625252983382 0 -2.3767924758962021e-05 -0.018896306062562433 0 9.8137671708409954e-07 -0.019113051497385597 0 0.00041183702229566019 -0.019923743383197336 0 0.00041183702229566019 -0.019923743383197336 0 0.00014548732184312157 -0.020791221001843992 0 0.0006645691136994078 -0.020731800556302568 0 0.00041183702229566019 -0.019923743383197336 0 -0.00064071206153888519 -0.019976625252983382 0 0.00014548732184312157 -0.020791221001843992 0 -2.3767924758962021e-05 -0.018896306062562433 0 0.00041183702229566019 -0.019923743383197336 0 -0.00064071206153888519 -0.019976625252983382 0 0.0032144361896608992 -0.021174210618502561 0 0.0031675713417428542 -0.020719220950565363 0 0.0026993658244527309 -0.020930084682878682 0 0.001077079756235697 -0.017948564430817601 0 0.001627903344091587 -0.02112491017396375 0 0.001077079756235697 -0.017948564430817601 0 0.0031270889352425562 -0.01877191974768121 0 0.0031675713417428542 -0.020719220950565363 0 0.0026993658244527309 -0.020930084682878682 0 0.0028011919270004891 -0.020445129181124126 0 0.00014548732184312157 -0.020791221001843992 0 0.0008830933516124418 -0.021302601620485393 0 0.0006645691136994078 -0.020731800556302568 0 0.0026993658244527309 -0.020930084682878682 0 0.0025711241715758626 -0.02060168824844575 0 0.0023462232490265899 -0.020900102720078764 0 0.001627903344091587 -0.02112491017396375 0 0.0015485070303620835 -0.021018748594965758 0 0.0026993658244527309 -0.020930084682878682 0 0.0025711241715758626 -0.02060168824844575 0 0.0028011919270004891 -0.020445129181124126 0 0.0025711241715758626 -0.02060168824844575 0 0.0028011919270004891 -0.020445129181124126 0 0.0027876458590184302 -0.020389269179943027 0 0.0028011919270004891 -0.020445129181124126 0 0.0029944167251523407 -0.019676225172950135 0 0.0027876458590184302 -0.020389269179943027 0 0.0031270889352425562 -0.01877191974768121 0 0.003047792686118963 -0.019487616099000724 0 0.0031675713417428542 -0.020719220950565363 0 0.0028011919270004891 -0.020445129181124126 0 0.0029944167251523407 -0.019676225172950135 0 0.0014604134135141895 -0.018135019616525697 0 0.0030527770502152599 -0.016662434861279191 0 0.0029944167251523407 -0.019676225172950135 0 0.0017946242382184897 -0.021055259370828347 0 0.0008830933516124418 -0.021302601620485393 0 0.0013175007657143442 -0.021176862366187058 0 0.0017265130393708512 -0.021060212570975883 0 0.0015485070303620835 -0.021018748594965758 0 0.001460065374978785 -0.021149363672206954 0 0.0017946242382184897 -0.021055259370828347 0 0.0013313308380305177 -0.021168053057256338 0 0.001460065374978785 -0.021149363672206954 0 0.0017946242382184897 -0.021055259370828347 0 0.0013175007657143442 -0.021176862366187058 0 0.0018953633471494933 -0.020985208941364745 0 0.0017946242382184897 -0.021055259370828347 0 0.0022137778389533696 -0.020790783147056794 0 0.0017946242382184897 -0.021055259370828347 0 0.0022137778389533696 -0.020790783147056794 0 0.0023462232490265899 -0.020900102720078764 0 0.0025711241715758626 -0.02060168824844575 0 0.0022137778389533696 -0.020790783147056794 0 0.0023462232490265899 -0.020900102720078764 0 0.0008830933516124418 -0.021302601620485393 0 0.0010078824173677841 -0.021066801027594298 0 0.0013175007657143442 -0.021176862366187058 0 0.0008830933516124418 -0.021302601620485393 0 0.0010078824173677841 -0.021066801027594298 0 0.0006645691136994078 -0.020731800556302568 0 0.0010078824173677841 -0.021066801027594298 0 0.0012029554978553556 -0.021205854548326072 0 0.0010862212836535226 -0.02129348515948333 0 0.0013175007657143442 -0.021176862366187058 0 0.0013325999466219621 -0.02118883761516839 0 0.0012029554978553556 -0.021205854548326072 0 0.0010078824173677841 -0.021066801027594298 0 0.0013175007657143442 -0.021176862366187058 0 0.0012029554978553556 -0.021205854548326072 0 0.001460065374978785 -0.021149363672206954 0 0.0013313308380305177 -0.021168053057256338 0 0.0013325999466219621 -0.02118883761516839 0 0.0013313308380305177 -0.021168053057256338 0 0.0013325999466219621 -0.02118883761516839 0 0.0011962532737038256 -0.021249243112833705 0 0.001460065374978785 -0.021149363672206954 0 0.0013175007657143442 -0.021176862366187058 0 0.0013325999466219621 -0.02118883761516839 0 0.0013325999466219621 -0.02118883761516839 0 0.0011962532737038256 -0.021249243112833705 0 0.0012029554978553556 -0.021205854548326072 0 0.0012029554978553556 -0.021205854548326072 0 0.0010862212836535226 -0.02129348515948333 0 0.001056927519072409 -0.021412768719376807 0 0.0011962532737038256 -0.021249243112833705 0 0.0012029554978553556 -0.021205854548326072 0 0.001056927519072409 -0.021412768719376807 0 0.00063759175724128949 -0.021125960658310527 0 0.00055315995725131284 -0.022071968768272238 0 0.0010862212836535226 -0.02129348515948333 0 0.0010414276662325909 -0.022117983841412173 0 0.001056927519072409 -0.021412768719376807 0 0.0010414276662325909 -0.022117983841412173 0 0.00064821290844362469 -0.020814886147459365 0 0.0010973193448426742 -0.022487973899209091 0 0.0010862212836535226 -0.02129348515948333 0 0.0010414276662325909 -0.022117983841412173 0 0.00064821290844362469 -0.020814886147459365 0 0.0010078824173677841 -0.021066801027594298 0 0.0010862212836535226 -0.02129348515948333 0 0.00064821290844362469 -0.020814886147459365 0 0.00041183702229566019 -0.019923743383197336 0 0.0006645691136994078 -0.020731800556302568 0 0.00064821290844362469 -0.020814886147459365 0 0.0010078824173677841 -0.021066801027594298 0 0.0006645691136994078 -0.020731800556302568 0 0.00064821290844362469 -0.020814886147459365 0 0.00041183702229566019 -0.019923743383197336 0 0.00064821290844362469 -0.020814886147459365 0 1.0832900737185907e-06 -0.020994384600623094 0 9.8137671708409954e-07 -0.019113051497385597 0 0.00041183702229566019 -0.019923743383197336 0 1.0832900737185907e-06 -0.020994384600623094 0 0.00064821290844362469 -0.020814886147459365 0 1.0832900737185907e-06 -0.020994384600623094 0 9.5539849696402141e-05 -0.021600778905830335 0 0.00055315995725131284 -0.022071968768272238 0 0.00041853773743415586 -0.023489740523311715 0 0.0010973193448426742 -0.022487973899209091 0 0.00081421383383684174 -0.024056396758399153 0 0.00095020028860971924 -0.023278536157735473 0 -1.946309873917093e-07 -0.022875012203019636 0 9.5539849696402141e-05 -0.021600778905830335 0 -5.2892529682468128e-05 -0.023041647658044253 0 1.0832900737185907e-06 -0.020994384600623094 0 -1.946309873917093e-07 -0.022875012203019636 0 9.5539849696402141e-05 -0.021600778905830335 0 0.00081421383383684174 -0.024056396758399153 0 0.00043039656237072989 -0.024155076773993273 0 4.957179451597005e-07 -0.024757669489276376 0 -1.946309873917093e-07 -0.022875012203019636 0 -5.2892529682468128e-05 -0.023041647658044253 0 -2.3096972310661578e-07 -0.024756268588809888 0 0.00081421383383684174 -0.024056396758399153 0 0.00043039656237072989 -0.024155076773993273 0 0.00071247435463386345 -0.023673035860891815 0 0.00081421383383684174 -0.024056396758399153 0 0.00071247435463386345 -0.023673035860891815 0 0.00095020028860971924 -0.023278536157735473 0 0.00052202501407324308 -0.023738699112044865 0 0.00078368641917304601 -0.023346403134731148 0 0.00067442849904685226 -0.023008679618255336 0 0.00052202501407324308 -0.023738699112044865 0 0.00031370462120490988 -0.023794462161575412 0 0.00067442849904685226 -0.023008679618255336 0 0.00071247435463386345 -0.023673035860891815 0 0.00078368641917304601 -0.023346403134731148 0 0.00095020028860971924 -0.023278536157735473 0 0.00043039656237072989 -0.024155076773993273 0 0.00052202501407324308 -0.023738699112044865 0 0.00071247435463386345 -0.023673035860891815 0 0.00052202501407324308 -0.023738699112044865 0 0.00071247435463386345 -0.023673035860891815 0 0.00078368641917304601 -0.023346403134731148 0 0.00078368641917304601 -0.023346403134731148 0 0.00098547287079922921 -0.023174421231977566 0 0.00067442849904685226 -0.023008679618255336 0 0.00078368641917304601 -0.023346403134731148 0 0.00098547287079922921 -0.023174421231977566 0 0.00095020028860971924 -0.023278536157735473 0 0.0010414276662325909 -0.022117983841412173 0 0.0007956875173734852 -0.021530075462239669 0 0.001056927519072409 -0.021412768719376807 0 0.001144481843274631 -0.022306620544810613 0 0.00073834080564664302 -0.022199132388760184 0 0.0010414276662325909 -0.022117983841412173 0 0.0010973193448426742 -0.022487973899209091 0 0.00098547287079922921 -0.023174421231977566 0 0.0010973193448426742 -0.022487973899209091 0 0.00098547287079922921 -0.023174421231977566 0 0.00095020028860971924 -0.023278536157735473 0 -8.9784114493884689e-05 -0.025537133043185587 0 4.957179451597005e-07 -0.024757669489276376 0 -5.2793355156919524e-07 -0.027134161904842909 0 -8.9784114493884689e-05 -0.025537133043185587 0 -0.00013408917332724798 -0.024120753661189109 0 -0.00013875262529061973 -0.026794579084112011 0 -0.0010362980836903695 -0.026575789378244043 0 6.2335224023663937e-05 -0.026406306805230859 0 -8.9784114493884689e-05 -0.025537133043185587 0 0.0001809789799755427 -0.024435413819971261 0 -0.00013408917332724798 -0.024120753661189109 0 0.00041853773743415586 -0.023489740523311715 0 2.4653844646959799e-07 -0.024756353309390661 0 -8.9784114493884689e-05 -0.025537133043185587 0 0.0001809789799755427 -0.024435413819971261 0 4.957179451597005e-07 -0.024757669489276376 0 0.00043039656237072989 -0.024155076773993273 0 0.00052202501407324308 -0.023738699112044865 0 0.0001809789799755427 -0.024435413819971261 0 0.00043039656237072989 -0.024155076773993273 0 0.0001809789799755427 -0.024435413819971261 0 4.957179451597005e-07 -0.024757669489276376 0 -0.0010362980836903695 -0.026575789378244043 0 0.0013981155578949912 -0.023491404036723694 0 0.00031370462120490988 -0.023794462161575412 0 -0.00013408917332724798 -0.024120753661189109 0 0.00067442849904685226 -0.023008679618255336 0 0.00052202501407324308 -0.023738699112044865 0 0.0001809789799755427 -0.024435413819971261 0 0.00031370462120490988 -0.023794462161575412 0 0.0001809789799755427 -0.024435413819971261 0 0.00031370462120490988 -0.023794462161575412 0 -0.00013408917332724798 -0.024120753661189109 0 -0.0008904099185553997 -0.028100228420761691 0 -0.00087985696877476618 -0.028875062726915778 0 -0.00043315608424252417 -0.028622571432307758 0 -0.0012848998639982036 -0.028124809564782444 0 -0.0008904099185553997 -0.028100228420761691 0 -0.0010967046349588476 -0.028349984000290457 0 -0.00088401108986805742 -0.027998864442745665 0 -0.0010197871932985205 -0.029022846374036331 0 -0.0012848998639982036 -0.028124809564782444 0 -0.0008904099185553997 -0.028100228420761691 0 -0.00013875262529061973 -0.026794579084112011 0 -0.00087985696877476618 -0.028875062726915778 0 -0.00061251279874228039 -0.029307833370038991 0 -0.00029818951157077801 -0.029141888170276634 0 -0.0010197871932985205 -0.029022846374036331 0 0.001384583037718364 -0.026642065275827537 0 -0.0012848998639982036 -0.028124809564782444 0 -0.0010967046349588476 -0.028349984000290457 0 -0.0012515710091713971 -0.028276484873036918 0 -0.0010967046349588476 -0.028349984000290457 0 -0.0012485290117324871 -0.028363730390732003 0 -0.0011146160153741064 -0.028447010679116997 0 -0.0012515710091713971 -0.028276484873036918 0 -0.0012485290117324871 -0.028363730390732003 0 -0.0013229522772957925 -0.028273325016910399 0 -0.0012848998639982036 -0.028124809564782444 0 -0.0012515710091713971 -0.028276484873036918 0 -0.0013229522772957925 -0.028273325016910399 0 -0.0010967046349588476 -0.028349984000290457 0 -0.0012515710091713971 -0.028276484873036918 0 -0.0012485290117324871 -0.028363730390732003 0 0.0027025618295816347 -0.024187712990484594 0 0.0013981155578949912 -0.023491404036723694 0 0.0065703703182174869 -0.019681835918975876 0 0.0068271772488821816 -0.021134911903992047 0 0.0052084729533473902 -0.020370258422860874 0 0.0068271772488821816 -0.021134911903992047 0 0.0052084729533473902 -0.020370258422860874 0 0.0062001564731116645 -0.022318409150463184 0 0.0027025618295816347 -0.024187712990484594 0 0.001384583037718364 -0.026642065275827537 0 0.0065703703182174869 -0.019681835918975876 0 0.0068271772488821816 -0.021134911903992047 0 0.0080741366731532701 -0.020907131675301931 0 -0.00087985696877476618 -0.028875062726915778 0 -0.00090250849360075174 -0.029410519234791745 0 -0.00061251279874228039 -0.029307833370038991 0 0.0068271772488821816 -0.021134911903992047 0 0.0080741366731532701 -0.020907131675301931 0 0.0076800294973027256 -0.022713952106896949 0 -0.00090250849360075174 -0.029410519234791745 0 -0.00061251279874228039 -0.029307833370038991 0 -0.00051646202822691937 -0.029666403135275323 0 0.001384583037718364 -0.026642065275827537 0 0.00077463526724685212 -0.03109372013951427 0 0.0007956875173734852 -0.021530075462239669 0 0.00096557773942680767 -0.021303487335283897 0 0.00055698644987812085 -0.021339202154237472 0 0.00096557773942680767 -0.021303487335283897 0 0.00055698644987812085 -0.021339202154237472 0 0.00094205516008235386 -0.021076566626019377 0 0.0013313308380305177 -0.021168053057256338 0 0.00096557773942680767 -0.021303487335283897 0 0.00094205516008235386 -0.021076566626019377 0 0.0013313308380305177 -0.021168053057256338 0 0.0011962532737038256 -0.021249243112833705 0 0.00096557773942680767 -0.021303487335283897 0 0.0011962532737038256 -0.021249243112833705 0 0.001056927519072409 -0.021412768719376807 0 0.00096557773942680767 -0.021303487335283897 0 0.0007956875173734852 -0.021530075462239669 0 0.001056927519072409 -0.021412768719376807 0 0.00096557773942680767 -0.021303487335283897 0 0.00073834080564664302 -0.022199132388760184 0 0.0013981155578949912 -0.023491404036723694 0 0.0049558028857221654 -0.018544180185168214 0 0.0052084729533473902 -0.020370258422860874 0 0.0030903642558872874 -0.019864021410961559 0 0.0065703703182174869 -0.019681835918975876 0 0.0049558028857221654 -0.018544180185168214 0 0.0052084729533473902 -0.020370258422860874 0 0.0013981155578949912 -0.023491404036723694 0 0.0025115477877844777 -0.020098890707404563 0 0.0052084729533473902 -0.020370258422860874 0 0.0038077317713915062 -0.020960119483684408 0 0.0030903642558872874 -0.019864021410961559 0 0.0052084729533473902 -0.020370258422860874 0 0.0038077317713915062 -0.020960119483684408 0 0.0062001564731116645 -0.022318409150463184 0 0.0017946242382184897 -0.021055259370828347 0 0.0013313308380305177 -0.021168053057256338 0 0.00094205516008235386 -0.021076566626019377 0 0.0018953633471494933 -0.020985208941364745 0 0.0017946242382184897 -0.021055259370828347 0 0.00094205516008235386 -0.021076566626019377 0 0.0038077317713915062 -0.020960119483684408 0 0.0030903642558872874 -0.019864021410961559 0 0.0027494269593590481 -0.020899262730643086 0 0.0016661322054378922 -0.021029357841236069 0 0.0025115477877844777 -0.020098890707404563 0 0.0018953633471494933 -0.020985208941364745 0 0.0030903642558872874 -0.019864021410961559 0 0.0027494269593590481 -0.020899262730643086 0 0.0018953633471494933 -0.020985208941364745 0 0.0027494269593590481 -0.020899262730643086 0 0.0023764294822757365 -0.021686760172986014 0 0.005197704798951432 -0.023104130501786457 0 0.0056729743050649862 -0.023413411429697117 0 0.0052807170135027734 -0.023673262647464277 0 0.0038077317713915062 -0.020960119483684408 0 0.0027494269593590481 -0.020899262730643086 0 0.0023764294822757365 -0.021686760172986014 0 0.0039244720470937083 -0.022342669185248805 0 0.0061413107026686798 -0.022299221569065743 0 0.0061526904878942846 -0.023489462689383723 0 0.0056729743050649862 -0.023413411429697117 0 0.0062001564731116645 -0.022318409150463184 0 0.005197704798951432 -0.023104130501786457 0 0.0056729743050649862 -0.023413411429697117 0 0.0062001564731116645 -0.022318409150463184 0 0.0038077317713915062 -0.020960119483684408 0 0.0023764294822757365 -0.021686760172986014 0 0.0062001564731116645 -0.022318409150463184 0 0.0047141506451119104 -0.026359754775902272 0 0.0042929370592717665 -0.026623756037499779 0 0.0061526904878942846 -0.023489462689383723 0 0.0056729743050649862 -0.023413411429697117 0 0.0056885455095679743 -0.024356149949661919 0 0.002540466140212215 -0.029757566486455361 0 0.0033225563079303578 -0.028800903754303751 0 0.0026295398110338201 -0.028838750002335298 0 0.0056885455095679743 -0.024356149949661919 0 0.0052807170135027734 -0.023673262647464277 0 0.0046361641966398701 -0.023878866522304476 0 0.005197704798951432 -0.023104130501786457 0 0.0052807170135027734 -0.023673262647464277 0 0.0046361641966398701 -0.023878866522304476 0 0.0056729743050649862 -0.023413411429697117 0 0.0056885455095679743 -0.024356149949661919 0 0.0052807170135027734 -0.023673262647464277 0 0.001384583037718364 -0.026642065275827537 0 0.0037989077604946857 -0.027991203489619844 0 0.0021381956430582007 -0.02884944297885348 0 0.0022138312057462506 -0.028390141870336793 0 0.0018045721498169741 -0.028629787950948934 0 0.0026483558269478798 -0.032737826943104523 0 0.0016260750262621284 -0.031566607166256484 0 0.0016584342485854169 -0.032623288369305628 0 0.0026483558269478798 -0.032737826943104523 0 0.0016584342485854169 -0.032623288369305628 0 0.0016651169681842252 -0.033322277333553849 0 0.0037989077604946857 -0.027991203489619844 0 0.00077463526724685212 -0.03109372013951427 0 0.0047141506451119104 -0.026359754775902272 0 0.0037989077604946857 -0.027991203489619844 0 0.0061526904878942846 -0.023489462689383723 0 0.0076800294973027256 -0.022713952106896949 0 0.0062001564731116645 -0.022318409150463184 0 0.0068271772488821816 -0.021134911903992047 0 0.0076800294973027256 -0.022713952106896949 0 0.0062001564731116645 -0.022318409150463184 0 0.002540466140212215 -0.029757566486455361 0 0.0026491517929707765 -0.029690218477880968 0 0.0024426941867191562 -0.030047258885985681 0 0.0037989077604946857 -0.027991203489619844 0 0.0021329482303976345 -0.031526906724876305 0 0.0026483558269478798 -0.032737826943104523 0 0.0016260750262621284 -0.031566607166256484 0 0.0024426941867191562 -0.030047258885985681 0 0.0016260750262621284 -0.031566607166256484 0 0.0024426941867191562 -0.030047258885985681 0 0.0017810339274923852 -0.030032749150663573 0 0.0024426941867191562 -0.030047258885985681 0 0.0022111131938817859 -0.029072034298086084 0 0.0026295398110338201 -0.028838750002335298 0 0.002540466140212215 -0.029757566486455361 0 0.0024426941867191562 -0.030047258885985681 0 0.0026295398110338201 -0.028838750002335298 0 0.0022111131938817859 -0.029072034298086084 0 0.0026295398110338201 -0.028838750002335298 0 0.0023230452312170843 -0.028174709782373408 0 0.0022111131938817859 -0.029072034298086084 0 0.0017810339274923852 -0.030032749150663573 0 0.0018287662787081084 -0.029610535374410583 0 0.0024426941867191562 -0.030047258885985681 0 0.0022111131938817859 -0.029072034298086084 0 0.0017810339274923852 -0.030032749150663573 0 0.0033225563079303578 -0.028800903754303751 0 0.0034050059250798539 -0.027570213145078258 0 0.0043650887570784464 -0.026114292468802688 0 0.0042929370592717665 -0.026623756037499779 0 0.0043053101989148903 -0.026291989602323481 0 0.0033225563079303578 -0.028800903754303751 0 0.0026295398110338201 -0.028838750002335298 0 0.0034050059250798539 -0.027570213145078258 0 0.0026295398110338201 -0.028838750002335298 0 0.0034050059250798539 -0.027570213145078258 0 0.0023230452312170843 -0.028174709782373408 0 0.0034050059250798539 -0.027570213145078258 0 0.0043650887570784464 -0.026114292468802688 0 0.0039775928366529234 -0.026659110657223498 0 0.0034050059250798539 -0.027570213145078258 0 0.0039775928366529234 -0.026659110657223498 0 0.0023230452312170843 -0.028174709782373408 0 0.0039346606421064674 -0.025565080290398359 0 0.0038660486673555328 -0.026077891441652519 0 0.0039775928366529234 -0.026659110657223498 0 0.0043650887570784464 -0.026114292468802688 0 0.0039346606421064674 -0.025565080290398359 0 0.0039775928366529234 -0.026659110657223498 0 0.0056885455095679743 -0.024356149949661919 0 0.0043650887570784464 -0.026114292468802688 0 0.0046361641966398701 -0.023878866522304476 0 0.0043650887570784464 -0.026114292468802688 0 0.0039639402926306827 -0.02452114285878065 0 0.0046361641966398701 -0.023878866522304476 0 0.0043650887570784464 -0.026114292468802688 0 0.0039639402926306827 -0.02452114285878065 0 0.0039346606421064674 -0.025565080290398359 0 0.0039639402926306827 -0.02452114285878065 0 0.0039346606421064674 -0.025565080290398359 0 0.0035728700609111309 -0.024082645397231955 0 0.0039346606421064674 -0.025565080290398359 0 0.0031585328588806588 -0.024925617148601385 0 0.0038660486673555328 -0.026077891441652519 0 0.0018594920466287234 -0.025048746689630457 0 0.0031585328588806588 -0.024925617148601385 0 0.0020750879933743127 -0.023838109346887432 0 0.0018594920466287234 -0.025048746689630457 0 0.0031585328588806588 -0.024925617148601385 0 0.0028206338825987245 -0.025939176257810566 0 0.0031585328588806588 -0.024925617148601385 0 0.0020750879933743127 -0.023838109346887432 0 0.003116330041896799 -0.023013796838708064 0 0.0020750879933743127 -0.023838109346887432 0 0.003116330041896799 -0.023013796838708064 0 0.0022222011893500947 -0.022326854043604339 0 0.0031585328588806588 -0.024925617148601385 0 0.0035728700609111309 -0.024082645397231955 0 0.003116330041896799 -0.023013796838708064 0 0.0039346606421064674 -0.025565080290398359 0 0.0031585328588806588 -0.024925617148601385 0 0.0035728700609111309 -0.024082645397231955 0 0.003116330041896799 -0.023013796838708064 0 0.002851811085817293 -0.021161891036203553 0 0.0039153913148541842 -0.022945626733941266 0 0.0035728700609111309 -0.024082645397231955 0 0.003116330041896799 -0.023013796838708064 0 0.0039153913148541842 -0.022945626733941266 0 0.003116330041896799 -0.023013796838708064 0 0.0022222011893500947 -0.022326854043604339 0 0.002851811085817293 -0.021161891036203553 0 0.0018372851291927131 -0.020535772966623202 0 0.0022222011893500947 -0.022326854043604339 0 0.002851811085817293 -0.021161891036203553 0 0.0018372851291927131 -0.020535772966623202 0 0.002851811085817293 -0.021161891036203553 0 0.0029944167251523407 -0.019676225172950135 0 0.002851811085817293 -0.021161891036203553 0 0.0029944167251523407 -0.019676225172950135 0 0.0027876458590184302 -0.020389269179943027 0 0.002851811085817293 -0.021161891036203553 0 0.0027876458590184302 -0.020389269179943027 0 0.0023362733497361236 -0.020540320042805992 0 0.0025711241715758626 -0.02060168824844575 0 0.0027876458590184302 -0.020389269179943027 0 0.0023362733497361236 -0.020540320042805992 0 0.0027338785780641286 -0.02127121917285069 0 0.0030768165649131055 -0.021750679262886225 0 0.0025711241715758626 -0.02060168824844575 0 0.0022137778389533696 -0.020790783147056794 0 0.0023362733497361236 -0.020540320042805992 0 0.0018953633471494933 -0.020985208941364745 0 0.0022137778389533696 -0.020790783147056794 0 0.0023362733497361236 -0.020540320042805992 0 0.0039244720470937083 -0.022342669185248805 0 0.0030768165649131055 -0.021750679262886225 0 0.005197704798951432 -0.023104130501786457 0 0.0039153913148541842 -0.022945626733941266 0 0.0046361641966398701 -0.023878866522304476 0 0.0018953633471494933 -0.020985208941364745 0 0.0023764294822757365 -0.021686760172986014 0 0.0023362733497361236 -0.020540320042805992 0 0.0039639402926306827 -0.02452114285878065 0 0.0039153913148541842 -0.022945626733941266 0 0.0046361641966398701 -0.023878866522304476 0 0.0039639402926306827 -0.02452114285878065 0 0.0035728700609111309 -0.024082645397231955 0 0.0039153913148541842 -0.022945626733941266 0 -3.2170984995031657e-07 -0.034998605782593999 0 -7.7457657431938317e-05 -0.03342532249582169 0 4.7302522948950966e-07 -0.030429699496454968 0 -0.00013213614332854728 -0.034628929015280599 0 -0.00019274062773155885 -0.034419911492023898 0 -7.8347801745936495e-08 -0.034999048307413586 0 -0.00013213614332854728 -0.034628929015280599 0 -7.8347801745936495e-08 -0.034999048307413586 0 -1.5471287593608651e-07 -0.034999437180223081 0 -0.00013213614332854728 -0.034628929015280599 0 -0.00019274062773155885 -0.034419911492023898 0 -0.00027377499702275609 -0.034199704664409393 0 -0.00014847573502016034 -0.034783805607479595 0 3.1356751798111965e-07 -0.034999711365170341 0 -7.1295084423505907e-05 -0.03440142600263265 0 -0.00018689564922432186 -0.034592806183471256 0 -8.5047509178125074e-08 -0.034999842582728112 0 3.1356751798111965e-07 -0.034999711365170341 0 -3.2170984995031657e-07 -0.034998605782593999 0 -7.1295084423505907e-05 -0.03440142600263265 0 -3.2170984995031657e-07 -0.034998605782593999 0 -7.7457657431938317e-05 -0.03342532249582169 0 -7.1295084423505907e-05 -0.03440142600263265 0 -7.1295084423505907e-05 -0.03440142600263265 0 -0.00091190148408948411 -0.034154607463108305 0 -0.0008917627482728528 -0.034701849064646427 0 -7.7457657431938317e-05 -0.03342532249582169 0 -0.00010627674492889104 -0.030642166370182747 0 4.7302522948950966e-07 -0.030429699496454968 0 -7.7457657431938317e-05 -0.03342532249582169 0 -7.1295084423505907e-05 -0.03440142600263265 0 -0.00091190148408948411 -0.034154607463108305 0 -1.0301551165784535e-05 -0.033189483967438246 0 -0.00051439673927940752 -0.032438643412682711 0 -0.00051439673927940752 -0.032438643412682711 0 -0.00020684153350874823 -0.031821222139975354 0 -0.00091190148408948411 -0.034154607463108305 0 -0.0008917627482728528 -0.034701849064646427 0 -0.0015705361148898554 -0.034555383887594916 0 -0.00019274062773155885 -0.034419911492023898 0 -0.00029590948350265682 -0.034160983436956428 0 -0.00027377499702275609 -0.034199704664409393 0 -0.00018689564922432186 -0.034592806183471256 0 -0.00068373757470599863 -0.034710944739938326 0 -0.00014847573502016034 -0.034783805607479595 0 -7.1295084423505907e-05 -0.03440142600263265 0 -0.0008917627482728528 -0.034701849064646427 0 -0.00029590948350265682 -0.034160983436956428 0 -0.00027377499702275609 -0.034199704664409393 0 -0.00024067527298557648 -0.033928146232067392 0 -0.00029590948350265682 -0.034160983436956428 0 -0.00024067527298557648 -0.033928146232067392 0 -0.00016650533580977732 -0.034023377174707867 0 -0.00024067527298557648 -0.033928146232067392 0 1.6223312981908931e-05 -0.033788211966756437 0 -0.00016650533580977732 -0.034023377174707867 0 -0.00024067527298557648 -0.033928146232067392 0 1.6223312981908931e-05 -0.033788211966756437 0 -0.00019665559133082519 -0.033590868647284541 0 1.6223312981908931e-05 -0.033788211966756437 0 0.00050336382064216734 -0.03388263065168725 0 0.0001512399000853615 -0.033392250364691164 0 -0.00020684153350874823 -0.031821222139975354 0 0.00037632925200873653 -0.031537728837353854 0 1.6223312981908931e-05 -0.033788211966756437 0 -6.5919013736845663e-05 -0.034178321492707317 0 0.00050336382064216734 -0.03388263065168725 0 0.00031380565723826859 -0.028920778170959421 0 0.0005036582564170158 -0.028964283935321071 0 0.00020176586351808778 -0.029173657139188618 0 0.00032536176736320063 -0.029316540112634331 0 -0.00020684153350874823 -0.031821222139975354 0 -0.00029590948350265682 -0.034160983436956428 0 -6.5919013736845663e-05 -0.034178321492707317 0 -0.00016650533580977732 -0.034023377174707867 0 -0.00068373757470599863 -0.034710944739938326 0 -0.00020684153350874823 -0.031821222139975354 0 1.6223312981908931e-05 -0.033788211966756437 0 -6.5919013736845663e-05 -0.034178321492707317 0 -0.00016650533580977732 -0.034023377174707867 0 -0.00010627674492889104 -0.030642166370182747 0 0.00014369640813148999 -0.029165830476767522 0 0.00021142575910991623 -0.029285059597078486 0 4.7302522948950966e-07 -0.030429699496454968 0 0.00017845384567854634 -0.028622003670617506 0 -5.2793355156919524e-07 -0.027134161904842909 0 -0.00010627674492889104 -0.030642166370182747 0 4.7302522948950966e-07 -0.030429699496454968 0 0.00021142575910991623 -0.029285059597078486 0 4.7302522948950966e-07 -0.030429699496454968 0 0.00017845384567854634 -0.028622003670617506 0 0.00021142575910991623 -0.029285059597078486 0 0.00017845384567854634 -0.028622003670617506 0 0.00021142575910991623 -0.029285059597078486 0 0.00023648414928606373 -0.028660070924447466 0 0.00031380565723826859 -0.028920778170959421 0 0.00021142575910991623 -0.029285059597078486 0 0.00023648414928606373 -0.028660070924447466 0 0.00031380565723826859 -0.028920778170959421 0 0.00014369640813148999 -0.029165830476767522 0 0.00021142575910991623 -0.029285059597078486 0 0.00017845384567854634 -0.028622003670617506 0 0.00023648414928606373 -0.028660070924447466 0 4.6880696270394657e-05 -0.027821854278341829 0 0.00031380565723826859 -0.028920778170959421 0 0.00023648414928606373 -0.028660070924447466 0 0.00014932932663073677 -0.02887140920433132 0 0.00023648414928606373 -0.028660070924447466 0 -2.6620142983517305e-06 -0.028464464531440518 0 0.00014932932663073677 -0.02887140920433132 0 0.00023648414928606373 -0.028660070924447466 0 4.6880696270394657e-05 -0.027821854278341829 0 -2.6620142983517305e-06 -0.028464464531440518 0 0.00017845384567854634 -0.028622003670617506 0 -5.2793355156919524e-07 -0.027134161904842909 0 4.6880696270394657e-05 -0.027821854278341829 0 -8.9784114493884689e-05 -0.025537133043185587 0 -0.00013875262529061973 -0.026794579084112011 0 -5.2793355156919524e-07 -0.027134161904842909 0 -0.0008904099185553997 -0.028100228420761691 0 -0.00013875262529061973 -0.026794579084112011 0 -0.00025244885931734781 -0.028042641695065772 0 -0.00013875262529061973 -0.026794579084112011 0 -5.2793355156919524e-07 -0.027134161904842909 0 4.6880696270394657e-05 -0.027821854278341829 0 -0.00013875262529061973 -0.026794579084112011 0 4.6880696270394657e-05 -0.027821854278341829 0 -0.00025244885931734781 -0.028042641695065772 0 4.6880696270394657e-05 -0.027821854278341829 0 -0.00025244885931734781 -0.028042641695065772 0 -2.6620142983517305e-06 -0.028464464531440518 0 -0.00025244885931734781 -0.028042641695065772 0 -2.6620142983517305e-06 -0.028464464531440518 0 -0.00043315608424252417 -0.028622571432307758 0 -2.6620142983517305e-06 -0.028464464531440518 0 -0.00043315608424252417 -0.028622571432307758 0 -0.00014215276088847396 -0.028783288556651732 0 -0.0008904099185553997 -0.028100228420761691 0 -0.00025244885931734781 -0.028042641695065772 0 -0.00043315608424252417 -0.028622571432307758 0 -0.00043315608424252417 -0.028622571432307758 0 -0.00029818951157077801 -0.029141888170276634 0 -0.00014215276088847396 -0.028783288556651732 0 -0.00087985696877476618 -0.028875062726915778 0 -0.00043315608424252417 -0.028622571432307758 0 -0.00029818951157077801 -0.029141888170276634 0 -0.00029818951157077801 -0.029141888170276634 0 -0.00014215276088847396 -0.028783288556651732 0 0.00014932932663073677 -0.02887140920433132 0 -0.00029818951157077801 -0.029141888170276634 0 0.00014932932663073677 -0.02887140920433132 0 0.00020176586351808778 -0.029173657139188618 0 -2.6620142983517305e-06 -0.028464464531440518 0 -0.00014215276088847396 -0.028783288556651732 0 0.00014932932663073677 -0.02887140920433132 0 0.00031380565723826859 -0.028920778170959421 0 0.00014932932663073677 -0.02887140920433132 0 0.00020176586351808778 -0.029173657139188618 0 0.00050336382064216734 -0.03388263065168725 0 0.000578559659017802 -0.033270585007742895 0 0.0001512399000853615 -0.033392250364691164 0 0.00050336382064216734 -0.03388263065168725 0 0.0012209443793849224 -0.033014851287045892 0 0.000578559659017802 -0.033270585007742895 0 0.00037632925200873653 -0.031537728837353854 0 0.00077463526724685212 -0.03109372013951427 0 0.00050336382064216734 -0.03388263065168725 0 0.0015306948811843175 -0.033222973138135312 0 0.0012209443793849224 -0.033014851287045892 0 -0.00061251279874228039 -0.029307833370038991 0 -0.00029818951157077801 -0.029141888170276634 0 -0.00051646202822691937 -0.029666403135275323 0 -0.00029818951157077801 -0.029141888170276634 0 0.00020176586351808778 -0.029173657139188618 0 -0.00051646202822691937 -0.029666403135275323 0 0.001209943848572425 -0.032463035013141253 0 0.0012209443793849224 -0.033014851287045892 0 0.00083242441693097728 -0.032754506741843721 0 0.001209943848572425 -0.032463035013141253 0 0.0016584342485854169 -0.032623288369305628 0 0.0012209443793849224 -0.033014851287045892 0 0.0016584342485854169 -0.032623288369305628 0 0.0016651169681842252 -0.033322277333553849 0 0.0012209443793849224 -0.033014851287045892 0 0.00077463526724685212 -0.03109372013951427 0 0.0017330104751929016 -0.032590455353699262 0 0.0012209443793849224 -0.033014851287045892 0 0.000578559659017802 -0.033270585007742895 0 0.00083242441693097728 -0.032754506741843721 0 0.000578559659017802 -0.033270585007742895 0 0.00038445908988589351 -0.03282829204404316 0 0.0001512399000853615 -0.033392250364691164 0 0.000578559659017802 -0.033270585007742895 0 0.00038445908988589351 -0.03282829204404316 0 0.00083242441693097728 -0.032754506741843721 0 0.00038445908988589351 -0.03282829204404316 0 0.00083242441693097728 -0.032754506741843721 0 0.00087994192921866043 -0.032189021953267317 0 0.00087994192921866043 -0.032189021953267317 0 0.0010513022057675723 -0.031308855709386046 0 0.00032566093999645141 -0.03215296122139237 0 0.00038445908988589351 -0.03282829204404316 0 0.00087994192921866043 -0.032189021953267317 0 0.00032566093999645141 -0.03215296122139237 0 0.0016260750262621284 -0.031566607166256484 0 0.001209943848572425 -0.032463035013141253 0 0.00087994192921866043 -0.032189021953267317 0 0.0016260750262621284 -0.031566607166256484 0 0.00087994192921866043 -0.032189021953267317 0 0.0010513022057675723 -0.031308855709386046 0 0.001209943848572425 -0.032463035013141253 0 0.00083242441693097728 -0.032754506741843721 0 0.00087994192921866043 -0.032189021953267317 0 0.0016260750262621284 -0.031566607166256484 0 0.001209943848572425 -0.032463035013141253 0 0.0016584342485854169 -0.032623288369305628 0 0.0016260750262621284 -0.031566607166256484 0 0.0017810339274923852 -0.030032749150663573 0 0.0010513022057675723 -0.031308855709386046 0 0.0017810339274923852 -0.030032749150663573 0 0.0011287676934395308 -0.030484723302589722 0 0.0018287662787081084 -0.029610535374410583 0 0.0017810339274923852 -0.030032749150663573 0 0.0010513022057675723 -0.031308855709386046 0 0.0011287676934395308 -0.030484723302589722 0 0.0011287676934395308 -0.030484723302589722 0 0.00021032349680065327 -0.030685410963954544 0 0.00090855678375344326 -0.029763441130052064 0 0.0011287676934395308 -0.030484723302589722 0 0.00054212899267344389 -0.031339913697799135 0 0.00021032349680065327 -0.030685410963954544 0 0.0010513022057675723 -0.031308855709386046 0 0.0011287676934395308 -0.030484723302589722 0 0.00054212899267344389 -0.031339913697799135 0 0.0010513022057675723 -0.031308855709386046 0 0.00054212899267344389 -0.031339913697799135 0 0.00032566093999645141 -0.03215296122139237 0 0.00054212899267344389 -0.031339913697799135 0 0.00032566093999645141 -0.03215296122139237 0 -0.0003158529526473637 -0.03231592704831894 0 0.00032566093999645141 -0.03215296122139237 0 -0.0003158529526473637 -0.03231592704831894 0 -0.00020277945646365349 -0.033004763942571617 0 -0.0003158529526473637 -0.03231592704831894 0 0.00021032349680065327 -0.030685410963954544 0 -0.001415301332176058 -0.030807974847624243 0 0.00054212899267344389 -0.031339913697799135 0 -0.0003158529526473637 -0.03231592704831894 0 0.00021032349680065327 -0.030685410963954544 0 -0.00033406806963361558 -0.032435131684699976 0 -0.00092306825973709856 -0.032072792090950819 0 -0.0003158529526473637 -0.03231592704831894 0 -0.00030482557647403479 -0.033532824655111114 0 -0.00025072785059398773 -0.033102724905489898 0 -0.0003158529526473637 -0.03231592704831894 0 -0.00025072785059398773 -0.033102724905489898 0 -0.00020277945646365349 -0.033004763942571617 0 -0.00025072785059398773 -0.033102724905489898 0 -0.00020277945646365349 -0.033004763942571617 0 -0.0002425456166507431 -0.033532449161614096 0 0.00038445908988589351 -0.03282829204404316 0 0.00032566093999645141 -0.03215296122139237 0 -0.00020277945646365349 -0.033004763942571617 0 0.00038445908988589351 -0.03282829204404316 0 -0.00020277945646365349 -0.033004763942571617 0 0.0001512399000853615 -0.033392250364691164 0 1.6223312981908931e-05 -0.033788211966756437 0 0.0001512399000853615 -0.033392250364691164 0 -0.00019665559133082519 -0.033590868647284541 0 -0.00020277945646365349 -0.033004763942571617 0 0.0001512399000853615 -0.033392250364691164 0 -0.00019665559133082519 -0.033590868647284541 0 -0.00020277945646365349 -0.033004763942571617 0 -0.00019665559133082519 -0.033590868647284541 0 -0.0002742887416148047 -0.033804794690116609 0 -0.00024067527298557648 -0.033928146232067392 0 -0.00019665559133082519 -0.033590868647284541 0 -0.0002742887416148047 -0.033804794690116609 0 -0.00027377499702275609 -0.034199704664409393 0 -0.00024067527298557648 -0.033928146232067392 0 -0.0002742887416148047 -0.033804794690116609 0 -0.00027377499702275609 -0.034199704664409393 0 -0.0002742887416148047 -0.033804794690116609 0 -0.0002244518895649288 -0.034241832830444172 0 -0.00013213614332854728 -0.034628929015280599 0 -0.00027377499702275609 -0.034199704664409393 0 -0.0002244518895649288 -0.034241832830444172 0 -0.0002742887416148047 -0.033804794690116609 0 -0.0002244518895649288 -0.034241832830444172 0 -0.00022345290761180978 -0.034010241266248652 0 -0.0002742887416148047 -0.033804794690116609 0 -0.0002425456166507431 -0.033532449161614096 0 -0.00022345290761180978 -0.034010241266248652 0 -0.00020277945646365349 -0.033004763942571617 0 -0.0002742887416148047 -0.033804794690116609 0 -0.0002425456166507431 -0.033532449161614096 0 -0.0002425456166507431 -0.033532449161614096 0 -0.00012402662043219413 -0.033738012478022772 0 -0.00022345290761180978 -0.034010241266248652 0 -0.00025072785059398773 -0.033102724905489898 0 -0.0002425456166507431 -0.033532449161614096 0 -0.00012402662043219413 -0.033738012478022772 0 -0.00030482557647403479 -0.033532824655111114 0 -0.00025072785059398773 -0.033102724905489898 0 -0.00012402662043219413 -0.033738012478022772 0 -0.00030482557647403479 -0.033532824655111114 0 -0.00012402662043219413 -0.033738012478022772 0 -0.00013322914582842755 -0.033809972492815303 0 -0.00012358534178819137 -0.033869289415368563 0 -0.00022383001840892134 -0.034308675379315534 0 -0.00022336835910074913 -0.033742454998976046 0 -0.00012402662043219413 -0.033738012478022772 0 -0.00012358534178819137 -0.033869289415368563 0 -0.00022383001840892134 -0.034308675379315534 0 -0.00012402662043219413 -0.033738012478022772 0 -0.00022345290761180978 -0.034010241266248652 0 -0.00022383001840892134 -0.034308675379315534 0 -0.00022345290761180978 -0.034010241266248652 0 -0.00022383001840892134 -0.034308675379315534 0 -0.0001369356301192427 -0.034547872108489149 0 -0.00022383001840892134 -0.034308675379315534 0 -5.1625997232609317e-05 -0.034757108245926059 0 -0.0001369356301192427 -0.034547872108489149 0 -0.00022383001840892134 -0.034308675379315534 0 -5.1625997232609317e-05 -0.034757108245926059 0 -0.00012455948696665873 -0.034995239728732024 0 -0.00029371441551613386 -0.034288001720584708 0 -0.00013537371430354022 -0.034492846275973071 0 -5.1625997232609317e-05 -0.034757108245926059 0 -5.6160448098958514e-08 -0.034999200688746256 0 2.4831949293209104e-08 -0.034999998687183557 0 -5.1625997232609317e-05 -0.034757108245926059 0 -5.6160448098958514e-08 -0.034999200688746256 0 -0.0001369356301192427 -0.034547872108489149 0 -5.6160448098958514e-08 -0.034999200688746256 0 -0.0001369356301192427 -0.034547872108489149 0 -1.5471287593608651e-07 -0.034999437180223081 0 -0.0002244518895649288 -0.034241832830444172 0 -0.00022345290761180978 -0.034010241266248652 0 -0.0001369356301192427 -0.034547872108489149 0 -0.00013213614332854728 -0.034628929015280599 0 -0.0002244518895649288 -0.034241832830444172 0 -0.0001369356301192427 -0.034547872108489149 0 -0.00013213614332854728 -0.034628929015280599 0 -0.0001369356301192427 -0.034547872108489149 0 -1.5471287593608651e-07 -0.034999437180223081 0 3.3698975118259855e-05 -0.034744771040259408 0 5.884483531208547e-08 -0.035000089120591278 0 2.0868493728116769e-07 -0.034998199761408173 0 3.3698975118259855e-05 -0.034744771040259408 0 5.884483531208547e-08 -0.035000089120591278 0 8.1267728357749543e-06 -0.034923738970736161 0 3.3698975118259855e-05 -0.034744771040259408 0 -0.00014728800158821028 -0.034665240018503636 0 -7.0971864153298303e-06 -0.034963770450609208 0 -0.00014728800158821028 -0.034665240018503636 0 1.0147057323943616e-05 -0.034384328334400804 0 -1.0171895411774259e-05 -0.033796198791363315 0 3.3698975118259855e-05 -0.034744771040259408 0 1.0147057323943616e-05 -0.034384328334400804 0 -6.2271308153502905e-05 -0.034471554113301689 0 3.3698975118259855e-05 -0.034744771040259408 0 -0.00014728800158821028 -0.034665240018503636 0 1.0147057323943616e-05 -0.034384328334400804 0 1.0147057323943616e-05 -0.034384328334400804 0 -6.2271308153502905e-05 -0.034471554113301689 0 -1.0171895411774259e-05 -0.033796198791363315 0 -6.2271308153502905e-05 -0.034471554113301689 0 -1.0171895411774259e-05 -0.033796198791363315 0 -4.9292095452792949e-05 -0.034362620116385162 0 3.3698975118259855e-05 -0.034744771040259408 0 -6.2271308153502905e-05 -0.034471554113301689 0 2.0868493728116769e-07 -0.034998199761408173 0 -6.2271308153502905e-05 -0.034471554113301689 0 2.0868493728116769e-07 -0.034998199761408173 0 -7.462417041284617e-05 -0.034480455493709136 0 -3.846243552338637e-08 -0.03499983030667423 0 -4.0088212736599827e-05 -0.034798895017756327 0 -3.5028289924681606e-08 -0.035000033847353777 0 -1.7759935765705358e-05 -0.035008105735928191 0 2.4831949293209104e-08 -0.034999998687183557 0 -4.0088212736599827e-05 -0.034798895017756327 0 -0.00013537371430354022 -0.034492846275973071 0 -1.7759935765705358e-05 -0.035008105735928191 0 -7.6761125649012007e-05 -0.034973470593753206 0 -8.722132747247295e-05 -0.034975264068327502 0 -5.1625997232609317e-05 -0.034757108245926059 0 2.4831949293209104e-08 -0.034999998687183557 0 -7.6761125649012007e-05 -0.034973470593753206 0 -1.7759935765705358e-05 -0.035008105735928191 0 2.4831949293209104e-08 -0.034999998687183557 0 -7.6761125649012007e-05 -0.034973470593753206 0 -0.00014500819016653133 -0.034545115552458816 0 -0.00013537371430354022 -0.034492846275973071 0 -5.1625997232609317e-05 -0.034757108245926059 0 -7.6761125649012007e-05 -0.034973470593753206 0 -0.00012455948696665873 -0.034995239728732024 0 -0.00022383001840892134 -0.034308675379315534 0 -0.00052439957781351019 -0.033813300198873998 0 -0.00022336835910074913 -0.033742454998976046 0 -6.8403253495839556e-05 -0.034578059851778385 0 8.7932847752842871e-05 -0.034598961994295366 0 -2.7715805176162836e-05 -0.034498861763351985 0 -0.00013537371430354022 -0.034492846275973071 0 -9.6527095843992796e-05 -0.033891409989311672 0 8.7932847752842871e-05 -0.034598961994295366 0 -2.7715805176162836e-05 -0.034498861763351985 0 0.00014259559490482579 -0.034450226293818297 0 -2.7715805176162836e-05 -0.034498861763351985 0 -4.9292095452792949e-05 -0.034362620116385162 0 0.00014259559490482579 -0.034450226293818297 0 -7.462417041284617e-05 -0.034480455493709136 0 -2.7715805176162836e-05 -0.034498861763351985 0 -4.9292095452792949e-05 -0.034362620116385162 0 -6.2271308153502905e-05 -0.034471554113301689 0 -7.462417041284617e-05 -0.034480455493709136 0 -4.9292095452792949e-05 -0.034362620116385162 0 -7.462417041284617e-05 -0.034480455493709136 0 -6.8403253495839556e-05 -0.034578059851778385 0 -2.7715805176162836e-05 -0.034498861763351985 0 0.00030834864812069303 -0.03429263974419746 0 0.00014259559490482579 -0.034450226293818297 0 0.00047736319203459712 -0.034530334696232678 0 -4.9292095452792949e-05 -0.034362620116385162 0 0.00030834864812069303 -0.03429263974419746 0 0.00014259559490482579 -0.034450226293818297 0 8.7932847752842871e-05 -0.034598961994295366 0 0.00014259559490482579 -0.034450226293818297 0 0.00047736319203459712 -0.034530334696232678 0 -1.7043275186780023e-05 -0.03332513951405365 0 0.00030237505746411346 -0.032559904574701461 0 -9.1307803197027834e-05 -0.032908767802542711 0 5.0675226699347349e-05 -0.032891250309301102 0 2.5325258339599207e-05 -0.032864392392331583 0 -9.6527095843992796e-05 -0.033891409989311672 0 -0.00017697323373888274 -0.031858159811144385 0 -9.6527095843992796e-05 -0.033891409989311672 0 0.00030237505746411346 -0.032559904574701461 0 -0.00012358534178819137 -0.033869289415368563 0 -0.00022336835910074913 -0.033742454998976046 0 -0.00013322914582842755 -0.033809972492815303 0 -0.00012402662043219413 -0.033738012478022772 0 -0.00012358534178819137 -0.033869289415368563 0 -0.00013322914582842755 -0.033809972492815303 0 -0.00092306825973709856 -0.032072792090950819 0 -0.00017697323373888274 -0.031858159811144385 0 -0.00017697323373888274 -0.031858159811144385 0 0.00030237505746411346 -0.032559904574701461 0 -0.00030821054344019026 -0.032275504759038481 0 -9.1594140715333358e-06 -0.031875691453540543 0 0.00043366585103251482 -0.03189114416780281 0 0.00030237505746411346 -0.032559904574701461 0 0.0010312044133272617 -0.03112605866058182 0 0.0015300746487912971 -0.030631569202788249 0 0.0015337062815086065 -0.030645623327319977 0 0.0015036593527045653 -0.030648372410169933 0 -0.00038834428879661861 -0.032103193682215057 0 -0.00030821054344019026 -0.032275504759038481 0 -0.00035347524549957972 -0.032076506940631515 0 -0.00030821054344019026 -0.032275504759038481 0 -0.00035347524549957972 -0.032076506940631515 0 -9.1594140715333358e-06 -0.031875691453540543 0 -0.00035347524549957972 -0.032076506940631515 0 -9.1594140715333358e-06 -0.031875691453540543 0 -0.00020379741389580587 -0.031895583026461588 0 -9.1594140715333358e-06 -0.031875691453540543 0 -0.00020379741389580587 -0.031895583026461588 0 0.00011583755479965836 -0.031572231397305119 0 -0.00020379741389580587 -0.031895583026461588 0 -7.1852732293749323e-05 -0.031479886465636708 0 0.00011583755479965836 -0.031572231397305119 0 -0.00020379741389580587 -0.031895583026461588 0 -0.00057291621430657338 -0.032404090399206026 0 -0.00032610027941448131 -0.031695901940648988 0 -0.00020379741389580587 -0.031895583026461588 0 -7.1852732293749323e-05 -0.031479886465636708 0 -0.00032610027941448131 -0.031695901940648988 0 -0.00035347524549957972 -0.032076506940631515 0 -0.00020379741389580587 -0.031895583026461588 0 -0.00057291621430657338 -0.032404090399206026 0 -0.00038834428879661861 -0.032103193682215057 0 -0.00035347524549957972 -0.032076506940631515 0 -0.00057291621430657338 -0.032404090399206026 0 -0.00014728800158821028 -0.034665240018503636 0 -1.0171895411774259e-05 -0.033796198791363315 0 -0.00057291621430657338 -0.032404090399206026 0 -0.00044333955047954704 -0.032893131968396307 0 -0.00051724563405723917 -0.032599322407887731 0 -2.9462039640921114e-05 -0.033583496408033778 0 -1.7043275186780023e-05 -0.03332513951405365 0 -1.0171895411774259e-05 -0.033796198791363315 0 -4.9292095452792949e-05 -0.034362620116385162 0 0.00030834864812069303 -0.03429263974419746 0 -1.0171895411774259e-05 -0.033796198791363315 0 -0.00038834428879661861 -0.032103193682215057 0 -0.00057291621430657338 -0.032404090399206026 0 -0.00057291621430657338 -0.032404090399206026 0 -0.00057898342523885816 -0.031545537110296382 0 -0.00032610027941448131 -0.031695901940648988 0 -0.0008496418296387461 -0.031302200874385899 0 -0.00057291621430657338 -0.032404090399206026 0 -0.00057898342523885816 -0.031545537110296382 0 -0.0008496418296387461 -0.031302200874385899 0 -0.00070776414803746949 -0.031302401464598693 0 -0.00066723944732566634 -0.031350256719676624 0 -0.0008496418296387461 -0.031302200874385899 0 -0.00057898342523885816 -0.031545537110296382 0 -0.00070776414803746949 -0.031302401464598693 0 -0.00057898342523885816 -0.031545537110296382 0 -0.00070776414803746949 -0.031302401464598693 0 -0.00039872157168392908 -0.031329049682913508 0 -0.00039872157168392908 -0.031329049682913508 0 -7.1852732293749323e-05 -0.031479886465636708 0 -7.1504765726473387e-06 -0.031160063428729495 0 -0.00039872157168392908 -0.031329049682913508 0 -7.1504765726473387e-06 -0.031160063428729495 0 -0.00022759491939248688 -0.031046213419324478 0 -0.00039872157168392908 -0.031329049682913508 0 -7.1852732293749323e-05 -0.031479886465636708 0 -0.00032610027941448131 -0.031695901940648988 0 -0.00057898342523885816 -0.031545537110296382 0 -0.00039872157168392908 -0.031329049682913508 0 -0.00032610027941448131 -0.031695901940648988 0 0.00038423804281631925 -0.031153925288314128 0 0.00083349826098110869 -0.030735171703135528 0 0.00034880526177408396 -0.030825169212604104 0 0.00038423804281631925 -0.031153925288314128 0 -7.1504765726473387e-06 -0.031160063428729495 0 0.00034880526177408396 -0.030825169212604104 0 -7.1852732293749323e-05 -0.031479886465636708 0 0.00038423804281631925 -0.031153925288314128 0 -7.1504765726473387e-06 -0.031160063428729495 0 0.00083349826098110869 -0.030735171703135528 0 0.00098751449940378037 -0.030898002504067736 0 0.0012358875350288203 -0.030482973982431195 0 0.00038423804281631925 -0.031153925288314128 0 0.00083349826098110869 -0.030735171703135528 0 0.00098751449940378037 -0.030898002504067736 0 0.00098751449940378037 -0.030898002504067736 0 0.00042587335881964615 -0.031410745466338465 0 0.00043366585103251482 -0.03189114416780281 0 0.00038423804281631925 -0.031153925288314128 0 0.00098751449940378037 -0.030898002504067736 0 0.00042587335881964615 -0.031410745466338465 0 -7.1852732293749323e-05 -0.031479886465636708 0 0.00038423804281631925 -0.031153925288314128 0 0.00011583755479965836 -0.031572231397305119 0 0.00038423804281631925 -0.031153925288314128 0 0.00042587335881964615 -0.031410745466338465 0 0.00011583755479965836 -0.031572231397305119 0 -9.1594140715333358e-06 -0.031875691453540543 0 0.00042587335881964615 -0.031410745466338465 0 0.00011583755479965836 -0.031572231397305119 0 -9.1594140715333358e-06 -0.031875691453540543 0 0.00042587335881964615 -0.031410745466338465 0 0.00043366585103251482 -0.03189114416780281 0 0.0015300746487912971 -0.030631569202788249 0 0.0015036593527045653 -0.030648372410169933 0 0.001476860721491134 -0.030565300561823199 0 -0.00017697323373888274 -0.031858159811144385 0 0.00039396894055048203 -0.029988442821075274 0 -0.001415301332176058 -0.030807974847624243 0 -0.0023099876300557896 -0.029708273690793246 0 -0.00056762137633331513 -0.029728146473052528 0 0.001476860721491134 -0.030565300561823199 0 0.0013165788419812366 -0.03074707974851526 0 0.001410466561723058 -0.030394958472753503 0 0.00021032349680065327 -0.030685410963954544 0 -0.001415301332176058 -0.030807974847624243 0 -0.00056762137633331513 -0.029728146473052528 0 0.00021032349680065327 -0.030685410963954544 0 -0.00056762137633331513 -0.029728146473052528 0 0.00090855678375344326 -0.029763441130052064 0 0.00039396894055048203 -0.029988442821075274 0 0.0011616509158018948 -0.030041586595511434 0 0.0010312044133272617 -0.03112605866058182 0 0.0012023129551156694 -0.030894246127953003 0 0.00098751449940378037 -0.030898002504067736 0 0.00043366585103251482 -0.03189114416780281 0 0.0013165788419812366 -0.03074707974851526 0 0.0015036593527045653 -0.030648372410169933 0 0.001476860721491134 -0.030565300561823199 0 0.0013165788419812366 -0.03074707974851526 0 0.0013165788419812366 -0.03074707974851526 0 0.001410466561723058 -0.030394958472753503 0 0.0015587856917113254 -0.030214679432149772 0 0.0013165788419812366 -0.03074707974851526 0 0.0015587856917113254 -0.030214679432149772 0 0.0014295791598973842 -0.030426740738923291 0 0.001410466561723058 -0.030394958472753503 0 0.0015587856917113254 -0.030214679432149772 0 0.0018287662787081084 -0.029610535374410583 0 0.0011616509158018948 -0.030041586595511434 0 0.001738667041610612 -0.02971751132641207 0 0.0011287676934395308 -0.030484723302589722 0 0.00090855678375344326 -0.029763441130052064 0 0.0018287662787081084 -0.029610535374410583 0 0.0015587856917113254 -0.030214679432149772 0 0.0018287662787081084 -0.029610535374410583 0 0.0017678025127882821 -0.029886948673181649 0 0.0014295791598973842 -0.030426740738923291 0 0.0016454243780216397 -0.030050135448824369 0 0.0017678025127882821 -0.029886948673181649 0 0.0015587856917113254 -0.030214679432149772 0 0.0014295791598973842 -0.030426740738923291 0 0.0017678025127882821 -0.029886948673181649 0 0.00098751449940378037 -0.030898002504067736 0 0.0013165788419812366 -0.03074707974851526 0 0.0014295791598973842 -0.030426740738923291 0 0.00098751449940378037 -0.030898002504067736 0 0.0014295791598973842 -0.030426740738923291 0 0.0012358875350288203 -0.030482973982431195 0 0.00083349826098110869 -0.030735171703135528 0 0.0012358875350288203 -0.030482973982431195 0 0.0011436802615441795 -0.030287189964710311 0 0.0014295791598973842 -0.030426740738923291 0 0.0012358875350288203 -0.030482973982431195 0 0.0016454243780216397 -0.030050135448824369 0 0.00020987406899001165 -0.028153429465291521 0 0.00050972370455685048 -0.028175561221184958 0 0.00020788737157667822 -0.028445303759747756 0 0.00095460971282860661 -0.029106654909306071 0 0.00081514778190801209 -0.029254505164199002 0 0.0012358875350288203 -0.030482973982431195 0 0.0016454243780216397 -0.030050135448824369 0 0.0011436802615441795 -0.030287189964710311 0 0.00050972370455685048 -0.028175561221184958 0 0.00020788737157667822 -0.028445303759747756 0 0.00074681829592591399 -0.028691899227826639 0 0.00020788737157667822 -0.028445303759747756 0 0.00028101928621671675 -0.029140156729240575 0 0.00010934489683917679 -0.028596854887477093 0 0.00028101928621671675 -0.029140156729240575 0 -0.00057879385257866823 -0.029255689594382787 0 -0.00025044306890859382 -0.029787149843173356 0 0.00028357172091061873 -0.029118350120973704 0 -0.00017910284525371435 -0.028933081176056068 0 0.00020788737157667822 -0.028445303759747756 0 0.00028101928621671675 -0.029140156729240575 0 0.00074681829592591399 -0.028691899227826639 0 0.00074681829592591399 -0.028691899227826639 0 0.00083403206767810559 -0.029406893407136991 0 0.0012440619307407376 -0.029096544263507426 0 0.00028101928621671675 -0.029140156729240575 0 0.00074681829592591399 -0.028691899227826639 0 0.00083403206767810559 -0.029406893407136991 0 0.0012440619307407376 -0.029096544263507426 0 0.001698962461698037 -0.029529582641513261 0 0.0012469957316134607 -0.02965891290042582 0 0.00083403206767810559 -0.029406893407136991 0 0.0012440619307407376 -0.029096544263507426 0 0.0012469957316134607 -0.02965891290042582 0 0.0012440619307407376 -0.029096544263507426 0 0.0013115268001612811 -0.028704631819204785 0 0.0016549358390245562 -0.028967114412377561 0 0.00074681829592591399 -0.028691899227826639 0 0.0012440619307407376 -0.029096544263507426 0 0.0013115268001612811 -0.028704631819204785 0 0.00074681829592591399 -0.028691899227826639 0 0.0013115268001612811 -0.028704631819204785 0 0.0010949380960143648 -0.028286137889608591 0 0.0013115268001612811 -0.028704631819204785 0 0.0010949380960143648 -0.028286137889608591 0 0.001864585226373217 -0.028497725934720032 0 0.00050972370455685048 -0.028175561221184958 0 0.00074681829592591399 -0.028691899227826639 0 0.0010949380960143648 -0.028286137889608591 0 0.0011436802615441795 -0.030287189964710311 0 0.00033255644349533477 -0.030526497045033088 0 0.00034880526177408396 -0.030825169212604104 0 0.00081514778190801209 -0.029254505164199002 0 0.00092556972286321005 -0.029289517274765614 0 0.00083349826098110869 -0.030735171703135528 0 0.0011436802615441795 -0.030287189964710311 0 0.00034880526177408396 -0.030825169212604104 0 -7.1504765726473387e-06 -0.031160063428729495 0 0.00034880526177408396 -0.030825169212604104 0 -0.00022759491939248688 -0.031046213419324478 0 0.00033255644349533477 -0.030526497045033088 0 0.00034880526177408396 -0.030825169212604104 0 -0.00022759491939248688 -0.031046213419324478 0 0.00033255644349533477 -0.030526497045033088 0 -0.00022759491939248688 -0.031046213419324478 0 -0.00068066474693883369 -0.031068928485509198 0 -0.00022759491939248688 -0.031046213419324478 0 -0.00068079082964279654 -0.031225646225277789 0 -0.00068066474693883369 -0.031068928485509198 0 -0.00039872157168392908 -0.031329049682913508 0 -0.00022759491939248688 -0.031046213419324478 0 -0.00068079082964279654 -0.031225646225277789 0 -0.00070776414803746949 -0.031302401464598693 0 -0.00039872157168392908 -0.031329049682913508 0 -0.00068079082964279654 -0.031225646225277789 0 -0.00070776414803746949 -0.031302401464598693 0 -0.00074177383520891737 -0.031398927845965853 0 -0.00068079082964279654 -0.031225646225277789 0 -0.00070776414803746949 -0.031302401464598693 0 -0.00074177383520891737 -0.031398927845965853 0 -0.00066723944732566634 -0.031350256719676624 0 -0.00074177383520891737 -0.031398927845965853 0 -0.00068079082964279654 -0.031225646225277789 0 -0.00085843840281103073 -0.03149362649224955 0 -0.00068079082964279654 -0.031225646225277789 0 -0.00085843840281103073 -0.03149362649224955 0 -0.00068066474693883369 -0.031068928485509198 0 -0.00074177383520891737 -0.031398927845965853 0 -0.00085843840281103073 -0.03149362649224955 0 -0.00076061868996604362 -0.031721227099548804 0 -0.00085843840281103073 -0.03149362649224955 0 -0.0010714176449821105 -0.032450180426488562 0 -0.00076061868996604362 -0.031721227099548804 0 -0.00085843840281103073 -0.03149362649224955 0 -0.00097469790322540295 -0.031619935703026292 0 -0.0010714176449821105 -0.032450180426488562 0 -0.00053687671712717257 -0.03087201151102454 0 -0.00062727521953811105 -0.031135565289605462 0 0.00033255644349533477 -0.030526497045033088 0 -0.00079807808211129077 -0.030676243169747479 0 -0.00068066474693883369 -0.031068928485509198 0 0.00092556972286321005 -0.029289517274765614 0 -0.00053687671712717257 -0.03087201151102454 0 -0.00085843840281103073 -0.03149362649224955 0 -0.00097469790322540295 -0.031619935703026292 0 -0.00068066474693883369 -0.031068928485509198 0 0.001864585226373217 -0.028497725934720032 0 0.0016549358390245562 -0.028967114412377561 0 0.0021160806737597505 -0.029167735136863847 0 0.0013115268001612811 -0.028704631819204785 0 0.001864585226373217 -0.028497725934720032 0 0.0016549358390245562 -0.028967114412377561 0 0.0012440619307407376 -0.029096544263507426 0 0.0016549358390245562 -0.028967114412377561 0 0.001698962461698037 -0.029529582641513261 0 0.0016549358390245562 -0.028967114412377561 0 0.001698962461698037 -0.029529582641513261 0 0.0021160806737597505 -0.029167735136863847 0 -0.0019271032737266703 -0.033862983107024659 0 -0.0012039669075406322 -0.034521671161257934 0 -0.0014653094140042154 -0.035141068526515058 0 0.001698962461698037 -0.029529582641513261 0 0.0021160806737597505 -0.029167735136863847 0 0.0023866569054229836 -0.029925230281470729 0 -0.0019271032737266703 -0.033862983107024659 0 -0.0012039669075406322 -0.034521671161257934 0 -0.00083425780906879073 -0.033806981469458007 0 9.6978924018670124e-05 -0.031352325584367485 0 0.00044757813193735754 -0.032741942962298626 0 -0.00053687671712717257 -0.03087201151102454 0 9.6978924018670124e-05 -0.031352325584367485 0 -0.0024169968847232879 -0.031949828603306904 0 -0.0019271032737266703 -0.033862983107024659 0 -0.0010714176449821105 -0.032450180426488562 0 -0.0019271032737266703 -0.033862983107024659 0 -0.0010714176449821105 -0.032450180426488562 0 -0.00083425780906879073 -0.033806981469458007 0 -0.00053687671712717257 -0.03087201151102454 0 -0.0012529680059996397 -0.032170801877503971 0 -0.0010714176449821105 -0.032450180426488562 0 -0.00046894150103689444 -0.032973242806685968 0 -0.00043931118917534006 -0.032036394957938384 0 -0.00046894150103689444 -0.032973242806685968 0 0.00037059422671723339 -0.032711680456198933 0 -0.00043931118917534006 -0.032036394957938384 0 -0.00046894150103689444 -0.032973242806685968 0 -0.00083425780906879073 -0.033806981469458007 0 -0.00021657387265607825 -0.034088652996766923 0 -0.0010714176449821105 -0.032450180426488562 0 -0.00046894150103689444 -0.032973242806685968 0 -0.00083425780906879073 -0.033806981469458007 0 -0.00083425780906879073 -0.033806981469458007 0 -0.00021657387265607825 -0.034088652996766923 0 -0.00057104506979163781 -0.034771238646534669 0 -0.0012039669075406322 -0.034521671161257934 0 -0.00083425780906879073 -0.033806981469458007 0 -0.00057104506979163781 -0.034771238646534669 0 -5.747350888223172e-05 -0.034868845559401632 0 1.6405004125589424e-06 -0.034997628344292896 0 -0.00021657387265607825 -0.034088652996766923 0 -5.747350888223172e-05 -0.034868845559401632 0 -0.00021657387265607825 -0.034088652996766923 0 -0.00057104506979163781 -0.034771238646534669 0 -7.8011349356658507e-09 -0.035000025927912119 0 -2.7997942990645719e-06 -0.035000645920943214 0 2.2299974798637823e-09 -0.034999924178838911 0 1.6405004125589424e-06 -0.034997628344292896 0 -0.00021657387265607825 -0.034088652996766923 0 0.00037059422671723339 -0.032711680456198933 0 7.3519193174450259e-09 -0.034999981658324512 0 -7.8011349356658507e-09 -0.035000025927912119 0 -2.7997942990645719e-06 -0.035000645920943214 0 1.3551770106189546e-07 -0.034999705335551197 0 0.00011342697166618671 -0.03372831426770416 0 -0.00046894150103689444 -0.032973242806685968 0 -0.00021657387265607825 -0.034088652996766923 0 0.00037059422671723339 -0.032711680456198933 0 -2.7997942990645719e-06 -0.035000645920943214 0 2.2299974798637823e-09 -0.034999924178838911 0 -2.4470716948231565e-05 -0.034962645612490496 0 0.00037059422671723339 -0.032711680456198933 0 -0.00043931118917534006 -0.032036394957938384 0 -0.00016542470423405267 -0.031342354837328557 0 0.00011342697166618671 -0.03372831426770416 0 -0.00012891588791697487 -0.033768598372311297 0 6.0276747623775849e-07 -0.035000754974371641 0 -0.00012891588791697487 -0.033768598372311297 0 -0.0010714176449821105 -0.032450180426488562 0 -0.00043931118917534006 -0.032036394957938384 0 -0.00076061868996604362 -0.031721227099548804 0 -0.00043931118917534006 -0.032036394957938384 0 -0.00076061868996604362 -0.031721227099548804 0 -0.00059351541462246383 -0.031550666721303765 0 -0.00043931118917534006 -0.032036394957938384 0 -0.00059351541462246383 -0.031550666721303765 0 -0.00016542470423405267 -0.031342354837328557 0 -0.00059351541462246383 -0.031550666721303765 0 -0.00066723944732566634 -0.031350256719676624 0 -0.00016542470423405267 -0.031342354837328557 0 -0.0008496418296387461 -0.031302200874385899 0 -0.00066723944732566634 -0.031350256719676624 0 -0.00016542470423405267 -0.031342354837328557 0 -0.00014728800158821028 -0.034665240018503636 0 -7.0971864153298303e-06 -0.034963770450609208 0 -6.1171141967639768e-06 -0.034992280108639237 0 -0.00044333955047954704 -0.032893131968396307 0 -0.00012891588791697487 -0.033768598372311297 0 -0.00074177383520891737 -0.031398927845965853 0 -0.00076061868996604362 -0.031721227099548804 0 -0.00059351541462246383 -0.031550666721303765 0 -0.00074177383520891737 -0.031398927845965853 0 -0.00059351541462246383 -0.031550666721303765 0 -0.00066723944732566634 -0.031350256719676624 0 3.3698975118259855e-05 -0.034744771040259408 0 -7.0971864153298303e-06 -0.034963770450609208 0 8.1267728357749543e-06 -0.034923738970736161 0 5.884483531208547e-08 -0.035000089120591278 0 -2.8817616810251339e-08 -0.034999916874680188 0 1.9871797373999167e-06 -0.034968776245345307 0 -7.0971864153298303e-06 -0.034963770450609208 0 8.1267728357749543e-06 -0.034923738970736161 0 1.9871797373999167e-06 -0.034968776245345307 0 5.884483531208547e-08 -0.035000089120591278 0 8.1267728357749543e-06 -0.034923738970736161 0 1.9871797373999167e-06 -0.034968776245345307 0 -0.00010113239173673232 -0.033890977324432421 0 -0.00012891588791697487 -0.033768598372311297 0 0.00067833650099794504 -0.028342095501111952 0 0.0005390079929773157 -0.027968993258915477 0 0.00050216385753739333 -0.027817068230543841 0 0.00067833650099794504 -0.028342095501111952 0 0.00050216385753739333 -0.027817068230543841 0 0.0005352799714988287 -0.027835055504107472 0 0.00067833650099794504 -0.028342095501111952 0 0.00044456419071121141 -0.028101911030224795 0 0.0005390079929773157 -0.027968993258915477 0 0.00044456419071121141 -0.028101911030224795 0 0.0005390079929773157 -0.027968993258915477 0 0.00042296964008991736 -0.027986445016998672 0 0.00044456419071121141 -0.028101911030224795 0 0.00032720052237453836 -0.028075809914318763 0 0.00042296964008991736 -0.027986445016998672 0 0.0005390079929773157 -0.027968993258915477 0 0.00050216385753739333 -0.027817068230543841 0 0.00048163795119277725 -0.027753249332108924 0 0.00039199863684819284 -0.027465951451027683 0 0.00042720055760405524 -0.027620237542892941 0 0.00048163795119277725 -0.027753249332108924 0 0.00039199863684819284 -0.027465951451027683 0 0.00050216385753739333 -0.027817068230543841 0 0.00048163795119277725 -0.027753249332108924 0 0.00027153226273320423 -0.027065866587532399 0 0.00039199863684819284 -0.027465951451027683 0 0.00039427868976579409 -0.027574895218425099 0 0.00039199863684819284 -0.027465951451027683 0 0.00039427868976579409 -0.027574895218425099 0 0.00050216385753739333 -0.027817068230543841 0 0.00039427868976579409 -0.027574895218425099 0 0.00050216385753739333 -0.027817068230543841 0 0.0005352799714988287 -0.027835055504107472 0 0.00039427868976579409 -0.027574895218425099 0 0.00042181801821471345 -0.027416606837845338 0 0.0005352799714988287 -0.027835055504107472 0 0.00027058988637113297 -0.027329840714740584 0 0.00039427868976579409 -0.027574895218425099 0 0.00042181801821471345 -0.027416606837845338 0 0.0012745010174743589 -0.026058001482538642 0 0.0018594920466287234 -0.025048746689630457 0 0.0028206338825987245 -0.025939176257810566 0 0.00069475775537864511 -0.026539433377268582 0 0.0016109241058566354 -0.026683300087991576 0 0.0031585328588806588 -0.024925617148601385 0 0.0028206338825987245 -0.025939176257810566 0 0.0038660486673555328 -0.026077891441652519 0 0.00042181801821471345 -0.027416606837845338 0 0.00059472611961091998 -0.027687501771535682 0 0.0005352799714988287 -0.027835055504107472 0 0.0016109241058566354 -0.026683300087991576 0 0.0022334549323979542 -0.026888597093600971 0 0.00059472611961091998 -0.027687501771535682 0 0.0005352799714988287 -0.027835055504107472 0 0.00079491003338989015 -0.028059428164598416 0 0.00067833650099794504 -0.028342095501111952 0 0.0005352799714988287 -0.027835055504107472 0 0.00079491003338989015 -0.028059428164598416 0 0.00067833650099794504 -0.028342095501111952 0 0.00079491003338989015 -0.028059428164598416 0 0.0014122115515730592 -0.028527676770509457 0 0.00059472611961091998 -0.027687501771535682 0 0.00079491003338989015 -0.028059428164598416 0 0.0011277152912877828 -0.027830891430216279 0 0.00079491003338989015 -0.028059428164598416 0 0.0011277152912877828 -0.027830891430216279 0 0.0014122115515730592 -0.028527676770509457 0 0.0022334549323979542 -0.026888597093600971 0 0.0025724559123285 -0.027315512532682953 0 0.0011277152912877828 -0.027830891430216279 0 0.0023230452312170843 -0.028174709782373408 0 0.0014122115515730592 -0.028527676770509457 0 0.0025724559123285 -0.027315512532682953 0 0.0023890086246059136 -0.027971676759615226 0 0.0023230452312170843 -0.028174709782373408 0 0.0014122115515730592 -0.028527676770509457 0 0.0020251616642088378 -0.029120154315310093 0 0.0014122115515730592 -0.028527676770509457 0 0.0020251616642088378 -0.029120154315310093 0 0.0015084658975261286 -0.02927722142772983 0 0.0022111131938817859 -0.029072034298086084 0 0.0018287662787081084 -0.029610535374410583 0 0.0020251616642088378 -0.029120154315310093 0 0.0022111131938817859 -0.029072034298086084 0 0.0023230452312170843 -0.028174709782373408 0 0.0020251616642088378 -0.029120154315310093 0 0.0018287662787081084 -0.029610535374410583 0 0.0020251616642088378 -0.029120154315310093 0 0.0017678025127882821 -0.029886948673181649 0 0.0020251616642088378 -0.029120154315310093 0 0.0017678025127882821 -0.029886948673181649 0 0.0018342173800462254 -0.029728204827814936 0 0.0016454243780216397 -0.030050135448824369 0 0.0017678025127882821 -0.029886948673181649 0 0.0018342173800462254 -0.029728204827814936 0 0.00095460971282860661 -0.029106654909306071 0 0.0010049312287066959 -0.028954809888436669 0 0.0020251616642088378 -0.029120154315310093 0 0.0018342173800462254 -0.029728204827814936 0 0.0015084658975261286 -0.02927722142772983 0 0.00067833650099794504 -0.028342095501111952 0 0.0014122115515730592 -0.028527676770509457 0 0.0015084658975261286 -0.02927722142772983 0 0.00070519227004901569 -0.02841535490891596 0 0.00089477824032273777 -0.028723383225869464 0 0.00067833650099794504 -0.028342095501111952 0 0.00044456419071121141 -0.028101911030224795 0 0.00023979386488418662 -0.028199149138147448 0 0.00015901168277299989 -0.028166638094765693 0 0.00023979386488418662 -0.028199149138147448 0 0.00021465606566704588 -0.028123219446614878 0 0.0010049312287066959 -0.028954809888436669 0 0.00089477824032273777 -0.028723383225869464 0 0.00044456419071121141 -0.028101911030224795 0 0.00023979386488418662 -0.028199149138147448 0 0.00032720052237453836 -0.028075809914318763 0 0.00023979386488418662 -0.028199149138147448 0 0.00032720052237453836 -0.028075809914318763 0 0.00021465606566704588 -0.028123219446614878 0 0.00032720052237453836 -0.028075809914318763 0 0.00021465606566704588 -0.028123219446614878 0 0.00031336515541988184 -0.028031698439166575 0 0.00032720052237453836 -0.028075809914318763 0 0.00031336515541988184 -0.028031698439166575 0 0.00042296964008991736 -0.027986445016998672 0 0.00021465606566704588 -0.028123219446614878 0 0.00022041796323664178 -0.028107615634174025 0 0.00016030472137062066 -0.028186502435901161 0 0.00022041796323664178 -0.028107615634174025 0 0.00016030472137062066 -0.028186502435901161 0 0.00017009724082462613 -0.028183981668018474 0 0.00022041796323664178 -0.028107615634174025 0 0.00031336515541988184 -0.028031698439166575 0 0.00030959761618641672 -0.028020587940194505 0 0.00021465606566704588 -0.028123219446614878 0 0.00022041796323664178 -0.028107615634174025 0 0.00031336515541988184 -0.028031698439166575 0 0.00031336515541988184 -0.028031698439166575 0 0.00030959761618641672 -0.028020587940194505 0 0.00035272605311659715 -0.027980042236117879 0 0.00020987406899001165 -0.028153429465291521 0 0.00015901168277299989 -0.028166638094765693 0 0.0001493013662124201 -0.028246809179356919 0 0.00015901168277299989 -0.028166638094765693 0 0.00016030472137062066 -0.028186502435901161 0 0.0001493013662124201 -0.028246809179356919 0 0.00015901168277299989 -0.028166638094765693 0 0.00021465606566704588 -0.028123219446614878 0 0.00016030472137062066 -0.028186502435901161 0 0.00016030472137062066 -0.028186502435901161 0 0.00012184994726989053 -0.028316499940847836 0 0.00017009724082462613 -0.028183981668018474 0 0.00016030472137062066 -0.028186502435901161 0 0.0001493013662124201 -0.028246809179356919 0 0.00012184994726989053 -0.028316499940847836 0 0.00020788737157667822 -0.028445303759747756 0 0.0001493013662124201 -0.028246809179356919 0 0.00012184994726989053 -0.028316499940847836 0 0.00020987406899001165 -0.028153429465291521 0 0.00020788737157667822 -0.028445303759747756 0 0.0001493013662124201 -0.028246809179356919 0 0.00020788737157667822 -0.028445303759747756 0 0.00012184994726989053 -0.028316499940847836 0 0.00010934489683917679 -0.028596854887477093 0 0.00012184994726989053 -0.028316499940847836 0 0.00010934489683917679 -0.028596854887477093 0 0.00014701284852328391 -0.028222533949098991 0 0.00012184994726989053 -0.028316499940847836 0 0.00017009724082462613 -0.028183981668018474 0 0.00014701284852328391 -0.028222533949098991 0 -0.00077449583389320345 -0.029444451064294525 0 -0.00057879385257866823 -0.029255689594382787 0 -0.00091294003577668034 -0.029343424144506365 0 -0.00017910284525371435 -0.028933081176056068 0 -0.00041727248170825119 -0.028822194472974502 0 -0.00077449583389320345 -0.029444451064294525 0 -0.00091294003577668034 -0.029343424144506365 0 -0.00093602043203572379 -0.029479904855811551 0 -0.00077449583389320345 -0.029444451064294525 0 -0.00057879385257866823 -0.029255689594382787 0 -0.00062390443199428322 -0.029602014493208886 0 0.00025022330715566488 -0.028035488918259781 0 0.00022620171799522828 -0.028081535827948565 0 0.00014701284852328391 -0.028222533949098991 0 -0.00020791088629873447 -0.028395586787272088 0 0.00034130696524043103 -0.028046453695627565 0 0.00032086987428425946 -0.027971990845754989 0 0.00030959761618641672 -0.028020587940194505 0 0.00022620171799522828 -0.028081535827948565 0 0.00032086987428425946 -0.027971990845754989 0 0.00030959761618641672 -0.028020587940194505 0 0.00035139221555581898 -0.027978218585620974 0 0.00022041796323664178 -0.028107615634174025 0 0.00030959761618641672 -0.028020587940194505 0 0.00022620171799522828 -0.028081535827948565 0 -0.00020791088629873447 -0.028395586787272088 0 -0.00041727248170825119 -0.028822194472974502 0 0.00022041796323664178 -0.028107615634174025 0 0.00022620171799522828 -0.028081535827948565 0 0.00017009724082462613 -0.028183981668018474 0 0.00022620171799522828 -0.028081535827948565 0 0.00017009724082462613 -0.028183981668018474 0 0.00014701284852328391 -0.028222533949098991 0 -0.00091294003577668034 -0.029343424144506365 0 -0.00093602043203572379 -0.029479904855811551 0 -0.0010684449002999158 -0.029451624091461352 0 -0.00093602043203572379 -0.029479904855811551 0 -0.0010684449002999158 -0.029451624091461352 0 -0.001017535996804853 -0.029563984548518652 0 -0.0011504630800542816 -0.029337428051391001 0 -0.00091294003577668034 -0.029343424144506365 0 -0.0010684449002999158 -0.029451624091461352 0 -0.0011504630800542816 -0.029337428051391001 0 -0.0010684449002999158 -0.029451624091461352 0 -0.0012033528313079751 -0.029487939280268938 0 -0.0010684449002999158 -0.029451624091461352 0 -0.0012033528313079751 -0.029487939280268938 0 -0.0011186641238726028 -0.029542445543951933 0 -0.0012033528313079751 -0.029487939280268938 0 -0.0013550215588000807 -0.02946190062675353 0 -0.0012844203417873795 -0.029553925748809832 0 -0.00020791088629873447 -0.028395586787272088 0 -0.00059912906168474054 -0.028824837155308584 0 -0.0011504630800542816 -0.029337428051391001 0 -0.0012033528313079751 -0.029487939280268938 0 -0.0013550215588000807 -0.02946190062675353 0 0.00027300849662558596 -0.028001690629486528 0 0.00038062055955619698 -0.027934851634781894 0 0.00014297354234237247 -0.02797661874373137 0 0.00038062055955619698 -0.027934851634781894 0 0.0004012541582117411 -0.027879354263892264 0 0.00035558459866903382 -0.027861481879415135 0 0.00037456331029498628 -0.027925127231759328 0 0.0002512521792698612 -0.027925180133161046 0 0.00023197702469381339 -0.028113207348735295 0 0.00027300849662558596 -0.028001690629486528 0 0.00014297354234237247 -0.02797661874373137 0 0.00023197702469381339 -0.028113207348735295 0 0.00027300849662558596 -0.028001690629486528 0 0.00036483815780220601 -0.027986495634095027 0 0.00043772834799172357 -0.027996614776324348 0 0.00023197702469381339 -0.028113207348735295 0 0.00036483815780220601 -0.027986495634095027 0 -0.00020791088629873447 -0.028395586787272088 0 0.00035087084150938846 -0.028214707097290841 0 0.00032086987428425946 -0.027971990845754989 0 0.00036483815780220601 -0.027986495634095027 0 0.00035139221555581898 -0.027978218585620974 0 0.00027300849662558596 -0.028001690629486528 0 0.00036483815780220601 -0.027986495634095027 0 0.00038062055955619698 -0.027934851634781894 0 0.00036483815780220601 -0.027986495634095027 0 0.00035139221555581898 -0.027978218585620974 0 0.00038062055955619698 -0.027934851634781894 0 0.00030959761618641672 -0.028020587940194505 0 0.00035139221555581898 -0.027978218585620974 0 0.00038062055955619698 -0.027934851634781894 0 0.00030959761618641672 -0.028020587940194505 0 0.00038062055955619698 -0.027934851634781894 0 0.00035272605311659715 -0.027980042236117879 0 0.00038062055955619698 -0.027934851634781894 0 0.00035272605311659715 -0.027980042236117879 0 0.00040635077021459841 -0.027935164783591513 0 0.00031336515541988184 -0.028031698439166575 0 0.00035272605311659715 -0.027980042236117879 0 0.00040635077021459841 -0.027935164783591513 0 0.00038062055955619698 -0.027934851634781894 0 0.00040635077021459841 -0.027935164783591513 0 0.0004012541582117411 -0.027879354263892264 0 0.0004012541582117411 -0.027879354263892264 0 0.00043811186495006327 -0.027869362178364773 0 0.00045848031986838529 -0.027791526844961171 0 0.00040635077021459841 -0.027935164783591513 0 0.0004012541582117411 -0.027879354263892264 0 0.00043811186495006327 -0.027869362178364773 0 0.00040635077021459841 -0.027935164783591513 0 0.00043811186495006327 -0.027869362178364773 0 0.00047634765329609611 -0.027875651646545742 0 0.0005390079929773157 -0.027968993258915477 0 0.00047634765329609611 -0.027875651646545742 0 0.00048163795119277725 -0.027753249332108924 0 0.00047634765329609611 -0.027875651646545742 0 0.00048163795119277725 -0.027753249332108924 0 0.00045848031986838529 -0.027791526844961171 0 0.00043811186495006327 -0.027869362178364773 0 0.00047634765329609611 -0.027875651646545742 0 0.00045848031986838529 -0.027791526844961171 0 0.0005390079929773157 -0.027968993258915477 0 0.00047634765329609611 -0.027875651646545742 0 0.00042296964008991736 -0.027986445016998672 0 0.00031336515541988184 -0.028031698439166575 0 0.00040635077021459841 -0.027935164783591513 0 0.00042296964008991736 -0.027986445016998672 0 0.00040635077021459841 -0.027935164783591513 0 0.00047634765329609611 -0.027875651646545742 0 0.00042296964008991736 -0.027986445016998672 0 0.00039199863684819284 -0.027465951451027683 0 0.0003285039588613889 -0.027468384587218543 0 0.00042720055760405524 -0.027620237542892941 0 0.0003285039588613889 -0.027468384587218543 0 0.00042720055760405524 -0.027620237542892941 0 0.00042831932927928096 -0.027687630672200727 0 0.00042720055760405524 -0.027620237542892941 0 0.00048163795119277725 -0.027753249332108924 0 0.00045848031986838529 -0.027791526844961171 0 0.00042720055760405524 -0.027620237542892941 0 0.00045848031986838529 -0.027791526844961171 0 0.00042831932927928096 -0.027687630672200727 0 0.0004012541582117411 -0.027879354263892264 0 0.00045848031986838529 -0.027791526844961171 0 0.00045533439472818102 -0.027755441949908206 0 0.00045848031986838529 -0.027791526844961171 0 0.00042831932927928096 -0.027687630672200727 0 0.00045533439472818102 -0.027755441949908206 0 0.00042831932927928096 -0.027687630672200727 0 0.0003311615882302171 -0.027641508631083316 0 0.00045533439472818102 -0.027755441949908206 0 0.0003285039588613889 -0.027468384587218543 0 0.00042831932927928096 -0.027687630672200727 0 0.0003311615882302171 -0.027641508631083316 0 1.7270929948506536e-05 -0.027761761449601057 0 0.00034827057638401465 -0.027781833922496727 0 -0.00012515716282622641 -0.027758835535667749 0 0.00025190745857478134 -0.02778714344218788 0 9.8665729219251584e-05 -0.027943145797845858 0 0.0001874757410066414 -0.027774725715346938 0 0.0003311615882302171 -0.027641508631083316 0 0.00045533439472818102 -0.027755441949908206 0 0.00040045436111605656 -0.027857043979736769 0 0.00034827057638401465 -0.027781833922496727 0 0.0002512521792698612 -0.027925180133161046 0 2.3121758618107017e-06 -0.027988140659682838 0 0.00025190745857478134 -0.02778714344218788 0 0.00035558459866903382 -0.027861481879415135 0 9.8665729219251584e-05 -0.027943145797845858 0 0.00014297354234237247 -0.02797661874373137 0 6.2281661575853882e-05 -0.028085475468333114 0 -7.7672865907928745e-05 -0.028035485838065016 0 0.0004012541582117411 -0.027879354263892264 0 0.00025190745857478134 -0.02778714344218788 0 0.00035558459866903382 -0.027861481879415135 0 -0.00059912906168474054 -0.028824837155308584 0 -0.00075534458330205089 -0.028934157466781376 0 0.00023197702469381339 -0.028113207348735295 0 6.2281661575853882e-05 -0.028085475468333114 0 7.2557878519107029e-06 -0.028220499989963014 0 0.00023197702469381339 -0.028113207348735295 0 0.00014297354234237247 -0.02797661874373137 0 6.2281661575853882e-05 -0.028085475468333114 0 -7.7672865907928745e-05 -0.028035485838065016 0 7.2557878519107029e-06 -0.028220499989963014 0 -0.00015928568210550706 -0.028174457532783803 0 6.2281661575853882e-05 -0.028085475468333114 0 -7.7672865907928745e-05 -0.028035485838065016 0 7.2557878519107029e-06 -0.028220499989963014 0 7.2557878519107029e-06 -0.028220499989963014 0 -0.00015928568210550706 -0.028174457532783803 0 -0.00022072861467241543 -0.028342327888201072 0 -0.0015269767207583807 -0.029565173651786729 0 -0.0015421097044107717 -0.029673135858110461 0 -0.001681647986201529 -0.029641582888637351 0 -0.00075534458330205089 -0.028934157466781376 0 -0.00098734346467358163 -0.028648748578794334 0 -0.0015269767207583807 -0.029565173651786729 0 -0.0014365299039878895 -0.029674443843963883 0 -0.0013671257605912771 -0.029596098946221026 0 -0.0015269767207583807 -0.029565173651786729 0 -0.0014365299039878895 -0.029674443843963883 0 -0.0015421097044107717 -0.029673135858110461 0 -0.0014365299039878895 -0.029674443843963883 0 -0.0014732085118223329 -0.029746139235540387 0 -0.0015421097044107717 -0.029673135858110461 0 -0.0014732085118223329 -0.029746139235540387 0 -0.0015421097044107717 -0.029673135858110461 0 -0.0015407656635278574 -0.029736810714838229 0 -0.0014365299039878895 -0.029674443843963883 0 -0.0014732085118223329 -0.029746139235540387 0 -0.0013932551602473615 -0.029757759390701053 0 -0.0015421097044107717 -0.029673135858110461 0 -0.0016098313847846513 -0.029722269694159992 0 -0.001681647986201529 -0.029641582888637351 0 -0.0015421097044107717 -0.029673135858110461 0 -0.0015407656635278574 -0.029736810714838229 0 -0.0016098313847846513 -0.029722269694159992 0 -0.0012403305527962729 -0.027998637434318109 0 -0.0013024384904557059 -0.027948323584587129 0 -0.0011512573930744449 -0.027948860787614514 0 -0.0013740536293180782 -0.028691148381433176 0 -0.0011636336509178061 -0.02773872869363184 0 -0.0014274893695432266 -0.028849320323877208 0 -0.0013740536293180782 -0.028691148381433176 0 -0.0015407656635278574 -0.029736810714838229 0 -0.0016098313847846513 -0.029722269694159992 0 -0.0015342718149242683 -0.029806281713529705 0 -0.0023483283352142329 -0.031159945648677283 0 -0.0024634714391553489 -0.031198788620830652 0 -0.0022536668657805671 -0.031269863856202548 0 -0.0014732085118223329 -0.029746139235540387 0 -0.0015342718149242683 -0.029806281713529705 0 -0.0014352954822077608 -0.029831698231456257 0 -0.0014732085118223329 -0.029746139235540387 0 -0.0015407656635278574 -0.029736810714838229 0 -0.0015342718149242683 -0.029806281713529705 0 -0.0014732085118223329 -0.029746139235540387 0 -0.0014352954822077608 -0.029831698231456257 0 -0.0013932551602473615 -0.029757759390701053 0 -0.0017491691014160568 -0.029888903219178819 0 -0.0011476950899721751 -0.02899528871180046 0 -0.0013740536293180782 -0.028691148381433176 0 -0.0017491691014160568 -0.029888903219178819 0 -0.0013637575335184915 -0.029268033430012257 0 -0.0015423433646672483 -0.029248185475423093 0 -0.0014356369241334344 -0.029201808942361296 0 -0.0013740536293180782 -0.028691148381433176 0 -0.0011476950899721751 -0.02899528871180046 0 -0.00018418471669963453 -0.027333526298670419 0 -2.8467313927679466e-05 -0.027439961893003947 0 -0.00017836251775436255 -0.02744849427143049 0 -0.00018418471669963453 -0.027333526298670419 0 -0.00026631157243226595 -0.027446670911557367 0 -0.00017836251775436255 -0.02744849427143049 0 -0.0011476950899721751 -0.02899528871180046 0 -0.0011457451238324509 -0.029369018324203345 0 -0.0013864839440623652 -0.027925579649781443 0 -0.0014318476258011342 -0.027883375220446378 0 -0.0012415162182933374 -0.027788947274958519 0 -0.00018418471669963453 -0.027333526298670419 0 -0.00026631157243226595 -0.027446670911557367 0 -0.00033189650115165846 -0.02739074384007054 0 -0.0011476950899721751 -0.02899528871180046 0 -0.00066933898530884537 -0.02737824676928452 0 -0.0020479976102394937 -0.031349038788816459 0 -0.0021161623064587867 -0.031203668554929148 0 -0.0018567626169237903 -0.03123788877936462 0 -0.0020479976102394937 -0.031349038788816459 0 -0.0021630895672616829 -0.031393404892443265 0 -0.0021161623064587867 -0.031203668554929148 0 -0.0021161001723795816 -0.031362445459849904 0 -0.0016012261892443937 -0.030886874206926065 0 -0.0019300123868713319 -0.031415673760773595 0 -0.0020479976102394937 -0.031349038788816459 0 -0.0018169418941553937 -0.031193468458246741 0 -0.0019300123868713319 -0.031415673760773595 0 -0.0020479976102394937 -0.031349038788816459 0 -0.0020673415152698323 -0.031470539197890883 0 -0.0020479976102394937 -0.031349038788816459 0 -0.0021630895672616829 -0.031393404892443265 0 -0.0020673415152698323 -0.031470539197890883 0 -0.0024634714391553489 -0.031198788620830652 0 -0.0022719828671944262 -0.031417374686805111 0 -0.0022536668657805671 -0.031269863856202548 0 -0.0021630895672616829 -0.031393404892443265 0 -0.0022719828671944262 -0.031417374686805111 0 -0.0022536668657805671 -0.031269863856202548 0 -0.0021630895672616829 -0.031393404892443265 0 -0.0022536668657805671 -0.031269863856202548 0 -0.0021161623064587867 -0.031203668554929148 0 -0.0017491691014160568 -0.029888903219178819 0 -0.0012069824742511478 -0.029786093411420446 0 -0.0017491691014160568 -0.029888903219178819 0 -0.0017316746031079057 -0.030575298887089299 0 -0.0023483283352142329 -0.031159945648677283 0 -0.0022536668657805671 -0.031269863856202548 0 -0.0021161623064587867 -0.031203668554929148 0 -0.0014352954822077608 -0.029831698231456257 0 -0.0012907255234907227 -0.029810693418515392 0 -0.0013932551602473615 -0.029757759390701053 0 -0.0015442289877333096 -0.029908811212578951 0 -0.0012907255234907227 -0.029810693418515392 0 -0.0013280360366047452 -0.029939204912737254 0 -0.0013280360366047452 -0.029939204912737254 0 -0.0012050960141339337 -0.029857348948783346 0 -0.0011530706738161506 -0.029964044456908076 0 -0.0012907255234907227 -0.029810693418515392 0 -0.0013280360366047452 -0.029939204912737254 0 -0.0012050960141339337 -0.029857348948783346 0 -0.0017316746031079057 -0.030575298887089299 0 -0.0016012261892443937 -0.030886874206926065 0 -0.0012907255234907227 -0.029810693418515392 0 -0.0012050960141339337 -0.029857348948783346 0 -0.0012237329587049337 -0.029756675761768808 0 -0.0012907255234907227 -0.029810693418515392 0 -0.0012237329587049337 -0.029756675761768808 0 -0.0013279973289778623 -0.029714336066770132 0 -0.0012237329587049337 -0.029756675761768808 0 -0.0013279973289778623 -0.029714336066770132 0 -0.0012639072871304786 -0.029646053040936985 0 -0.0012237329587049337 -0.029756675761768808 0 -0.0012639072871304786 -0.029646053040936985 0 -0.0011462815100318014 -0.029701351281272822 0 -0.0014365299039878895 -0.029674443843963883 0 -0.0013279973289778623 -0.029714336066770132 0 -0.0013671257605912771 -0.029596098946221026 0 -0.0014365299039878895 -0.029674443843963883 0 -0.0013932551602473615 -0.029757759390701053 0 -0.0013279973289778623 -0.029714336066770132 0 -0.0012907255234907227 -0.029810693418515392 0 -0.0013932551602473615 -0.029757759390701053 0 -0.0013279973289778623 -0.029714336066770132 0 -0.0013279973289778623 -0.029714336066770132 0 -0.0013671257605912771 -0.029596098946221026 0 -0.0012639072871304786 -0.029646053040936985 0 -0.0013550215588000807 -0.02946190062675353 0 -0.0015269767207583807 -0.029565173651786729 0 -0.0013671257605912771 -0.029596098946221026 0 -0.0013550215588000807 -0.02946190062675353 0 -0.0013671257605912771 -0.029596098946221026 0 -0.0012844203417873795 -0.029553925748809832 0 -0.0011919019821328841 -0.029588866757209238 0 -0.0012639072871304786 -0.029646053040936985 0 -0.0011462815100318014 -0.029701351281272822 0 -0.0011919019821328841 -0.029588866757209238 0 -0.0012639072871304786 -0.029646053040936985 0 -0.0012844203417873795 -0.029553925748809832 0 -0.0013671257605912771 -0.029596098946221026 0 -0.0012639072871304786 -0.029646053040936985 0 -0.0012844203417873795 -0.029553925748809832 0 -0.0012033528313079751 -0.029487939280268938 0 -0.0011919019821328841 -0.029588866757209238 0 -0.0012844203417873795 -0.029553925748809832 0 -0.0011919019821328841 -0.029588866757209238 0 -0.0011186641238726028 -0.029542445543951933 0 -0.0011053691329492837 -0.029620821236210414 0 -0.0012033528313079751 -0.029487939280268938 0 -0.0011919019821328841 -0.029588866757209238 0 -0.0011186641238726028 -0.029542445543951933 0 -0.0011919019821328841 -0.029588866757209238 0 -0.0011053691329492837 -0.029620821236210414 0 -0.0011462815100318014 -0.029701351281272822 0 -0.0011186641238726028 -0.029542445543951933 0 -0.0011053691329492837 -0.029620821236210414 0 -0.001017535996804853 -0.029563984548518652 0 -0.0010684449002999158 -0.029451624091461352 0 -0.0011186641238726028 -0.029542445543951933 0 -0.001017535996804853 -0.029563984548518652 0 -0.00093602043203572379 -0.029479904855811551 0 -0.001017535996804853 -0.029563984548518652 0 -0.0008791571652521146 -0.029604232978622965 0 -0.001017535996804853 -0.029563984548518652 0 -0.000994622585789475 -0.029709529312129411 0 -0.0008791571652521146 -0.029604232978622965 0 -0.0011053691329492837 -0.029620821236210414 0 -0.001017535996804853 -0.029563984548518652 0 -0.000994622585789475 -0.029709529312129411 0 -0.000994622585789475 -0.029709529312129411 0 -0.0011113413458815823 -0.02980968526304309 0 -0.00094304386237391692 -0.029869176345461983 0 -0.0011053691329492837 -0.029620821236210414 0 -0.000994622585789475 -0.029709529312129411 0 -0.0011462815100318014 -0.029701351281272822 0 -0.000994622585789475 -0.029709529312129411 0 -0.0011113413458815823 -0.02980968526304309 0 -0.0011462815100318014 -0.029701351281272822 0 -0.0012237329587049337 -0.029756675761768808 0 -0.0011113413458815823 -0.02980968526304309 0 -0.0011462815100318014 -0.029701351281272822 0 -0.00078617082583696911 -0.030084832376580922 0 -0.00026503750005237069 -0.029789913402417188 0 -0.00057879385257866823 -0.029255689594382787 0 -0.00062390443199428322 -0.029602014493208886 0 -0.00025044306890859382 -0.029787149843173356 0 -0.00062390443199428322 -0.029602014493208886 0 -0.00069591442497242949 -0.029810923828127247 0 -0.00025044306890859382 -0.029787149843173356 0 -0.00062390443199428322 -0.029602014493208886 0 -0.0008791571652521146 -0.029604232978622965 0 -0.00069591442497242949 -0.029810923828127247 0 -0.00077449583389320345 -0.029444451064294525 0 -0.00062390443199428322 -0.029602014493208886 0 -0.0008791571652521146 -0.029604232978622965 0 -0.00077449583389320345 -0.029444451064294525 0 -0.00093602043203572379 -0.029479904855811551 0 -0.0008791571652521146 -0.029604232978622965 0 -0.000994622585789475 -0.029709529312129411 0 -0.00069591442497242949 -0.029810923828127247 0 -0.00094304386237391692 -0.029869176345461983 0 -0.00078617082583696911 -0.030084832376580922 0 -0.0011348269495200002 -0.030271879445777895 0 -0.000994622585789475 -0.029709529312129411 0 -0.0008791571652521146 -0.029604232978622965 0 -0.00069591442497242949 -0.029810923828127247 0 -0.00091185534503471298 -0.03035975152779273 0 -0.00063295985595347335 -0.030633448779941602 0 -0.00025044306890859382 -0.029787149843173356 0 -0.00091185534503471298 -0.03035975152779273 0 -0.00063295985595347335 -0.030633448779941602 0 -0.00098288397021011769 -0.030851865253989738 0 -0.00063295985595347335 -0.030633448779941602 0 -0.00098288397021011769 -0.030851865253989738 0 -0.00049089994648819006 -0.030967569746064207 0 -0.00098288397021011769 -0.030851865253989738 0 -0.0011155067183488212 -0.031274439854664632 0 -0.00049089994648819006 -0.030967569746064207 0 -0.00091185534503471298 -0.03035975152779273 0 -0.00098288397021011769 -0.030851865253989738 0 -0.0013909196231793547 -0.030785256121733662 0 -0.00098288397021011769 -0.030851865253989738 0 -0.0013909196231793547 -0.030785256121733662 0 -0.0013151733076378748 -0.031104695322560768 0 -0.00098288397021011769 -0.030851865253989738 0 -0.0011155067183488212 -0.031274439854664632 0 -0.0013151733076378748 -0.031104695322560768 0 -0.0011992225435069341 -0.031388017700786523 0 -0.00061846326600912605 -0.031100153924791301 0 -0.0012636686567598194 -0.03149419409218452 0 -0.0011524683893503339 -0.031622501163534912 0 -0.00078850052175554516 -0.031247898203658489 0 -0.00084558143338552732 -0.032013578083011536 0 -0.0011279890017517472 -0.031904483684480685 0 -0.00064779453866381802 -0.031724577324961208 0 -0.0011524683893503339 -0.031622501163534912 0 -0.00078850052175554516 -0.031247898203658489 0 -0.00068296986024019696 -0.031547338584478002 0 -0.0011367617848593644 -0.031757673103237384 0 -0.00063846132562161593 -0.031627704230484041 0 -0.0011113413458815823 -0.02980968526304309 0 -0.00094304386237391692 -0.029869176345461983 0 -0.0011530706738161506 -0.029964044456908076 0 -0.0011348269495200002 -0.030271879445777895 0 -0.0016012261892443937 -0.030886874206926065 0 -0.0012050960141339337 -0.029857348948783346 0 -0.0011113413458815823 -0.02980968526304309 0 -0.0011530706738161506 -0.029964044456908076 0 -0.0012050960141339337 -0.029857348948783346 0 -0.0012237329587049337 -0.029756675761768808 0 -0.0011113413458815823 -0.02980968526304309 0 -0.0013909196231793547 -0.030785256121733662 0 -0.0015442149759846561 -0.03118588802182802 0 -0.0019008334530131617 -0.031134778858711951 0 -0.0013909196231793547 -0.030785256121733662 0 -0.0015442149759846561 -0.03118588802182802 0 -0.0013151733076378748 -0.031104695322560768 0 -0.0011992225435069341 -0.031388017700786523 0 -0.0016186615888804754 -0.031593971839703715 0 -0.0015442149759846561 -0.03118588802182802 0 -0.0013151733076378748 -0.031104695322560768 0 -0.0014615096074076768 -0.031301885763825726 0 -0.0011155067183488212 -0.031274439854664632 0 -0.0014615096074076768 -0.031301885763825726 0 -0.0016337682354566378 -0.031603982474953822 0 -0.0015442149759846561 -0.03118588802182802 0 -0.0014615096074076768 -0.031301885763825726 0 -0.0016860248490810966 -0.031337227771981994 0 -0.0011155067183488212 -0.031274439854664632 0 -0.0013151733076378748 -0.031104695322560768 0 -0.0014615096074076768 -0.031301885763825726 0 -0.0016860248490810966 -0.031337227771981994 0 -0.0017973032763438463 -0.031467459879003248 0 -0.0016337682354566378 -0.031603982474953822 0 -0.0014615096074076768 -0.031301885763825726 0 -0.0016860248490810966 -0.031337227771981994 0 -0.0016337682354566378 -0.031603982474953822 0 -0.0015442149759846561 -0.03118588802182802 0 -0.0016860248490810966 -0.031337227771981994 0 -0.0018169418941553937 -0.031193468458246741 0 -0.0016416177270373556 -0.031152548309577748 0 -0.0016012261892443937 -0.030886874206926065 0 -0.0019300123868713319 -0.031415673760773595 0 -0.0018169418941553937 -0.031193468458246741 0 -0.0017973032763438463 -0.031467459879003248 0 -0.0016860248490810966 -0.031337227771981994 0 -0.0018169418941553937 -0.031193468458246741 0 -0.0017973032763438463 -0.031467459879003248 0 -0.0018120226958865352 -0.031867007544610561 0 -0.001499290454354993 -0.031811215137584524 0 -0.0017564312527647606 -0.03168691453497486 0 -0.0016337682354566378 -0.031603982474953822 0 -0.0014741285298910895 -0.03165802441275125 0 -0.0017973032763438463 -0.031467459879003248 0 -0.0017564312527647606 -0.03168691453497486 0 -0.0019111639317895854 -0.031614213015087489 0 -0.0018212841377004097 -0.031857298483369982 0 -0.0017564312527647606 -0.03168691453497486 0 -0.0014741285298910895 -0.03165802441275125 0 -0.0017973032763438463 -0.031467459879003248 0 -0.0017564312527647606 -0.03168691453497486 0 -0.0016337682354566378 -0.031603982474953822 0 -0.0018212841377004097 -0.031857298483369982 0 -0.0015016130900437946 -0.031955773408034162 0 -0.0015764806120462827 -0.032030297387633799 0 -0.0018212841377004097 -0.031857298483369982 0 -0.0017564312527647606 -0.03168691453497486 0 -0.0019111639317895854 -0.031614213015087489 0 -0.0012636686567598194 -0.03149419409218452 0 -0.0016337682354566378 -0.031603982474953822 0 -0.0014741285298910895 -0.03165802441275125 0 -0.0015016130900437946 -0.031955773408034162 0 -0.001472206237347897 -0.032098115597788968 0 -0.0012787502523844607 -0.03206206348920735 0 -0.0015016130900437946 -0.031955773408034162 0 -0.0015764806120462827 -0.032030297387633799 0 -0.001472206237347897 -0.032098115597788968 0 -0.0015764806120462827 -0.032030297387633799 0 -0.001519176922881203 -0.032110945216920254 0 -0.0016212571768587096 -0.032059346578132412 0 -0.0015764806120462827 -0.032030297387633799 0 -0.001472206237347897 -0.032098115597788968 0 -0.001519176922881203 -0.032110945216920254 0 -0.001472206237347897 -0.032098115597788968 0 -0.0014570483016833875 -0.032120218907638658 0 -0.001519176922881203 -0.032110945216920254 0 -0.0014570483016833875 -0.032120218907638658 0 -0.001519176922881203 -0.032110945216920254 0 -0.0014553388644079036 -0.032151424011662044 0 -0.0018212841377004097 -0.031857298483369982 0 -0.0016099482987059941 -0.032199721580230864 0 -0.0020888239486392163 -0.031818405261114804 0 -0.001519176922881203 -0.032110945216920254 0 -0.0016212571768587096 -0.032059346578132412 0 -0.0016099482987059941 -0.032199721580230864 0 -0.0018212841377004097 -0.031857298483369982 0 -0.0016212571768587096 -0.032059346578132412 0 -0.0016099482987059941 -0.032199721580230864 0 -0.0018212841377004097 -0.031857298483369982 0 -0.0015764806120462827 -0.032030297387633799 0 -0.0016212571768587096 -0.032059346578132412 0 -0.00074875431284689316 -0.032222602685050464 0 -0.00084558143338552732 -0.032013578083011536 0 -0.0010484062280787896 -0.032166155350265242 0 -0.00074875431284689316 -0.032222602685050464 0 -0.00084558143338552732 -0.032013578083011536 0 -0.00063670786294601264 -0.032016310874553297 0 -0.00084558143338552732 -0.032013578083011536 0 -0.0010484062280787896 -0.032166155350265242 0 -0.0011279890017517472 -0.031904483684480685 0 -0.001499290454354993 -0.031811215137584524 0 -0.0011367617848593644 -0.031757673103237384 0 -0.0012636686567598194 -0.03149419409218452 0 -0.0014741285298910895 -0.03165802441275125 0 -0.0011524683893503339 -0.031622501163534912 0 -0.0015016130900437946 -0.031955773408034162 0 -0.0011279890017517472 -0.031904483684480685 0 -0.0012787502523844607 -0.03206206348920735 0 -0.0010484062280787896 -0.032166155350265242 0 -0.0011279890017517472 -0.031904483684480685 0 -0.0012787502523844607 -0.03206206348920735 0 -0.001472206237347897 -0.032098115597788968 0 -0.0012787502523844607 -0.03206206348920735 0 -0.0010916395743413561 -0.03250373627899629 0 -0.0014570483016833875 -0.032120218907638658 0 -0.00140343922142633 -0.032124000236438549 0 -0.0014553388644079036 -0.032151424011662044 0 -0.0010484062280787896 -0.032166155350265242 0 -0.0012787502523844607 -0.03206206348920735 0 -0.0010916395743413561 -0.03250373627899629 0 -0.001472206237347897 -0.032098115597788968 0 -0.0014570483016833875 -0.032120218907638658 0 -0.00140343922142633 -0.032124000236438549 0 -0.0014137259907629777 -0.032156996677726736 0 -0.0013303852986276991 -0.032232471494306927 0 -0.0010916395743413561 -0.03250373627899629 0 -0.00061338355414103265 -0.032510956820509321 0 -0.00063795591879371835 -0.032801664179047146 0 -0.00074875431284689316 -0.032222602685050464 0 -0.0010916395743413561 -0.03250373627899629 0 -0.00061338355414103265 -0.032510956820509321 0 -0.00074875431284689316 -0.032222602685050464 0 -0.0010484062280787896 -0.032166155350265242 0 -0.0010916395743413561 -0.03250373627899629 0 -0.0014119340219644276 -0.032160591250747349 0 -0.0013796793120953656 -0.032175221067242632 0 -0.0013515463017449308 -0.03215432695743177 0 -0.00140343922142633 -0.032124000236438549 0 -0.0014119340219644276 -0.032160591250747349 0 -0.0013515463017449308 -0.03215432695743177 0 -0.0013303852986276991 -0.032232471494306927 0 -0.00067221353715000499 -0.032992856646081849 0 -0.00069844735647263455 -0.032821573783271246 0 -0.00067221353715000499 -0.032992856646081849 0 -0.0014119340219644276 -0.032160591250747349 0 -0.0014133524635849088 -0.032162458635873636 0 -0.0014553388644079036 -0.032151424011662044 0 -0.00140343922142633 -0.032124000236438549 0 -0.0014119340219644276 -0.032160591250747349 0 -0.0014553388644079036 -0.032151424011662044 0 -0.0014133524635849088 -0.032162458635873636 0 -0.0013954613009150058 -0.032181060827132048 0 -0.0014200837588888909 -0.032159911290462022 0 -0.0014119340219644276 -0.032160591250747349 0 -0.0014133524635849088 -0.032162458635873636 0 -0.0013954613009150058 -0.032181060827132048 0 -0.00020215540423804121 -0.033573515541865322 0 -6.0974449047663307e-05 -0.033411880546379627 0 0.00017380660094562045 -0.033541315631314926 0 3.9597464731242401e-05 -0.033200723051294886 0 0.0006508607995057928 -0.033519875616112756 0 -0.0014119340219644276 -0.032160591250747349 0 -0.0013954613009150058 -0.032181060827132048 0 -0.0013796793120953656 -0.032175221067242632 0 3.9597464731242401e-05 -0.033200723051294886 0 -0.00069844735647263455 -0.032821573783271246 0 -0.0014844400537139374 -0.031993025067482278 0 -0.0014491625445302038 -0.031957270691677191 0 -0.001445933663661147 -0.032053663453435757 0 -0.0014844400537139374 -0.031993025067482278 0 -0.0014491625445302038 -0.031957270691677191 0 -0.0014986240658412964 -0.031947893639436412 0 -0.0014450019046558129 -0.032072490934308535 0 -0.0015407525997105087 -0.032294022562824827 0 -0.0014133524635849088 -0.032162458635873636 0 -0.0014491625445302038 -0.031957270691677191 0 -0.001445933663661147 -0.032053663453435757 0 -0.001519176922881203 -0.032110945216920254 0 -0.0016099482987059941 -0.032199721580230864 0 -0.0014553388644079036 -0.032151424011662044 0 -0.0014133524635849088 -0.032162458635873636 0 -0.0016099482987059941 -0.032199721580230864 0 -0.0014553388644079036 -0.032151424011662044 0 -0.0014133524635849088 -0.032162458635873636 0 -0.001445933663661147 -0.032053663453435757 0 -0.0014312102373192196 -0.032130461382058391 0 -0.001445933663661147 -0.032053663453435757 0 -0.0014312102373192196 -0.032130461382058391 0 -0.001456753649514322 -0.0321279870815585 0 -0.0014133524635849088 -0.032162458635873636 0 -0.0014312102373192196 -0.032130461382058391 0 -0.0014200837588888909 -0.032159911290462022 0 -0.0014312102373192196 -0.032130461382058391 0 -0.001456753649514322 -0.0321279870815585 0 -0.0014200837588888909 -0.032159911290462022 0 -0.001445933663661147 -0.032053663453435757 0 -0.001456753649514322 -0.0321279870815585 0 -0.0014955035709747853 -0.032112567939864146 0 -0.0013994093701302571 -0.032016044917643295 0 -0.0016507760855360447 -0.032149709460664082 0 -0.0014844400537139374 -0.031993025067482278 0 -0.001445933663661147 -0.032053663453435757 0 -0.0014875308150463259 -0.032015921009554429 0 -0.001456753649514322 -0.0321279870815585 0 -0.0014955035709747853 -0.032112567939864146 0 -0.0014921201915809009 -0.032146158160630219 0 -0.0014875308150463259 -0.032015921009554429 0 -0.0015197464082129563 -0.032008818455183816 0 -0.0015342598743353709 -0.031959833893193304 0 -0.0014875308150463259 -0.032015921009554429 0 -0.0015197464082129563 -0.032008818455183816 0 -0.001513235951392893 -0.032012279913601567 0 -0.0016507760855360447 -0.032149709460664082 0 -0.0010891913728207168 -0.030685036429210808 0 -0.0014955035709747853 -0.032112567939864146 0 -0.0015193026905773244 -0.032126866702651642 0 -0.0014921201915809009 -0.032146158160630219 0 -0.0004821369003929672 -0.029851012494609128 0 -0.00062329817721159804 -0.029808280258941444 0 -0.0014844400537139374 -0.031993025067482278 0 -0.0014875308150463259 -0.032015921009554429 0 -0.0015342598743353709 -0.031959833893193304 0 -0.0014844400537139374 -0.031993025067482278 0 -0.0015342598743353709 -0.031959833893193304 0 -0.0014986240658412964 -0.031947893639436412 0 0.00015637803659521938 -0.027911322139540354 0 -0.00013534699969184051 -0.027871162332278338 0 -3.8512334430635915e-05 -0.027689555174132185 0 0.00015637803659521938 -0.027911322139540354 0 2.7027714305098598e-05 -0.028053943140650683 0 -0.00013534699969184051 -0.027871162332278338 0 0.00013478537559271419 -0.028231352073393626 0 0.00015637803659521938 -0.027911322139540354 0 2.7027714305098598e-05 -0.028053943140650683 0 -0.0004821369003929672 -0.029851012494609128 0 -0.00019309025535227869 -0.028187523528305482 0 0.00013478537559271419 -0.028231352073393626 0 2.7027714305098598e-05 -0.028053943140650683 0 -0.00015348565118260323 -0.028123278658241425 0 -0.00015348565118260323 -0.028123278658241425 0 -0.00045183603618207703 -0.028023665113122081 0 -0.00027773151988974131 -0.027953580162349299 0 -0.00019309025535227869 -0.028187523528305482 0 -0.00029735108724566789 -0.027980524594221783 0 -0.00028998331381306376 -0.02849347730365338 0 -0.00027837468711441009 -0.028490235073057608 0 -0.00028614280906455892 -0.028482890663994564 0 -0.00027773151988974131 -0.027953580162349299 0 -0.00013534699969184051 -0.027871162332278338 0 -0.00037196155389242121 -0.027794663787944089 0 -0.00029735108724566789 -0.027980524594221783 0 -0.00030559100168670673 -0.027658991552006323 0 -0.00045183603618207703 -0.028023665113122081 0 -0.00027773151988974131 -0.027953580162349299 0 -0.00037196155389242121 -0.027794663787944089 0 2.7027714305098598e-05 -0.028053943140650683 0 -0.00015348565118260323 -0.028123278658241425 0 -0.00013534699969184051 -0.027871162332278338 0 -0.00015348565118260323 -0.028123278658241425 0 -0.00027773151988974131 -0.027953580162349299 0 -0.00013534699969184051 -0.027871162332278338 0 -0.00013534699969184051 -0.027871162332278338 0 -0.00025866215918693354 -0.027539413784406979 0 -3.8512334430635915e-05 -0.027689555174132185 0 -0.00013534699969184051 -0.027871162332278338 0 -0.00037196155389242121 -0.027794663787944089 0 -0.00025866215918693354 -0.027539413784406979 0 -0.00025615316599923049 -0.027565389278762467 0 -0.00025866215918693354 -0.027539413784406979 0 -0.00032742174513586967 -0.027481918726141107 0 -0.00030559100168670673 -0.027658991552006323 0 -0.00026928372788825091 -0.027563884733109403 0 -0.00025866215918693354 -0.027539413784406979 0 -0.00026631157243226595 -0.027446670911557367 0 -0.00032742174513586967 -0.027481918726141107 0 -0.00025866215918693354 -0.027539413784406979 0 -0.00026631157243226595 -0.027446670911557367 0 -0.00017836251775436255 -0.02744849427143049 0 -2.8467313927679466e-05 -0.027439961893003947 0 -7.5549828318347172e-05 -0.027545689209539183 0 -0.00017836251775436255 -0.02744849427143049 0 -0.00025866215918693354 -0.027539413784406979 0 -7.5549828318347172e-05 -0.027545689209539183 0 -0.00017836251775436255 -0.02744849427143049 0 -0.00025866215918693354 -0.027539413784406979 0 -7.5549828318347172e-05 -0.027545689209539183 0 -3.8512334430635915e-05 -0.027689555174132185 0 -2.8467313927679466e-05 -0.027439961893003947 0 -7.5549828318347172e-05 -0.027545689209539183 0 0.00016072812581251526 -0.027611258391462067 0 -7.5549828318347172e-05 -0.027545689209539183 0 0.00016072812581251526 -0.027611258391462067 0 -3.8512334430635915e-05 -0.027689555174132185 0 -0.0021630895672616829 -0.031393404892443265 0 -0.0022719828671944262 -0.031417374686805111 0 -0.0020744014552088953 -0.031623488613331058 0 -0.0011457451238324509 -0.029369018324203345 0 -0.0014924769808374052 -0.0305802113814772 0 -0.0021630895672616829 -0.031393404892443265 0 -0.0020673415152698323 -0.031470539197890883 0 -0.0020744014552088953 -0.031623488613331058 0 -0.0019912990021717387 -0.031794873861310621 0 -0.0014924769808374052 -0.0305802113814772 0 -0.0020673415152698323 -0.031470539197890883 0 -0.0019111639317895854 -0.031614213015087489 0 -0.0020888239486392163 -0.031818405261114804 0 -0.0019300123868713319 -0.031415673760773595 0 -0.0020673415152698323 -0.031470539197890883 0 -0.0019111639317895854 -0.031614213015087489 0 -0.0019300123868713319 -0.031415673760773595 0 -0.0017973032763438463 -0.031467459879003248 0 -0.0019111639317895854 -0.031614213015087489 0 -0.0018212841377004097 -0.031857298483369982 0 -0.0019111639317895854 -0.031614213015087489 0 -0.0020888239486392163 -0.031818405261114804 0 -0.0015342598743353709 -0.031959833893193304 0 -0.0014986240658412964 -0.031947893639436412 0 -0.0015376152335389048 -0.031834708128591509 0 -0.00062329817721159804 -0.029808280258941444 0 -0.0014924769808374052 -0.0305802113814772 0 -0.0015407525997105087 -0.032294022562824827 0 -0.0014924769808374052 -0.0305802113814772 0 -0.0014491625445302038 -0.031957270691677191 0 -0.0014986240658412964 -0.031947893639436412 0 -0.0015376152335389048 -0.031834708128591509 0 0.00015637803659521938 -0.027911322139540354 0 0.00016072812581251526 -0.027611258391462067 0 -3.8512334430635915e-05 -0.027689555174132185 0 0.00017414154723194934 -0.035056778232081788 0 1.2020919187811775e-07 -0.035000409572626089 0 3.9146568319844883e-08 -0.034999919767689396 0 0.00017414154723194934 -0.035056778232081788 0 0.00027656672274079528 -0.035007660137733182 0 3.9146568319844883e-08 -0.034999919767689396 0 0.00017414154723194934 -0.035056778232081788 0 0.00042583855938935829 -0.035085381624798226 0 0.00027656672274079528 -0.035007660137733182 0 4.5258275418510121e-06 -0.034989862858515942 0 3.7432851885164269e-10 -0.034999992973422316 0 2.5998235532986967e-06 -0.034993608952642072 0 0.00017414154723194934 -0.035056778232081788 0 0.00025531108192161639 -0.035216571844888953 0 0.00042583855938935829 -0.035085381624798226 0 0.00078313158006924964 -0.033454552845804834 0 0.0016865618717717915 -0.032326669846778351 0 0.0029346258690134716 -0.030878180621314553 0 0.0027824739536876559 -0.030824445481257498 0 0.0027801639166106654 -0.030966763142070992 0 0.0016865618717717915 -0.032326669846778351 0 0.0018464075618476916 -0.031725606374873365 0 3.7432851885164269e-10 -0.034999992973422316 0 1.6272771728784103e-09 -0.034999994252240332 0 2.5998235532986967e-06 -0.034993608952642072 0 0.00017414154723194934 -0.035056778232081788 0 0.00025531108192161639 -0.035216571844888953 0 1.2020919187811775e-07 -0.035000409572626089 0 0.00078313158006924964 -0.033454552845804834 0 -3.5300701888460192e-07 -0.035001016873070896 0 1.6272771728784103e-09 -0.034999994252240332 0 -1.7233420086192331e-09 -0.035000004491906107 0 2.5998235532986967e-06 -0.034993608952642072 0 -8.2979005591482767e-07 -0.035001099749539612 0 -0.00013901252453007781 -0.035002751434157597 0 -0.00021056960276186337 -0.035123693574285568 0 1.1822914406595893e-07 -0.035000071569819109 0 -0.00027331842137061173 -0.034886938049159835 0 -5.747350888223172e-05 -0.034868845559401632 0 -8.2979005591482767e-07 -0.035001099749539612 0 -0.00013901252453007781 -0.035002751434157597 0 -5.747350888223172e-05 -0.034868845559401632 0 1.6405004125589424e-06 -0.034997628344292896 0 -8.2979005591482767e-07 -0.035001099749539612 0 -7.0919129085240316e-05 -0.03487225868421745 0 -0.00030186558401585966 -0.035244855002618813 0 -5.747350888223172e-05 -0.034868845559401632 0 -0.00036365908714355448 -0.035309485441579358 0 -0.00057104506979163781 -0.034771238646534669 0 -0.0012039669075406322 -0.034521671161257934 0 -0.00057104506979163781 -0.034771238646534669 0 -0.00091899123888130295 -0.035425024254650085 0 -0.00036365908714355448 -0.035309485441579358 0 -0.00057104506979163781 -0.034771238646534669 0 -0.00091899123888130295 -0.035425024254650085 0 -0.001054879566088681 -0.036153122178812266 0 -0.00091899123888130295 -0.035425024254650085 0 -0.00071999839136817215 -0.035942681632692743 0 -0.00036365908714355448 -0.035309485441579358 0 -0.00091899123888130295 -0.035425024254650085 0 -0.00071999839136817215 -0.035942681632692743 0 -0.00030186558401585966 -0.035244855002618813 0 -0.00027331842137061173 -0.034886938049159835 0 0.00078313158006924964 -0.033454552845804834 0 -0.00027331842137061173 -0.034886938049159835 0 0.0016865618717717915 -0.032326669846778351 0 -0.00027331842137061173 -0.034886938049159835 0 0.00059709169616735391 -0.032989888372273103 0 0.0012999039552333389 -0.033261306806082733 0 -1.9742964391450746e-05 -0.034074338004021043 0 0.0028331992697172466 -0.030774747268459683 0 0.0020506927257615644 -0.030466922126355787 0 0.0023660273908049814 -0.031058204133887744 0 0.0016865618717717915 -0.032326669846778351 0 0.0022903857134413479 -0.03045569149857973 0 -0.001054879566088681 -0.036153122178812266 0 -0.00091899123888130295 -0.035425024254650085 0 -0.0014653094140042154 -0.035141068526515058 0 0.0026499208948820223 -0.030721976180036505 0 0.0023866569054229836 -0.029925230281470729 0 0.0020506927257615644 -0.030466922126355787 0 0.0016865618717717915 -0.032326669846778351 0 0.00044757813193735754 -0.032741942962298626 0 -0.0012039669075406322 -0.034521671161257934 0 -0.00091899123888130295 -0.035425024254650085 0 -0.0014653094140042154 -0.035141068526515058 0 0.001698962461698037 -0.029529582641513261 0 0.0023866569054229836 -0.029925230281470729 0 0.0016376344224516969 -0.030073192058795113 0 0.001698962461698037 -0.029529582641513261 0 0.0016376344224516969 -0.030073192058795113 0 0.0012469957316134607 -0.02965891290042582 0 0.0020506927257615644 -0.030466922126355787 0 0.0017807683433596726 -0.030994561695090527 0 0.0014237481364544953 -0.030593610249594606 0 0.0023866569054229836 -0.029925230281470729 0 0.0016376344224516969 -0.030073192058795113 0 0.0020506927257615644 -0.030466922126355787 0 0.0016376344224516969 -0.030073192058795113 0 0.0020506927257615644 -0.030466922126355787 0 0.0014237481364544953 -0.030593610249594606 0 0.0017807683433596726 -0.030994561695090527 0 0.0018647120531692148 -0.031635231330969384 0 0.0012056345143660605 -0.03124291151471402 0 0.0017807683433596726 -0.030994561695090527 0 0.0023660273908049814 -0.031058204133887744 0 0.0018647120531692148 -0.031635231330969384 0 0.0020506927257615644 -0.030466922126355787 0 0.0017807683433596726 -0.030994561695090527 0 0.0023660273908049814 -0.031058204133887744 0 0.00078313158006924964 -0.033454552845804834 0 0.0016000385537892532 -0.033308643476098243 0 0.0027801639166106654 -0.030966763142070992 0 0.0023660273908049814 -0.031058204133887744 0 0.002502416351409817 -0.031762649091374703 0 0.0029346258690134716 -0.030878180621314553 0 0.0027801639166106654 -0.030966763142070992 0 0.002502416351409817 -0.031762649091374703 0 0.00278445845115421 -0.030824612605692719 0 0.0027801639166106654 -0.030966763142070992 0 0.0023660273908049814 -0.031058204133887744 0 0.0016865618717717915 -0.032326669846778351 0 0.0028573489788555825 -0.030950082962240184 0 0.0023660273908049814 -0.031058204133887744 0 0.002502416351409817 -0.031762649091374703 0 0.0018647120531692148 -0.031635231330969384 0 0.002502416351409817 -0.031762649091374703 0 0.0018647120531692148 -0.031635231330969384 0 0.0020023441750172911 -0.032819845980626858 0 0.00063868735757718138 -0.031709073197288794 0 0.0012056345143660605 -0.03124291151471402 0 0.001213325397946591 -0.032156563898315983 0 0.0018647120531692148 -0.031635231330969384 0 0.0012056345143660605 -0.03124291151471402 0 0.001213325397946591 -0.032156563898315983 0 0.00063868735757718138 -0.031709073197288794 0 0.00056725032695975858 -0.031179241841848775 0 0.0012056345143660605 -0.03124291151471402 0 0.00063868735757718138 -0.031709073197288794 0 7.7755447608570858e-05 -0.031417306254389876 0 0.00012847772934870174 -0.032284976822273395 0 0.00063868735757718138 -0.031709073197288794 0 0.00012847772934870174 -0.032284976822273395 0 0.001213325397946591 -0.032156563898315983 0 0.00063868735757718138 -0.031709073197288794 0 0.00056725032695975858 -0.031179241841848775 0 7.7755447608570858e-05 -0.031417306254389876 0 0.00056725032695975858 -0.031179241841848775 0 0.00081537712694162046 -0.030702438189365001 0 0.0001890386803673717 -0.030730730669763437 0 0.00056725032695975858 -0.031179241841848775 0 0.0012056345143660605 -0.03124291151471402 0 0.00081537712694162046 -0.030702438189365001 0 0.0017807683433596726 -0.030994561695090527 0 0.0012056345143660605 -0.03124291151471402 0 0.0014237481364544953 -0.030593610249594606 0 0.0012056345143660605 -0.03124291151471402 0 0.0014237481364544953 -0.030593610249594606 0 0.00081537712694162046 -0.030702438189365001 0 0.0014237481364544953 -0.030593610249594606 0 0.00098425869309544845 -0.030114350567072356 0 0.00081537712694162046 -0.030702438189365001 0 0.0016376344224516969 -0.030073192058795113 0 0.0014237481364544953 -0.030593610249594606 0 0.00098425869309544845 -0.030114350567072356 0 0.00083403206767810559 -0.029406893407136991 0 0.00098425869309544845 -0.030114350567072356 0 0.0012469957316134607 -0.02965891290042582 0 0.0016376344224516969 -0.030073192058795113 0 0.00098425869309544845 -0.030114350567072356 0 0.0012469957316134607 -0.02965891290042582 0 0.00083403206767810559 -0.029406893407136991 0 0.00098425869309544845 -0.030114350567072356 0 0.00042124858624389212 -0.029851741131549165 0 0.0005194954984122967 -0.030356625584255476 0 0.00081537712694162046 -0.030702438189365001 0 0.0001890386803673717 -0.030730730669763437 0 0.00098425869309544845 -0.030114350567072356 0 0.0005194954984122967 -0.030356625584255476 0 0.00042124858624389212 -0.029851741131549165 0 0.00098425869309544845 -0.030114350567072356 0 0.0005194954984122967 -0.030356625584255476 0 0.00081537712694162046 -0.030702438189365001 0 0.0005194954984122967 -0.030356625584255476 0 0.00010419511286830529 -0.03027552403112457 0 0.0001890386803673717 -0.030730730669763437 0 0.00010419511286830529 -0.03027552403112457 0 -0.00022218273987965312 -0.030509651343835684 0 0.0001890386803673717 -0.030730730669763437 0 0.0005194954984122967 -0.030356625584255476 0 0.00010419511286830529 -0.03027552403112457 0 0.00042124858624389212 -0.029851741131549165 0 0.00028101928621671675 -0.029140156729240575 0 0.00042124858624389212 -0.029851741131549165 0 -0.00025044306890859382 -0.029787149843173356 0 0.00010419511286830529 -0.03027552403112457 0 0.00042124858624389212 -0.029851741131549165 0 -0.00025044306890859382 -0.029787149843173356 0 0.00028101928621671675 -0.029140156729240575 0 0.00083403206767810559 -0.029406893407136991 0 0.00042124858624389212 -0.029851741131549165 0 -0.00063295985595347335 -0.030633448779941602 0 -0.00025044306890859382 -0.029787149843173356 0 -0.00022218273987965312 -0.030509651343835684 0 0.00010419511286830529 -0.03027552403112457 0 -0.00025044306890859382 -0.029787149843173356 0 -0.00022218273987965312 -0.030509651343835684 0 -0.00022218273987965312 -0.030509651343835684 0 -0.00049089994648819006 -0.030967569746064207 0 0.0001890386803673717 -0.030730730669763437 0 -0.00063295985595347335 -0.030633448779941602 0 -0.00022218273987965312 -0.030509651343835684 0 -0.00049089994648819006 -0.030967569746064207 0 -0.00061846326600912605 -0.031100153924791301 0 0.0001507278094709518 -0.030748499950429744 0 -0.00078850052175554516 -0.031247898203658489 0 0.0001890386803673717 -0.030730730669763437 0 7.7755447608570858e-05 -0.031417306254389876 0 0.00056725032695975858 -0.031179241841848775 0 0.0001890386803673717 -0.030730730669763437 0 7.7755447608570858e-05 -0.031417306254389876 0 7.7755447608570858e-05 -0.031417306254389876 0 -0.00038491882332091176 -0.032154544051649497 0 0.00012847772934870174 -0.032284976822273395 0 3.0557725525662774e-05 -0.031427110828777617 0 -0.00063846132562161593 -0.031627704230484041 0 -0.00078850052175554516 -0.031247898203658489 0 7.7755447608570858e-05 -0.031417306254389876 0 -0.00068296986024019696 -0.031547338584478002 0 7.7755447608570858e-05 -0.031417306254389876 0 -0.00064779453866381802 -0.031724577324961208 0 -0.00038491882332091176 -0.032154544051649497 0 -0.00074875431284689316 -0.032222602685050464 0 -0.00038491882332091176 -0.032154544051649497 0 -0.00061338355414103265 -0.032510956820509321 0 -0.00084558143338552732 -0.032013578083011536 0 -0.00064779453866381802 -0.031724577324961208 0 -0.00063670786294601264 -0.032016310874553297 0 -0.00074875431284689316 -0.032222602685050464 0 -0.00063670786294601264 -0.032016310874553297 0 -0.00038491882332091176 -0.032154544051649497 0 -0.00064779453866381802 -0.031724577324961208 0 -0.00063670786294601264 -0.032016310874553297 0 -0.00038491882332091176 -0.032154544051649497 0 -0.0004740997750441291 -0.032909567992705675 0 0.00010724326731936443 -0.032284688398353502 0 -0.00038491882332091176 -0.032154544051649497 0 -0.00030856525181090628 -0.032490009638280179 0 0.00012847772934870174 -0.032284976822273395 0 -0.00057708257578485645 -0.033218952796545582 0 0.00037581290151409954 -0.033842642439504883 0 0.00024426107699576237 -0.033104759363462133 0 -0.00057708257578485645 -0.033218952796545582 0 0.00024426107699576237 -0.033104759363462133 0 0.00012847772934870174 -0.032284976822273395 0 -0.0004740997750441291 -0.032909567992705675 0 -0.00067221353715000499 -0.032992856646081849 0 -0.00030856525181090628 -0.032490009638280179 0 -0.00061338355414103265 -0.032510956820509321 0 -0.00063795591879371835 -0.032801664179047146 0 -0.00038491882332091176 -0.032154544051649497 0 -0.00030856525181090628 -0.032490009638280179 0 -0.00061338355414103265 -0.032510956820509321 0 -0.00067221353715000499 -0.032992856646081849 0 -2.9045253368218825e-05 -0.03386228586196717 0 -0.00057708257578485645 -0.033218952796545582 0 -0.0011540822177939993 -0.033929296295693079 0 -0.00041138974241473382 -0.034319260855047933 0 -6.0974449047663307e-05 -0.033411880546379627 0 8.0582524440120761e-05 -0.033244219316179359 0 0.00017380660094562045 -0.033541315631314926 0 8.0582524440120761e-05 -0.033244219316179359 0 0.00017380660094562045 -0.033541315631314926 0 0.00032195498136423619 -0.033373089532740007 0 -2.9045253368218825e-05 -0.03386228586196717 0 0.00070161378997507908 -0.034141758152324883 0 0.00017380660094562045 -0.033541315631314926 0 0.00032195498136423619 -0.033373089532740007 0 0.00056673443801513875 -0.033509790228786494 0 0.0006508607995057928 -0.033519875616112756 0 0.00070161378997507908 -0.034141758152324883 0 -0.00057708257578485645 -0.033218952796545582 0 -0.00041138974241473382 -0.034319260855047933 0 0.00037581290151409954 -0.033842642439504883 0 0.00037581290151409954 -0.033842642439504883 0 0.00034659359894057381 -0.03462651085852169 0 0.00076168638081023743 -0.034239068599991318 0 -0.00041138974241473382 -0.034319260855047933 0 0.00037581290151409954 -0.033842642439504883 0 0.00034659359894057381 -0.03462651085852169 0 0.00034659359894057381 -0.03462651085852169 0 0.00076168638081023743 -0.034239068599991318 0 0.0010617838168088746 -0.034226107323801977 0 0.0011185001568816283 -0.034726534519103146 0 0.00039654842198779609 -0.034816251181807263 0 0.00056646514442295931 -0.03443563151941368 0 0.00070161378997507908 -0.034141758152324883 0 0.00070719163396847518 -0.034609636524090513 0 0.00076168638081023743 -0.034239068599991318 0 0.0011411352253293938 -0.034158984571776393 0 0.0010617838168088746 -0.034226107323801977 0 0.00037581290151409954 -0.033842642439504883 0 0.00076168638081023743 -0.034239068599991318 0 0.0011411352253293938 -0.034158984571776393 0 0.00037581290151409954 -0.033842642439504883 0 0.0011411352253293938 -0.034158984571776393 0 0.00087045026697585119 -0.033132632013336855 0 0.0011411352253293938 -0.034158984571776393 0 0.00087045026697585119 -0.033132632013336855 0 0.0020023441750172911 -0.032819845980626858 0 0.00037581290151409954 -0.033842642439504883 0 0.00087045026697585119 -0.033132632013336855 0 0.00024426107699576237 -0.033104759363462133 0 0.00087045026697585119 -0.033132632013336855 0 0.00024426107699576237 -0.033104759363462133 0 0.00012847772934870174 -0.032284976822273395 0 0.00087045026697585119 -0.033132632013336855 0 0.00012847772934870174 -0.032284976822273395 0 0.001213325397946591 -0.032156563898315983 0 0.00087045026697585119 -0.033132632013336855 0 0.001213325397946591 -0.032156563898315983 0 0.0020023441750172911 -0.032819845980626858 0 0.0018647120531692148 -0.031635231330969384 0 0.001213325397946591 -0.032156563898315983 0 0.0020023441750172911 -0.032819845980626858 0 0.0007378449632969011 -0.034881048936375142 0 0.00023647382190865795 -0.034895041752535709 0 0.00027656672274079528 -0.035007660137733182 0 0.0016000385537892532 -0.033308643476098243 0 0.0013302772666276459 -0.033870158647991137 0 0.00042583855938935829 -0.035085381624798226 0 0.0007378449632969011 -0.034881048936375142 0 0.00027656672274079528 -0.035007660137733182 0 0.0007378449632969011 -0.034881048936375142 0 0.00059973953652185555 -0.034538636110843839 0 0.00023647382190865795 -0.034895041752535709 0 0.0011745318784642544 -0.03412903156687605 0 0.0013302772666276459 -0.033870158647991137 0 0.0011411352253293938 -0.034158984571776393 0 0.0007378449632969011 -0.034881048936375142 0 0.00059973953652185555 -0.034538636110843839 0 0.0011411352253293938 -0.034158984571776393 0 0.0010617838168088746 -0.034226107323801977 0 0.00059973953652185555 -0.034538636110843839 0 0.00039654842198779609 -0.034816251181807263 0 8.2436069772381403e-05 -0.034573909397774272 0 0.00056646514442295931 -0.03443563151941368 0 0.00039654842198779609 -0.034816251181807263 0 -0.00020310029948868033 -0.034810886602913246 0 8.2436069772381403e-05 -0.034573909397774272 0 -0.00020310029948868033 -0.034810886602913246 0 -0.00023001060195839841 -0.034564512851268644 0 8.2436069772381403e-05 -0.034573909397774272 0 0.00070719163396847518 -0.034609636524090513 0 0.00012210018434530837 -0.034620243386521907 0 0.0010617838168088746 -0.034226107323801977 0 0.00059973953652185555 -0.034538636110843839 0 0.00037829745268965322 -0.034408354733435509 0 0.00059973953652185555 -0.034538636110843839 0 0.00018884149032872137 -0.034782672011196288 0 0.00037829745268965322 -0.034408354733435509 0 0.00018884149032872137 -0.034782672011196288 0 0.00037829745268965322 -0.034408354733435509 0 -1.1059701386749955e-08 -0.034999252125010392 0 -0.00020310029948868033 -0.034810886602913246 0 -0.00020248441305524458 -0.03475604242873398 0 -0.00023001060195839841 -0.034564512851268644 0 -0.00020310029948868033 -0.034810886602913246 0 -3.037036208893279e-07 -0.034999609472200273 0 -0.00020248441305524458 -0.03475604242873398 0 0.00012210018434530837 -0.034620243386521907 0 2.9525364298698137e-08 -0.034999857760554101 0 0.00018884149032872137 -0.034782672011196288 0 -1.1059701386749955e-08 -0.034999252125010392 0 1.047428308840088e-07 -0.034999941815906654 0 0.00018884149032872137 -0.034782672011196288 0 1.047428308840088e-07 -0.034999941815906654 0 0.00023647382190865795 -0.034895041752535709 0 0.00059973953652185555 -0.034538636110843839 0 0.00018884149032872137 -0.034782672011196288 0 0.00023647382190865795 -0.034895041752535709 0 0.00023647382190865795 -0.034895041752535709 0 0.00027656672274079528 -0.035007660137733182 0 3.9146568319844883e-08 -0.034999919767689396 0 1.047428308840088e-07 -0.034999941815906654 0 0.00023647382190865795 -0.034895041752535709 0 3.9146568319844883e-08 -0.034999919767689396 0 -4.3922475419010722e-05 -0.035016362123038401 0 -3.9174800883702507e-08 -0.034999919069734854 0 2.0825562705526667e-08 -0.035000292543188344 0 -4.3922475419010722e-05 -0.035016362123038401 0 -0.00016966863690783812 -0.035025122434340854 0 -3.9174800883702507e-08 -0.034999919069734854 0 -4.3922475419010722e-05 -0.035016362123038401 0 -0.00016966863690783812 -0.035025122434340854 0 -2.5146388327203194e-05 -0.035007456487488979 0 -0.00051424067983143877 -0.033883008113598366 0 -0.0003568868168854067 -0.03354150148954551 0 -0.00090629701380334294 -0.032733323051641255 0 -0.00039467150160043824 -0.0324664321093803 0 -0.00070724026312304932 -0.032033803293839536 0 -0.00090629701380334294 -0.032733323051641255 0 -0.00043526541608888958 -0.03441069916591686 0 -0.00033279947493761419 -0.033348006823642452 0 -0.00090629701380334294 -0.032733323051641255 0 -0.00033279947493761419 -0.033348006823642452 0 -0.00039467150160043824 -0.0324664321093803 0 -0.00051424067983143877 -0.033883008113598366 0 -0.00045115786602557606 -0.034357402449071331 0 -0.00016966863690783812 -0.035025122434340854 0 -3.9174800883702507e-08 -0.034999919069734854 0 -9.241344304306084e-05 -0.034832363900631894 0 -3.9174800883702507e-08 -0.034999919069734854 0 -9.241344304306084e-05 -0.034832363900631894 0 -1.5593023061668539e-07 -0.034999443013145198 0 -9.241344304306084e-05 -0.034832363900631894 0 -0.00020248441305524458 -0.03475604242873398 0 -1.5593023061668539e-07 -0.034999443013145198 0 -3.037036208893279e-07 -0.034999609472200273 0 -0.00020248441305524458 -0.03475604242873398 0 -1.5593023061668539e-07 -0.034999443013145198 0 -0.00020248441305524458 -0.03475604242873398 0 -0.00043526541608888958 -0.03441069916591686 0 -0.00023001060195839841 -0.034564512851268644 0 -0.00016966863690783812 -0.035025122434340854 0 -9.241344304306084e-05 -0.034832363900631894 0 -0.00043526541608888958 -0.03441069916591686 0 -9.241344304306084e-05 -0.034832363900631894 0 -0.00020248441305524458 -0.03475604242873398 0 -0.00043526541608888958 -0.03441069916591686 0 -0.00043526541608888958 -0.03441069916591686 0 -4.9399492619579188e-05 -0.034000198769415076 0 -0.00033279947493761419 -0.033348006823642452 0 -4.9399492619579188e-05 -0.034000198769415076 0 -5.1110897082581083e-06 -0.033294690543762509 0 -0.00033279947493761419 -0.033348006823642452 0 -4.9399492619579188e-05 -0.034000198769415076 0 -0.00023001060195839841 -0.034564512851268644 0 8.2436069772381403e-05 -0.034573909397774272 0 -0.00043526541608888958 -0.03441069916591686 0 -4.9399492619579188e-05 -0.034000198769415076 0 -0.00023001060195839841 -0.034564512851268644 0 -4.9399492619579188e-05 -0.034000198769415076 0 8.2436069772381403e-05 -0.034573909397774272 0 0.00056646514442295931 -0.03443563151941368 0 -5.7399313407895966e-05 -0.033960280466131851 0 0.00058545804210779421 -0.03414337206161254 0 -4.9399492619579188e-05 -0.034000198769415076 0 0.0003969839251652349 -0.033460284953347061 0 0.00052816144593864666 -0.033803354023675007 0 -4.9399492619579188e-05 -0.034000198769415076 0 0.0003969839251652349 -0.033460284953347061 0 -5.1110897082581083e-06 -0.033294690543762509 0 0.0003969839251652349 -0.033460284953347061 0 3.6639764357233898e-05 -0.032416737336097456 0 -5.1110897082581083e-06 -0.033294690543762509 0 -5.1110897082581083e-06 -0.033294690543762509 0 -0.00033279947493761419 -0.033348006823642452 0 -0.00039467150160043824 -0.0324664321093803 0 3.6639764357233898e-05 -0.032416737336097456 0 -5.1110897082581083e-06 -0.033294690543762509 0 -0.00039467150160043824 -0.0324664321093803 0 3.6639764357233898e-05 -0.032416737336097456 0 -0.00039467150160043824 -0.0324664321093803 0 -0.00038997230743298173 -0.032060539088784708 0 -0.00039467150160043824 -0.0324664321093803 0 -0.00038997230743298173 -0.032060539088784708 0 -0.00070724026312304932 -0.032033803293839536 0 3.6639764357233898e-05 -0.032416737336097456 0 -0.00016838480156806026 -0.031827011559334456 0 -0.00038997230743298173 -0.032060539088784708 0 3.6639764357233898e-05 -0.032416737336097456 0 -8.853753087466287e-05 -0.031587406882004038 0 -0.00016838480156806026 -0.031827011559334456 0 -0.00016238078764488833 -0.031520580894423327 0 -8.853753087466287e-05 -0.031587406882004038 0 -0.00016838480156806026 -0.031827011559334456 0 -0.00016238078764488833 -0.031520580894423327 0 -8.853753087466287e-05 -0.031587406882004038 0 -0.00014867864572895397 -0.030970837505005872 0 7.4295213812947566e-06 -0.032381921384518536 0 0.00034613882852767286 -0.032360922774834884 0 0.0003969839251652349 -0.033460284953347061 0 3.6639764357233898e-05 -0.032416737336097456 0 0.00089254144624784679 -0.033165333117595446 0 0.0003969839251652349 -0.033460284953347061 0 0.00089254144624784679 -0.033165333117595446 0 0.00086178819468960292 -0.033555182943655955 0 0.0003969839251652349 -0.033460284953347061 0 0.00052816144593864666 -0.033803354023675007 0 0.00086178819468960292 -0.033555182943655955 0 0.00070161378997507908 -0.034141758152324883 0 0.00058545804210779421 -0.03414337206161254 0 0.00089846247678706658 -0.033759494834844077 0 0.00086178819468960292 -0.033555182943655955 0 0.00099100864796101561 -0.033574481210664905 0 0.00089846247678706658 -0.033759494834844077 0 0.00052816144593864666 -0.033803354023675007 0 0.00086178819468960292 -0.033555182943655955 0 0.00089254144624784679 -0.033165333117595446 0 0.00086178819468960292 -0.033555182943655955 0 0.0010463288316248705 -0.033457710208592117 0 0.00086178819468960292 -0.033555182943655955 0 0.0010463288316248705 -0.033457710208592117 0 0.00099100864796101561 -0.033574481210664905 0 0.0010205335857546274 -0.033550807116182677 0 0.00089846247678706658 -0.033759494834844077 0 0.00099100864796101561 -0.033574481210664905 0 0.0010205335857546274 -0.033550807116182677 0 0.00099100864796101561 -0.033574481210664905 0 0.0010074861673784756 -0.033543119256164863 0 0.0010463288316248705 -0.033457710208592117 0 0.00099100864796101561 -0.033574481210664905 0 0.0010074861673784756 -0.033543119256164863 0 0.0010463288316248705 -0.033457710208592117 0 0.0010074861673784756 -0.033543119256164863 0 0.00093793849078260881 -0.033583920000121587 0 0.00041679918015853341 -0.032200442025302436 0 0.00015937621564542488 -0.031929221345666767 0 -0.00014867864572895397 -0.030970837505005872 0 -0.00053295460348590446 -0.030280798277225258 0 -0.00039801705140534935 -0.030885055387111261 0 -0.00014867864572895397 -0.030970837505005872 0 -0.00024029208577899301 -0.031299892047074167 0 -0.00039801705140534935 -0.030885055387111261 0 0.00034613882852767286 -0.032360922774834884 0 0.00041679918015853341 -0.032200442025302436 0 -0.00016238078764488833 -0.031520580894423327 0 -0.00014867864572895397 -0.030970837505005872 0 -0.00024029208577899301 -0.031299892047074167 0 -0.00024029208577899301 -0.031299892047074167 0 -0.00039801705140534935 -0.030885055387111261 0 -0.00035247273970577417 -0.03127081821783978 0 -0.00024029208577899301 -0.031299892047074167 0 -0.00030854823430143715 -0.031317264704094086 0 -0.00035247273970577417 -0.03127081821783978 0 -0.00016238078764488833 -0.031520580894423327 0 -0.00024029208577899301 -0.031299892047074167 0 -0.00026412796842849344 -0.031461683130195053 0 -0.00024029208577899301 -0.031299892047074167 0 -0.00030854823430143715 -0.031317264704094086 0 -0.00026412796842849344 -0.031461683130195053 0 -0.00030854823430143715 -0.031317264704094086 0 -0.00026412796842849344 -0.031461683130195053 0 -0.00034030979735974974 -0.031193668150056753 0 -0.00026412796842849344 -0.031461683130195053 0 -0.00034030979735974974 -0.031193668150056753 0 -0.00035704022633333395 -0.031237271462218507 0 -0.00030854823430143715 -0.031317264704094086 0 -0.00034030979735974974 -0.031193668150056753 0 -0.00033409658928579668 -0.030972368354561592 0 -0.00033409658928579668 -0.030972368354561592 0 -0.00035614506531196589 -0.030701825337990506 0 -0.00030643334386562033 -0.030356875434523176 0 -0.00034030979735974974 -0.031193668150056753 0 -0.00033409658928579668 -0.030972368354561592 0 -0.00037691248953416968 -0.030908979461435435 0 -0.00037691248953416968 -0.030908979461435435 0 -0.00035614506531196589 -0.030701825337990506 0 -0.00036584935820346755 -0.030578312201188566 0 -0.00033409658928579668 -0.030972368354561592 0 -0.00037691248953416968 -0.030908979461435435 0 -0.00035614506531196589 -0.030701825337990506 0 -0.00035614506531196589 -0.030701825337990506 0 -0.00036584935820346755 -0.030578312201188566 0 -0.00030643334386562033 -0.030356875434523176 0 -0.00036584935820346755 -0.030578312201188566 0 -0.00035903469008133793 -0.030283147677901499 0 -0.00030643334386562033 -0.030356875434523176 0 -0.00037691248953416968 -0.030908979461435435 0 -0.00036584935820346755 -0.030578312201188566 0 -0.00037397864244746373 -0.030726915740136567 0 -0.00036543385795149015 -0.030482380422472029 0 -0.00036806512296568884 -0.030690833318059402 0 -0.00037397864244746373 -0.030726915740136567 0 -0.00036584935820346755 -0.030578312201188566 0 -0.00036543385795149015 -0.030482380422472029 0 -0.00037397864244746373 -0.030726915740136567 0 -0.00036584935820346755 -0.030578312201188566 0 -0.00036543385795149015 -0.030482380422472029 0 -0.00035903469008133793 -0.030283147677901499 0 -0.00039179366011509711 -0.030905114607788824 0 -0.00036806512296568884 -0.030690833318059402 0 -0.00038105017407563923 -0.030994536888421822 0 -0.00036806512296568884 -0.030690833318059402 0 -0.00037397864244746373 -0.030726915740136567 0 -0.00038105017407563923 -0.030994536888421822 0 -0.00037691248953416968 -0.030908979461435435 0 -0.00037397864244746373 -0.030726915740136567 0 -0.00038105017407563923 -0.030994536888421822 0 -0.00037691248953416968 -0.030908979461435435 0 -0.00038105017407563923 -0.030994536888421822 0 -0.00035704022633333395 -0.031237271462218507 0 -0.00034030979735974974 -0.031193668150056753 0 -0.00037691248953416968 -0.030908979461435435 0 -0.00035704022633333395 -0.031237271462218507 0 -0.00035704022633333395 -0.031237271462218507 0 -0.00038992547782191073 -0.031257674197469699 0 -0.00036822334628991871 -0.031510162793454276 0 -0.00038992547782191073 -0.031257674197469699 0 -0.0004259024822201607 -0.031263592977166445 0 -0.00036822334628991871 -0.031510162793454276 0 -0.00038105017407563923 -0.030994536888421822 0 -0.00035704022633333395 -0.031237271462218507 0 -0.00038992547782191073 -0.031257674197469699 0 -0.00038105017407563923 -0.030994536888421822 0 -0.00038992547782191073 -0.031257674197469699 0 -0.0004259024822201607 -0.031263592977166445 0 -0.00039179366011509711 -0.030905114607788824 0 -0.00038105017407563923 -0.030994536888421822 0 -0.0004259024822201607 -0.031263592977166445 0 -0.00043936303419959353 -0.03099258426228987 0 -0.0004259024822201607 -0.031263592977166445 0 -0.00052903170261307168 -0.031568535430349945 0 -0.00036822334628991871 -0.031510162793454276 0 -0.00051933608075612413 -0.031897186761931387 0 -0.00052903170261307168 -0.031568535430349945 0 -0.0004259024822201607 -0.031263592977166445 0 -0.00036822334628991871 -0.031510162793454276 0 -0.00052903170261307168 -0.031568535430349945 0 -0.00036822334628991871 -0.031510162793454276 0 -0.00016838480156806026 -0.031827011559334456 0 -0.00051933608075612413 -0.031897186761931387 0 -0.00026412796842849344 -0.031461683130195053 0 -0.00035704022633333395 -0.031237271462218507 0 -0.00036822334628991871 -0.031510162793454276 0 -0.00026412796842849344 -0.031461683130195053 0 -0.00036822334628991871 -0.031510162793454276 0 -0.00016838480156806026 -0.031827011559334456 0 -0.00016238078764488833 -0.031520580894423327 0 -0.00026412796842849344 -0.031461683130195053 0 -0.00016838480156806026 -0.031827011559334456 0 -0.00016838480156806026 -0.031827011559334456 0 -0.00038997230743298173 -0.032060539088784708 0 -0.00051933608075612413 -0.031897186761931387 0 -0.00038997230743298173 -0.032060539088784708 0 -0.00051933608075612413 -0.031897186761931387 0 -0.00059079085043958518 -0.032033899079212599 0 -0.00051933608075612413 -0.031897186761931387 0 -0.00066314813413846868 -0.032190268862404808 0 -0.00059079085043958518 -0.032033899079212599 0 -0.00051933608075612413 -0.031897186761931387 0 -0.00052903170261307168 -0.031568535430349945 0 -0.00064364343869397563 -0.031993620167072807 0 -0.00081192216786914748 -0.031746757678760174 0 -0.00052903170261307168 -0.031568535430349945 0 -0.00064364343869397563 -0.031993620167072807 0 -0.00081192216786914748 -0.031746757678760174 0 -0.00064364343869397563 -0.031993620167072807 0 -0.00069703872435746873 -0.032460971233891814 0 -0.00064364343869397563 -0.031993620167072807 0 -0.00066314813413846868 -0.032190268862404808 0 -0.00069703872435746873 -0.032460971233891814 0 -0.00051933608075612413 -0.031897186761931387 0 -0.00064364343869397563 -0.031993620167072807 0 -0.00066314813413846868 -0.032190268862404808 0 -0.00066314813413846868 -0.032190268862404808 0 -0.00060207055291348487 -0.032450726038915391 0 -0.00059079085043958518 -0.032033899079212599 0 -0.00060207055291348487 -0.032450726038915391 0 -0.00040854880498037062 -0.033438393938808007 0 -0.0001888723979013271 -0.032144107634537046 0 -0.00060207055291348487 -0.032450726038915391 0 -0.00069703872435746873 -0.032460971233891814 0 -0.00040854880498037062 -0.033438393938808007 0 -0.00066314813413846868 -0.032190268862404808 0 -0.00060207055291348487 -0.032450726038915391 0 -0.00069703872435746873 -0.032460971233891814 0 -0.00081192216786914748 -0.031746757678760174 0 -0.00069703872435746873 -0.032460971233891814 0 -0.00040854880498037062 -0.033438393938808007 0 -0.00060054954473793068 -0.034655877279684097 0 -0.00022660731147654804 -0.034885802148470112 0 -0.00040854880498037062 -0.033438393938808007 0 -0.0006138170806581901 -0.033154685178639988 0 -0.00036722344833686288 -0.033313951438331373 0 2.2899377991674703e-07 -0.03499911989808252 0 9.6481051511765624e-05 -0.034580327700508187 0 -7.434368530340338e-08 -0.034999340185394176 0 -0.00022660731147654804 -0.034885802148470112 0 9.6481051511765624e-05 -0.034580327700508187 0 -0.00040854880498037062 -0.033438393938808007 0 9.6481051511765624e-05 -0.034580327700508187 0 -0.00040854880498037062 -0.033438393938808007 0 -0.0001888723979013271 -0.032144107634537046 0 9.6481051511765624e-05 -0.034580327700508187 0 -7.434368530340338e-08 -0.034999340185394176 0 5.6992029961447981e-05 -0.035044298561698523 0 8.9283206271545518e-05 -0.034487833256257781 0 -8.7443690745357732e-05 -0.033642441709177177 0 -7.434368530340338e-08 -0.034999340185394176 0 5.6992029961447981e-05 -0.035044298561698523 0 2.0825562705526667e-08 -0.035000292543188344 0 -8.7443690745357732e-05 -0.033642441709177177 0 -0.0003568868168854067 -0.03354150148954551 0 5.6992029961447981e-05 -0.035044298561698523 0 -2.5146388327203194e-05 -0.035007456487488979 0 2.0825562705526667e-08 -0.035000292543188344 0 -0.0001888723979013271 -0.032144107634537046 0 -0.00059079085043958518 -0.032033899079212599 0 -0.00070724026312304932 -0.032033803293839536 0 -0.00060207055291348487 -0.032450726038915391 0 -0.0001888723979013271 -0.032144107634537046 0 -0.00059079085043958518 -0.032033899079212599 0 -0.00038997230743298173 -0.032060539088784708 0 -0.00059079085043958518 -0.032033899079212599 0 -0.00070724026312304932 -0.032033803293839536 0 -4.3922475419010722e-05 -0.035016362123038401 0 -2.5146388327203194e-05 -0.035007456487488979 0 2.0825562705526667e-08 -0.035000292543188344 0 -0.00038641944219345914 -0.028334736298044252 0 -0.00035049830496971916 -0.028555727579416473 0 -0.00056043188895752555 -0.028396009871198759 0 -0.00038641944219345914 -0.028334736298044252 0 -0.00039065734480615079 -0.028430596525974541 0 -0.00035049830496971916 -0.028555727579416473 0 -0.0007358359433320299 -0.029776067946936137 0 -0.00084884020959970685 -0.029704019332661698 0 -0.00089836860281195734 -0.029826411263747774 0 -0.00035049830496971916 -0.028555727579416473 0 -0.00056043188895752555 -0.028396009871198759 0 -0.00058472200711473033 -0.02931610864862488 0 -0.00073727022804642185 -0.029410908403801263 0 -0.00084884020959970685 -0.029704019332661698 0 -0.00092679979389339163 -0.029622008657718159 0 -0.0007358359433320299 -0.029776067946936137 0 -0.00073727022804642185 -0.029410908403801263 0 -0.00084884020959970685 -0.029704019332661698 0 -0.00064025712858214469 -0.029093597356858902 0 -0.00046820868450076582 -0.028668022797927815 0 -0.00038641944219345914 -0.028334736298044252 0 -0.00056043188895752555 -0.028396009871198759 0 -0.00040059136462213695 -0.028121113485318077 0 -0.0007358359433320299 -0.029776067946936137 0 -0.00073727022804642185 -0.029410908403801263 0 -0.00048379535055517687 -0.029214436399456221 0 -0.00038641944219345914 -0.028334736298044252 0 -0.00039705145441812481 -0.028178539597060931 0 -0.00040059136462213695 -0.028121113485318077 0 -0.00039705145441812481 -0.028178539597060931 0 -0.000377695820863144 -0.028174317483502794 0 -0.00038823794901619293 -0.028301186912107396 0 -0.00040723601250659911 -0.028120405680987087 0 -0.00042266767764377947 -0.028064849269678335 0 -0.00035936510647751062 -0.028103578526388548 0 -0.00039705145441812481 -0.028178539597060931 0 -0.00040723601250659911 -0.028120405680987087 0 -0.0004679654239401712 -0.028094037467192964 0 -0.00039705145441812481 -0.028178539597060931 0 -0.00040723601250659911 -0.028120405680987087 0 -0.000377695820863144 -0.028174317483502794 0 -0.000377695820863144 -0.028174317483502794 0 -0.0003423568517652113 -0.028154711114876899 0 -0.00035936510647751062 -0.028103578526388548 0 -0.00040723601250659911 -0.028120405680987087 0 -0.000377695820863144 -0.028174317483502794 0 -0.00035936510647751062 -0.028103578526388548 0 -0.00037225874847686478 -0.028258123228890042 0 -0.00039635624638575278 -0.028385061160595745 0 -0.00030958209295225568 -0.028147341308566328 0 -0.0003423568517652113 -0.028154711114876899 0 -0.00037225874847686478 -0.028258123228890042 0 -0.00030958209295225568 -0.028147341308566328 0 -0.000377695820863144 -0.028174317483502794 0 -0.0003423568517652113 -0.028154711114876899 0 -0.00037225874847686478 -0.028258123228890042 0 -0.000377695820863144 -0.028174317483502794 0 -0.00037225874847686478 -0.028258123228890042 0 -0.00038823794901619293 -0.028301186912107396 0 -0.00038641944219345914 -0.028334736298044252 0 -0.00039705145441812481 -0.028178539597060931 0 -0.00038823794901619293 -0.028301186912107396 0 -0.00038641944219345914 -0.028334736298044252 0 -0.00039065734480615079 -0.028430596525974541 0 -0.00038823794901619293 -0.028301186912107396 0 -0.00037225874847686478 -0.028258123228890042 0 -0.00038823794901619293 -0.028301186912107396 0 -0.00039873655229122492 -0.028366905085912563 0 -0.00039065734480615079 -0.028430596525974541 0 -0.00038823794901619293 -0.028301186912107396 0 -0.00039873655229122492 -0.028366905085912563 0 -0.00039065734480615079 -0.028430596525974541 0 -0.00039873655229122492 -0.028366905085912563 0 -0.00039102474099260377 -0.028399853331301132 0 -0.00039873655229122492 -0.028366905085912563 0 -0.00039635624638575278 -0.028385061160595745 0 -0.00039102474099260377 -0.028399853331301132 0 -0.00039635624638575278 -0.028385061160595745 0 -0.0003692204523411151 -0.028338011085162686 0 -0.00039102474099260377 -0.028399853331301132 0 -0.00037225874847686478 -0.028258123228890042 0 -0.00039873655229122492 -0.028366905085912563 0 -0.00039635624638575278 -0.028385061160595745 0 -0.00040612721148939592 -0.028221692872519886 0 -0.0003219397614639039 -0.02818822500176546 0 -0.00040484299768189222 -0.028200011153189864 0 -0.00034255323489879198 -0.028193869687332108 0 -0.00030958209295225568 -0.028147341308566328 0 -0.00034255323489879198 -0.028193869687332108 0 -0.00035867630159366524 -0.028220610146209888 0 -0.00028748174599944177 -0.028239044938606919 0 -0.00040484299768189222 -0.028200011153189864 0 -0.00035867630159366524 -0.028220610146209888 0 -0.00039642946712136287 -0.028251644430177695 0 -0.00040484299768189222 -0.028200011153189864 0 -0.00034255323489879198 -0.028193869687332108 0 -0.00035867630159366524 -0.028220610146209888 0 -0.00035867630159366524 -0.028220610146209888 0 -0.00039642946712136287 -0.028251644430177695 0 -0.00028748174599944177 -0.028239044938606919 0 -0.00027837468711441009 -0.028490235073057608 0 -0.00028614280906455892 -0.028482890663994564 0 -0.00027343401010778443 -0.028476303473051499 0 -0.00036623875386756219 -0.028346946263753572 0 -0.00023226631131498187 -0.0282171490109769 0 -0.00036623875386756219 -0.028346946263753572 0 -0.00031202675721798929 -0.02873531021666547 0 -0.00028998331381306376 -0.02849347730365338 0 -0.00028614280906455892 -0.028482890663994564 0 -0.0002987100093672117 -0.028494778708942636 0 -0.00040612721148939592 -0.028221692872519886 0 -0.00031202675721798929 -0.02873531021666547 0 -0.00040484299768189222 -0.028200011153189864 0 -0.00039642946712136287 -0.028251644430177695 0 -0.00049879823899817417 -0.028271371543546208 0 -0.00030250739905597862 -0.028502811098434347 0 -0.00028998331381306376 -0.02849347730365338 0 -0.0002987100093672117 -0.028494778708942636 0 -0.00030250739905597862 -0.028502811098434347 0 -0.0002987100093672117 -0.028494778708942636 0 -0.00030254510846009744 -0.028500532627438818 0 -0.00031202675721798929 -0.02873531021666547 0 -0.00046645622280916903 -0.029380392639568688 0 -0.00031202675721798929 -0.02873531021666547 0 -0.00049708062400023647 -0.02966209015635167 0 -0.00030089138414276704 -0.029132879391499941 0 -0.00050262312489948843 -0.029157615314250915 0 -0.00051221998373757638 -0.029272121888677068 0 -0.00046645622280916903 -0.029380392639568688 0 -0.00049708062400023647 -0.02966209015635167 0 -0.0003692204523411151 -0.028338011085162686 0 -0.00032405362954160291 -0.028317576899524525 0 -0.00037363675461217234 -0.028415052564363281 0 -0.00028653321871437756 -0.028512981503014193 0 -0.00046645622280916903 -0.029380392639568688 0 -0.0003692204523411151 -0.028338011085162686 0 -0.00037363675461217234 -0.028415052564363281 0 -0.00039102474099260377 -0.028399853331301132 0 -0.00035049830496971916 -0.028555727579416473 0 -0.00032405362954160291 -0.028317576899524525 0 -0.00037363675461217234 -0.028415052564363281 0 -0.00039065734480615079 -0.028430596525974541 0 -0.00035049830496971916 -0.028555727579416473 0 -0.00037363675461217234 -0.028415052564363281 0 -0.00039065734480615079 -0.028430596525974541 0 -0.00037363675461217234 -0.028415052564363281 0 -0.00039102474099260377 -0.028399853331301132 0 -0.00064025712858214469 -0.029093597356858902 0 -0.00095167861745548037 -0.029707198996453733 0 -0.00056043188895752555 -0.028396009871198759 0 -0.00058472200711473033 -0.02931610864862488 0 -0.00097529318596213828 -0.029781396264919682 0 -0.00035049830496971916 -0.028555727579416473 0 -0.00026263573796732207 -0.030075112155625833 0 -0.00058472200711473033 -0.02931610864862488 0 -0.00058472200711473033 -0.02931610864862488 0 -0.0007321351468379181 -0.029782702924959437 0 -0.00097529318596213828 -0.029781396264919682 0 -0.00026263573796732207 -0.030075112155625833 0 -0.0007321351468379181 -0.029782702924959437 0 -0.00092375551196714983 -0.029982601560996833 0 -0.00072873277120623185 -0.030475186012874644 0 -0.00075941772593719639 -0.030521921589847109 0 -0.000853050513349008 -0.030502398753263663 0 -0.00026263573796732207 -0.030075112155625833 0 -0.00058472200711473033 -0.02931610864862488 0 -0.0007321351468379181 -0.029782702924959437 0 -0.00046645622280916903 -0.029380392639568688 0 -0.00083313443521615697 -0.031558728691736398 0 -0.00072873277120623185 -0.030475186012874644 0 -0.00075941772593719639 -0.030521921589847109 0 -0.00073093155376631718 -0.030501267132018308 0 -0.0010891913728207168 -0.030685036429210808 0 -0.00049708062400023647 -0.02966209015635167 0 -0.0004821369003929672 -0.029851012494609128 0 -0.0010891913728207168 -0.030685036429210808 0 -0.00059304432428073685 -0.03018278564959976 0 -0.00057512844778625886 -0.030189431255161027 0 -0.00059423556290502688 -0.030201359115641542 0 -0.0004821369003929672 -0.029851012494609128 0 -0.00049708062400023647 -0.02966209015635167 0 -0.0010891913728207168 -0.030685036429210808 0 -0.00083313443521615697 -0.031558728691736398 0 -0.001456753649514322 -0.0321279870815585 0 -0.0014921201915809009 -0.032146158160630219 0 -0.0014200837588888909 -0.032159911290462022 0 -0.00092375551196714983 -0.029982601560996833 0 -0.00097301661285460782 -0.029910854851701231 0 -0.00096939177467780303 -0.029870469624417383 0 -0.00083313443521615697 -0.031558728691736398 0 -0.0005884636745852284 -0.032772400736511907 0 -0.00083313443521615697 -0.031558728691736398 0 -0.00017257834105901054 -0.03174822776348786 0 -0.0007321351468379181 -0.029782702924959437 0 -0.00092375551196714983 -0.029982601560996833 0 -0.00097529318596213828 -0.029781396264919682 0 -0.00092375551196714983 -0.029982601560996833 0 -0.00097529318596213828 -0.029781396264919682 0 -0.00096939177467780303 -0.029870469624417383 0 -0.00022284504740013964 -0.033305380567560758 0 0.00039575103758755049 -0.033266076052303251 0 0.00051253218349815678 -0.033534176946883938 0 0.00039575103758755049 -0.033266076052303251 0 0.00051253218349815678 -0.033534176946883938 0 0.00069582691330673024 -0.033468683177087975 0 -0.00097301661285460782 -0.029910854851701231 0 -0.00094207700606933279 -0.029967582316391548 0 -0.00096939177467780303 -0.029870469624417383 0 -0.00097301661285460782 -0.029910854851701231 0 -0.00094207700606933279 -0.029967582316391548 0 -0.00092976416924610522 -0.030197538749577025 0 -0.00094207700606933279 -0.029967582316391548 0 -0.00097529318596213828 -0.029781396264919682 0 -0.00089836860281195734 -0.029826411263747774 0 -0.00094207700606933279 -0.029967582316391548 0 -0.00097529318596213828 -0.029781396264919682 0 -0.00096939177467780303 -0.029870469624417383 0 0.00083889227531296008 -0.033413040300478689 0 0.0010205335857546274 -0.033550807116182677 0 0.0010074861673784756 -0.033543119256164863 0 0.00083889227531296008 -0.033413040300478689 0 0.0010074861673784756 -0.033543119256164863 0 0.00093793849078260881 -0.033583920000121587 0 0.00051253218349815678 -0.033534176946883938 0 0.00069582691330673024 -0.033468683177087975 0 0.00093793849078260881 -0.033583920000121587 0 3.9597464731242401e-05 -0.033200723051294886 0 -0.0005884636745852284 -0.032772400736511907 0 0.00083889227531296008 -0.033413040300478689 0 0.00069582691330673024 -0.033468683177087975 0 0.00093793849078260881 -0.033583920000121587 0 0.00088170972137304046 -0.033248619465036322 0 0.00039575103758755049 -0.033266076052303251 0 0.00069582691330673024 -0.033468683177087975 0 3.9597464731242401e-05 -0.033200723051294886 0 0.00068798945718913829 -0.033289082822953307 0 -0.00017257834105901054 -0.03174822776348786 0 0.00015937621564542488 -0.031929221345666767 0 -0.00097301661285460782 -0.029910854851701231 0 -0.00053295460348590446 -0.030280798277225258 0 -0.00092976416924610522 -0.030197538749577025 0 -0.00053295460348590446 -0.030280798277225258 0 -0.00039801705140534935 -0.030885055387111261 0 -0.00092976416924610522 -0.030197538749577025 0 -0.00090742816519407928 -0.030222562895183394 0 -0.00071046601184122373 -0.030479224443919279 0 -0.00039801705140534935 -0.030885055387111261 0 -0.00092976416924610522 -0.030197538749577025 0 -0.0006246760090393293 -0.03119464150541882 0 -0.00092976416924610522 -0.030197538749577025 0 -0.00082542520723940702 -0.029777257092597972 0 -0.00087402643591654979 -0.029816803572840524 0 -0.00039801705140534935 -0.030885055387111261 0 -0.0006246760090393293 -0.03119464150541882 0 -0.00035247273970577417 -0.03127081821783978 0 -0.0007358359433320299 -0.029776067946936137 0 -0.00097529318596213828 -0.029781396264919682 0 -0.00089836860281195734 -0.029826411263747774 0 -0.00094207700606933279 -0.029967582316391548 0 -0.00092976416924610522 -0.030197538749577025 0 -0.00087402643591654979 -0.029816803572840524 0 -0.00094207700606933279 -0.029967582316391548 0 -0.00089836860281195734 -0.029826411263747774 0 -0.00087402643591654979 -0.029816803572840524 0 -0.00087402643591654979 -0.029816803572840524 0 -0.00092679979389339163 -0.029622008657718159 0 -0.00088161491711277067 -0.029868824600465971 0 -0.00084884020959970685 -0.029704019332661698 0 -0.00089836860281195734 -0.029826411263747774 0 -0.00092679979389339163 -0.029622008657718159 0 -0.00089836860281195734 -0.029826411263747774 0 -0.00087402643591654979 -0.029816803572840524 0 -0.00092679979389339163 -0.029622008657718159 0 -0.00073727022804642185 -0.029410908403801263 0 -0.00092679979389339163 -0.029622008657718159 0 -0.00088222152981411476 -0.0290847300432319 0 -0.00091283103829964787 -0.029619096264219182 0 -0.00092148302385828271 -0.02949480671962533 0 -0.00092679979389339163 -0.029622008657718159 0 -0.001005579572968798 -0.029077078179708275 0 -0.00088222152981411476 -0.0290847300432319 0 -0.00082542520723940702 -0.029777257092597972 0 -0.00087402643591654979 -0.029816803572840524 0 -0.00088161491711277067 -0.029868824600465971 0 -0.00092148302385828271 -0.02949480671962533 0 -0.0006723005814985349 -0.029647850890874749 0 -0.001005579572968798 -0.029077078179708275 0 -0.00070933395426765701 -0.029058124661749632 0 -0.00092329985109566447 -0.029043464778402479 0 -0.001005579572968798 -0.029077078179708275 0 -0.00088222152981411476 -0.0290847300432319 0 -0.00092329985109566447 -0.029043464778402479 0 -0.00088222152981411476 -0.0290847300432319 0 -0.00088093852772096984 -0.028975714396889618 0 -0.00074431023600811321 -0.02885225721349479 0 -0.00088222152981411476 -0.0290847300432319 0 -0.00088093852772096984 -0.028975714396889618 0 -0.00092329985109566447 -0.029043464778402479 0 -0.0006246760090393293 -0.03119464150541882 0 -0.00035247273970577417 -0.03127081821783978 0 -0.00018534251270476001 -0.031271704525447558 0 -0.00030854823430143715 -0.031317264704094086 0 -0.00035247273970577417 -0.03127081821783978 0 -0.00018534251270476001 -0.031271704525447558 0 -0.00071046601184122373 -0.030479224443919279 0 -0.00037528234932831953 -0.030626182305495984 0 -0.00082542520723940702 -0.029777257092597972 0 -0.00088161491711277067 -0.029868824600465971 0 -0.00052470175192713322 -0.030015696737375221 0 -0.00088161491711277067 -0.029868824600465971 0 -0.00052470175192713322 -0.030015696737375221 0 -0.00061780231914515635 -0.03021611343734969 0 -0.00030854823430143715 -0.031317264704094086 0 -0.00033409658928579668 -0.030972368354561592 0 -0.00018534251270476001 -0.031271704525447558 0 -0.00037528234932831953 -0.030626182305495984 0 -0.00031741810648918181 -0.030380337650925817 0 -0.00033409658928579668 -0.030972368354561592 0 -0.00018534251270476001 -0.031271704525447558 0 -0.00030643334386562033 -0.030356875434523176 0 -0.00052470175192713322 -0.030015696737375221 0 -0.00061780231914515635 -0.03021611343734969 0 -0.00030643334386562033 -0.030356875434523176 0 -0.00070933395426765701 -0.029058124661749632 0 -0.00065162848796872989 -0.029558042435632821 0 -0.00086572215972043336 -0.029210161643355086 0 -0.0006723005814985349 -0.029647850890874749 0 -0.00037104718677571371 -0.030034709458011254 0 -0.00070933395426765701 -0.029058124661749632 0 -0.00065162848796872989 -0.029558042435632821 0 -0.00033031487840122828 -0.030096971406238866 0 -0.00076906593132214482 -0.02946399845905864 0 -0.00065162848796872989 -0.029558042435632821 0 -0.00086572215972043336 -0.029210161643355086 0 -0.00076906593132214482 -0.02946399845905864 0 -0.00059846616106421521 -0.029740874385796753 0 -0.00065162848796872989 -0.029558042435632821 0 -0.00068642549238591844 -0.02965088822776743 0 -0.00076906593132214482 -0.02946399845905864 0 -0.00059846616106421521 -0.029740874385796753 0 -0.00059846616106421521 -0.029740874385796753 0 -0.00065162848796872989 -0.029558042435632821 0 -0.00033031487840122828 -0.030096971406238866 0 -0.00061780231914515635 -0.03021611343734969 0 -0.00033031487840122828 -0.030096971406238866 0 -0.00030643334386562033 -0.030356875434523176 0 -0.00050871934075352027 -0.02989892714397261 0 -0.00059846616106421521 -0.029740874385796753 0 -0.00033031487840122828 -0.030096971406238866 0 -0.00035903469008133793 -0.030283147677901499 0 -0.00033031487840122828 -0.030096971406238866 0 -0.00030643334386562033 -0.030356875434523176 0 -0.00040184777111120044 -0.030087693542782557 0 -0.00035903469008133793 -0.030283147677901499 0 -0.00033031487840122828 -0.030096971406238866 0 -0.00088093852772096984 -0.028975714396889618 0 -0.00086572215972043336 -0.029210161643355086 0 -0.00086233973920610578 -0.029026837254552348 0 -0.00088093852772096984 -0.028975714396889618 0 -0.00086233973920610578 -0.029026837254552348 0 -0.00081025827014816329 -0.028870459316242495 0 -0.00088093852772096984 -0.028975714396889618 0 -0.00092329985109566447 -0.029043464778402479 0 -0.00086572215972043336 -0.029210161643355086 0 -0.00070933395426765701 -0.029058124661749632 0 -0.00092329985109566447 -0.029043464778402479 0 -0.00086572215972043336 -0.029210161643355086 0 -0.00086572215972043336 -0.029210161643355086 0 -0.00085272892385240622 -0.029240690758929797 0 -0.00086233973920610578 -0.029026837254552348 0 -0.00076906593132214482 -0.02946399845905864 0 -0.00086572215972043336 -0.029210161643355086 0 -0.00085272892385240622 -0.029240690758929797 0 -0.00084600716277899587 -0.029018517146962304 0 -0.00085272892385240622 -0.029240690758929797 0 -0.00086233973920610578 -0.029026837254552348 0 -0.00084600716277899587 -0.029018517146962304 0 -0.00086233973920610578 -0.029026837254552348 0 -0.00079933442732186936 -0.028834807513612188 0 -0.00079933442732186936 -0.028834807513612188 0 -0.00070967913717301801 -0.028646953401883873 0 -0.00070192911985638166 -0.028724962867495162 0 -0.00079933442732186936 -0.028834807513612188 0 -0.00070192911985638166 -0.028724962867495162 0 -0.00081025827014816329 -0.028870459316242495 0 -0.00086233973920610578 -0.029026837254552348 0 -0.00079933442732186936 -0.028834807513612188 0 -0.00081025827014816329 -0.028870459316242495 0 -0.00070967913717301801 -0.028646953401883873 0 -0.00070192911985638166 -0.028724962867495162 0 -0.00060080121277800603 -0.028586839024418879 0 -0.00070192911985638166 -0.028724962867495162 0 -0.000570603849579988 -0.028565128864853406 0 -0.00060080121277800603 -0.028586839024418879 0 -0.00070192911985638166 -0.028724962867495162 0 -0.00074431023600811321 -0.02885225721349479 0 -0.000570603849579988 -0.028565128864853406 0 -0.00070192911985638166 -0.028724962867495162 0 -0.00081025827014816329 -0.028870459316242495 0 -0.00074431023600811321 -0.02885225721349479 0 -0.00088093852772096984 -0.028975714396889618 0 -0.00081025827014816329 -0.028870459316242495 0 -0.00074431023600811321 -0.02885225721349479 0 -0.00074431023600811321 -0.02885225721349479 0 -0.000570603849579988 -0.028565128864853406 0 -0.00048379535055517687 -0.029214436399456221 0 -0.00073727022804642185 -0.029410908403801263 0 -0.00074431023600811321 -0.02885225721349479 0 -0.00048379535055517687 -0.029214436399456221 0 -0.00073727022804642185 -0.029410908403801263 0 -0.00088222152981411476 -0.0290847300432319 0 -0.00074431023600811321 -0.02885225721349479 0 -0.00048565623278833939 -0.028055502055571873 0 -0.00042266767764377947 -0.028064849269678335 0 -0.0004679654239401712 -0.028094037467192964 0 -0.00048565623278833939 -0.028055502055571873 0 -0.0004679654239401712 -0.028094037467192964 0 -0.00053496399889221846 -0.028114834553878778 0 -0.00048565623278833939 -0.028055502055571873 0 -0.00042266767764377947 -0.028064849269678335 0 -0.00041514783384798663 -0.027966934311051187 0 -0.00040723601250659911 -0.028120405680987087 0 -0.00042266767764377947 -0.028064849269678335 0 -0.0004679654239401712 -0.028094037467192964 0 -0.00039705145441812481 -0.028178539597060931 0 -0.00040059136462213695 -0.028121113485318077 0 -0.0004679654239401712 -0.028094037467192964 0 -0.00040059136462213695 -0.028121113485318077 0 -0.0004679654239401712 -0.028094037467192964 0 -0.00048873523649948407 -0.028297242515714593 0 -0.00046820868450076582 -0.028668022797927815 0 -0.00047607272630718981 -0.02835582717751629 0 -0.000570603849579988 -0.028565128864853406 0 -0.00048379535055517687 -0.029214436399456221 0 -0.00048873523649948407 -0.028297242515714593 0 -0.000570603849579988 -0.028565128864853406 0 -0.00048873523649948407 -0.028297242515714593 0 -0.00053430311637085552 -0.028387568181801347 0 -0.00048873523649948407 -0.028297242515714593 0 -0.00053430311637085552 -0.028387568181801347 0 -0.00053770743957170923 -0.028302089493965957 0 -0.0004679654239401712 -0.028094037467192964 0 -0.00048873523649948407 -0.028297242515714593 0 -0.00053496399889221846 -0.028114834553878778 0 -0.00048873523649948407 -0.028297242515714593 0 -0.00063838644182857862 -0.028101417871203294 0 -0.00053770743957170923 -0.028302089493965957 0 -0.00048873523649948407 -0.028297242515714593 0 -0.00063838644182857862 -0.028101417871203294 0 -0.00053496399889221846 -0.028114834553878778 0 -0.00048565623278833939 -0.028055502055571873 0 -0.00050192357502951157 -0.027955739113685107 0 -0.00041514783384798663 -0.027966934311051187 0 -0.00048565623278833939 -0.028055502055571873 0 -0.00053496399889221846 -0.028114834553878778 0 -0.00050192357502951157 -0.027955739113685107 0 -0.00063838644182857862 -0.028101417871203294 0 -0.00050192357502951157 -0.027955739113685107 0 -0.00044850720879624549 -0.027629459372621009 0 -0.00063838644182857862 -0.028101417871203294 0 -0.00053496399889221846 -0.028114834553878778 0 -0.00050192357502951157 -0.027955739113685107 0 -0.00063838644182857862 -0.028101417871203294 0 -0.00054086005913448073 -0.028554331243842126 0 -0.00050550620403903921 -0.028569032928150506 0 -0.00063838644182857862 -0.028101417871203294 0 -0.00055614062468758692 -0.026736156601361197 0 -0.00044850720879624549 -0.027629459372621009 0 -0.00063209905449766463 -0.028042885624685595 0 -0.00050507429891870315 -0.027651461114031467 0 -0.000570603849579988 -0.028565128864853406 0 -0.00053511867560704861 -0.028426054956080759 0 -0.00060080121277800603 -0.028586839024418879 0 -0.00063838644182857862 -0.028101417871203294 0 -0.00053511867560704861 -0.028426054956080759 0 -0.00054086005913448073 -0.028554331243842126 0 -0.000570603849579988 -0.028565128864853406 0 -0.00053430311637085552 -0.028387568181801347 0 -0.00053511867560704861 -0.028426054956080759 0 -0.00063838644182857862 -0.028101417871203294 0 -0.00053770743957170923 -0.028302089493965957 0 -0.00053511867560704861 -0.028426054956080759 0 -0.00053430311637085552 -0.028387568181801347 0 -0.00053770743957170923 -0.028302089493965957 0 -0.00053511867560704861 -0.028426054956080759 0 -0.00060336878401958478 -0.028491574546217206 0 -0.00060080121277800603 -0.028586839024418879 0 -0.00054086005913448073 -0.028554331243842126 0 -0.00060336878401958478 -0.028491574546217206 0 -0.00070967913717301801 -0.028646953401883873 0 -0.00060080121277800603 -0.028586839024418879 0 -0.00053511867560704861 -0.028426054956080759 0 -0.00060080121277800603 -0.028586839024418879 0 -0.00054086005913448073 -0.028554331243842126 0 -0.00060336878401958478 -0.028491574546217206 0 -0.00054086005913448073 -0.028554331243842126 0 -0.00050550620403903921 -0.028569032928150506 0 -0.00055614062468758692 -0.026736156601361197 0 -0.00011099845371780001 -0.026751471280678611 0 -0.00026403480566297119 -0.02726603317589249 0 -0.0001048532348202144 -0.026408188157950721 0 -0.00055614062468758692 -0.026736156601361197 0 -0.00011099845371780001 -0.026751471280678611 0 -0.00011099845371780001 -0.026751471280678611 0 -0.00026403480566297119 -0.02726603317589249 0 -0.00010711749431331605 -0.027293692765125173 0 -0.00011099845371780001 -0.026751471280678611 0 8.4578499417025546e-05 -0.026599460176004289 0 -0.00010711749431331605 -0.027293692765125173 0 -0.00055614062468758692 -0.026736156601361197 0 -0.00044850720879624549 -0.027629459372621009 0 -0.00026403480566297119 -0.02726603317589249 0 -0.00026403480566297119 -0.02726603317589249 0 -0.00036299658152406266 -0.027714966608289728 0 -0.00010711749431331605 -0.027293692765125173 0 -0.00044850720879624549 -0.027629459372621009 0 -0.00026403480566297119 -0.02726603317589249 0 -0.00036299658152406266 -0.027714966608289728 0 9.2173905295003932e-05 -0.026291625944868065 0 7.2121058746414738e-05 -0.026227367556675554 0 7.3748259778655523e-05 -0.026081017199091686 0 4.1862675568177022e-05 -0.026366452993933708 0 8.6731312211523162e-05 -0.026180705086498734 0 9.2173905295003932e-05 -0.026291625944868065 0 8.6731312211523162e-05 -0.026180705086498734 0 9.2173905295003932e-05 -0.026291625944868065 0 7.3748259778655523e-05 -0.026081017199091686 0 4.1862675568177022e-05 -0.026366452993933708 0 9.2173905295003932e-05 -0.026291625944868065 0 8.4578499417025546e-05 -0.026599460176004289 0 4.1862675568177022e-05 -0.026366452993933708 0 -0.00011099845371780001 -0.026751471280678611 0 8.4578499417025546e-05 -0.026599460176004289 0 8.4578499417025546e-05 -0.026599460176004289 0 8.9784898677595671e-05 -0.026546370389889946 0 -0.00010711749431331605 -0.027293692765125173 0 9.2173905295003932e-05 -0.026291625944868065 0 8.4578499417025546e-05 -0.026599460176004289 0 7.2121058746414738e-05 -0.026227367556675554 0 8.4578499417025546e-05 -0.026599460176004289 0 8.9784898677595671e-05 -0.026546370389889946 0 7.2121058746414738e-05 -0.026227367556675554 0 8.9784898677595671e-05 -0.026546370389889946 0 5.682492437153906e-05 -0.026110559840454517 0 7.2121058746414738e-05 -0.026227367556675554 0 -3.1454886051005645e-05 -0.027118705293199756 0 -1.3852793454535066e-05 -0.027002765019766495 0 -3.1454886051005645e-05 -0.027118705293199756 0 -0.0001502917872699325 -0.02723242097426434 0 -3.924802511662471e-05 -0.027720542964219608 0 -0.00010711749431331605 -0.027293692765125173 0 -0.00010889641821483563 -0.027771201580958926 0 -0.00010594348072555776 -0.027861031934027367 0 -0.00010889641821483563 -0.027771201580958926 0 -0.00020581754749463962 -0.027961251116575315 0 -3.924802511662471e-05 -0.027720542964219608 0 -0.00010594348072555776 -0.027861031934027367 0 -0.00010889641821483563 -0.027771201580958926 0 -3.924802511662471e-05 -0.027720542964219608 0 -0.00010594348072555776 -0.027861031934027367 0 -7.2131987177465292e-05 -0.027803090764971498 0 -0.00010594348072555776 -0.027861031934027367 0 -9.7321581134499909e-05 -0.027860596511452913 0 -7.2131987177465292e-05 -0.027803090764971498 0 -0.00036299658152406266 -0.027714966608289728 0 -0.00010711749431331605 -0.027293692765125173 0 -0.00027682038344358688 -0.027870941675623324 0 -0.00036299658152406266 -0.027714966608289728 0 -0.00027682038344358688 -0.027870941675623324 0 -0.00041514783384798663 -0.027966934311051187 0 -0.00050192357502951157 -0.027955739113685107 0 -0.00036299658152406266 -0.027714966608289728 0 -0.00041514783384798663 -0.027966934311051187 0 -0.00050192357502951157 -0.027955739113685107 0 -0.00044850720879624549 -0.027629459372621009 0 -0.00036299658152406266 -0.027714966608289728 0 -0.00010711749431331605 -0.027293692765125173 0 -0.00027682038344358688 -0.027870941675623324 0 -0.00010889641821483563 -0.027771201580958926 0 -0.00027682038344358688 -0.027870941675623324 0 -0.00010889641821483563 -0.027771201580958926 0 -0.00020581754749463962 -0.027961251116575315 0 -0.00027682038344358688 -0.027870941675623324 0 -0.00033297868909828212 -0.028010481338015734 0 -0.00020581754749463962 -0.027961251116575315 0 -0.00027682038344358688 -0.027870941675623324 0 -0.00033297868909828212 -0.028010481338015734 0 -0.00041514783384798663 -0.027966934311051187 0 -0.00042266767764377947 -0.028064849269678335 0 -0.00033297868909828212 -0.028010481338015734 0 -0.00041514783384798663 -0.027966934311051187 0 -0.00042266767764377947 -0.028064849269678335 0 -0.00033297868909828212 -0.028010481338015734 0 -0.00035936510647751062 -0.028103578526388548 0 -0.00033297868909828212 -0.028010481338015734 0 -0.00028735482746752888 -0.028046429659677123 0 -0.00035936510647751062 -0.028103578526388548 0 -0.00028735482746752888 -0.028046429659677123 0 -0.00035936510647751062 -0.028103578526388548 0 -0.00030050630790681119 -0.028103936612141164 0 -0.0003423568517652113 -0.028154711114876899 0 -0.00035936510647751062 -0.028103578526388548 0 -0.00030050630790681119 -0.028103936612141164 0 -0.00034255323489879198 -0.028193869687332108 0 -0.00030958209295225568 -0.028147341308566328 0 -0.00026137630162629551 -0.028092342131732936 0 -0.0003423568517652113 -0.028154711114876899 0 -0.00030050630790681119 -0.028103936612141164 0 -0.00030958209295225568 -0.028147341308566328 0 -0.00030050630790681119 -0.028103936612141164 0 -0.00030958209295225568 -0.028147341308566328 0 -0.00026137630162629551 -0.028092342131732936 0 -0.00026137630162629551 -0.028092342131732936 0 -0.00024917046550794973 -0.028044700485913353 0 -0.00026141177708182393 -0.028017594450008693 0 -0.00030050630790681119 -0.028103936612141164 0 -0.00026137630162629551 -0.028092342131732936 0 -0.00024917046550794973 -0.028044700485913353 0 -0.00033297868909828212 -0.028010481338015734 0 -0.00028735482746752888 -0.028046429659677123 0 -0.00020581754749463962 -0.027961251116575315 0 -0.00024917046550794973 -0.028044700485913353 0 -0.00020581754749463962 -0.027961251116575315 0 -0.00020528900868137706 -0.027976755377849171 0 -0.00028735482746752888 -0.028046429659677123 0 -0.00030050630790681119 -0.028103936612141164 0 -0.00024917046550794973 -0.028044700485913353 0 -0.00028735482746752888 -0.028046429659677123 0 -0.00024917046550794973 -0.028044700485913353 0 -0.00020581754749463962 -0.027961251116575315 0 -0.00010594348072555776 -0.027861031934027367 0 -0.00020581754749463962 -0.027961251116575315 0 -0.00020528900868137706 -0.027976755377849171 0 -0.00010594348072555776 -0.027861031934027367 0 -0.00016527647031099477 -0.027932353570575809 0 -9.7321581134499909e-05 -0.027860596511452913 0 -0.00010594348072555776 -0.027861031934027367 0 -0.00016527647031099477 -0.027932353570575809 0 -0.00020528900868137706 -0.027976755377849171 0 -0.00016527647031099477 -0.027932353570575809 0 -0.00020528900868137706 -0.027976755377849171 0 -0.00025229422059467043 -0.027970764105442244 0 -0.00016527647031099477 -0.027932353570575809 0 -0.00025229422059467043 -0.027970764105442244 0 -0.00021976654299451796 -0.027950906199956844 0 -0.00024917046550794973 -0.028044700485913353 0 -0.00020528900868137706 -0.027976755377849171 0 -0.00026141177708182393 -0.028017594450008693 0 -0.00020528900868137706 -0.027976755377849171 0 -0.00026141177708182393 -0.028017594450008693 0 -0.00025229422059467043 -0.027970764105442244 0 -0.00026141177708182393 -0.028017594450008693 0 -0.00025229422059467043 -0.027970764105442244 0 -0.0002988351774730765 -0.02797449319508126 0 -0.00025229422059467043 -0.027970764105442244 0 -0.0002988351774730765 -0.02797449319508126 0 -0.00031346988396111105 -0.02793900995211614 0 -0.00025229422059467043 -0.027970764105442244 0 -0.00031346988396111105 -0.02793900995211614 0 -0.00021976654299451796 -0.027950906199956844 0 -0.00031346988396111105 -0.02793900995211614 0 -0.00021976654299451796 -0.027950906199956844 0 -0.00030815395814494959 -0.027955352373935132 0 -0.00017286353189807578 -0.026743140161277549 0 -0.0005523514862265373 -0.027082666762012091 0 -0.00031346988396111105 -0.02793900995211614 0 -0.00041032880413325413 -0.027895263645385481 0 -0.00030815395814494959 -0.027955352373935132 0 -0.0002988351774730765 -0.02797449319508126 0 -0.00034048268405760751 -0.027935506088173627 0 -0.00031346988396111105 -0.02793900995211614 0 -0.0002988351774730765 -0.02797449319508126 0 -0.00034048268405760751 -0.027935506088173627 0 -0.00029307430715191457 -0.027959877210804632 0 -0.00034048268405760751 -0.027935506088173627 0 -0.00031346988396111105 -0.02793900995211614 0 -0.00041032880413325413 -0.027895263645385481 0 -0.00034048268405760751 -0.027935506088173627 0 -0.00031095799699030536 -0.0279071068838051 0 -0.00041032880413325413 -0.027895263645385481 0 -0.00034048268405760751 -0.027935506088173627 0 -0.00031095799699030536 -0.0279071068838051 0 -0.00029307430715191457 -0.027959877210804632 0 -0.00031095799699030536 -0.0279071068838051 0 -0.0002669997499115393 -0.027942628085384981 0 -0.00025364813104974292 -0.02790196180404415 0 -0.00031095799699030536 -0.0279071068838051 0 -0.00029307430715191457 -0.027959877210804632 0 -0.0002669997499115393 -0.027942628085384981 0 -0.00029307430715191457 -0.027959877210804632 0 -0.0002669997499115393 -0.027942628085384981 0 -0.0002479973503547648 -0.027983462291724919 0 -0.0002669997499115393 -0.027942628085384981 0 -0.00022042500106034374 -0.027956971718654196 0 -0.0002479973503547648 -0.027983462291724919 0 -0.0002669997499115393 -0.027942628085384981 0 -0.00025364813104974292 -0.02790196180404415 0 -0.00022042500106034374 -0.027956971718654196 0 -0.00031095799699030536 -0.0279071068838051 0 -0.00025364813104974292 -0.02790196180404415 0 -0.00029121456941479351 -0.027837709198089398 0 -0.00025364813104974292 -0.02790196180404415 0 -0.00029121456941479351 -0.027837709198089398 0 -0.00023579495259574355 -0.027815401612399478 0 -0.00025364813104974292 -0.02790196180404415 0 -0.00019860061208733123 -0.027959927882356263 0 -0.00023579495259574355 -0.027815401612399478 0 -0.00025364813104974292 -0.02790196180404415 0 -0.00019860061208733123 -0.027959927882356263 0 -0.00022042500106034374 -0.027956971718654196 0 -0.00023226631131498187 -0.0282171490109769 0 -0.00021977785272152712 -0.028193164472074188 0 -0.00020099909359534886 -0.027953752873036083 0 -0.00022042500106034374 -0.027956971718654196 0 -0.0002479973503547648 -0.027983462291724919 0 -0.00034255323489879198 -0.028193869687332108 0 -0.00026137630162629551 -0.028092342131732936 0 -0.00028748174599944177 -0.028239044938606919 0 -0.00026137630162629551 -0.028092342131732936 0 -0.00020099909359534886 -0.027953752873036083 0 -0.0002479973503547648 -0.027983462291724919 0 -0.00025229840098335289 -0.028048941495789726 0 -0.00023226631131498187 -0.0282171490109769 0 -0.00026137630162629551 -0.028092342131732936 0 -0.0002752231211362415 -0.028009727560684903 0 -0.0002479973503547648 -0.027983462291724919 0 -0.00026141177708182393 -0.028017594450008693 0 -0.0002988351774730765 -0.02797449319508126 0 -0.0002752231211362415 -0.028009727560684903 0 -0.00026137630162629551 -0.028092342131732936 0 -0.00026141177708182393 -0.028017594450008693 0 -0.0002752231211362415 -0.028009727560684903 0 -0.0002988351774730765 -0.02797449319508126 0 -0.00029307430715191457 -0.027959877210804632 0 -0.0002752231211362415 -0.028009727560684903 0 -0.00029307430715191457 -0.027959877210804632 0 -0.0002752231211362415 -0.028009727560684903 0 -0.0002479973503547648 -0.027983462291724919 0 -9.5687670613732575e-05 -0.025713527162261385 0 -0.00013857921204462576 -0.025635087562869731 0 -4.0331927540959902e-05 -0.025596935439885133 0 -2.2121680975072274e-05 -0.025670454716740548 0 -9.5687670613732575e-05 -0.025713527162261385 0 -4.0331927540959902e-05 -0.025596935439885133 0 -2.2121680975072274e-05 -0.025670454716740548 0 -4.0331927540959902e-05 -0.025596935439885133 0 5.1205524213476225e-05 -0.025628360412289004 0 -4.0331927540959902e-05 -0.025596935439885133 0 4.579094984533225e-05 -0.025534532867011017 0 5.1205524213476225e-05 -0.025628360412289004 0 -2.2121680975072274e-05 -0.025670454716740548 0 5.1205524213476225e-05 -0.025628360412289004 0 -2.2740353547477407e-06 -0.025747670323911096 0 -2.2121680975072274e-05 -0.025670454716740548 0 -9.5687670613732575e-05 -0.025713527162261385 0 -2.2740353547477407e-06 -0.025747670323911096 0 -9.5687670613732575e-05 -0.025713527162261385 0 -0.000211630695387274 -0.0257493802197384 0 -0.00013857921204462576 -0.025635087562869731 0 -0.000211630695387274 -0.0257493802197384 0 -0.00022978884340273001 -0.025672175043431264 0 -0.00028343950018544978 -0.025803169333500769 0 -0.00022978884340273001 -0.025672175043431264 0 -0.00013857921204462576 -0.025635087562869731 0 -0.00017272035090372634 -0.025555443384028514 0 -0.000211630695387274 -0.0257493802197384 0 -0.00022978884340273001 -0.025672175043431264 0 -0.00013857921204462576 -0.025635087562869731 0 -0.00013857921204462576 -0.025635087562869731 0 -0.00017272035090372634 -0.025555443384028514 0 -8.5144908134034291e-05 -0.025538045355492141 0 -0.00016527647031099477 -0.027932353570575809 0 -0.00021976654299451796 -0.027950906199956844 0 -9.4841453904222865e-05 -0.027908969077464665 0 -0.00017286353189807578 -0.026743140161277549 0 -0.00016970001214333539 -0.026797510289947032 0 -9.4841453904222865e-05 -0.027908969077464665 0 -9.7321581134499909e-05 -0.027860596511452913 0 -3.2705208672218237e-05 -0.02781683320654638 0 -0.00016527647031099477 -0.027932353570575809 0 -9.4841453904222865e-05 -0.027908969077464665 0 -9.7321581134499909e-05 -0.027860596511452913 0 -0.00016970001214333539 -0.026797510289947032 0 4.9627998570387299e-05 -0.026386121309263256 0 -0.00017272035090372634 -0.025555443384028514 0 -8.5144908134034291e-05 -0.025538045355492141 0 -0.00012231137571698151 -0.025449812939379365 0 -8.5144908134034291e-05 -0.025538045355492141 0 -3.6038974957179337e-05 -0.025470857553619743 0 -0.00012231137571698151 -0.025449812939379365 0 -8.5144908134034291e-05 -0.025538045355492141 0 -9.4184350218205939e-06 -0.025527461176060702 0 -3.6038974957179337e-05 -0.025470857553619743 0 -8.5144908134034291e-05 -0.025538045355492141 0 -4.0331927540959902e-05 -0.025596935439885133 0 -9.4184350218205939e-06 -0.025527461176060702 0 -0.00013857921204462576 -0.025635087562869731 0 -8.5144908134034291e-05 -0.025538045355492141 0 -4.0331927540959902e-05 -0.025596935439885133 0 -4.0331927540959902e-05 -0.025596935439885133 0 -9.4184350218205939e-06 -0.025527461176060702 0 4.579094984533225e-05 -0.025534532867011017 0 -7.3647361698875679e-05 -0.025481385590571948 0 4.8929808892853658e-05 -0.025534229581682461 0 -9.4184350218205939e-06 -0.025527461176060702 0 -3.6038974957179337e-05 -0.025470857553619743 0 4.5958451708109904e-05 -0.025509086925592801 0 -9.4184350218205939e-06 -0.025527461176060702 0 4.579094984533225e-05 -0.025534532867011017 0 4.5958451708109904e-05 -0.025509086925592801 0 7.8400772715970692e-06 -0.02559406914024441 0 -1.2939641757611695e-05 -0.025636789032451236 0 4.5958451708109904e-05 -0.025509086925592801 0 9.9471006497055239e-08 -0.025678698506158868 0 0.00012962300171296526 -0.025615921599664766 0 7.8400772715970692e-06 -0.02559406914024441 0 3.2298489598709178e-05 -0.025557696404617629 0 4.5958451708109904e-05 -0.025509086925592801 0 7.8400772715970692e-06 -0.02559406914024441 0 -2.5812956571191553e-05 -0.025679826933692647 0 3.2298489598709178e-05 -0.025557696404617629 0 7.8400772715970692e-06 -0.02559406914024441 0 -2.5812956571191553e-05 -0.025679826933692647 0 -1.2939641757611695e-05 -0.025636789032451236 0 -7.3647361698875679e-05 -0.025481385590571948 0 4.9627998570387299e-05 -0.026386121309263256 0 -1.2939641757611695e-05 -0.025636789032451236 0 4.1322818155045089e-06 -0.025733012261764387 0 8.0051114304488207e-05 -0.025730706788095761 0 -2.5812956571191553e-05 -0.025679826933692647 0 -1.2939641757611695e-05 -0.025636789032451236 0 4.1322818155045089e-06 -0.025733012261764387 0 -2.5812956571191553e-05 -0.025679826933692647 0 4.1322818155045089e-06 -0.025733012261764387 0 -1.1571676042751686e-05 -0.025752655275077762 0 4.1322818155045089e-06 -0.025733012261764387 0 -1.1571676042751686e-05 -0.025752655275077762 0 3.5272609918175336e-05 -0.025856267028137273 0 -1.1571676042751686e-05 -0.025752655275077762 0 -4.3140419675134214e-06 -0.025792749469402566 0 3.5272609918175336e-05 -0.025856267028137273 0 -1.1571676042751686e-05 -0.025752655275077762 0 -4.3140419675134214e-06 -0.025792749469402566 0 -2.6631564220536099e-05 -0.025709087680635755 0 -1.1571676042751686e-05 -0.025752655275077762 0 -1.5623053988745172e-05 -0.025682761470314817 0 -2.6631564220536099e-05 -0.025709087680635755 0 -1.5623053988745172e-05 -0.025682761470314817 0 5.7452792239864604e-05 -0.025599354933552566 0 4.499127211502164e-05 -0.025692784481713242 0 -2.5812956571191553e-05 -0.025679826933692647 0 -1.5623053988745172e-05 -0.025682761470314817 0 4.499127211502164e-05 -0.025692784481713242 0 -2.5812956571191553e-05 -0.025679826933692647 0 -1.1571676042751686e-05 -0.025752655275077762 0 -1.5623053988745172e-05 -0.025682761470314817 0 4.9627998570387299e-05 -0.026386121309263256 0 -1.3852793454535066e-05 -0.027002765019766495 0 -9.7321581134499909e-05 -0.027860596511452913 0 -3.2705208672218237e-05 -0.02781683320654638 0 -7.2131987177465292e-05 -0.027803090764971498 0 4.9627998570387299e-05 -0.026386121309263256 0 0.00012936661002429085 -0.025805763713792979 0 4.1322818155045089e-06 -0.025733012261764387 0 8.0051114304488207e-05 -0.025730706788095761 0 3.5272609918175336e-05 -0.025856267028137273 0 2.9490987726876076e-05 -0.025913340820744733 0 3.5272609918175336e-05 -0.025856267028137273 0 2.9944696730393939e-05 -0.025988437886408831 0 3.5272609918175336e-05 -0.025856267028137273 0 2.9944696730393939e-05 -0.025988437886408831 0 1.1199181817335727e-05 -0.02587073076882928 0 -4.3140419675134214e-06 -0.025792749469402566 0 3.5272609918175336e-05 -0.025856267028137273 0 1.1199181817335727e-05 -0.02587073076882928 0 2.9944696730393939e-05 -0.025988437886408831 0 5.682492437153906e-05 -0.026110559840454517 0 7.2121058746414738e-05 -0.026227367556675554 0 2.9490987726876076e-05 -0.025913340820744733 0 2.9944696730393939e-05 -0.025988437886408831 0 5.682492437153906e-05 -0.026110559840454517 0 2.9944696730393939e-05 -0.025988437886408831 0 7.2121058746414738e-05 -0.026227367556675554 0 4.1284821416718789e-05 -0.025979745450830614 0 7.2121058746414738e-05 -0.026227367556675554 0 4.1284821416718789e-05 -0.025979745450830614 0 7.3748259778655523e-05 -0.026081017199091686 0 4.1284821416718789e-05 -0.025979745450830614 0 1.1199181817335727e-05 -0.02587073076882928 0 -5.4493228552301686e-06 -0.02574850292383837 0 2.9944696730393939e-05 -0.025988437886408831 0 4.1284821416718789e-05 -0.025979745450830614 0 1.1199181817335727e-05 -0.02587073076882928 0 4.1284821416718789e-05 -0.025979745450830614 0 5.8143552943192551e-05 -0.025888436786340729 0 -5.4493228552301686e-06 -0.02574850292383837 0 3.2144550184916678e-05 -0.025652960499897331 0 5.8143552943192551e-05 -0.025888436786340729 0 -5.4493228552301686e-06 -0.02574850292383837 0 4.1284821416718789e-05 -0.025979745450830614 0 5.8143552943192551e-05 -0.025888436786340729 0 7.3748259778655523e-05 -0.026081017199091686 0 -1.6815001461624574e-05 -0.025542542647836428 0 -2.6631564220536099e-05 -0.025709087680635755 0 -4.4823711079790266e-05 -0.025604729673396671 0 -1.5623053988745172e-05 -0.025682761470314817 0 -1.6815001461624574e-05 -0.025542542647836428 0 5.7452792239864604e-05 -0.025599354933552566 0 -1.5623053988745172e-05 -0.025682761470314817 0 -1.6815001461624574e-05 -0.025542542647836428 0 -2.6631564220536099e-05 -0.025709087680635755 0 1.1199181817335727e-05 -0.02587073076882928 0 -1.6987627546455161e-05 -0.025743048753158616 0 -5.4493228552301686e-06 -0.02574850292383837 0 -4.3140419675134214e-06 -0.025792749469402566 0 -2.6631564220536099e-05 -0.025709087680635755 0 -1.6987627546455161e-05 -0.025743048753158616 0 -4.3140419675134214e-06 -0.025792749469402566 0 1.1199181817335727e-05 -0.02587073076882928 0 -1.6987627546455161e-05 -0.025743048753158616 0 -1.6987627546455161e-05 -0.025743048753158616 0 -4.4823711079790266e-05 -0.025604729673396671 0 -5.4493228552301686e-06 -0.02574850292383837 0 -2.6631564220536099e-05 -0.025709087680635755 0 -1.6987627546455161e-05 -0.025743048753158616 0 -4.4823711079790266e-05 -0.025604729673396671 0 -7.8375710160679578e-05 -0.02542399141623318 0 3.2144550184916678e-05 -0.025652960499897331 0 -5.4493228552301686e-06 -0.02574850292383837 0 -7.8375710160679578e-05 -0.02542399141623318 0 -4.4823711079790266e-05 -0.025604729673396671 0 -5.4493228552301686e-06 -0.02574850292383837 0 -7.8375710160679578e-05 -0.02542399141623318 0 -4.4823711079790266e-05 -0.025604729673396671 0 -4.3101283268055686e-05 -0.02531183912099735 0 -1.6815001461624574e-05 -0.025542542647836428 0 -4.4823711079790266e-05 -0.025604729673396671 0 -4.3101283268055686e-05 -0.02531183912099735 0 8.7834092134951659e-05 -0.024950623608890755 0 -4.3101283268055686e-05 -0.02531183912099735 0 0.00014279328161382769 -0.025396554396416693 0 -1.6815001461624574e-05 -0.025542542647836428 0 -4.3101283268055686e-05 -0.02531183912099735 0 0.00014279328161382769 -0.025396554396416693 0 0.00014279328161382769 -0.025396554396416693 0 5.7452792239864604e-05 -0.025599354933552566 0 0.00016683365046926837 -0.025630392668745092 0 -1.6815001461624574e-05 -0.025542542647836428 0 0.00014279328161382769 -0.025396554396416693 0 5.7452792239864604e-05 -0.025599354933552566 0 0.00014279328161382769 -0.025396554396416693 0 0.0002787664908871641 -0.025500303618245554 0 0.00016683365046926837 -0.025630392668745092 0 0.00014279328161382769 -0.025396554396416693 0 0.00043518613959266333 -0.025353846718064607 0 0.00036296402087066144 -0.025069675794639402 0 0.00014279328161382769 -0.025396554396416693 0 0.0002787664908871641 -0.025500303618245554 0 0.00043518613959266333 -0.025353846718064607 0 0.0002787664908871641 -0.025500303618245554 0 0.00043518613959266333 -0.025353846718064607 0 0.00039104183924511797 -0.025619983471148158 0 0.00043518613959266333 -0.025353846718064607 0 0.00058474278590033859 -0.025542085850286531 0 0.00039104183924511797 -0.025619983471148158 0 8.7834092134951659e-05 -0.024950623608890755 0 0.00014279328161382769 -0.025396554396416693 0 0.00036296402087066144 -0.025069675794639402 0 0.00036296402087066144 -0.025069675794639402 0 0.00075957824156560304 -0.024841376310215147 0 0.00067326267638367486 -0.025174618654588372 0 0.00075957824156560304 -0.024841376310215147 0 0.00095896858594504795 -0.02504297000919703 0 0.00067326267638367486 -0.025174618654588372 0 0.00043518613959266333 -0.025353846718064607 0 0.00036296402087066144 -0.025069675794639402 0 0.00067326267638367486 -0.025174618654588372 0 0.00075957824156560304 -0.024841376310215147 0 0.0011963587264591324 -0.02480625677620284 0 0.00095896858594504795 -0.02504297000919703 0 0.0011963587264591324 -0.02480625677620284 0 0.00095896858594504795 -0.02504297000919703 0 0.0012466576253884764 -0.025078861099088919 0 0.0012466576253884764 -0.025078861099088919 0 0.00097134883357076767 -0.025264361176933516 0 0.0012522939728908265 -0.025337205841559827 0 0.00095896858594504795 -0.02504297000919703 0 0.00097134883357076767 -0.025264361176933516 0 0.00067326267638367486 -0.025174618654588372 0 0.00095896858594504795 -0.02504297000919703 0 0.0012466576253884764 -0.025078861099088919 0 0.00097134883357076767 -0.025264361176933516 0 0.00097134883357076767 -0.025264361176933516 0 0.00076400428268778083 -0.025400653835873799 0 0.00097189007874935208 -0.02548940942438516 0 0.00097134883357076767 -0.025264361176933516 0 0.0012522939728908265 -0.025337205841559827 0 0.00097189007874935208 -0.02548940942438516 0 0.0012522939728908265 -0.025337205841559827 0 0.0011804588196026125 -0.025566011567768929 0 0.0013723481165540219 -0.025461940946242628 0 0.0012522939728908265 -0.025337205841559827 0 0.0011804588196026125 -0.025566011567768929 0 0.00097189007874935208 -0.02548940942438516 0 0.00043518613959266333 -0.025353846718064607 0 0.00067326267638367486 -0.025174618654588372 0 0.00076400428268778083 -0.025400653835873799 0 0.00097134883357076767 -0.025264361176933516 0 0.00067326267638367486 -0.025174618654588372 0 0.00076400428268778083 -0.025400653835873799 0 0.00043518613959266333 -0.025353846718064607 0 0.00076400428268778083 -0.025400653835873799 0 0.00058474278590033859 -0.025542085850286531 0 0.00058474278590033859 -0.025542085850286531 0 0.00057568171129787052 -0.025700486258169071 0 0.00039104183924511797 -0.025619983471148158 0 0.00058474278590033859 -0.025542085850286531 0 0.00078391879500352524 -0.0256429594798251 0 0.00057568171129787052 -0.025700486258169071 0 0.00076400428268778083 -0.025400653835873799 0 0.00058474278590033859 -0.025542085850286531 0 0.00078391879500352524 -0.0256429594798251 0 0.00076400428268778083 -0.025400653835873799 0 0.00078391879500352524 -0.0256429594798251 0 0.00097189007874935208 -0.02548940942438516 0 0.00078391879500352524 -0.0256429594798251 0 0.00069570283490171881 -0.025774126619119958 0 0.00057568171129787052 -0.025700486258169071 0 0.00078391879500352524 -0.0256429594798251 0 0.00084243804472134342 -0.025778406225688607 0 0.00069570283490171881 -0.025774126619119958 0 0.00084243804472134342 -0.025778406225688607 0 0.00069570283490171881 -0.025774126619119958 0 0.00068143322171539155 -0.025923735390474059 0 0.00069570283490171881 -0.025774126619119958 0 0.00059400270782953115 -0.025797760224939209 0 0.00068143322171539155 -0.025923735390474059 0 0.00059400270782953115 -0.025797760224939209 0 0.00057568171129787052 -0.025700486258169071 0 0.00043227574502163301 -0.025792416200178719 0 0.00059400270782953115 -0.025797760224939209 0 0.00068143322171539155 -0.025923735390474059 0 0.00043227574502163301 -0.025792416200178719 0 0.00069570283490171881 -0.025774126619119958 0 0.00059400270782953115 -0.025797760224939209 0 0.00057568171129787052 -0.025700486258169071 0 0.0011804588196026125 -0.025566011567768929 0 0.0011763623646561371 -0.025711026900016767 0 0.0014137202076818936 -0.025661168225558289 0 0.0011804588196026125 -0.025566011567768929 0 0.0009858789651474493 -0.025685503183203284 0 0.0011763623646561371 -0.025711026900016767 0 0.0011804588196026125 -0.025566011567768929 0 0.00097189007874935208 -0.02548940942438516 0 0.0009858789651474493 -0.025685503183203284 0 0.00078391879500352524 -0.0256429594798251 0 0.00097189007874935208 -0.02548940942438516 0 0.0009858789651474493 -0.025685503183203284 0 0.00084243804472134342 -0.025778406225688607 0 0.0010588281770749926 -0.025838414618346045 0 0.00068143322171539155 -0.025923735390474059 0 0.00084243804472134342 -0.025778406225688607 0 0.0010588281770749926 -0.025838414618346045 0 0.0009858789651474493 -0.025685503183203284 0 0.00078391879500352524 -0.0256429594798251 0 0.00084243804472134342 -0.025778406225688607 0 0.0009858789651474493 -0.025685503183203284 0 0.0010588281770749926 -0.025838414618346045 0 0.0012596825585836162 -0.025795738493207099 0 0.0014330723261351179 -0.025948780766903261 0 0.0012596825585836162 -0.025795738493207099 0 0.0011763623646561371 -0.025711026900016767 0 0.0014137202076818936 -0.025661168225558289 0 0.0010588281770749926 -0.025838414618346045 0 0.0009858789651474493 -0.025685503183203284 0 0.0011763623646561371 -0.025711026900016767 0 0.0010588281770749926 -0.025838414618346045 0 0.0012596825585836162 -0.025795738493207099 0 0.0011763623646561371 -0.025711026900016767 0 0.00030216665948012853 -0.02537976321856204 0 0.00034193139975095273 -0.025373285423561268 0 0.00054000382097556894 -0.025265061989826018 0 0.00021969120467343436 -0.025382819962223691 0 0.00022259726588160273 -0.025380090751196165 0 0.0002146651501701065 -0.02538147622713309 0 0.0010588281770749926 -0.025838414618346045 0 0.00068143322171539155 -0.025923735390474059 0 0.0014330723261351179 -0.025948780766903261 0 0.00053102283812681266 -0.025873837044086322 0 0.00087886306737728292 -0.023802348549176358 0 0.00016440825461765747 -0.025499093581550603 0 0.00087886306737728292 -0.023802348549176358 0 0.00022201647378437009 -0.025387946532482556 0 0.00021969120467343436 -0.025382819962223691 0 0.00022259726588160273 -0.025380090751196165 0 0.00022201647378437009 -0.025387946532482556 0 0.00022092332735526324 -0.025397987612699211 0 0.00022323139828177164 -0.025380763829774292 0 0.00022201647378437009 -0.025387946532482556 0 0.00021969120467343436 -0.025382819962223691 0 0.00022323139828177164 -0.025380763829774292 0 0.00022259726588160273 -0.025380090751196165 0 0.00018297944651929455 -0.025405878272482661 0 0.00013285776771554384 -0.02540666646846685 0 0.00030216665948012853 -0.02537976321856204 0 0.00034193139975095273 -0.025373285423561268 0 0.00016605600506157256 -0.025456528038108332 0 0.00016440825461765747 -0.025499093581550603 0 0.00017346068690499269 -0.025431859980361123 0 0.00021434819494532697 -0.0253937436546047 0 0.00018297944651929455 -0.025405878272482661 0 0.00022092332735526324 -0.025397987612699211 0 0.00022259726588160273 -0.025380090751196165 0 0.00021434819494532697 -0.0253937436546047 0 0.00018297944651929455 -0.025405878272482661 0 0.00022201647378437009 -0.025387946532482556 0 0.00022259726588160273 -0.025380090751196165 0 0.00021434819494532697 -0.0253937436546047 0 0.00022201647378437009 -0.025387946532482556 0 0.00021434819494532697 -0.0253937436546047 0 0.00022092332735526324 -0.025397987612699211 0 0.00018297944651929455 -0.025405878272482661 0 0.0001465101441065939 -0.025435300576760675 0 0.00013285776771554384 -0.02540666646846685 0 0.00030216665948012853 -0.02537976321856204 0 0.00016605600506157256 -0.025456528038108332 0 9.9695963261003758e-05 -0.02546901667342925 0 0.00068143322171539155 -0.025923735390474059 0 0.00014287005066067516 -0.025808650778073632 0 0.00043227574502163301 -0.025792416200178719 0 0.00053102283812681266 -0.025873837044086322 0 0.00012962300171296526 -0.025615921599664766 0 0.00018297944651929455 -0.025405878272482661 0 0.0001465101441065939 -0.025435300576760675 0 0.0001932543886882647 -0.025420704895328591 0 0.0001465101441065939 -0.025435300576760675 0 0.00013285776771554384 -0.02540666646846685 0 8.7746242173306971e-05 -0.025475246145239005 0 0.00013285776771554384 -0.02540666646846685 0 8.7746242173306971e-05 -0.025475246145239005 0 3.2298489598709178e-05 -0.025557696404617629 0 0.00016605600506157256 -0.025456528038108332 0 3.2298489598709178e-05 -0.025557696404617629 0 9.9695963261003758e-05 -0.02546901667342925 0 -2.5812956571191553e-05 -0.025679826933692647 0 3.2298489598709178e-05 -0.025557696404617629 0 9.9695963261003758e-05 -0.02546901667342925 0 0.00017346068690499269 -0.025431859980361123 0 3.4145131292927348e-05 -0.025529575602659008 0 8.7746242173306971e-05 -0.025475246145239005 0 3.2298489598709178e-05 -0.025557696404617629 0 4.5958451708109904e-05 -0.025509086925592801 0 -2.5812956571191553e-05 -0.025679826933692647 0 0.00014287005066067516 -0.025808650778073632 0 4.499127211502164e-05 -0.025692784481713242 0 0.00014287005066067516 -0.025808650778073632 0 4.499127211502164e-05 -0.025692784481713242 0 0.00016683365046926837 -0.025630392668745092 0 5.7452792239864604e-05 -0.025599354933552566 0 4.499127211502164e-05 -0.025692784481713242 0 0.00016683365046926837 -0.025630392668745092 0 0.0002787664908871641 -0.025500303618245554 0 0.00016683365046926837 -0.025630392668745092 0 0.00039104183924511797 -0.025619983471148158 0 0.00016683365046926837 -0.025630392668745092 0 0.00039104183924511797 -0.025619983471148158 0 0.00027895259623318929 -0.025711831979100323 0 0.00057568171129787052 -0.025700486258169071 0 0.00039104183924511797 -0.025619983471148158 0 0.00043227574502163301 -0.025792416200178719 0 0.00039104183924511797 -0.025619983471148158 0 0.00043227574502163301 -0.025792416200178719 0 0.00027895259623318929 -0.025711831979100323 0 0.00014287005066067516 -0.025808650778073632 0 0.00016683365046926837 -0.025630392668745092 0 0.00027895259623318929 -0.025711831979100323 0 0.00014287005066067516 -0.025808650778073632 0 0.00043227574502163301 -0.025792416200178719 0 0.00027895259623318929 -0.025711831979100323 0 0.0038906941620996159 -0.0092073443012741906 0 0.0039214787399693852 -0.0088805851173413362 0 0.0041426192792076155 -0.0091485989395377939 0 0.0041426192792076155 -0.0091485989395377939 0 0.0043865628022001042 -0.0091451437476653581 0 0.0043069570689993212 -0.0090346563637093286 0 0.0041107616687874561 -0.0094480241258478488 0 0.00423475587936152 -0.0095937695706730542 0 0.0042905485036168608 -0.0093563401168344825 0 0.0041426192792076155 -0.0091485989395377939 0 0.0041107616687874561 -0.0094480241258478488 0 0.0042905485036168608 -0.0093563401168344825 0 0.0039420156709046193 -0.0095375367175497064 0 0.0038906941620996159 -0.0092073443012741906 0 0.0041107616687874561 -0.0094480241258478488 0 0.0038906941620996159 -0.0092073443012741906 0 0.0041426192792076155 -0.0091485989395377939 0 0.0041107616687874561 -0.0094480241258478488 0 0.0039420156709046193 -0.0095375367175497064 0 0.0041107616687874561 -0.0094480241258478488 0 0.0041509146837287987 -0.0096837848302753823 0 0.0038778260275646038 -0.0099297399991786581 0 0.0039420156709046193 -0.0095375367175497064 0 0.0041509146837287987 -0.0096837848302753823 0 0.0041107616687874561 -0.0094480241258478488 0 0.0041509146837287987 -0.0096837848302753823 0 0.00423475587936152 -0.0095937695706730542 0 0.0043745268648696187 -0.012061849119111142 0 0.0029684610421521675 -0.011046629375774846 0 0.0044141706228265345 -0.0097727748722107443 0 0.0033264782160663114 -0.018234191729599929 0 0.0037449158675279628 -0.017201871424820228 0 0.0043745268648696187 -0.012061849119111142 0 0.0047041431052465181 -0.0092438104022533434 0 0.0044141706228265345 -0.0097727748722107443 0 0.0041509146837287987 -0.0096837848302753823 0 0.00423475587936152 -0.0095937695706730542 0 0.0044141706228265345 -0.0097727748722107443 0 0.003449278276953838 -0.01049506710721107 0 0.0043775317927230092 -0.0097561045567598325 0 0.0024377819310218655 -0.024422293880634438 0 0.0022182195558275012 -0.025128037171836707 0 0.0021450216137136996 -0.024765299359882 0 0.0047041431052465181 -0.0092438104022533434 0 0.0044141706228265345 -0.0097727748722107443 0 0.0044785315539500247 -0.0092336680583855 0 0.0044141706228265345 -0.0097727748722107443 0 0.0042905485036168608 -0.0093563401168344825 0 0.0044785315539500247 -0.0092336680583855 0 0.00423475587936152 -0.0095937695706730542 0 0.0044141706228265345 -0.0097727748722107443 0 0.0042905485036168608 -0.0093563401168344825 0 0.0042905485036168608 -0.0093563401168344825 0 0.0044785315539500247 -0.0092336680583855 0 0.0043865628022001042 -0.0091451437476653581 0 0.0041426192792076155 -0.0091485989395377939 0 0.0042905485036168608 -0.0093563401168344825 0 0.0043865628022001042 -0.0091451437476653581 0 0.0044785315539500247 -0.0092336680583855 0 0.0043865628022001042 -0.0091451437476653581 0 0.0045328369001868228 -0.0090528052541357582 0 0.0047041431052465181 -0.0092438104022533434 0 0.0044785315539500247 -0.0092336680583855 0 0.0045328369001868228 -0.0090528052541357582 0 0.0022182195558275012 -0.025128037171836707 0 0.0019344322463963949 -0.025278097335221704 0 0.0019386518363522247 -0.025464423941606629 0 0.0019344322463963949 -0.025278097335221704 0 0.0017347142776929076 -0.025296607510277347 0 0.0018015495918369162 -0.025472759330707653 0 0.0019344322463963949 -0.025278097335221704 0 0.0017347142776929076 -0.025296607510277347 0 0.0018331446972094587 -0.025091609027918845 0 0.0018331446972094587 -0.025091609027918845 0 0.0018123695407952954 -0.024906032331881409 0 0.0015885311391408946 -0.025113654065025224 0 0.0019344322463963949 -0.025278097335221704 0 0.0018331446972094587 -0.025091609027918845 0 0.0020200485598925668 -0.025034074135197853 0 0.0022182195558275012 -0.025128037171836707 0 0.0019344322463963949 -0.025278097335221704 0 0.0020200485598925668 -0.025034074135197853 0 0.0022182195558275012 -0.025128037171836707 0 0.0020200485598925668 -0.025034074135197853 0 0.0021450216137136996 -0.024765299359882 0 0.0020200485598925668 -0.025034074135197853 0 0.0021450216137136996 -0.024765299359882 0 0.0018123695407952954 -0.024906032331881409 0 0.0017508743043341958 -0.024543581581039534 0 0.0021450216137136996 -0.024765299359882 0 0.0018123695407952954 -0.024906032331881409 0 0.0018331446972094587 -0.025091609027918845 0 0.0020200485598925668 -0.025034074135197853 0 0.0018123695407952954 -0.024906032331881409 0 0.0017508743043341958 -0.024543581581039534 0 0.0011963587264591324 -0.02480625677620284 0 0.0015269005970547135 -0.024876548107216803 0 0.0018123695407952954 -0.024906032331881409 0 0.0015269005970547135 -0.024876548107216803 0 0.0015885311391408946 -0.025113654065025224 0 0.0017508743043341958 -0.024543581581039534 0 0.0018123695407952954 -0.024906032331881409 0 0.0015269005970547135 -0.024876548107216803 0 0.0012466576253884764 -0.025078861099088919 0 0.0015269005970547135 -0.024876548107216803 0 0.0015885311391408946 -0.025113654065025224 0 0.0011963587264591324 -0.02480625677620284 0 0.0012466576253884764 -0.025078861099088919 0 0.0015269005970547135 -0.024876548107216803 0 0.0012466576253884764 -0.025078861099088919 0 0.0012522939728908265 -0.025337205841559827 0 0.0015885311391408946 -0.025113654065025224 0 0.0017347142776929076 -0.025296607510277347 0 0.0018331446972094587 -0.025091609027918845 0 0.0015885311391408946 -0.025113654065025224 0 0.0017347142776929076 -0.025296607510277347 0 0.0015885311391408946 -0.025113654065025224 0 0.001525716115827173 -0.025343766173340922 0 0.0017347142776929076 -0.025296607510277347 0 0.001525716115827173 -0.025343766173340922 0 0.0016081409737012898 -0.025492325436377448 0 0.001525716115827173 -0.025343766173340922 0 0.0013723481165540219 -0.025461940946242628 0 0.0016081409737012898 -0.025492325436377448 0 0.0012522939728908265 -0.025337205841559827 0 0.001525716115827173 -0.025343766173340922 0 0.0013723481165540219 -0.025461940946242628 0 0.0012522939728908265 -0.025337205841559827 0 0.0015885311391408946 -0.025113654065025224 0 0.001525716115827173 -0.025343766173340922 0 0.0013723481165540219 -0.025461940946242628 0 0.0016081409737012898 -0.025492325436377448 0 0.0014137202076818936 -0.025661168225558289 0 0.0011804588196026125 -0.025566011567768929 0 0.0013723481165540219 -0.025461940946242628 0 0.0014137202076818936 -0.025661168225558289 0 0.0016081409737012898 -0.025492325436377448 0 0.0017066145462720686 -0.025662697716975977 0 0.0018015495918369162 -0.025472759330707653 0 0.0016081409737012898 -0.025492325436377448 0 0.0014137202076818936 -0.025661168225558289 0 0.0017066145462720686 -0.025662697716975977 0 0.0014137202076818936 -0.025661168225558289 0 0.0014552864564783864 -0.025851607742174824 0 0.0017066145462720686 -0.025662697716975977 0 0.0012596825585836162 -0.025795738493207099 0 0.0014137202076818936 -0.025661168225558289 0 0.0014330723261351179 -0.025948780766903261 0 0.0013155218072448912 -0.025902015460293287 0 0.00087886306737728292 -0.023802348549176358 0 0.00087886306737728292 -0.023802348549176358 0 -0.00030715515320123532 -0.021709051112005828 0 -0.0006761314306198905 -0.017292772384335454 0 0.00024247629503613391 -0.017844044001763266 0 -0.00051070878080669872 -0.01914725024902536 0 0.00021969120467343436 -0.025382819962223691 0 0.0002146651501701065 -0.02538147622713309 0 0.00018102938579350403 -0.025345703742164917 0 0.0014552864564783864 -0.025851607742174824 0 0.0020284410144981724 -0.025808936177613977 0 0.0017066145462720686 -0.025662697716975977 0 -0.0006761314306198905 -0.017292772384335454 0 0.00024247629503613391 -0.017844044001763266 0 0.0011240706829900391 -0.017311881250276953 0 0.00087886306737728292 -0.023802348549176358 0 0.0013514160377282648 -0.017254163723957786 0 0.0011560407551316377 -0.017019196195965383 0 0.0015227786891926034 -0.017778022984028693 0 0.00096126977481346008 -0.018294079280056073 0 0.0013514160377282648 -0.017254163723957786 0 0.0010255096923726733 -0.018096081572502861 0 0.00024247629503613391 -0.017844044001763266 0 0.0011240706829900391 -0.017311881250276953 0 0.00096126977481346008 -0.018294079280056073 0 0.0020284410144981724 -0.025808936177613977 0 0.0017066145462720686 -0.025662697716975977 0 0.0019386518363522247 -0.025464423941606629 0 0.0022182195558275012 -0.025128037171836707 0 0.0020284410144981724 -0.025808936177613977 0 0.0019386518363522247 -0.025464423941606629 0 0.0017066145462720686 -0.025662697716975977 0 0.0018015495918369162 -0.025472759330707653 0 0.0019386518363522247 -0.025464423941606629 0 0.0017347142776929076 -0.025296607510277347 0 0.0016081409737012898 -0.025492325436377448 0 0.0018015495918369162 -0.025472759330707653 0 0.0019344322463963949 -0.025278097335221704 0 0.0018015495918369162 -0.025472759330707653 0 0.0019386518363522247 -0.025464423941606629 0 0.0047041431052465181 -0.0092438104022533434 0 0.0045421383921966114 -0.0087853250822286511 0 0.0045328369001868228 -0.0090528052541357582 0 0.0045421383921966114 -0.0087853250822286511 0 0.0044712766485192849 -0.0089400727416661906 0 0.0045328369001868228 -0.0090528052541357582 0 0.0037449158675279628 -0.017201871424820228 0 0.0013514160377282648 -0.017254163723957786 0 0.0044712766485192849 -0.0089400727416661906 0 0.0045328369001868228 -0.0090528052541357582 0 0.0044174574924781265 -0.0090200926059583898 0 0.0043865628022001042 -0.0091451437476653581 0 0.0045328369001868228 -0.0090528052541357582 0 0.0044174574924781265 -0.0090200926059583898 0 0.0043865628022001042 -0.0091451437476653581 0 0.0044174574924781265 -0.0090200926059583898 0 0.0043069570689993212 -0.0090346563637093286 0 0.0044174574924781265 -0.0090200926059583898 0 0.0043069570689993212 -0.0090346563637093286 0 0.0043769781857557191 -0.0089592955503520859 0 0.0043069570689993212 -0.0090346563637093286 0 0.0042855912433021901 -0.0089213089326016549 0 0.0043769781857557191 -0.0089592955503520859 0 0.0042855912433021901 -0.0089213089326016549 0 0.0043769781857557191 -0.0089592955503520859 0 0.0043382384723147181 -0.0088988389388030345 0 0.0044712766485192849 -0.0089400727416661906 0 0.0044174574924781265 -0.0090200926059583898 0 0.0043769781857557191 -0.0089592955503520859 0 0.0044712766485192849 -0.0089400727416661906 0 0.0043769781857557191 -0.0089592955503520859 0 0.0043894683984472185 -0.0088825512731947037 0 0.0043565470378777466 -0.0088178689432524306 0 0.0044437562704309199 -0.0088479076689941243 0 0.0043010997282091467 -0.0087385266497017281 0 0.0043769781857557191 -0.0089592955503520859 0 0.0043894683984472185 -0.0088825512731947037 0 0.0043382384723147181 -0.0088988389388030345 0 0.0044712766485192849 -0.0089400727416661906 0 0.0043894683984472185 -0.0088825512731947037 0 0.0044437562704309199 -0.0088479076689941243 0 0.0042855912433021901 -0.0089213089326016549 0 0.0043382384723147181 -0.0088988389388030345 0 0.0042939245906059489 -0.0088555603381625537 0 0.0043894683984472185 -0.0088825512731947037 0 0.0043382384723147181 -0.0088988389388030345 0 0.0043369214582091083 -0.0088501481410655225 0 0.0043382384723147181 -0.0088988389388030345 0 0.0043369214582091083 -0.0088501481410655225 0 0.0042939245906059489 -0.0088555603381625537 0 0.0043369214582091083 -0.0088501481410655225 0 0.0042939245906059489 -0.0088555603381625537 0 0.0043090909144892532 -0.0088122041815066332 0 0.0043369214582091083 -0.0088501481410655225 0 0.0043090909144892532 -0.0088122041815066332 0 0.0043565470378777466 -0.0088178689432524306 0 0.0043565470378777466 -0.0088178689432524306 0 0.0043068629540243429 -0.0087795275650779381 0 0.0043010997282091467 -0.0087385266497017281 0 0.0043090909144892532 -0.0088122041815066332 0 0.0043565470378777466 -0.0088178689432524306 0 0.0043068629540243429 -0.0087795275650779381 0 0.0043894683984472185 -0.0088825512731947037 0 0.0043565470378777466 -0.0088178689432524306 0 0.0044437562704309199 -0.0088479076689941243 0 0.0043894683984472185 -0.0088825512731947037 0 0.0043369214582091083 -0.0088501481410655225 0 0.0043565470378777466 -0.0088178689432524306 0 0.0045421383921966114 -0.0087853250822286511 0 0.0044712766485192849 -0.0089400727416661906 0 0.0044437562704309199 -0.0088479076689941243 0 0.0045421383921966114 -0.0087853250822286511 0 0.0044437562704309199 -0.0088479076689941243 0 0.0043010997282091467 -0.0087385266497017281 0 0.0013514160377282648 -0.017254163723957786 0 0.0036441376089679039 -0.011342327919588486 0 0.0013514160377282648 -0.017254163723957786 0 0.0013842761837028067 -0.017217294175600532 0 0.002153558111577952 -0.017421250365979822 0 0.0026933631237051553 -0.016837411679633804 0 0.0022394721611773962 -0.019438810011707421 0 0.0011639411694725375 -0.017021122434270713 0 0.0015532785280214277 -0.017030284276922759 0 0.0026933631237051553 -0.016837411679633804 0 0.0015532785280214277 -0.017030284276922759 0 0.0017359708271722665 -0.017415501769342978 0 0.002153558111577952 -0.017421250365979822 0 0.0011560407551316377 -0.017019196195965383 0 0.0015532785280214277 -0.017030284276922759 0 0.0017359708271722665 -0.017415501769342978 0 0.0011560407551316377 -0.017019196195965383 0 0.0017359708271722665 -0.017415501769342978 0 0.0015227786891926034 -0.017778022984028693 0 0.0015227786891926034 -0.017778022984028693 0 0.002153558111577952 -0.017421250365979822 0 0.0015950751702766264 -0.018583738749677673 0 0.0017359708271722665 -0.017415501769342978 0 0.0015227786891926034 -0.017778022984028693 0 0.002153558111577952 -0.017421250365979822 0 0.0015532785280214277 -0.017030284276922759 0 0.002153558111577952 -0.017421250365979822 0 0.0026933631237051553 -0.016837411679633804 0 0.0038007188565999748 -0.0085450509247180142 0 0.0043010997282091467 -0.0087385266497017281 0 0.0040786159579779399 -0.0088029093179413341 0 0.0030286931622633341 -0.0077809961346673147 0 0.0036441376089679039 -0.011342327919588486 0 0.0025373739032682288 -0.0077358628009380828 0 0.0023932838202511738 -0.007747048425519455 0 0.0024316365773942358 -0.0078265968449153407 0 0.0039214787399693852 -0.0088805851173413362 0 0.0040786159579779399 -0.0088029093179413341 0 0.0041728565294244548 -0.0089515802593056731 0 0.0043010997282091467 -0.0087385266497017281 0 0.0040786159579779399 -0.0088029093179413341 0 0.0042261908481205203 -0.008836413947735584 0 0.0043068629540243429 -0.0087795275650779381 0 0.0043010997282091467 -0.0087385266497017281 0 0.0042261908481205203 -0.008836413947735584 0 0.0042939245906059489 -0.0088555603381625537 0 0.0043090909144892532 -0.0088122041815066332 0 0.0042261908481205203 -0.008836413947735584 0 0.0043090909144892532 -0.0088122041815066332 0 0.0043068629540243429 -0.0087795275650779381 0 0.0042261908481205203 -0.008836413947735584 0 0.0042855912433021901 -0.0089213089326016549 0 0.0042261908481205203 -0.008836413947735584 0 0.0041728565294244548 -0.0089515802593056731 0 0.0042855912433021901 -0.0089213089326016549 0 0.0042939245906059489 -0.0088555603381625537 0 0.0042261908481205203 -0.008836413947735584 0 0.0040786159579779399 -0.0088029093179413341 0 0.0042261908481205203 -0.008836413947735584 0 0.0041728565294244548 -0.0089515802593056731 0 0.0041426192792076155 -0.0091485989395377939 0 0.0043069570689993212 -0.0090346563637093286 0 0.0041728565294244548 -0.0089515802593056731 0 0.0043069570689993212 -0.0090346563637093286 0 0.0042855912433021901 -0.0089213089326016549 0 0.0041728565294244548 -0.0089515802593056731 0 0.0039214787399693852 -0.0088805851173413362 0 0.0041426192792076155 -0.0091485989395377939 0 0.0041728565294244548 -0.0089515802593056731 0 0.002483258158170942 -0.007912800275356232 0 0.0023297550293070513 -0.0079212442998776583 0 0.0024280088367367677 -0.0080730898183973849 0 0.002483258158170942 -0.007912800275356232 0 0.0024316365773942358 -0.0078265968449153407 0 0.0023297550293070513 -0.0079212442998776583 0 0.0023932838202511738 -0.007747048425519455 0 0.0024316365773942358 -0.0078265968449153407 0 0.0023297550293070513 -0.0079212442998776583 0 0.002153558111577952 -0.017421250365979822 0 0.0022394721611773962 -0.019438810011707421 0 0.0015950751702766264 -0.018583738749677673 0 0.0022394721611773962 -0.019438810011707421 0 0.0015950751702766264 -0.018583738749677673 0 0.00077650243536631373 -0.019757131446337228 0 0.0036441376089679039 -0.011342327919588486 0 0.0021104231667519618 -0.013911053005313475 0 0.0015227786891926034 -0.017778022984028693 0 0.0015950751702766264 -0.018583738749677673 0 0.00096126977481346008 -0.018294079280056073 0 0.0022394721611773962 -0.019438810011707421 0 0.00077650243536631373 -0.019757131446337228 0 0.0018077447819359346 -0.021838412091095591 0 0.0021104231667519618 -0.013911053005313475 0 0.0020519857469546822 -0.01494770681599404 0 0.00077650243536631373 -0.019757131446337228 0 0.00096126977481346008 -0.018294079280056073 0 -0.00051070878080669872 -0.01914725024902536 0 0.0015950751702766264 -0.018583738749677673 0 0.00077650243536631373 -0.019757131446337228 0 0.00096126977481346008 -0.018294079280056073 0 0.00024247629503613391 -0.017844044001763266 0 0.00096126977481346008 -0.018294079280056073 0 -0.00051070878080669872 -0.01914725024902536 0 -0.00030715515320123532 -0.021709051112005828 0 -4.1111808722757178e-05 -0.023290201905125152 0 0.00018102938579350403 -0.025345703742164917 0 0.00015930131334378496 -0.025180201184873567 0 0.00027741668517866012 -0.025355688454573318 0 0.00077650243536631373 -0.019757131446337228 0 -0.00051070878080669872 -0.01914725024902536 0 -0.00029624894610362533 -0.021160656683173119 0 0.00015930131334378496 -0.025180201184873567 0 0.0002363807731159164 -0.024987293370488359 0 0.00026764848325959445 -0.025144104104958181 0 -4.1111808722757178e-05 -0.023290201905125152 0 0.00014067779243274477 -0.024059085490885358 0 -1.4692682806513412e-05 -0.023193632698316102 0 0.0018077447819359346 -0.021838412091095591 0 0.0012050066609136485 -0.024129539169734236 0 0.00077650243536631373 -0.019757131446337228 0 -0.00029624894610362533 -0.021160656683173119 0 0.0018077447819359346 -0.021838412091095591 0 -0.00029624894610362533 -0.021160656683173119 0 -1.4692682806513412e-05 -0.023193632698316102 0 0.0018077447819359346 -0.021838412091095591 0 0.0023297550293070513 -0.0079212442998776583 0 0.0022539200731664837 -0.0081399761451410053 0 0.0024280088367367677 -0.0080730898183973849 0 0.0022539200731664837 -0.0081399761451410053 0 0.0023417302367032809 -0.0082278514695427601 0 0.0021847829843558157 -0.0083782653972997671 0 0.0020519857469546822 -0.01494770681599404 0 0.0016859824584649359 -0.016162954189999936 0 0.0022539200731664837 -0.0081399761451410053 0 0.0023417302367032809 -0.0082278514695427601 0 0.0024280088367367677 -0.0080730898183973849 0 0.0024717401298792875 -0.008194089238354416 0 0.0023417302367032809 -0.0082278514695427601 0 0.0024280088367367677 -0.0080730898183973849 0 0.00011359399949584944 -0.025522745238512716 0 0.00018594588589751615 -0.025450359796948336 0 0.00011420992589473064 -0.025471772111755449 0 0.00011359399949584944 -0.025522745238512716 0 0.00018594588589751615 -0.025450359796948336 0 0.0001937891862064148 -0.025615393306500197 0 0.00011359399949584944 -0.025522745238512716 0 4.579094984533225e-05 -0.025534532867011017 0 0.00011420992589473064 -0.025471772111755449 0 0.00011359399949584944 -0.025522745238512716 0 4.579094984533225e-05 -0.025534532867011017 0 5.1205524213476225e-05 -0.025628360412289004 0 4.579094984533225e-05 -0.025534532867011017 0 4.5958451708109904e-05 -0.025509086925592801 0 0.00011420992589473064 -0.025471772111755449 0 8.7746242173306971e-05 -0.025475246145239005 0 4.5958451708109904e-05 -0.025509086925592801 0 0.00011420992589473064 -0.025471772111755449 0 0.0001465101441065939 -0.025435300576760675 0 0.00011420992589473064 -0.025471772111755449 0 0.0001932543886882647 -0.025420704895328591 0 0.00018594588589751615 -0.025450359796948336 0 0.00011420992589473064 -0.025471772111755449 0 0.0001932543886882647 -0.025420704895328591 0 0.0001465101441065939 -0.025435300576760675 0 8.7746242173306971e-05 -0.025475246145239005 0 0.00011420992589473064 -0.025471772111755449 0 0.0001932543886882647 -0.025420704895328591 0 0.00022092332735526324 -0.025397987612699211 0 0.00027741668517866012 -0.025355688454573318 0 0.00018297944651929455 -0.025405878272482661 0 0.0001932543886882647 -0.025420704895328591 0 0.00022092332735526324 -0.025397987612699211 0 0.00018102938579350403 -0.025345703742164917 0 0.00022323139828177164 -0.025380763829774292 0 0.00027741668517866012 -0.025355688454573318 0 0.00022092332735526324 -0.025397987612699211 0 0.00022323139828177164 -0.025380763829774292 0 0.00027741668517866012 -0.025355688454573318 0 0.00021969120467343436 -0.025382819962223691 0 0.00018102938579350403 -0.025345703742164917 0 0.00022323139828177164 -0.025380763829774292 0 0.00018594588589751615 -0.025450359796948336 0 0.00027741668517866012 -0.025355688454573318 0 0.0001937891862064148 -0.025615393306500197 0 0.00018594588589751615 -0.025450359796948336 0 0.0001932543886882647 -0.025420704895328591 0 0.00027741668517866012 -0.025355688454573318 0 0.00027531802244996976 -0.025354031329717697 0 0.0002489756992622202 -0.025375102319442899 0 0.00027741668517866012 -0.025355688454573318 0 0.00026764848325959445 -0.025144104104958181 0 0.00034213605014532696 -0.025079675071213853 0 0.00015930131334378496 -0.025180201184873567 0 0.00027741668517866012 -0.025355688454573318 0 0.00026764848325959445 -0.025144104104958181 0 0.0002363807731159164 -0.024987293370488359 0 0.00026764848325959445 -0.025144104104958181 0 0.00031809581044397393 -0.025009986751729787 0 0.00026764848325959445 -0.025144104104958181 0 0.00031809581044397393 -0.025009986751729787 0 0.00034213605014532696 -0.025079675071213853 0 0.00031809581044397393 -0.025009986751729787 0 0.00034213605014532696 -0.025079675071213853 0 0.00028472073426006841 -0.025045174686705467 0 0.00034213605014532696 -0.025079675071213853 0 0.00022328841396833184 -0.025067887644748377 0 0.00028472073426006841 -0.025045174686705467 0 0.0002489756992622202 -0.025375102319442899 0 0.00019615208208676607 -0.025313132795166938 0 0.0001937891862064148 -0.025615393306500197 0 5.1205524213476225e-05 -0.025628360412289004 0 0.00011082801120006043 -0.025747665200616637 0 0.00011359399949584944 -0.025522745238512716 0 0.0001937891862064148 -0.025615393306500197 0 5.1205524213476225e-05 -0.025628360412289004 0 5.1205524213476225e-05 -0.025628360412289004 0 0.00011082801120006043 -0.025747665200616637 0 -2.2740353547477407e-06 -0.025747670323911096 0 0.00011082801120006043 -0.025747665200616637 0 -2.2740353547477407e-06 -0.025747670323911096 0 2.8683071893161552e-05 -0.025861528550054191 0 0.00019615208208676607 -0.025313132795166938 0 7.1555935524581727e-05 -0.026027018471400078 0 0.00022328841396833184 -0.025067887644748377 0 0.0001952795268658578 -0.025115997620314811 0 0.00014334934077023213 -0.025137403683829732 0 0.00059689861064939238 -0.026197467534228355 0 0.00071529784506743784 -0.026101104907006869 0 0.00015306485341535117 -0.026383108402721921 0 0.00047948645634535852 -0.025601166183003191 0 7.1555935524581727e-05 -0.026027018471400078 0 0.0001952795268658578 -0.025115997620314811 0 0.00019481705355991563 -0.025159132953875375 0 0.00014334934077023213 -0.025137403683829732 0 0.00059689861064939238 -0.026197467534228355 0 0.00023507616624809488 -0.026776772298373913 0 0.00015306485341535117 -0.026383108402721921 0 0.00019481705355991563 -0.025159132953875375 0 0.00022144737351540201 -0.025106343814601462 0 0.00024421054385005643 -0.025134481468434035 0 0.0001952795268658578 -0.025115997620314811 0 0.00019481705355991563 -0.025159132953875375 0 0.00022144737351540201 -0.025106343814601462 0 0.00022328841396833184 -0.025067887644748377 0 0.00022144737351540201 -0.025106343814601462 0 0.00028472073426006841 -0.025045174686705467 0 0.00022328841396833184 -0.025067887644748377 0 0.0001952795268658578 -0.025115997620314811 0 0.00022144737351540201 -0.025106343814601462 0 0.00031809581044397393 -0.025009986751729787 0 0.00033408326906753187 -0.024977022928734795 0 0.00037025956213922607 -0.024875308652492795 0 0.00031809581044397393 -0.025009986751729787 0 0.00028472073426006841 -0.025045174686705467 0 0.00033408326906753187 -0.024977022928734795 0 0.00033408326906753187 -0.024977022928734795 0 0.00030533937968173528 -0.02510069734688071 0 0.00038818473709084639 -0.024925757260230292 0 0.00030533937968173528 -0.02510069734688071 0 0.00038818473709084639 -0.024925757260230292 0 0.00034751309103145579 -0.025241392895675386 0 0.00028472073426006841 -0.025045174686705467 0 0.00033408326906753187 -0.024977022928734795 0 0.00030533937968173528 -0.02510069734688071 0 0.00019481705355991563 -0.025159132953875375 0 0.00024421054385005643 -0.025134481468434035 0 0.00027454369846441237 -0.025352021288331042 0 0.00022144737351540201 -0.025106343814601462 0 0.00028472073426006841 -0.025045174686705467 0 0.00024421054385005643 -0.025134481468434035 0 0.00028472073426006841 -0.025045174686705467 0 0.00030533937968173528 -0.02510069734688071 0 0.00024421054385005643 -0.025134481468434035 0 0.00030533937968173528 -0.02510069734688071 0 0.00024421054385005643 -0.025134481468434035 0 0.00027454369846441237 -0.025352021288331042 0 0.00047948645634535852 -0.025601166183003191 0 0.00032262168753241429 -0.025418043483699058 0 0.00071529784506743784 -0.026101104907006869 0 0.00027454369846441237 -0.025352021288331042 0 0.00047702546438779938 -0.025621353398774589 0 0.00027454369846441237 -0.025352021288331042 0 0.00031129465663023238 -0.025411007489317683 0 0.00047702546438779938 -0.025621353398774589 0 0.00073275758554242694 -0.024675190667861547 0 0.00052918072102080282 -0.024919113630052742 0 0.00027454369846441237 -0.025352021288331042 0 0.00031129465663023238 -0.025411007489317683 0 0.00034751309103145579 -0.025241392895675386 0 0.00030533937968173528 -0.02510069734688071 0 0.00027454369846441237 -0.025352021288331042 0 0.00034751309103145579 -0.025241392895675386 0 0.00083066101733643676 -0.024422713423226609 0 0.00095576175553276652 -0.024405229284487052 0 0.00078684471205089641 -0.024546264206936893 0 0.00083066101733643676 -0.024422713423226609 0 0.00077869524549192435 -0.024335308597429783 0 0.00087487821743571488 -0.024342561168798856 0 0.00083066101733643676 -0.024422713423226609 0 0.00095576175553276652 -0.024405229284487052 0 0.00087487821743571488 -0.024342561168798856 0 0.00073275758554242694 -0.024675190667861547 0 0.00073245019775720931 -0.026106929569893075 0 0.00031129465663023238 -0.025411007489317683 0 0.00086341080108043387 -0.025547850270126769 0 0.00090017791834205436 -0.025140628051978146 0 0.00031129465663023238 -0.025411007489317683 0 0.00086341080108043387 -0.025547850270126769 0 0.00065350757621556485 -0.025751754217125826 0 0.00057980947062206522 -0.027111177382117813 0 0.00046779896085155805 -0.027588592364243748 0 9.0292756973273122e-05 -0.027308965745575845 0 0.00057980947062206522 -0.027111177382117813 0 0.00023507616624809488 -0.026776772298373913 0 9.0292756973273122e-05 -0.027308965745575845 0 0.00069110671753981774 -0.02636224949728367 0 0.00073245019775720931 -0.026106929569893075 0 0.00064039097216568358 -0.026188225618830836 0 0.00069110671753981774 -0.02636224949728367 0 0.00059689861064939238 -0.026197467534228355 0 0.00057980947062206522 -0.027111177382117813 0 0.00023507616624809488 -0.026776772298373913 0 0.00031129465663023238 -0.025411007489317683 0 0.00047702546438779938 -0.025621353398774589 0 0.00065350757621556485 -0.025751754217125826 0 0.00059689861064939238 -0.026197467534228355 0 0.00086341080108043387 -0.025547850270126769 0 0.00065350757621556485 -0.025751754217125826 0 0.00059689861064939238 -0.026197467534228355 0 0.00071529784506743784 -0.026101104907006869 0 0.00065350757621556485 -0.025751754217125826 0 0.00071529784506743784 -0.026101104907006869 0 0.00047702546438779938 -0.025621353398774589 0 0.00065350757621556485 -0.025751754217125826 0 0.0024596758034780056 -0.0084016609825493926 0 0.0023727368248223739 -0.0084183629337154352 0 0.0023789888652003635 -0.0085025037183914399 0 0.0023727368248223739 -0.0084183629337154352 0 0.0022754137650605904 -0.0084425576787847349 0 0.0022931104491154459 -0.0085146775884791283 0 0.0023727368248223739 -0.0084183629337154352 0 0.0023523985939798396 -0.0083317988515590104 0 0.0022754137650605904 -0.0084425576787847349 0 0.0024758110271238514 -0.0083189839225129864 0 0.0023727368248223739 -0.0084183629337154352 0 0.0023523985939798396 -0.0083317988515590104 0 0.0024717401298792875 -0.008194089238354416 0 0.0023417302367032809 -0.0082278514695427601 0 0.0023523985939798396 -0.0083317988515590104 0 0.0023523985939798396 -0.0083317988515590104 0 0.0021847829843558157 -0.0083782653972997671 0 0.0022754137650605904 -0.0084425576787847349 0 0.0023417302367032809 -0.0082278514695427601 0 0.0023523985939798396 -0.0083317988515590104 0 0.0021847829843558157 -0.0083782653972997671 0 0.0021847829843558157 -0.0083782653972997671 0 0.0022754137650605904 -0.0084425576787847349 0 0.0022226129126062533 -0.0085113671581451087 0 0.0021847829843558157 -0.0083782653972997671 0 0.0022226129126062533 -0.0085113671581451087 0 0.0021343877535413866 -0.0085987960134110055 0 0.0022754137650605904 -0.0084425576787847349 0 0.0022226129126062533 -0.0085113671581451087 0 0.0022931104491154459 -0.0085146775884791283 0 0.0012050066609136485 -0.024129539169734236 0 0.00086943602472969292 -0.024473214370162061 0 0.00074373396895435035 -0.024654068526736687 0 0.0016859824584649359 -0.016162954189999936 0 0.0015169810402562516 -0.016920525566004988 0 0.00086943602472969292 -0.024473214370162061 0 0.00051754051915146903 -0.024661051321772744 0 0.00038818473709084639 -0.024925757260230292 0 0.0012050066609136485 -0.024129539169734236 0 0.00086943602472969292 -0.024473214370162061 0 0.00051754051915146903 -0.024661051321772744 0 -1.4692682806513412e-05 -0.023193632698316102 0 0.0012050066609136485 -0.024129539169734236 0 0.00051754051915146903 -0.024661051321772744 0 0.00014067779243274477 -0.024059085490885358 0 0.00043990755272857289 -0.024642241043627229 0 0.0002363807731159164 -0.024987293370488359 0 0.00051754051915146903 -0.024661051321772744 0 0.00037025956213922607 -0.024875308652492795 0 0.0002363807731159164 -0.024987293370488359 0 0.00031809581044397393 -0.025009986751729787 0 0.00037025956213922607 -0.024875308652492795 0 0.00086943602472969292 -0.024473214370162061 0 0.00038818473709084639 -0.024925757260230292 0 0.00034751309103145579 -0.025241392895675386 0 0.00033408326906753187 -0.024977022928734795 0 0.00037025956213922607 -0.024875308652492795 0 0.00038818473709084639 -0.024925757260230292 0 0.00051754051915146903 -0.024661051321772744 0 0.00037025956213922607 -0.024875308652492795 0 0.00038818473709084639 -0.024925757260230292 0 0.00086356144238125727 -0.02451235920578523 0 0.00052918072102080282 -0.024919113630052742 0 0.00078684471205089641 -0.024546264206936893 0 0.00076996359446039814 -0.024471510294720538 0 0.00074373396895435035 -0.024654068526736687 0 0.00083066101733643676 -0.024422713423226609 0 0.00078684471205089641 -0.024546264206936893 0 0.00076996359446039814 -0.024471510294720538 0 0.00083066101733643676 -0.024422713423226609 0 0.00076996359446039814 -0.024471510294720538 0 0.00077869524549192435 -0.024335308597429783 0 0.00076996359446039814 -0.024471510294720538 0 0.00073573557601503824 -0.02442879968334765 0 0.00077869524549192435 -0.024335308597429783 0 0.0021343877535413866 -0.0085987960134110055 0 0.0021451921045496647 -0.0086683110001541785 0 0.0020891284272069369 -0.0087570295580822015 0 0.00073573557601503824 -0.02442879968334765 0 0.00074373396895435035 -0.024654068526736687 0 0.00065802900448200675 -0.024264486697172166 0 0.0015169810402562516 -0.016920525566004988 0 0.00076384916527962596 -0.015085385277531969 0 0.00076996359446039814 -0.024471510294720538 0 0.00073573557601503824 -0.02442879968334765 0 0.00074373396895435035 -0.024654068526736687 0 0.00073573557601503824 -0.02442879968334765 0 0.00065802900448200675 -0.024264486697172166 0 0.00077869524549192435 -0.024335308597429783 0 0.0021451921045496647 -0.0086683110001541785 0 0.0021004827342597831 -0.0087465122784696047 0 0.0020891284272069369 -0.0087570295580822015 0 0.0021451921045496647 -0.0086683110001541785 0 0.0021417827947558029 -0.0087041017024318285 0 0.0021004827342597831 -0.0087465122784696047 0 0.00086943602472969292 -0.024473214370162061 0 0.00078684471205089641 -0.024546264206936893 0 0.00074373396895435035 -0.024654068526736687 0 0.0022226129126062533 -0.0085113671581451087 0 0.0021343877535413866 -0.0085987960134110055 0 0.002218684213754582 -0.0086065679257191132 0 0.0022226129126062533 -0.0085113671581451087 0 0.002218684213754582 -0.0086065679257191132 0 0.0022931104491154459 -0.0085146775884791283 0 0.0021343877535413866 -0.0085987960134110055 0 0.002218684213754582 -0.0086065679257191132 0 0.0021451921045496647 -0.0086683110001541785 0 0.002218684213754582 -0.0086065679257191132 0 0.0021451921045496647 -0.0086683110001541785 0 0.0021901340338545787 -0.0086673222184978586 0 0.0021451921045496647 -0.0086683110001541785 0 0.0021901340338545787 -0.0086673222184978586 0 0.0021417827947558029 -0.0087041017024318285 0 0.0021901340338545787 -0.0086673222184978586 0 0.0021417827947558029 -0.0087041017024318285 0 0.0021788638578864217 -0.0087111445806910791 0 0.0021901340338545787 -0.0086673222184978586 0 0.0022466600944952716 -0.0086537276150798238 0 0.0021788638578864217 -0.0087111445806910791 0 0.0022466600944952716 -0.0086537276150798238 0 0.0022528464980450156 -0.0086954247425756418 0 0.0021788638578864217 -0.0087111445806910791 0 0.002218684213754582 -0.0086065679257191132 0 0.0021901340338545787 -0.0086673222184978586 0 0.0022466600944952716 -0.0086537276150798238 0 0.0023846514792359216 -0.0086803960550695409 0 0.0024044681776549197 -0.0085665252530104999 0 0.0023175796730852492 -0.0086383613289293185 0 0.0022466600944952716 -0.0086537276150798238 0 0.0023127849503632469 -0.0085865454303173851 0 0.0023175796730852492 -0.0086383613289293185 0 0.002218684213754582 -0.0086065679257191132 0 0.0022466600944952716 -0.0086537276150798238 0 0.0023127849503632469 -0.0085865454303173851 0 0.0022466600944952716 -0.0086537276150798238 0 0.0023175796730852492 -0.0086383613289293185 0 0.0022528464980450156 -0.0086954247425756418 0 0.0024044681776549197 -0.0085665252530104999 0 0.0023127849503632469 -0.0085865454303173851 0 0.0023175796730852492 -0.0086383613289293185 0 0.0024044681776549197 -0.0085665252530104999 0 0.0023127849503632469 -0.0085865454303173851 0 0.0023789888652003635 -0.0085025037183914399 0 0.002218684213754582 -0.0086065679257191132 0 0.0023127849503632469 -0.0085865454303173851 0 0.0022931104491154459 -0.0085146775884791283 0 0.0023127849503632469 -0.0085865454303173851 0 0.0022931104491154459 -0.0085146775884791283 0 0.0023789888652003635 -0.0085025037183914399 0 0.0023727368248223739 -0.0084183629337154352 0 0.0022931104491154459 -0.0085146775884791283 0 0.0023789888652003635 -0.0085025037183914399 0 -0.0012780883518143142 0.0025271602163295433 0 -0.0012346541614481215 0.0029602039496827376 0 -0.0015788876308128579 0.0028892131787077772 0 0.0022837519120536302 -0.0087968726523309174 0 0.0022272406710968835 -0.0087282423706836545 0 0.002170686265530779 -0.0088190226781338591 0 0.00040650683361126167 -0.0027029011468488319 0 0.0004160653021947225 -0.0028564146110188191 0 0.0023846514792359216 -0.0086803960550695409 0 0.0023175796730852492 -0.0086383613289293185 0 0.0022528464980450156 -0.0086954247425756418 0 0.00040650683361126167 -0.0027029011468488319 0 0.0022179879623763594 -0.0097945245194537168 0 0.0024841518630768747 -0.0083973114749835692 0 0.0022837519120536302 -0.0087968726523309174 0 0.0022272406710968835 -0.0087282423706836545 0 -0.0012346541614481215 0.0029602039496827376 0 -0.0011903621701274802 0.003499733058671118 0 -0.0015788876308128579 0.0028892131787077772 0 0.0023846514792359216 -0.0086803960550695409 0 0.0022528464980450156 -0.0086954247425756418 0 0.0022272406710968835 -0.0087282423706836545 0 0.0022528464980450156 -0.0086954247425756418 0 0.0022272406710968835 -0.0087282423706836545 0 0.0021851740204462409 -0.0087417261752352031 0 0.0022528464980450156 -0.0086954247425756418 0 0.0021851740204462409 -0.0087417261752352031 0 0.0021788638578864217 -0.0087111445806910791 0 0.0021417827947558029 -0.0087041017024318285 0 0.0021788638578864217 -0.0087111445806910791 0 0.0021371060508127231 -0.0087347724718216582 0 0.0021788638578864217 -0.0087111445806910791 0 0.0021371060508127231 -0.0087347724718216582 0 0.0021468007281339454 -0.0087482147234929988 0 0.0021851740204462409 -0.0087417261752352031 0 0.0021788638578864217 -0.0087111445806910791 0 0.0021468007281339454 -0.0087482147234929988 0 0.0021371060508127231 -0.0087347724718216582 0 0.0021468007281339454 -0.0087482147234929988 0 0.0021059970402476438 -0.0087722275639281009 0 0.0021851740204462409 -0.0087417261752352031 0 0.0021468007281339454 -0.0087482147234929988 0 0.0021255583003181948 -0.0087882678530574378 0 0.0021468007281339454 -0.0087482147234929988 0 0.0021255583003181948 -0.0087882678530574378 0 0.0021059970402476438 -0.0087722275639281009 0 0.0022837519120536302 -0.0087968726523309174 0 0.002170686265530779 -0.0088190226781338591 0 0.0021473345104411523 -0.0089226278189508713 0 0.0021851740204462409 -0.0087417261752352031 0 0.0021255583003181948 -0.0087882678530574378 0 0.002170686265530779 -0.0088190226781338591 0 0.0022272406710968835 -0.0087282423706836545 0 0.0021851740204462409 -0.0087417261752352031 0 0.002170686265530779 -0.0088190226781338591 0 0.0016139958518518094 -0.011212770606069804 0 0.00076384916527962596 -0.015085385277531969 0 0.0021255583003181948 -0.0087882678530574378 0 0.0020223361266639987 -0.0088673560743056136 0 0.0021059970402476438 -0.0087722275639281009 0 0.00089322515059152318 -0.015728307585464976 0 0.0011733010002899144 -0.013813337573484342 0 -0.00034519282018659971 -0.014639778060426602 0 0.0021255583003181948 -0.0087882678530574378 0 0.002170686265530779 -0.0088190226781338591 0 0.0020223361266639987 -0.0088673560743056136 0 0.0020223361266639987 -0.0088673560743056136 0 0.0021059970402476438 -0.0087722275639281009 0 0.0020915422136240079 -0.0087477320844276205 0 0.0021059970402476438 -0.0087722275639281009 0 0.002111400219939605 -0.0087481418873746088 0 0.0020915422136240079 -0.0087477320844276205 0 0.0021371060508127231 -0.0087347724718216582 0 0.0021059970402476438 -0.0087722275639281009 0 0.002111400219939605 -0.0087481418873746088 0 0.0021371060508127231 -0.0087347724718216582 0 0.002111400219939605 -0.0087481418873746088 0 0.0021224621309911705 -0.008733940663348181 0 0.002111400219939605 -0.0087481418873746088 0 0.0021004827342597831 -0.0087465122784696047 0 0.0020915422136240079 -0.0087477320844276205 0 0.0011979597553678765 -0.014632236305938174 0 0.00076384916527962596 -0.015085385277531969 0 0.0021417827947558029 -0.0087041017024318285 0 0.0021004827342597831 -0.0087465122784696047 0 0.0021224621309911705 -0.008733940663348181 0 0.0021417827947558029 -0.0087041017024318285 0 0.0021371060508127231 -0.0087347724718216582 0 0.0021224621309911705 -0.008733940663348181 0 0.002111400219939605 -0.0087481418873746088 0 0.0021004827342597831 -0.0087465122784696047 0 0.0021224621309911705 -0.008733940663348181 0 0.00081149824954797583 -0.024236377043792719 0 0.00077869524549192435 -0.024335308597429783 0 0.00087487821743571488 -0.024342561168798856 0 0.00076384916527962596 -0.015085385277531969 0 4.2003622356482739e-05 -0.019883856380233187 0 0.00065802900448200675 -0.024264486697172166 0 0.00081149824954797583 -0.024236377043792719 0 0.00077869524549192435 -0.024335308597429783 0 0.00089322515059152318 -0.015728307585464976 0 -0.00034519282018659971 -0.014639778060426602 0 -0.00065712157417607928 -0.015900561998278023 0 0.00089322515059152318 -0.015728307585464976 0 0.00012233087826912499 -0.016651373307375667 0 0.00063057833373885547 -0.017737024001717904 0 0.00089322515059152318 -0.015728307585464976 0 -0.00065712157417607928 -0.015900561998278023 0 0.00012233087826912499 -0.016651373307375667 0 -0.00065712157417607928 -0.015900561998278023 0 0.00012233087826912499 -0.016651373307375667 0 -0.00065932630434241055 -0.017001192911506025 0 0.00012233087826912499 -0.016651373307375667 0 -0.00065932630434241055 -0.017001192911506025 0 -0.00028565236722752748 -0.017798661710982985 0 -0.0010047406915984845 -0.018554882671220081 0 -0.00013718745025295874 -0.018691593984873502 0 -0.00028565236722752748 -0.017798661710982985 0 -0.00013718745025295874 -0.018691593984873502 0 -0.00028565236722752748 -0.017798661710982985 0 0.00063057833373885547 -0.017737024001717904 0 0.00012233087826912499 -0.016651373307375667 0 -0.00028565236722752748 -0.017798661710982985 0 0.00063057833373885547 -0.017737024001717904 0 0.0019370511589822776 -0.009048754796094129 0 0.0020098321711478182 -0.0090820431446940516 0 0.0021473345104411523 -0.0089226278189508713 0 0.0020223361266639987 -0.0088673560743056136 0 0.0019370511589822776 -0.009048754796094129 0 0.0021473345104411523 -0.0089226278189508713 0 0.0016139958518518094 -0.011212770606069804 0 0.0014551088679468354 -0.014792553919506585 0 0.002170686265530779 -0.0088190226781338591 0 0.0020223361266639987 -0.0088673560743056136 0 0.0021473345104411523 -0.0089226278189508713 0 0.0004160653021947225 -0.0028564146110188191 0 -8.8564445312672087e-06 -0.0034803324200940867 0 -0.0018748931305532664 0.001722600786592116 0 -0.0023751055828103895 0.0017916464609243682 0 -0.0019626097756892118 0.0023142218783072052 0 0.00015459401655073019 -0.0027975051326697077 0 -8.8564445312672087e-06 -0.0034803324200940867 0 -0.0018748931305532664 0.001722600786592116 0 -0.0019626097756892118 0.0023142218783072052 0 -0.0014930918179697358 0.0020589374185740576 0 -0.0018748931305532664 0.001722600786592116 0 -0.0013345489061536199 0.0016045766100804633 0 -0.0014930918179697358 0.0020589374185740576 0 -0.0012780883518143142 0.0025271602163295433 0 -0.0019626097756892118 0.0023142218783072052 0 -0.0014930918179697358 0.0020589374185740576 0 -0.0012780883518143142 0.0025271602163295433 0 -0.0015788876308128579 0.0028892131787077772 0 -0.0019626097756892118 0.0023142218783072052 0 0.00097961090042483073 -0.024255323665780485 0 0.00099804379715291887 -0.024221310760082524 0 0.0010403503245602183 -0.024257597378619919 0 0.00097961090042483073 -0.024255323665780485 0 0.00099804379715291887 -0.024221310760082524 0 0.00096423544942513906 -0.024195647409877719 0 0.00099804379715291887 -0.024221310760082524 0 0.0010403503245602183 -0.024257597378619919 0 0.001009898748671704 -0.024209850123772456 0 0.00068400523280444717 -0.025972020505115781 0 -0.00060176671154670762 -0.026470729459055681 0 0.00028791228537533082 -0.027874609164899831 0 0.00024895998475585481 -0.028154261660694974 0 8.6886833999260678e-05 -0.027989936412818446 0 0.00068400523280444717 -0.025972020505115781 0 0.00073245019775720931 -0.026106929569893075 0 0.00073245019775720931 -0.026106929569893075 0 -0.00027791624171705307 -0.02822430746686885 0 0.00028791228537533082 -0.027874609164899831 0 0.00032245560189627395 -0.027567943520557948 0 -6.3325282612372138e-05 -0.027808183033275251 0 0.00097961090042483073 -0.024255323665780485 0 0.0010403503245602183 -0.024257597378619919 0 0.0010447328019288775 -0.024334403833831869 0 0.00097961090042483073 -0.024255323665780485 0 0.0010447328019288775 -0.024334403833831869 0 0.00097440260710895423 -0.024317095777703166 0 0.00095576175553276652 -0.024405229284487052 0 0.0010447328019288775 -0.024334403833831869 0 0.00097440260710895423 -0.024317095777703166 0 0.00095576175553276652 -0.024405229284487052 0 0.00091282527427164644 -0.024283643266904471 0 0.00087487821743571488 -0.024342561168798856 0 0.00097961090042483073 -0.024255323665780485 0 0.00097440260710895423 -0.024317095777703166 0 0.00091282527427164644 -0.024283643266904471 0 0.00095576175553276652 -0.024405229284487052 0 0.00097440260710895423 -0.024317095777703166 0 0.00091282527427164644 -0.024283643266904471 0 0.00081149824954797583 -0.024236377043792719 0 0.00091282527427164644 -0.024283643266904471 0 0.00087487821743571488 -0.024342561168798856 0 0.00081149824954797583 -0.024236377043792719 0 0.00091282527427164644 -0.024283643266904471 0 0.00089911674749887252 -0.024206272752257275 0 4.2003622356482739e-05 -0.019883856380233187 0 -0.0004864393091998701 -0.019668726343819307 0 -0.00034519282018659971 -0.014639778060426602 0 -0.00065712157417607928 -0.015900561998278023 0 -0.0019334888851044267 -0.01547596754405391 0 0.00097961090042483073 -0.024255323665780485 0 0.00091282527427164644 -0.024283643266904471 0 0.00089911674749887252 -0.024206272752257275 0 0.00097961090042483073 -0.024255323665780485 0 0.00089911674749887252 -0.024206272752257275 0 0.00096423544942513906 -0.024195647409877719 0 0.00089911674749887252 -0.024206272752257275 0 0.00096423544942513906 -0.024195647409877719 0 0.00097362301240017004 -0.024172219992039886 0 -0.0004864393091998701 -0.019668726343819307 0 -0.00082068071465965671 -0.021540568886489687 0 -0.0019334888851044267 -0.01547596754405391 0 -0.002455230461921623 -0.016551990966009188 0 -0.0035844471769773479 -0.01634892800557507 0 -0.0019334888851044267 -0.01547596754405391 0 -0.002455230461921623 -0.016551990966009188 0 -0.0014596038630919868 -0.016604428840775932 0 -0.002455230461921623 -0.016551990966009188 0 -0.0030990129092681637 -0.017502216920386837 0 -0.0020549839647111775 -0.017169235503861666 0 -0.002455230461921623 -0.016551990966009188 0 -0.0014596038630919868 -0.016604428840775932 0 -0.0020549839647111775 -0.017169235503861666 0 -0.002455230461921623 -0.016551990966009188 0 -0.0030990129092681637 -0.017502216920386837 0 -0.0035844471769773479 -0.01634892800557507 0 -0.00065712157417607928 -0.015900561998278023 0 -0.0019334888851044267 -0.01547596754405391 0 -0.0014596038630919868 -0.016604428840775932 0 -0.00065712157417607928 -0.015900561998278023 0 -0.00065932630434241055 -0.017001192911506025 0 -0.0014596038630919868 -0.016604428840775932 0 -0.0014596038630919868 -0.016604428840775932 0 -0.0012807679979368978 -0.017570045958938896 0 -0.0020549839647111775 -0.017169235503861666 0 -0.00065932630434241055 -0.017001192911506025 0 -0.0014596038630919868 -0.016604428840775932 0 -0.0012807679979368978 -0.017570045958938896 0 -0.00065932630434241055 -0.017001192911506025 0 -0.00028565236722752748 -0.017798661710982985 0 -0.0012807679979368978 -0.017570045958938896 0 -0.0012807679979368978 -0.017570045958938896 0 -0.0020549839647111775 -0.017169235503861666 0 -0.0020040060173252472 -0.018178469142239806 0 -0.0010047406915984845 -0.018554882671220081 0 -0.0012807679979368978 -0.017570045958938896 0 -0.0020040060173252472 -0.018178469142239806 0 -0.0010047406915984845 -0.018554882671220081 0 -0.00028565236722752748 -0.017798661710982985 0 -0.0012807679979368978 -0.017570045958938896 0 -0.0030990129092681637 -0.017502216920386837 0 -0.0020549839647111775 -0.017169235503861666 0 -0.0020040060173252472 -0.018178469142239806 0 -0.0030990129092681637 -0.017502216920386837 0 -0.0020040060173252472 -0.018178469142239806 0 -0.0029866393667663553 -0.018330496091208442 0 -0.0030990129092681637 -0.017502216920386837 0 -0.0044977368173313185 -0.017663976956986724 0 -0.0035844471769773479 -0.01634892800557507 0 -0.0039941890048198108 -0.018533777334914563 0 -0.0030990129092681637 -0.017502216920386837 0 -0.0029866393667663553 -0.018330496091208442 0 -0.0039941890048198108 -0.018533777334914563 0 -0.0030990129092681637 -0.017502216920386837 0 -0.0044977368173313185 -0.017663976956986724 0 -0.0032846944721302259 -0.019946026604151408 0 -0.00082068071465965671 -0.021540568886489687 0 -0.0023208562294517168 -0.023053091091018312 0 -0.0021839890395782859 -0.02234248047667808 0 -0.0016349777414184435 -0.022044996146437981 0 -0.00053367250966074287 -0.02424369265132225 0 -0.00082068071465965671 -0.021540568886489687 0 0.00099804379715291887 -0.024221310760082524 0 0.001009898748671704 -0.024209850123772456 0 0.00097399982809283955 -0.024188314306941489 0 0.00099867030567920754 -0.024185696368958703 0 0.001009898748671704 -0.024209850123772456 0 0.00097399982809283955 -0.024188314306941489 0 0.00099804379715291887 -0.024221310760082524 0 0.00096423544942513906 -0.024195647409877719 0 0.00097399982809283955 -0.024188314306941489 0 -0.00061133837410468777 -0.022757672285596928 0 -0.00082068071465965671 -0.021540568886489687 0 0.0010403503245602183 -0.024257597378619919 0 0.001009898748671704 -0.024209850123772456 0 0.0010277819569924605 -0.024198300709324203 0 0.00099867030567920754 -0.024185696368958703 0 0.001009898748671704 -0.024209850123772456 0 0.0010277819569924605 -0.024198300709324203 0 -0.00053367250966074287 -0.02424369265132225 0 -0.002156123875977918 -0.026800648120579928 0 -0.00053367250966074287 -0.02424369265132225 0 -0.00060176671154670762 -0.026470729459055681 0 -0.00057649828868734914 -0.025464340036058977 0 -0.001463311683282408 -0.025331988106950511 0 -0.0015276523673333816 -0.025994916696358783 0 -0.00060176671154670762 -0.026470729459055681 0 -0.002156123875977918 -0.026800648120579928 0 -0.0017178046149954214 -0.028102687486727812 0 -0.0017179396126097742 -0.028071771879750969 0 -0.001648900842948095 -0.02808373865165591 0 -0.0029854966926730064 -0.024029701478641016 0 -0.0023208562294517168 -0.023053091091018312 0 -0.0028392721090469363 -0.02271396279477347 0 -0.0034938371965218761 -0.028072410833003245 0 -0.0035333372301030105 -0.028778083019668547 0 -0.0033386735948130585 -0.028399700858519575 0 -0.0042760492609636583 -0.023044311558136053 0 -0.0032846944721302259 -0.019946026604151408 0 -0.0042760492609636583 -0.023044311558136053 0 -0.002156123875977918 -0.026800648120579928 0 -0.0039941890048198108 -0.018533777334914563 0 -0.0054298088558136035 -0.019034485913354035 0 -0.0044977368173313185 -0.017663976956986724 0 -0.0023208562294517168 -0.023053091091018312 0 -0.0021839890395782859 -0.02234248047667808 0 -0.0028392721090469363 -0.02271396279477347 0 -0.0035333372301030105 -0.028778083019668547 0 -0.0033386735948130585 -0.028399700858519575 0 -0.0031203921397242912 -0.028389384534451185 0 -0.0017179396126097742 -0.028071771879750969 0 -0.0015989128908129283 -0.028024501673347177 0 -0.001648900842948095 -0.02808373865165591 0 -0.0035333372301030105 -0.028778083019668547 0 -0.0031203921397242912 -0.028389384534451185 0 -0.002738042928499931 -0.028429346743295843 0 -0.002156123875977918 -0.026800648120579928 0 -0.0023309702741768092 -0.028486829477289217 0 -0.0032584352752302276 -0.028239603737826177 0 -0.0033386735948130585 -0.028399700858519575 0 -0.0031203921397242912 -0.028389384534451185 0 -0.0015989128908129283 -0.028024501673347177 0 -0.0015747195939426841 -0.028073952761202926 0 -0.001648900842948095 -0.02808373865165591 0 -0.0028804009388985687 -0.02829415000193657 0 -0.0031203921397242912 -0.028389384534451185 0 -0.002738042928499931 -0.028429346743295843 0 -0.0015869223528602217 -0.028017830348953783 0 -0.0015989128908129283 -0.028024501673347177 0 -0.0015747195939426841 -0.028073952761202926 0 -0.0015869223528602217 -0.028017830348953783 0 -0.0015747195939426841 -0.028073952761202926 0 -0.001505101078587315 -0.028052158387049875 0 -0.0015747195939426841 -0.028073952761202926 0 -0.0016153948591224609 -0.028146086991752518 0 -0.0013982394252497064 -0.028199667047374276 0 -0.00086615156208926468 -0.028297380199340947 0 -0.00095436704228488254 -0.028117655978078398 0 -0.0015747195939426841 -0.028073952761202926 0 -0.0016153948591224609 -0.028146086991752518 0 -0.001648900842948095 -0.02808373865165591 0 -0.00060176671154670762 -0.026470729459055681 0 -0.00086615156208926468 -0.028297380199340947 0 0.00024895998475585481 -0.028154261660694974 0 -0.00012502824597915971 -0.028118385336133572 0 8.6886833999260678e-05 -0.027989936412818446 0 -0.0017178046149954214 -0.028102687486727812 0 -0.0016153948591224609 -0.028146086991752518 0 -0.001648900842948095 -0.02808373865165591 0 0.00028791228537533082 -0.027874609164899831 0 8.6886833999260678e-05 -0.027989936412818446 0 -6.3325282612372138e-05 -0.027808183033275251 0 -0.00012502824597915971 -0.028118385336133572 0 8.6886833999260678e-05 -0.027989936412818446 0 -6.3325282612372138e-05 -0.027808183033275251 0 -0.00012502824597915971 -0.028118385336133572 0 -0.00037179403846759608 -0.027785077970023997 0 -0.00049612919885226364 -0.028089481355777154 0 -0.00012502824597915971 -0.028118385336133572 0 -6.3325282612372138e-05 -0.027808183033275251 0 -0.00037179403846759608 -0.027785077970023997 0 -6.3325282612372138e-05 -0.027808183033275251 0 -0.00037179403846759608 -0.027785077970023997 0 -0.00026193608913244231 -0.027409391627383616 0 -0.00037179403846759608 -0.027785077970023997 0 -0.00026193608913244231 -0.027409391627383616 0 -0.00047345697046528986 -0.027489939100431918 0 0.00046779896085155805 -0.027588592364243748 0 -6.3325282612372138e-05 -0.027808183033275251 0 9.0292756973273122e-05 -0.027308965745575845 0 -6.3325282612372138e-05 -0.027808183033275251 0 9.0292756973273122e-05 -0.027308965745575845 0 -0.00026193608913244231 -0.027409391627383616 0 -0.00073431651753671535 -0.027669416297567015 0 -0.00061632477551341034 -0.027843024561550744 0 -0.00047345697046528986 -0.027489939100431918 0 -0.00037179403846759608 -0.027785077970023997 0 -0.00061632477551341034 -0.027843024561550744 0 -0.00047345697046528986 -0.027489939100431918 0 -0.00037179403846759608 -0.027785077970023997 0 -0.00061632477551341034 -0.027843024561550744 0 -0.00049612919885226364 -0.028089481355777154 0 -0.00061632477551341034 -0.027843024561550744 0 -0.00049612919885226364 -0.028089481355777154 0 -0.00095749843595995703 -0.028086138043248783 0 -0.00073431651753671535 -0.027669416297567015 0 -0.00061632477551341034 -0.027843024561550744 0 -0.00095749843595995703 -0.028086138043248783 0 -0.00095436704228488254 -0.028117655978078398 0 -0.00097222504638831925 -0.028100441970596749 0 -0.0013982394252497064 -0.028199667047374276 0 -0.0012176468895340881 -0.028064587999072545 0 -0.00095749843595995703 -0.028086138043248783 0 -0.0013982394252497064 -0.028199667047374276 0 -0.001505101078587315 -0.028052158387049875 0 -0.0012176468895340881 -0.028064587999072545 0 -0.0015747195939426841 -0.028073952761202926 0 -0.0013982394252497064 -0.028199667047374276 0 -0.001505101078587315 -0.028052158387049875 0 -0.0016817307312130363 -0.027947298209882527 0 -0.0015869223528602217 -0.028017830348953783 0 -0.001505101078587315 -0.028052158387049875 0 -0.0016817307312130363 -0.027947298209882527 0 -0.001505101078587315 -0.028052158387049875 0 -0.0012176468895340881 -0.028064587999072545 0 -0.0011892633746004367 -0.027936265603825415 0 -0.0012176468895340881 -0.028064587999072545 0 -0.0010997114928806206 -0.028028208360642317 0 -0.00097690555595672871 -0.027991531976827133 0 -0.0010098419457221593 -0.028066619497523478 0 -0.0009301737220953932 -0.028033490604023808 0 -0.00097690555595672871 -0.027991531976827133 0 -0.0010997114928806206 -0.028028208360642317 0 -0.0010098419457221593 -0.028066619497523478 0 -0.0012176468895340881 -0.028064587999072545 0 -0.0010997114928806206 -0.028028208360642317 0 -0.0010098419457221593 -0.028066619497523478 0 -0.0010098419457221593 -0.028066619497523478 0 -0.0009301737220953932 -0.028033490604023808 0 -0.00098580763778467273 -0.028049233251400938 0 -0.0009301737220953932 -0.028033490604023808 0 -0.00098580763778467273 -0.028049233251400938 0 -0.00097808191193934999 -0.028058777803939661 0 -0.00098580763778467273 -0.028049233251400938 0 -0.00099397468849285985 -0.028045209016694467 0 -0.0010472204281222583 -0.027991503595643615 0 -0.0010098419457221593 -0.028066619497523478 0 -0.00098580763778467273 -0.028049233251400938 0 -0.00099397468849285985 -0.028045209016694467 0 -0.0012176468895340881 -0.028064587999072545 0 -0.0010098419457221593 -0.028066619497523478 0 -0.00095749843595995703 -0.028086138043248783 0 -0.0010098419457221593 -0.028066619497523478 0 -0.00099397468849285985 -0.028045209016694467 0 -0.00095749843595995703 -0.028086138043248783 0 -0.00015928568210550706 -0.028174457532783803 0 -0.00026818481089701759 -0.02820288484416273 0 -0.00022072861467241543 -0.028342327888201072 0 -0.00067844803177956033 -0.028075429889546255 0 -0.00098734346467358163 -0.028648748578794334 0 -0.00026818481089701759 -0.02820288484416273 0 -0.00039680197391959044 -0.02821229286375759 0 -0.00022072861467241543 -0.028342327888201072 0 -0.0010291320020920133 -0.028048556886344674 0 -0.00097808191193934999 -0.028058777803939661 0 -0.0010787440171092695 -0.028049872953477717 0 -0.00098580763778467273 -0.028049233251400938 0 -0.0010291320020920133 -0.028048556886344674 0 -0.00097808191193934999 -0.028058777803939661 0 -0.00098580763778467273 -0.028049233251400938 0 -0.001067047021341191 -0.028032757900273823 0 -0.0010472204281222583 -0.027991503595643615 0 -0.00098580763778467273 -0.028049233251400938 0 -0.0010291320020920133 -0.028048556886344674 0 -0.001067047021341191 -0.028032757900273823 0 -0.001067047021341191 -0.028032757900273823 0 -0.0011512573930744449 -0.027948860787614514 0 -0.0010472204281222583 -0.027991503595643615 0 -0.0010291320020920133 -0.028048556886344674 0 -0.001067047021341191 -0.028032757900273823 0 -0.0010787440171092695 -0.028049872953477717 0 -0.0012403305527962729 -0.027998637434318109 0 -0.0011600248208991804 -0.028010880156285285 0 -0.0011512573930744449 -0.027948860787614514 0 -0.00098267252553667014 -0.02817967227092753 0 -0.00098734346467358163 -0.028648748578794334 0 -0.001067047021341191 -0.028032757900273823 0 -0.0011669707856678765 -0.028080390426804009 0 -0.0011600248208991804 -0.028010880156285285 0 -0.001067047021341191 -0.028032757900273823 0 -0.0011600248208991804 -0.028010880156285285 0 -0.0011512573930744449 -0.027948860787614514 0 -0.0012403305527962729 -0.027998637434318109 0 -0.0011669707856678765 -0.028080390426804009 0 -0.0011600248208991804 -0.028010880156285285 0 -0.0014274893695432266 -0.028849320323877208 0 -0.00098734346467358163 -0.028648748578794334 0 -0.0011512573930744449 -0.027948860787614514 0 -0.0010937048767929831 -0.027855130806566205 0 -0.0012415162182933374 -0.027788947274958519 0 -0.0013864839440623652 -0.027925579649781443 0 -0.0011512573930744449 -0.027948860787614514 0 -0.0012415162182933374 -0.027788947274958519 0 -0.0011512573930744449 -0.027948860787614514 0 -0.0010472204281222583 -0.027991503595643615 0 -0.0010937048767929831 -0.027855130806566205 0 -0.00066933898530884537 -0.02737824676928452 0 -0.00081805934881494752 -0.027545085951330948 0 -0.0010937048767929831 -0.027855130806566205 0 -0.0012415162182933374 -0.027788947274958519 0 -0.0010951207592122183 -0.027657579733191631 0 -0.00099397468849285985 -0.028045209016694467 0 -0.00095749843595995703 -0.028086138043248783 0 -0.0010072816432415658 -0.027955556171949409 0 -0.00095749843595995703 -0.028086138043248783 0 -0.0010072816432415658 -0.027955556171949409 0 -0.00094732862391845834 -0.027761293983388117 0 -0.0010472204281222583 -0.027991503595643615 0 -0.0010937048767929831 -0.027855130806566205 0 -0.0010072816432415658 -0.027955556171949409 0 -0.00099397468849285985 -0.028045209016694467 0 -0.0010472204281222583 -0.027991503595643615 0 -0.0010072816432415658 -0.027955556171949409 0 -0.0010937048767929831 -0.027855130806566205 0 -0.0010072816432415658 -0.027955556171949409 0 -0.00094732862391845834 -0.027761293983388117 0 -0.0010937048767929831 -0.027855130806566205 0 -0.00094732862391845834 -0.027761293983388117 0 -0.0010951207592122183 -0.027657579733191631 0 -0.00073431651753671535 -0.027669416297567015 0 -0.00095749843595995703 -0.028086138043248783 0 -0.00094732862391845834 -0.027761293983388117 0 -0.00073431651753671535 -0.027669416297567015 0 -0.00094732862391845834 -0.027761293983388117 0 -0.00074739662370128387 -0.027415613063570158 0 -0.00072859399327665194 -0.02741693515577524 0 -0.00081805934881494752 -0.027545085951330948 0 -0.00094732862391845834 -0.027761293983388117 0 -0.00074739662370128387 -0.027415613063570158 0 -0.0010951207592122183 -0.027657579733191631 0 -0.00074739662370128387 -0.027415613063570158 0 -0.00047629250196356291 -0.027368553294944878 0 -0.00047243882215675662 -0.02748169250598631 0 -0.00074739662370128387 -0.027415613063570158 0 -0.00047243882215675662 -0.02748169250598631 0 -0.00066904400944075605 -0.027424892302397967 0 -0.00074739662370128387 -0.027415613063570158 0 -0.00066904400944075605 -0.027424892302397967 0 -0.0006258230805910582 -0.027305837746809333 0 -0.00033189650115165846 -0.02739074384007054 0 -0.00032742174513586967 -0.027481918726141107 0 -0.00047629250196356291 -0.027368553294944878 0 -0.00026631157243226595 -0.027446670911557367 0 -0.00033189650115165846 -0.02739074384007054 0 -0.00032742174513586967 -0.027481918726141107 0 -0.00032742174513586967 -0.027481918726141107 0 -0.00047629250196356291 -0.027368553294944878 0 -0.00047243882215675662 -0.02748169250598631 0 -0.00032742174513586967 -0.027481918726141107 0 -0.00047243882215675662 -0.02748169250598631 0 -0.00030776264198081605 -0.027562447824374722 0 -0.00025615316599923049 -0.027565389278762467 0 -0.00032742174513586967 -0.027481918726141107 0 -0.00030776264198081605 -0.027562447824374722 0 -0.00026084545697351193 -0.027639920484090259 0 -0.00025615316599923049 -0.027565389278762467 0 -0.00030776264198081605 -0.027562447824374722 0 -0.00026084545697351193 -0.027639920484090259 0 -0.00030776264198081605 -0.027562447824374722 0 -0.00029637684308578862 -0.02763496283819632 0 -0.00029735108724566789 -0.027980524594221783 0 -0.00028805781521674327 -0.027664690051871724 0 -0.00047243882215675662 -0.02748169250598631 0 -0.00030776264198081605 -0.027562447824374722 0 -0.00039671335757512628 -0.027602055782039652 0 -0.00030776264198081605 -0.027562447824374722 0 -0.00029637684308578862 -0.02763496283819632 0 -0.00039671335757512628 -0.027602055782039652 0 -0.00029637684308578862 -0.02763496283819632 0 -0.00039671335757512628 -0.027602055782039652 0 -0.00033959052486482632 -0.027766775217198301 0 -0.00029637684308578862 -0.02763496283819632 0 -0.00033959052486482632 -0.027766775217198301 0 -0.00023579495259574355 -0.027815401612399478 0 -0.00039671335757512628 -0.027602055782039652 0 -0.00033959052486482632 -0.027766775217198301 0 -0.00048469504224833698 -0.027635082688525225 0 -0.00031095799699030536 -0.0279071068838051 0 -0.00033959052486482632 -0.027766775217198301 0 -0.00029121456941479351 -0.027837709198089398 0 -0.00031095799699030536 -0.0279071068838051 0 -0.00033959052486482632 -0.027766775217198301 0 -0.00041032880413325413 -0.027895263645385481 0 -0.00033959052486482632 -0.027766775217198301 0 -0.00029121456941479351 -0.027837709198089398 0 -0.00023579495259574355 -0.027815401612399478 0 -0.00011931155986123682 -0.027698384091093212 0 -0.00019860061208733123 -0.027959927882356263 0 -0.00023579495259574355 -0.027815401612399478 0 -0.00011931155986123682 -0.027698384091093212 0 -0.00029637684308578862 -0.02763496283819632 0 -0.00023579495259574355 -0.027815401612399478 0 -0.00029735108724566789 -0.027980524594221783 0 -0.00023226631131498187 -0.0282171490109769 0 -0.00066904400944075605 -0.027424892302397967 0 -0.00048469504224833698 -0.027635082688525225 0 -0.00079420357718596108 -0.027800816490256258 0 -0.00073945496392793775 -0.027573250037448795 0 -0.0005523514862265373 -0.027082666762012091 0 -0.00066904400944075605 -0.027424892302397967 0 -0.00066775368638096518 -0.027157886122070925 0 -0.0006258230805910582 -0.027305837746809333 0 -0.00047243882215675662 -0.02748169250598631 0 -0.00039671335757512628 -0.027602055782039652 0 -0.00048469504224833698 -0.027635082688525225 0 -0.00047243882215675662 -0.02748169250598631 0 -0.00066904400944075605 -0.027424892302397967 0 -0.00048469504224833698 -0.027635082688525225 0 -0.00048469504224833698 -0.027635082688525225 0 -0.00041032880413325413 -0.027895263645385481 0 -0.00079420357718596108 -0.027800816490256258 0 -0.00033959052486482632 -0.027766775217198301 0 -0.00048469504224833698 -0.027635082688525225 0 -0.00041032880413325413 -0.027895263645385481 0 -0.0003623167678490471 -0.027962614683836078 0 -0.0005523514862265373 -0.027082666762012091 0 -0.00066775368638096518 -0.027157886122070925 0 -0.0006258230805910582 -0.027305837746809333 0 -0.00050537385112358496 -0.027115933737574378 0 -0.000211630695387274 -0.0257493802197384 0 -0.00028343950018544978 -0.025803169333500769 0 -0.0001770855351389686 -0.025819071426656886 0 -0.0005523514862265373 -0.027082666762012091 0 -0.0003343672557028677 -0.026412053171257634 0 -0.0006258230805910582 -0.027305837746809333 0 -0.00050537385112358496 -0.027115933737574378 0 -0.00055046830860154235 -0.027277081804168206 0 -0.00050537385112358496 -0.027115933737574378 0 -0.00029194849631335651 -0.027020986898504427 0 -0.00055046830860154235 -0.027277081804168206 0 -9.5687670613732575e-05 -0.025713527162261385 0 -0.000211630695387274 -0.0257493802197384 0 -0.0001770855351389686 -0.025819071426656886 0 -0.0003343672557028677 -0.026412053171257634 0 -0.00019629166456023737 -0.026470332248788017 0 -9.5687670613732575e-05 -0.025713527162261385 0 -0.0001770855351389686 -0.025819071426656886 0 -7.637370284115055e-05 -0.025836623590161423 0 -9.5687670613732575e-05 -0.025713527162261385 0 -2.2740353547477407e-06 -0.025747670323911096 0 -7.637370284115055e-05 -0.025836623590161423 0 -2.2740353547477407e-06 -0.025747670323911096 0 2.8683071893161552e-05 -0.025861528550054191 0 -7.637370284115055e-05 -0.025836623590161423 0 -0.00018945254302395873 -0.026981264531376243 0 -0.00029194849631335651 -0.027020986898504427 0 -0.0001827568203286929 -0.026991738597174721 0 7.1555935524581727e-05 -0.026027018471400078 0 -0.00019629166456023737 -0.026470332248788017 0 7.1555935524581727e-05 -0.026027018471400078 0 -0.00028822560097864502 -0.027081437183453645 0 -0.0003586149832241663 -0.02720262351509951 0 -0.0001827568203286929 -0.026991738597174721 0 -0.00026193608913244231 -0.027409391627383616 0 -0.00029194849631335651 -0.027020986898504427 0 -0.0003586149832241663 -0.02720262351509951 0 -0.0001827568203286929 -0.026991738597174721 0 0.00023507616624809488 -0.026776772298373913 0 -0.0001827568203286929 -0.026991738597174721 0 9.0292756973273122e-05 -0.027308965745575845 0 0.00023507616624809488 -0.026776772298373913 0 0.00015306485341535117 -0.026383108402721921 0 -0.0001827568203286929 -0.026991738597174721 0 -0.0001827568203286929 -0.026991738597174721 0 9.0292756973273122e-05 -0.027308965745575845 0 -0.00026193608913244231 -0.027409391627383616 0 -0.0003586149832241663 -0.02720262351509951 0 -0.00026193608913244231 -0.027409391627383616 0 -0.00047345697046528986 -0.027489939100431918 0 -0.00047345697046528986 -0.027489939100431918 0 -0.00062609629739453991 -0.027449108138420251 0 -0.00055046830860154235 -0.027277081804168206 0 -0.00073431651753671535 -0.027669416297567015 0 -0.00074739662370128387 -0.027415613063570158 0 -0.00062609629739453991 -0.027449108138420251 0 -0.00073431651753671535 -0.027669416297567015 0 -0.00047345697046528986 -0.027489939100431918 0 -0.00062609629739453991 -0.027449108138420251 0 -0.00074739662370128387 -0.027415613063570158 0 -0.0006258230805910582 -0.027305837746809333 0 -0.00055046830860154235 -0.027277081804168206 0 -0.00074739662370128387 -0.027415613063570158 0 -0.00062609629739453991 -0.027449108138420251 0 -0.00055046830860154235 -0.027277081804168206 0 -0.00029194849631335651 -0.027020986898504427 0 -0.0003586149832241663 -0.02720262351509951 0 -0.00055046830860154235 -0.027277081804168206 0 -0.0003586149832241663 -0.02720262351509951 0 -0.00047345697046528986 -0.027489939100431918 0 -0.00055046830860154235 -0.027277081804168206 0 
</DataArray>
</PointData>
<CellData Scalars="region_id,cross_section_updated," Vectors="" Tensors="stress,">
<DataArray type="Float64" Name="region_id" format="ascii">
5 5 5 6 5 6 5 5 6 5 6 5 5 5 5 5 5 5 5 5 5 5 6 6 5 6 5 6 5 5 5 5 6 5 6 5 5 5 5 5 5 5 5 6 5 5 5 5 5 5 5 6 5 5 5 5 5 5 6 6 6 5 5 6 5 6 5 5 5 6 5 5 5 5 5 5 5 5 5 5 5 5 5 5 5 5 5 5 5 5 5 5 5 5 5 5 5 5 5 5 6 5 5 5 5 5 5 6 5 5 5 5 5 6 5 5 6 5 5 5 6 5 5 5 5 5 6 5 5 5 5 5 5 5 5 5 5 5 5 5 5 5 5 5 5 5 5 5 5 5 5 6 5 5 5 5 5 6 5 5 5 5 6 5 5 5 5 6 5 5 5 6 5 6 5 5 5 5 5 6 5 5 5 6 5 5 5 5 5 5 6 5 5 5 5 6 5 5 5 5 5 5 6 5 5 5 5 5 5 5 5 5 5 5 5 5 5 5 5 6 5 5 5 5 5 5 5 5 5 5 5 5 5 5 5 5 5 5 5 5 5 6 6 5 5 5 5 5 5 5 5 6 5 5 6 5 5 5 5 5 6 5 5 5 5 6 6 5 5 5 6 5 5 5 5 5 5 5 6 6 6 5 6 5 5 5 5 5 6 5 5 5 6 5 5 5 5 5 5 5 5 5 5 6 5 5 5 5 5 5 5 6 5 5 5 5 5 5 5 5 5 5 5 5 5 5 5 5 5 5 5 6 5 6 5 5 5 5 5 5 5 5 5 5 5 6 5 5 6 5 6 6 5 5 5 6 5 5 5 6 5 5 6 5 5 6 5 5 6 5 5 5 5 5 5 5 5 5 5 5 5 5 5 5 6 5 5 5 5 5 5 5 5 5 5 5 5 5 5 5 5 5 5 5 5 5 5 5 5 5 5 5 5 5 5 5 5 5 5 5 5 5 5 5 5 5 5 5 5 5 5 5 5 5 5 5 5 5 5 5 5 5 6 5 5 5 5 5 5 5 5 5 5 5 5 5 5 5 5 5 5 5 5 5 5 5 5 5 5 5 6 5 6 5 5 5 6 5 5 6 5 5 5 5 5 5 5 5 5 5 5 5 5 5 5 5 5 5 5 6 5 6 5 5 5 5 5 5 5 6 5 5 5 5 6 5 5 5 5 5 5 5 5 5 6 5 5 6 5 5 5 5 5 5 6 5 5 5 5 5 5 5 5 5 5 6 5 5 5 5 6 5 5 5 6 5 5 5 6 5 5 5 5 5 5 5 5 5 5 5 5 5 5 5 5 5 5 6 5 5 5 5 6 5 6 5 6 6 5 5 5 5 5 5 5 5 6 5 5 6 5 5 5 5 5 5 5 5 5 5 5 5 5 5 5 5 5 5 5 5 5 5 5 5 6 5 5 5 5 5 5 5 5 5 5 5 5 5 5 5 5 5 5 5 5 6 5 5 5 6 5 5 6 6 5 5 5 5 5 6 5 5 5 5 5 5 5 5 5 6 6 5 5 5 5 5 5 5 5 5 5 5 5 5 5 5 5 5 5 5 5 5 6 5 5 6 5 5 6 5 5 5 5 5 5 5 5 5 5 5 5 5 5 5 5 5 5 5 5 5 5 5 5 5 5 5 5 5 5 5 5 5 5 6 5 5 5 5 5 6 6 5 5 6 5 5 5 6 5 5 5 5 5 5 5 5 6 5 5 5 5 5 5 6 6 5 5 5 5 5 5 5 5 5 5 5 5 5 5 5 5 5 5 6 5 5 6 6 5 5 6 5 5 5 6 5 5 6 5 5 5 5 6 5 5 5 5 5 5 6 5 5 5 5 5 6 5 5 5 5 5 5 6 5 5 5 5 5 5 6 5 5 5 5 5 5 5 5 5 5 5 5 5 5 5 5 5 5 6 5 5 5 5 5 5 5 5 5 5 5 5 5 5 6 5 5 5 6 5 5 5 5 5 5 5 5 5 6 5 5 5 5 5 5 5 5 5 5 5 5 5 5 5 5 5 5 5 6 5 6 5 5 5 6 5 5 5 5 5 6 5 5 5 5 5 5 5 5 5 5 5 5 5 5 5 5 5 5 5 5 5 5 5 5 5 5 5 5 5 5 5 5 5 5 5 5 5 5 5 5 5 5 5 5 5 5 5 5 5 5 5 5 5 5 5 6 5 5 6 5 5 5 5 5 5 5 5 5 5 5 5 5 6 5 5 5 5 5 5 6 5 5 6 5 5 5 5 5 5 5 6 5 5 5 5 5 5 5 5 5 5 5 5 6 5 5 5 5 5 5 6 5 5 5 5 5 5 6 5 5 5 5 5 5 5 5 6 5 5 5 5 6 5 5 5 5 5 5 5 5 6 5 5 5 5 5 5 5 5 5 5 5 5 5 5 6 5 5 5 5 5 6 5 5 5 5 5 5 5 6 5 5 5 5 5 5 5 5 5 5 5 5 5 5 5 5 5 5 5 5 5 5 5 5 5 5 5 5 5 5 5 5 5 5 5 5 5 5 5 5 5 5 5 5 5 5 5 5 5 5 5 5 5 5 5 5 5 5 5 5 5 5 6 5 5 5 5 5 5 6 5 5 5 5 5 5 5 5 5 5 6 6 5 5 5 5 5 5 6 5 6 5 5 5 5 5 5 5 5 5 5 5 6 5 5 5 5 5 5 5 5 5 5 5 5 5 5 5 5 5 5 5 5 5 5 5 5 5 6 5 5 5 5 5 6 5 5 5 5 6 5 5 5 5 5 5 5 5 5 5 5 5 5 5 5 5 6 5 6 5 5 6 6 5 5 5 5 5 5 5 5 5 6 5 6 5 5 5 5 5 5 5 5 5 5 5 5 5 5 5 5 5 5 5 5 5 5 5 5 5 5 5 5 5 5 5 5 5 5 5 5 5 5 5 5 5 5 5 6 6 5 5 5 5 5 5 6 5 6 5 6 5 6 5 5 6 5 5 5 5 5 5 5 5 5 5 5 5 5 5 5 5 5 5 5 5 5 5 5 5 5 5 5 5 5 5 5 5 5 5 5 5 5 5 5 5 5 5 5 5 5 5 5 5 5 5 5 5 5 5 5 5 5 5 5 5 5 5 5 5 5 5 5 5 5 5 5 5 5 5 5 5 5 5 5 5 5 5 5 5 5 5 5 6 5 5 5 6 5 5 6 5 5 5 5 5 5 5 5 5 5 5 6 5 5 5 5 5 5 5 5 5 5 5 5 5 5 5 5 5 5 5 5 5 5 5 6 5 5 5 6 5 5 5 5 6 5 5 5 5 5 5 5 5 5 5 5 6 5 5 5 6 5 5 6 5 5 6 5 5 6 5 6 5 5 5 6 6 5 6 5 6 5 5 5 5 5 6 5 5 5 5 5 5 5 5 5 5 5 5 5 5 5 5 5 5 5 5 6 5 5 5 5 5 5 5 5 5 5 5 5 5 5 5 5 5 5 5 5 5 5 5 5 5 5 5 5 5 5 5 5 5 5 5 5 5 5 5 5 5 5 5 6 5 5 5 5 5 6 5 5 5 5 5 5 5 6 5 5 5 5 5 5 5 5 5 5 5 5 5 5 5 5 5 5 5 5 5 5 5 5 5 5 5 5 5 5 5 5 5 5 5 5 5 5 5 5 5 5 5 5 5 5 5 5 5 5 5 6 5 5 5 5 5 5 6 5 5 5 6 5 5 5 5 5 5 5 5 5 5 5 5 5 5 5 5 5 5 5 5 5 5 5 5 5 5 5 5 5 5 5 5 5 5 5 5 5 5 5 5 5 5 5 5 5 5 5 5 5 5 5 5 5 5 5 5 5 5 5 5 5 5 5 5 5 5 5 5 5 5 5 5 5 5 5 5 5 5 5 5 5 5 5 5 5 5 5 5 5 5 5 6 6 5 5 5 5 5 5 5 5 5 5 5 5 5 6 5 5 5 5 5 5 5 5 5 5 5 5 5 5 5 5 5 5 5 5 5 5 5 5 5 5 5 5 5 5 6 6 5 5 5 5 5 5 5 5 5 5 5 5 6 5 5 5 5 6 5 5 5 5 5 5 5 5 5 5 5 5 5 5 5 5 5 5 5 5 5 5 5 5 5 5 5 5 5 5 5 5 5 5 5 5 5 5 5 5 6 5 5 5 6 5 5 5 5 5 5 5 5 6 5 5 6 5 5 5 5 5 5 5 5 5 5 5 5 5 5 5 5 5 5 5 5 5 5 5 5 5 5 6 5 5 5 5 5 5 5 5 5 6 5 5 5 5 5 5 5 5 5 6 5 5 5 5 6 5 5 5 5 5 6 5 5 5 5 5 5 5 5 5 5 5 5 5 5 5 5 5 5 5 6 5 5 5 6 5 5 5 5 5 5 5 5 5 5 5 5 5 5 5 5 5 5 5 5 5 5 5 5 5 5 5 5 5 5 6 5 6 5 5 5 5 5 5 5 5 6 5 5 5 5 5 5 5 6 5 5 6 5 5 5 5 6 5 5 5 5 5 6 5 5 5 5 5 5 5 6 5 5 5 5 5 5 5 6 5 5 6 5 5 5 5 5 5 5 5 5 5 5 5 5 5 5 5 5 5 5 5 5 6 5 5 5 5 5 5 5 6 5 5 5 5 5 5 5 5 5 5 5 5 5 5 5 5 5 6 5 5 5 6 5 5 5 5 5 5 5 5 5 5 5 5 5 5 5 5 5 5 5 5 6 5 5 5 6 5 5 5 5 5 5 5 5 5 5 5 5 5 5 5 5 5 5 5 5 5 5 6 5 5 5 5 6 5 5 5 5 5 6 5 5 5 6 5 5 5 5 5 6 5 5 5 6 5 5 5 6 5 6 5 5 5 5 6 5 5 5 5 5 5 5 5 5 5 5 5 5 5 5 5 5 5 5 5 5 6 5 5 5 5 5 6 5 5 5 5 5 5 5 5 5 5 5 6 5 5 5 5 5 5 5 5 5 5 5 5 5 5 5 5 5 5 5 5 5 5 5 5 5 5 5 5 5 5 5 5 5 5 5 5 5 5 5 6 5 5 5 5 6 5 5 5 5 5 5 6 5 5 5 5 5 5 5 6 5 5 5 5 5 5 5 5 5 6 5 5 6 5 5 5 5 5 6 5 6 5 5 6 5 5 5 5 5 5 5 5 5 5 5 6 5 6 5 5 5 6 5 5 5 6 5 5 6 5 5 5 5 5 6 5 5 6 5 5 5 6 5 5 5 6 5 5 5 5 5 6 5 5 5 5 6 5 6 5 6 5 5 5 5 6 5 5 5 5 5 5 5 5 5 5 5 5 5 6 5 5 5 5 5 5 5 5 5 5 5 5 5 5 5 5 5 5 5 5 5 5 5 5 5 5 5 6 6 6 5 5 5 5 6 5 5 5 5 5 5 5 6 5 5 5 6 5 5 5 6 5 6 5 6 5 5 5 5 5 5 5 5 5 5 5 5 6 5 5 5 5 5 5 6 5 5 5 5 5 6 5 6 5 6 5 5 5 6 5 5 5 5 5 5 5 5 5 5 6 5 5 5 5 5 5 5 5 5 5 5 5 5 5 6 6 5 5 5 5 5 5 5 5 5 5 5 5 5 5 5 6 5 5 5 5 5 5 5 6 5 5 5 5 5 5 5 5 6 5 5 5 5 6 5 5 5 5 5 5 5 5 5 5 5 5 5 5 5 5 5 5 5 5 5 5 5 5 5 5 5 5 5 5 5 5 5 5 5 5 5 6 5 6 5 5 5 6 5 5 5 5 5 5 5 6 5 5 6 6 5 6 5 5 5 5 5 5 5 5 5 5 5 5 5 5 5 5 5 5 5 5 5 5 5 5 5 5 5 6 5 6 5 5 6 5 5 5 5 6 5 5 6 5 5 6 5 5 5 5 5 5 5 5 5 5 5 5 5 6 5 5 5 5 5 5 5 5 5 5 5 5 6 5 5 5 5 5 5 5 5 5 5 5 5 5 5 5 5 6 6 5 5 5 5 5 5 5 5 5 5 5 6 5 5 5 5 5 5 5 6 5 5 5 5 5 5 5 5 5 5 5 5 5 5 5 5 5 5 5 5 5 5 5 6 5 5 5 5 5 5 5 6 5 5 5 5 5 5 5 5 5 5 5 6 5 5 5 5 5 5 5 5 5 6 6 5 5 5 5 5 5 6 5 6 5 5 5 5 5 5 5 6 5 5 5 6 5 5 6 5 5 5 5 5 5 5 5 5 6 5 5 5 5 5 5 5 5 5 5 5 6 5 6 5 5 6 5 5 5 5 5 5 5 5 5 5 5 5 5 5 5 5 5 5 5 5 5 5 5 5 6 5 5 5 5 5 5 5 5 5 5 5 5 5 5 5 5 5 5 5 5 5 5 5 5 5 5 5 5 5 5 6 5 5 5 5 5 5 5 5 5 5 5 5 5 6 5 5 5 5 5 5 5 5 5 5 5 5 5 5 5 5 5 5 5 5 5 5 5 5 5 5 5 5 5 5 6 5 5 5 5 5 5 5 5 5 5 5 5 5 5 6 5 5 5 6 5 5 5 6 5 6 5 5 6 5 5 5 5 5 5 5 5 5 5 5 5 6 5 5 5 5 5 5 6 5 5 5 5 5 5 5 5 5 5 5 5 6 5 5 5 5 5 5 5 5 5 5 6 5 5 5 5 5 5 5 5 5 6 5 5 5 5 5 5 5 5 5 5 5 5 5 5 5 5 5 5 5 6 5 5 5 6 6 5 5 5 5 5 5 5 5 6 5 5 6 5 5 5 6 5 5 5 5 5 5 6 5 5 5 5 6 5 5 5 5 5 6 5 5 5 5 5 5 5 6 5 5 5 5 5 5 5 5 5 5 5 5 5 5 5 5 6 5 5 5 5 5 5 5 5 5 5 5 5 5 5 5 6 5 5 5 6 5 6 5 5 5 5 5 5 5 6 5 5 5 6 5 6 5 5 5 6 5 5 5 5 5 5 5 5 5 6 5 5 6 5 5 5 5 5 5 5 5 5 6 5 6 5 5 5 5 5 5 5 5 5 5 5 5 5 5 5 5 5 5 5 5 5 5 5 5 5 5 5 5 5 5 5 5 5 5 5 5 5 5 5 5 5 6 5 5 5 5 5 5 5 5 5 5 5 5 5 5 6 6 5 6 5 5 5 6 5 5 6 5 5 5 5 5 5 5 5 6 5 5 5 5 5 5 5 5 5 5 5 5 5 6 5 5 5 6 5 5 5 5 6 5 6 5 5 5 6 5 5 5 5 5 5 5 5 6 5 5 5 6 5 5 5 6 5 5 5 5 5 5 6 5 5 5 5 5 6 6 6 5 5 5 5 5 5 5 5 5 5 5 5 5 5 5 5 5 5 5 5 5 5 5 5 5 5 5 5 6 5 5 6 5 5 5 5 5 5 5 6 6 5 6 5 5 5 5 5 5 5 6 5 5 5 5 6 5 6 5 5 5 5 5 5 5 5 5 5 5 5 5 6 5 6 5 5 5 5 5 5 5 5 6 5 5 5 5 5 6 5 6 5 5 5 5 5 5 5 5 5 5 5 5 5 5 5 5 5 5 5 5 5 5 5 5 5 5 5 5 5 5 5 5 6 5 5 5 5 5 5 5 5 5 5 5 6 6 5 5 5 5 5 5 5 5 5 5 5 5 5 5 5 5 5 6 5 5 6 5 5 5 5 5 5 5 5 5 5 5 5 6 5 6 5 5 5 5 5 5 5 5 5 5 5 5 5 5 5 5 5 5 5 5 5 5 6 5 5 5 5 5 5 5 5 5 6 5 5 5 5 5 5 5 5 6 5 5 5 5 5 5 5 5 5 5 5 5 5 5 5 5 5 5 5 5 5 5 5 5 5 5 5 5 5 5 5 5 6 5 5 5 5 6 5 5 5 5 5 5 5 5 5 5 5 5 5 6 5 5 5 5 6 5 5 5 6 5 5 6 6 5 5 5 5 5 5 5 5 5 5 5 5 5 5 5 5 5 5 5 5 5 5 5 5 5 5 5 5 5 5 6 6 5 5 5 5 6 5 6 5 5 5 5 5 5 5 6 5 5 5 5 5 5 5 5 5 5 6 5 5 5 5 5 5 6 5 6 6 5 5 6 5 5 5 6 6 5 5 5 5 6 5 5 5 5 5 6 6 5 5 5 5 5 5 5 5 5 5 5 6 5 5 5 5 5 5 6 5 5 5 5 5 5 5 5 5 5 5 5 5 6 5 5 6 5 6 5 5 5 6 5 6 5 5 5 5 5 5 5 5 5 5 5 5 5 5 5 5 5 6 5 5 6 5 5 6 5 5 5 6 5 6 5 5 6 5 5 5 5 5 5 5 5 5 5 6 5 5 5 6 5 5 5 5 5 5 5 5 6 5 5 5 5 5 5 5 6 5 5 5 5 6 5 5 5 5 5 5 5 5 5 5 5 5 5 5 5 5 5 5 5 5 5 6 5 5 5 5 5 5 5 5 5 5 5 5 5 5 5 5 5 5 5 5 5 5 5 5 5 5 5 5 5 5 5 5 5 5 5 5 5 5 5 5 5 5 5 6 5 5 5 5 5 5 6 5 5 5 5 5 5 5 5 6 5 5 5 5 5 5 5 5 5 5 5 5 5 5 5 5 6 5 5 5 5 5 5 5 5 5 5 5 5 5 5 5 5 5 5 5 5 5 5 5 6 5 5 5 5 5 5 5 5 5 5 5 5 5 5 5 5 5 5 5 5 5 5 5 5 5 5 5 5 5 5 6 6 5 5 5 5 5 5 5 6 5 5 5 5 5 5 6 5 5 5 5 5 5 5 5 5 5 5 5 6 5 5 5 5 5 5 5 5 5 6 5 5 6 5 6 5 5 5 5 5 6 5 5 5 5 5 5 5 5 5 5 5 5 5 5 5 5 5 5 5 5 5 5 5 5 5 6 5 5 5 5 5 6 5 5 5 5 5 5 5 5 5 5 5 6 5 5 5 5 5 5 5 5 5 5 5 5 5 5 6 5 5 6 5 5 5 5 6 5 6 5 5 5 5 6 5 5 5 6 5 5 5 5 5 5 5 5 5 5 5 5 5 6 5 5 5 5 5 5 6 5 5 5 5 5 6 5 5 6 5 6 5 5 5 5 5 5 5 6 5 5 5 5 5 5 5 6 5 5 5 5 5 5 6 5 5 5 5 5 5 5 5 5 5 5 5 5 6 5 5 6 5 5 5 5 5 5 5 5 5 5 5 5 5 5 5 5 5 5 5 5 5 6 5 5 5 5 5 5 6 6 5 5 5 6 5 5 5 5 5 5 6 5 5 5 5 5 5 5 5 5 5 5 5 5 5 5 5 5 5 5 5 5 5 5 5 5 5 5 5 5 5 5 5 5 5 5 5 5 5 5 5 5 5 5 5 5 5 5 5 5 5 5 5 5 5 5 5 5 5 5 5 6 5 5 5 5 5 5 6 5 5 5 5 5 5 5 5 5 6 5 5 5 5 5 5 5 5 5 5 5 5 5 5 5 5 5 5 5 5 5 5 6 5 5 6 5 5 6 5 6 5 5 5 6 5 5 6 5 5 5 5 6 5 5 6 5 5 5 6 5 6 5 6 5 5 6 5 5 6 5 5 5 5 5 5 5 5 5 5 5 6 5 5 5 5 5 5 5 5 5 5 5 5 5 5 5 5 6 5 5 6 5 5 5 5 5 5 5 5 5 5 5 5 5 5 5 5 5 5 5 6 5 6 5 5 5 5 5 6 5 6 5 5 5 5 6 5 5 5 5 6 6 5 5 5 5 5 5 5 5 5 5 5 5 5 6 5 5 5 5 5 5 5 5 5 5 5 5 5 5 5 5 5 5 6 5 5 5 5 5 5 5 6 5 6 5 5 5 6 5 5 5 6 5 5 5 5 5 5 5 6 6 5 6 5 5 5 6 6 5 6 5 5 6 5 5 5 6 5 6 5 6 5 5 5 5 5 6 5 5 6 5 5 5 6 5 5 5 5 5 6 5 5 5 6 5 6 5 5 6 5 5 5 5 6 5 5 5 6 5 5 5 5 5 5 5 5 5 5 5 5 5 5 5 5 5 5 5 5 6 5 5 5 5 6 5 5 6 5 5 6 5 6 5 5 5 6 5 5 6 5 5 5 6 5 5 6 6 5 5 5 6 5 5 5 5 5 6 5 6 5 5 6 5 5 5 5 6 6 5 5 6 5 5 6 5 5 6 5 5 5 5 5 5 5 5 5 6 5 5 6 6 5 5 5 6 5 5 6 6 5 5 6 5 5 5 6 5 5 6 5 6 5 6 5 5 5 5 6 5 5 5 5 5 5 5 5 5 5 5 6 6 5 5 5 5 6 5 5 5 6 5 5 5 5 5 5 6 6 5 6 5 6 6 6 5 6 5 5 5 5 5 6 5 5 5 5 6 5 5 5 5 6 5 5 5 5 5 6 5 6 5 5 5 5 5 5 5 5 6 5 5 6 5 5 6 5 5 6 5 6 5 5 6 5 5 6 5 5 5 5 6 5 5 6 5 5 5 5 6 5 5 5 6 5 5 5 5 5 5 6 5 6 5 5 6 5 6 5 5 5 6 5 5 5 5 6 5 5 5 5 6 5 5 6 5 6 5 5 6 5 5 5 5 5 5 5 5 5 5 5 6 5 5 5 5 5 5 6 5 5 5 5 5 5 5 5 5 5 5 5 5 5 5 5 5 5 5 5 5 5 5 5 5 5 5 5 5 5 5 5 5 5 5 5 5 5 5 5 5 5 5 5 5 5 5 5 5 5 5 5 5 5 5 5 6 5 5 5 5 5 5 5 5 5 6 5 5 5 6 5 5 6 5 5 5 5 5 5 5 5 5 5 5 5 5 5 5 5 5 5 5 5 5 5 6 5 5 5 5 5 5 6 5 5 5 6 5 5 5 6 5 5 5 5 5 5 5 5 5 5 5 6 5 5 5 5 5 5 5 5 5 6 5 6 5 5 5 6 5 5 5 5 5 5 5 5 5 5 5 5 5 5 6 5 5 5 6 5 5 5 5 5 5 6 5 5 6 5 5 5 5 5 5 5 5 5 5 5 5 5 5 5 5 5 5 5 5 5 5 5 5 5 5 6 5 5 5 5 6 5 5 5 5 5 5 5 6 5 5 6 5 5 5 5 5 5 5 5 5 6 5 5 5 5 5 5 6 5 5 5 5 5 5 5 5 5 5 5 5 5 5 5 5 5 5 5 5 5 5 5 5 5 5 5 5 5 5 5 5 5 5 5 5 5 5 5 5 5 5 5 5 5 5 5 5 5 5 5 5 5 5 6 5 5 5 5 5 5 5 5 5 5 5 5 5 5 5 5 5 5 5 5 5 5 5 5 5 5 5 5 5 6 5 5 6 5 5 5 5 5 5 5 5 5 5 5 5 5 5 5 5 6 5 5 5 5 6 5 5 5 5 6 5 5 5 5 5 6 5 5 5 5 5 5 5 5 5 5 5 5 6 5 5 5 5 5 5 5 5 5 5 5 5 5 5 5 5 5 5 5 5 5 5 6 5 5 5 5 5 5 5 5 5 5 5 5 5 5 5 6 5 5 5 5 5 5 5 6 6 5 5 5 5 5 5 5 5 5 5 5 5 5 5 5 5 5 5 5 5 5 5 5 5 5 5 5 5 5 5 5 5 5 5 5 5 5 5 5 5 5 5 6 5 5 6 5 5 5 5 5 5 5 5 5 5 5 5 5 5 5 5 5 5 5 5 5 5 5 5 5 5 5 5 5 5 5 5 5 5 6 5 5 5 5 5 5 5 5 5 5 5 5 5 5 5 5 5 5 5 6 5 5 5 5 5 6 5 6 5 5 5 5 6 5 5 5 5 5 5 5 5 6 5 5 6 6 5 6 5 5 5 5 5 5 5 5 5 5 5 5 5 5 5 5 5 5 5 6 5 5 5 5 5 6 6 5 6 5 5 5 5 5 6 5 6 5 5 6 6 5 5 5 6 5 5 6 5 6 5 6 5 5 6 5 5 5 5 5 5 5 6 5 5 5 5 5 5 5 5 5 5 5 5 5 5 5 5 5 5 5 5 5 5 5 5 5 5 5 5 5 5 5 5 6 5 5 5 5 5 6 5 5 5 5 5 5 5 5 5 6 5 5 5 6 6 5 5 5 5 5 5 5 5 5 5 5 5 5 5 5 5 5 5 5 6 5 5 5 5 6 6 5 5 5 6 6 6 6 5 6 5 5 5 5 5 5 5 6 5 6 6 5 5 5 5 5 5 5 5 5 5 5 5 5 5 5 5 5 5 5 5 5 6 6 5 5 5 5 5 5 5 5 5 5 5 5 5 5 5 5 5 5 5 5 5 5 5 5 5 5 6 5 5 6 5 6 5 5 5 6 5 5 6 5 6 5 5 5 5 5 5 5 5 5 5 5 5 5 5 5 5 5 5 6 5 6 5 5 5 5 5 5 6 5 5 5 5 6 5 5 6 5 5 5 5 6 5 5 5 5 5 5 5 5 5 5 5 5 5 6 5 5 5 5 5 5 5 6 5 5 5 6 5 5 5 5 5 5 5 5 5 5 5 5 5 6 5 5 5 5 5 5 6 6 5 5 6 5 5 6 5 5 5 5 5 5 5 5 5 6 5 5 5 5 5 5 5 5 5 5 5 5 5 5 6 5 5 5 5 5 5 5 5 5 5 5 6 5 5 5 5 5 6 5 5 5 5 5 5 5 6 6 5 5 6 5 5 5 5 5 5 5 5 5 6 5 5 5 5 5 5 6 5 5 5 5 5 5 5 5 5 5 5 5 6 5 5 5 5 6 5 5 5 6 5 5 5 5 5 6 5 6 5 5 5 6 5 5 5 5 5 5 6 5 5 5 5 5 5 5 5 5 5 5 5 5 5 5 5 5 5 5 6 5 5 5 5 5 5 5 5 5 5 5 5 5 5 5 5 5 5 5 5 6 6 5 5 5 5 5 5 5 5 5 5 5 5 6 5 5 5 5 5 5 5 5 5 5 5 5 5 5 5 5 6 6 5 5 5 5 5 5 5 5 6 5 5 5 5 5 5 5 5 5 5 5 5 5 5 5 5 5 5 5 5 5 5 5 5 5 5 5 5 5 5 5 5 5 5 5 5 5 5 6 5 5 5 5 5 6 5 5 5 6 5 5 5 5 5 5 6 5 5 5 5 5 5 5 5 5 5 5 5 5 5 5 5 5 5 5 5 5 5 5 5 5 5 6 5 5 5 5 5 5 5 5 5 5 5 5 5 5 5 6 5 5 6 5 5 5 6 5 5 5 5 5 5 5 5 5 6 6 5 5 6 5 5 5 5 5 5 6 5 5 5 5 5 5 5 5 5 5 5 5 5 5 5 5 5 5 5 5 5 5 5 5 5 5 5 5 5 5 5 5 5 6 5 5 5 5 5 5 6 6 5 5 5 5 6 6 6 5 5 5 5 5 6 5 5 5 5 5 5 5 5 5 5 5 5 5 5 5 5 6 5 5 5 5 6 5 5 5 5 5 5 5 5 5 5 6 5 5 5 5 5 5 5 6 5 5 5 5 5 5 5 5 5 5 5 5 5 5 5 5 5 5 5 5 5 5 5 5 5 5 5 5 5 5 5 5 5 5 5 6 5 5 6 5 5 5 5 5 6 5 5 5 6 5 5 6 5 5 5 5 5 5 5 5 6 5 5 5 5 6 5 5 6 5 5 5 5 5 5 5 5 5 6 5 5 5 5 5 5 5 5 5 5 5 5 5 5 5 5 5 5 5 5 5 6 5 5 6 5 5 6 5 5 5 5 5 6 5 5 5 5 6 5 6 5 5 5 5 5 5 5 5 5 5 6 6 6 5 5 6 5 5 5 5 6 5 5 5 5 5 5 6 5 5 5 5 5 6 5 5 5 5 6 5 6 5 5 5 5 5 6 5 6 5 5 6 5 5 5 5 5 5 5 5 5 5 5 5 5 6 6 5 5 5 6 5 5 5 6 5 5 5 5 5 5 5 5 6 5 5 5 5 5 5 5 5 5 5 5 5 5 5 5 5 5 6 5 5 5 5 5 5 5 6 5 5 6 5 5 5 5 5 5 5 5 5 5 5 6 5 5 5 5 5 5 5 6 5 6 6 5 5 5 5 5 5 5 5 6 5 5 5 5 5 6 5 5 5 5 5 5 5 5 5 5 5 5 6 5 5 6 5 5 5 5 5 5 5 5 6 5 5 6 5 5 5 5 5 5 5 5 5 5 5 5 6 5 5 5 5 5 5 5 5 5 5 5 6 5 5 5 5 6 5 6 5 6 6 5 5 5 6 5 5 5 6 5 5 6 5 5 5 5 5 5 5 5 5 5 5 5 5 5 5 5 5 5 5 5 5 5 5 5 5 5 5 5 5 5 5 5 5 5 5 5 5 5 5 5 5 5 5 5 5 5 5 5 5 5 5 5 6 5 5 5 5 5 5 5 5 5 6 5 5 6 5 5 5 5 5 5 5 5 5 6 5 6 5 5 5 5 5 6 5 5 5 5 5 5 5 5 5 5 5 5 5 5 6 5 5 5 5 5 5 5 5 5 5 5 5 5 5 5 5 5 5 5 6 5 5 5 5 6 5 5 5 5 5 5 6 5 5 5 5 5 5 5 5 5 5 5 5 5 5 5 5 5 5 5 5 5 6 5 5 5 5 5 5 5 5 6 5 5 5 6 5 5 6 6 6 5 5 5 6 5 5 5 5 5 5 5 5 5 5 5 5 5 5 5 5 5 5 5 5 5 6 5 5 5 5 5 5 5 6 6 5 6 6 5 5 6 5 5 5 5 5 5 5 5 5 5 5 5 5 6 5 5 5 5 6 5 5 5 5 6 5 5 5 5 6 5 5 5 6 5 6 5 5 5 5 5 5 5 5 5 5 5 5 6 5 5 5 5 5 5 5 5 5 5 5 5 5 5 5 5 5 5 5 5 5 5 5 5 6 5 5 5 5 5 5 5 5 6 5 5 5 5 5 5 5 5 5 5 5 5 5 5 5 5 5 5 5 5 6 5 5 5 5 5 5 5 5 5 5 5 5 5 5 5 5 5 5 5 6 5 5 5 5 5 5 5 5 5 5 5 5 5 5 5 5 5 5 5 5 5 5 5 5 5 5 5 5 5 5 5 5 5 6 5 5 5 5 5 6 5 6 5 5 5 5 6 5 5 5 5 5 5 5 5 5 5 5 5 5 5 5 5 5 5 5 5 5 5 5 5 5 5 5 5 5 5 5 5 5 5 6 5 5 5 5 5 5 6 5 5 5 6 5 5 6 5 5 5 5 6 5 5 5 5 6 5 5 6 5 5 5 5 5 5 5 6 5 6 6 5 5 5 5 5 5 5 5 5 5 5 6 5 5 5 5 5 5 6 5 5 5 6 5 5 5 5 5 5 6 5 5 5 6 5 5 5 5 5 5 5 5 5 5 5 5 5 5 5 6 5 5 5 5 5 5 5 6 6 5 5 5 5 5 5 5 5 5 5 5 6 5 5 5 5 5 6 5 5 5 5 5 5 5 5 5 5 5 5 5 5 5 5 5 5 5 5 5 5 5 5 5 5 5 5 5 5 5 5 5 5 6 5 5 5 5 5 5 5 5 5 6 5 5 5 5 5 5 5 5 5 6 5 5 5 5 5 5 5 5 5 5 5 5 5 5 5 5 5 5 5 5 6 5 5 5 5 5 5 5 6 6 5 5 5 5 6 5 5 5 5 5 5 6 5 5 6 5 5 5 5 5 5 5 5 5 6 5 5 5 6 5 5 6 6 5 6 5 5 5 5 6 5 5 5 5 5 6 5 5 5 5 5 5 5 5 5 5 5 5 5 5 5 5 5 5 5 5 5 5 5 5 5 5 5 5 5 5 5 5 5 5 5 5 5 5 5 5 5 5 5 5 5 5 5 5 5 5 5 5 5 6 5 5 5 5 5 6 5 5 5 5 6 5 5 5 5 5 5 5 5 5 5 5 5 5 5 5 5 6 5 5 6 5 5 5 5 5 5 5 5 5 5 5 5 5 5 5 5 5 5 5 5 5 5 5 6 5 5 5 5 5 5 5 5 5 6 5 5 5 5 5 5 5 5 5 5 5 5 5 5 5 5 5 5 5 5 5 5 5 5 5 6 5 5 5 5 6 5 5 6 5 5 5 5 5 5 5 6 5 5 5 5 5 5 5 5 5 5 6 6 5 5 5 5 5 5 5 5 5 5 5 5 5 5 5 5 5 5 5 5 5 5 5 5 5 5 5 5 5 5 5 5 5 6 5 5 5 5 5 5 5 5 5 5 5 5 5 5 6 6 5 5 5 5 5 5 5 5 5 5 5 5 5 5 5 5 5 5 5 5 5 5 5 5 5 6 5 5 5 6 5 5 5 5 5 5 5 5 5 5 5 5 5 5 5 5 5 5 5 5 6 5 5 5 5 5 5 5 6 5 6 5 6 5 5 5 6 5 5 5 5 5 5 5 6 5 5 5 5 5 5 5 5 6 6 5 5 5 5 5 6 5 5 5 5 5 5 5 5 5 5 5 5 5 5 5 5 5 5 5 5 5 5 5 5 5 5 5 5 5 5 5 5 5 5 5 5 5 5 5 5 5 5 5 5 5 5 5 5 5 5 5 5 6 5 5 5 5 5 5 5 5 5 5 5 5 5 6 5 5 5 5 5 5 5 5 5 6 5 5 5 5 5 5 6 5 5 5 5 5 6 5 5 5 5 5 5 6 5 5 5 5 5 5 5 5 5 5 5 5 6 5 5 5 5 5 5 5 5 6 5 5 5 5 5 5 5 5 5 5 5 5 5 5 5 5 5 5 6 5 5 5 5 5 5 5 5 5 5 6 5 5 5 5 5 5 5 5 5 5 5 5 5 5 5 5 5 5 5 5 5 5 6 5 5 5 6 5 6 6 5 5 5 6 6 5 5 5 5 5 5 5 5 5 5 5 5 5 5 5 5 5 6 5 5 5 5 5 5 5 5 5 5 5 5 5 5 5 5 5 5 5 5 5 6 5 5 5 5 6 5 5 5 5 5 5 5 5 5 5 5 5 5 5 5 6 5 5 6 6 5 5 5 5 5 5 5 5 5 5 5 5 6 5 5 5 5 5 5 5 5 5 5 5 5 5 5 5 5 5 5 5 5 5 5 5 6 6 5 5 5 5 6 6 5 6 5 5 5 5 6 5 5 5 5 5 5 5 5 5 5 5 5 5 5 5 5 5 5 6 5 5 5 5 5 5 5 5 5 5 5 5 5 6 5 5 5 5 5 5 5 5 6 5 5 6 6 5 6 5 5 5 5 5 5 5 5 5 5 6 5 6 5 5 5 5 5 5 6 5 5 5 5 5 5 5 5 5 5 5 5 5 5 5 5 5 5 5 5 5 5 5 5 5 5 5 5 5 5 5 5 5 5 5 5 5 5 5 5 5 5 5 5 5 5 5 5 5 6 5 5 6 5 5 5 6 5 5 5 5 6 5 5 5 5 5 5 5 5 5 5 5 5 5 5 5 5 5 5 5 5 5 5 5 5 6 6 5 5 5 5 5 5 5 5 5 5 5 5 5 5 5 5 5 5 5 6 5 5 5 5 5 5 5 6 5 5 5 6 5 5 5 5 5 5 5 5 5 5 6 6 6 5 5 6 5 5 5 5 5 5 5 6 5 5 6 5 5 5 6 5 5 5 5 5 5 5 5 5 5 5 5 5 5 5 5 5 5 5 5 5 5 5 6 5 5 5 6 5 5 5 5 5 5 5 5 5 5 5 5 5 5 6 5 6 5 5 5 5 5 5 5 5 5 6 5 5 5 5 5 5 5 5 5 6 5 5 6 5 6 5 5 6 5 5 5 5 5 5 5 5 6 5 5 5 5 5 5 5 5 5 6 5 5 5 5 5 5 5 5 5 5 5 5 6 5 6 5 6 5 5 5 5 5 5 6 5 5 5 5 5 5 5 6 5 5 6 5 5 5 5 5 5 5 5 5 5 5 5 5 5 5 6 5 6 5 5 5 5 5 5 5 5 5 5 5 5 5 5 5 5 5 5 5 5 5 5 5 5 5 5 5 5 6 5 5 5 6 5 5 5 5 6 6 5 6 5 5 5 5 5 5 5 5 5 5 5 5 6 6 5 5 5 5 5 5 6 5 5 5 6 5 5 5 5 5 5 5 5 5 5 5 5 6 5 5 5 5 5 5 5 5 5 5 5 5 6 5 5 5 5 5 6 6 5 5 5 5 5 6 5 5 5 5 5 5 5 5 6 5 6 5 5 5 5 5 5 6 5 5 5 5 5 5 5 6 5 5 5 5 5 6 5 5 5 6 5 5 5 5 5 5 5 5 6 5 5 5 5 5 5 5 5 6 5 5 5 5 5 5 5 5 5 5 5 5 5 6 5 5 5 5 5 5 5 5 5 5 5 5 5 5 5 5 5 5 5 6 5 5 5 5 5 5 5 5 5 5 5 5 5 5 5 5 5 5 6 5 5 5 6 5 6 5 5 5 5 5 5 5 6 5 5 5 5 5 5 5 5 5 5 5 5 5 5 5 5 5 5 5 5 5 5 5 5 6 6 5 5 5 5 5 5 6 5 5 5 5 5 5 5 5 5 5 5 5 5 5 5 5 5 5 5 5 6 5 5 5 5 6 5 5 5 5 6 5 5 5 5 5 5 5 5 5 5 5 5 5 5 6 5 5 5 5 5 5 5 5 5 6 5 5 5 5 6 6 5 5 5 5 5 5 5 5 5 5 5 5 5 5 5 5 5 5 5 5 5 5 5 5 5 5 5 5 5 5 5 5 5 5 5 6 5 5 5 5 6 5 5 5 5 5 5 5 5 5 6 5 5 5 5 5 5 5 5 5 5 5 6 5 5 5 5 5 5 5 6 5 5 5 5 5 5 5 5 5 5 5 5 5 5 5 6 5 5 5 5 6 5 5 6 5 5 5 5 5 5 5 6 6 5 5 5 5 5 5 5 5 5 5 5 5 5 5 5 6 5 5 6 5 5 5 5 5 5 5 5 5 5 6 5 5 5 5 5 5 6 5 5 5 5 5 5 5 5 6 5 5 5 5 5 6 5 5 5 6 5 5 5 5 5 5 5 5 5 5 5 5 5 5 5 5 6 5 5 5 5 5 5 5 5 6 5 5 5 5 5 5 5 5 6 5 6 5 5 5 5 5 5 5 6 6 5 5 5 6 5 5 5 6 5 5 5 6 5 5 5 5 5 5 5 5 5 5 5 5 5 5 5 5 6 5 5 5 5 5 5 5 5 5 6 5 5 5 5 5 5 5 5 5 5 5 5 5 5 5 6 5 5 5 5 6 5 6 5 5 5 6 5 5 5 5 5 6 5 5 6 5 5 5 5 5 6 5 5 6 5 5 5 5 6 5 5 5 5 5 5 6 5 5 6 5 5 5 5 5 6 5 5 5 5 6 5 5 5 6 5 5 5 5 5 6 5 5 5 6 6 5 5 5 6 5 5 5 5 5 5 5 5 6 5 5 5 5 5 5 5 5 5 5 5 5 5 5 5 5 5 5 5 5 5 5 5 5 5 6 5 5 6 5 5 5 5 5 5 5 5 5 6 5 5 5 5 5 6 6 5 5 6 5 5 5 5 5 5 6 5 5 6 5 6 5 5 5 5 5 5 5 5 5 5 5 5 5 5 5 5 5 5 5 5 5 5 5 5 5 5 5 5 5 6 5 5 5 5 5 5 6 5 5 5 5 5 5 5 5 5 5 5 5 5 5 5 5 5 5 5 5 5 6 5 5 5 5 5 5 5 5 5 5 5 5 5 5 5 5 5 5 5 5 5 5 5 5 5 6 5 5 5 5 5 5 5 5 5 5 5 5 5 5 5 5 6 5 6 5 5 5 6 5 5 5 6 5 5 5 5 5 5 5 5 6 5 6 6 5 5 6 6 5 6 5 5 5 5 5 5 5 5 5 5 5 6 6 5 5 5 5 5 5 5 5 5 5 5 5 5 5 5 5 5 5 5 5 5 5 5 6 5 5 5 5 6 6 5 5 5 5 5 6 5 5 5 5 5 5 5 5 5 6 5 5 5 5 6 5 5 5 5 5 5 5 5 5 5 5 6 5 5 5 5 5 5 5 5 5 5 5 5 5 5 6 5 6 5 5 5 5 5 5 5 5 6 6 5 5 6 5 5 5 5 5 5 5 5 5 5 5 6 5 5 5 6 6 5 5 5 5 5 5 6 5 5 5 5 5 5 6 5 5 5 5 5 5 5 5 5 5 5 5 5 5 6 5 5 6 5 5 5 5 5 6 5 6 5 5 5 5 5 5 5 6 5 5 6 5 5 6 5 5 5 5 5 5 5 5 5 5 5 5 5 5 5 5 5 5 5 5 6 5 5 5 6 5 5 5 6 5 5 5 5 5 5 5 5 6 5 5 5 6 5 5 5 6 5 5 5 5 5 5 5 5 5 5 5 5 5 5 5 5 5 5 5 5 5 5 5 5 5 6 5 5 6 6 5 5 5 6 5 5 5 5 5 5 6 5 5 5 5 5 5 5 5 6 6 5 5 5 5 5 6 6 5 6 5 5 6 5 5 6 5 5 6 5 5 5 5 5 5 6 6 5 5 5 5 5 6 5 5 5 5 5 5 5 5 5 5 5 5 5 5 5 5 5 5 5 5 5 5 5 5 5 5 6 5 5 5 5 5 5 6 5 5 5 5 5 5 5 5 6 5 5 5 6 5 6 5 5 5 5 6 5 5 5 5 5 5 5 6 5 5 6 5 5 5 5 5 5 5 5 5 5 5 5 5 5 5 5 5 5 5 5 6 5 5 5 5 5 5 5 6 5 5 5 5 5 6 6 5 5 5 5 5 6 5 6 5 5 6 5 5 5 5 5 5 5 5 6 5 5 5 5 6 5 6 5 5 5 5 5 6 5 5 6 5 5 6 5 5 5 5 5 5 6 5 5 5 5 5 5 5 5 6 5 6 5 5 5 5 5 6 6 5 5 5 5 5 5 5 6 5 6 5 5 6 5 5 6 5 5 6 5 5 5 5 5 6 6 6 5 5 6 5 5 6 5 5 5 5 5 5 5 5 5 6 5 5 5 6 5 5 5 5 5 5 5 5 5 5 5 5 5 5 5 5 5 5 5 5 5 5 5 5 5 5 5 5 5 5 6 5 5 5 6 5 5 5 5 5 5 6 5 5 5 6 5 5 6 5 5 5 6 5 6 5 5 5 5 5 6 5 5 5 5 5 5 5 5 5 5 6 5 5 6 5 5 5 5 5 6 5 5 5 5 5 6 5 5 5 5 5 5 5 5 6 5 5 5 6 5 5 5 5 5 5 5 5 5 5 5 5 6 5 5 5 5 5 5 5 5 5 5 5 6 5 5 5 6 5 5 5 5 5 5 5 5 6 5 5 6 5 5 5 5 5 5 5 5 5 5 5 5 5 5 5 5 5 5 5 5 5 5 5 5 5 5 5 5 5 5 5 5 5 5 5 5 5 5 5 5 5 5 5 5 5 5 5 5 5 6 5 5 5 5 6 5 6 5 5 5 5 5 5 5 5 5 5 5 6 5 5 5 5 5 5 5 5 5 5 5 5 5 5 5 5 5 5 5 5 5 6 5 5 5 5 5 5 6 6 5 6 5 5 5 6 6 5 6 5 6 5 5 5 5 6 5 5 5 5 5 5 6 5 6 6 5 6 6 5 5 6 6 5 5 5 5 5 5 5 5 5 5 5 6 5 5 6 6 5 5 6 5 5 5 5 5 5 5 5 5 5 6 5 5 6 5 5 5 5 5 5 6 5 5 5 6 5 5 5 6 5 5 5 5 5 5 5 5 5 5 5 5 5 5 5 5 5 5 5 5 5 5 5 5 5 5 5 5 5 5 5 5 5 5 6 5 5 5 5 5 5 5 5 5 5 5 5 6 5 5 5 5 5 5 5 5 5 5 5 5 5 5 5 5 5 5 5 5 5 5 5 5 5 6 6 5 5 5 5 5 5 5 5 5 5 5 5 5 5 5 5 5 5 5 5 5 5 5 5 5 5 5 5 5 5 5 5 5 5 5 5 5 5 6 5 5 5 5 5 5 5 5 5 5 5 5 5 5 5 6 5 5 5 6 5 5 5 5 5 5 5 5 5 5 5 5 5 5 5 5 5 6 5 5 6 5 5 5 5 5 5 6 5 5 5 6 5 5 5 6 5 5 5 5 5 5 5 5 5 5 6 5 6 5 5 5 5 5 5 5 5 5 5 5 5 5 5 5 5 5 5 5 5 5 5 5 5 5 5 5 5 5 5 5 5 5 5 5 5 5 5 5 5 5 5 5 5 5 5 5 5 5 5 5 5 5 5 5 5 5 5 5 5 5 5 5 5 5 5 5 5 5 5 5 5 5 5 5 6 6 5 5 5 5 5 6 5 5 5 5 5 5 5 6 5 5 5 5 5 6 5 5 5 5 5 5 5 5 5 5 5 5 5 5 5 5 5 5 5 5 6 5 5 6 5 5 5 5 5 5 5 5 5 5 5 5 5 5 5 5 5 5 5 5 5 5 5 5 5 5 5 5 5 5 5 5 5 5 5 5 6 6 5 5 5 5 6 5 6 5 5 5 5 5 5 5 5 6 5 5 5 5 5 5 5 5 5 5 5 5 5 5 5 5 5 5 5 5 5 5 6 6 5 5 5 5 5 5 5 5 5 6 5 5 5 5 5 5 5 5 5 5 5 5 5 5 5 5 5 6 5 5 6 5 5 5 6 5 5 5 6 5 5 5 5 5 6 5 5 5 5 5 5 5 5 5 5 5 5 5 5 5 5 5 5 6 5 5 5 5 5 5 6 5 5 5 5 6 5 5 6 5 5 5 5 5 5 5 5 5 5 5 5 5 5 5 6 5 5 6 5 5 5 5 5 6 5 5 5 5 6 6 5 5 5 5 5 5 5 5 5 5 5 5 5 5 5 5 6 5 5 5 6 5 5 5 5 5 6 5 5 5 5 5 5 6 5 5 5 5 5 5 5 5 5 5 5 5 5 5 5 5 5 5 5 5 5 5 5 5 5 6 5 6 5 5 5 5 5 5 5 5 5 5 5 5 5 5 6 5 5 5 5 5 5 5 5 6 5 5 5 5 6 5 5 5 5 5 5 5 5 5 5 5 6 5 6 5 6 5 5 5 5 5 5 5 6 5 6 6 5 5 5 5 5 5 5 5 5 6 5 5 5 5 6 5 5 5 5 5 5 5 5 5 5 5 5 5 5 5 5 5 5 6 5 6 5 5 5 6 5 5 6 6 5 6 5 5 5 6 6 5 5 5 5 5 6 5 5 5 5 5 5 6 5 6 5 5 5 5 5 5 5 5 5 5 5 5 5 5 5 6 5 5 5 5 5 5 5 5 5 5 5 5 5 5 5 5 6 5 5 5 5 5 5 5 5 6 5 5 5 6 5 5 5 6 5 5 5 5 5 5 5 5 5 6 5 5 5 5 5 5 5 5 5 5 5 6 5 5 5 5 5 5 5 5 5 5 6 5 6 5 5 5 5 5 6 5 5 6 5 5 5 6 5 5 5 5 6 6 5 5 5 5 5 5 5 5 5 5 5 5 5 
</DataArray>
<DataArray type="Float64" Name="stress" NumberOfComponents="9" format="ascii">
2.5436339829346499 -137.82262209565852 0 -137.82262209565852 2978.12485512282 0 0 0 0 -677.00782217310484 587.03120682921144 0 587.03120682921144 2991.0299121390744 0 0 0 0 -562.5483231420726 -516.70546626974101 0 -516.70546626974101 3494.8384647567218 0 0 0 0 0.69995084925129381 -0.75758605049054495 0 -0.75758605049054495 5.7377438211742913 0 0 0 0 624.09632478273863 -322.17094742750487 0 -322.17094742750487 724.70610774993838 0 0 0 0 -1.1487121048852293 1.165100567110386 0 1.165100567110386 6.7896848100125631 0 0 0 0 0.78118667467924752 0.2452911540895002 0 0.2452911540895002 22.125911012066354 0 0 0 0 -3.8730888814473232 -38.45466714820941 0 -38.45466714820941 -18.93766689048789 0 0 0 0 -0.63806396221386941 -4.9533548790581676 0 -4.9533548790581676 9.4599859174736309 0 0 0 0 -0.0057300290418487634 -1.6842661274310613 0 -1.6842661274310613 14.419220246869372 0 0 0 0 -0.052626340628818061 0.14567221149007992 0 0.14567221149007992 4.9199880486283512 0 0 0 0 -6.909604189416811 -17.903122332616476 0 -17.903122332616476 -40.266914451532102 0 0 0 0 -13.535735555811456 -20.468449789183069 0 -20.468449789183069 27.419935045814782 0 0 0 0 -0.045752291740532705 -32.407233996994727 0 -32.407233996994727 -14.578207183338236 0 0 0 0 -4.1903396068935308 -17.278881028527394 0 -17.278881028527394 -11.546182137919459 0 0 0 0 -13.785497376269426 -49.106345652564414 0 -49.106345652564414 13.411651204660302 0 0 0 0 38.36410461081681 -16.059489335799299 0 -16.059489335799299 21.611416666568402 0 0 0 0 0.20287995913820581 -17.610996692725166 0 -17.610996692725166 112.79964779112197 0 0 0 0 -2.7991611265355232 -12.985724859539914 0 -12.985724859539914 46.595597179140896 0 0 0 0 4.6539507589798177 -8.6464059004974843 0 -8.6464059004974843 22.589112827496137 0 0 0 0 -56.829641622860407 -24.210250290154363 0 -24.210250290154363 50.695030460010457 0 0 0 0 -19.364211647745378 -3.0542948109796271 0 -3.0542948109796271 60.373215529740264 0 0 0 0 0.15721333491503398 -5.5457556716425165 0 -5.5457556716425165 29.180823498355608 0 0 0 0 -2.1158614227504815 1.1048891884137362 0 1.1048891884137362 6.4515911607742282 0 0 0 0 -1.5746896180019121 -3.9166996430940344 0 -3.9166996430940344 17.297047408181243 0 0 0 0 -0.74420479014245844 -4.20972765718526 0 -4.20972765718526 17.320385197480562 0 0 0 0 -12.007202244786868 -3.9634947769809514 0 -3.9634947769809514 30.331767823037808 0 0 0 0 -0.44710328739087757 -5.8423250751808098 0 -5.8423250751808098 15.514887748207428 0 0 0 0 -5.4629908228367796 -18.797639377948883 0 -18.797639377948883 40.973903454549145 0 0 0 0 -5.4597130021907105 -18.74860712960799 0 -18.74860712960799 12.662955206469633 0 0 0 0 -5.057547076892206 -7.7344448647963873 0 -7.7344448647963873 30.957856025052024 0 0 0 0 -9.2673195477464105 -8.6040765139987343 0 -8.6040765139987343 37.441840358544141 0 0 0 0 -6.658968175930557 -1.3120861366437282 0 -1.3120861366437282 5.4488267875868424 0 0 0 0 526.7844992313735 -125.59405408178282 0 -125.59405408178282 -202.37307262150171 0 0 0 0 -1.0400014173647065 -1.1473375673975887 0 -1.1473375673975887 12.715597747060201 0 0 0 0 268.59938755158748 972.81429852366182 0 972.81429852366182 1569.9700096167508 0 0 0 0 616.31469403745962 -1364.6801444203447 0 -1364.6801444203447 1935.3475222419002 0 0 0 0 -757.15425767619911 -46.972746061968792 0 -46.972746061968792 3493.420218591571 0 0 0 0 -248.53023778236008 -268.1586120573711 0 -268.1586120573711 1615.5772185600072 0 0 0 0 -198.27721641990607 -832.08242368818901 0 -832.08242368818901 1478.9621371017238 0 0 0 0 -230.46529762257313 -731.24112388221693 0 -731.24112388221693 3918.1981972277863 0 0 0 0 974.52438355522906 -158.6498637660261 0 -158.6498637660261 3502.9477361247846 0 0 0 0 53.797790014283009 -308.72047462631963 0 -308.72047462631963 -68.280770746612689 0 0 0 0 4.3451486082367703 -5.4787082998195729 0 -5.4787082998195729 7.5716273103520848 0 0 0 0 262.16467447284703 -799.21517762009171 0 -799.21517762009171 1083.6333353884111 0 0 0 0 -178.21521338672829 253.23011601167764 0 253.23011601167764 193.89697494573193 0 0 0 0 -90.026337203868493 927.82210291446972 0 927.82210291446972 3563.2590682713803 0 0 0 0 -5.670027442626008 910.58220572221762 0 910.58220572221762 2215.6308252825984 0 0 0 0 -39.888556942263676 103.81297248777992 0 103.81297248777992 -0.94624999071493221 0 0 0 0 -106.71252753257363 -42.300782573279321 0 -42.300782573279321 83.483449844337883 0 0 0 0 51.455394390844504 142.38583259702136 0 142.38583259702136 -120.65462322407984 0 0 0 0 -6.1701475217444175 0.59614053291952018 0 0.59614053291952018 -1.2118525479585145 0 0 0 0 -8.6394818810990728 -5.7284399453128572 0 -5.7284399453128572 59.037522365222685 0 0 0 0 -49.600584433902938 596.84344757318468 0 596.84344757318468 2577.4505649109342 0 0 0 0 223.82916309760608 259.34565374776139 0 259.34565374776139 3499.1469831526888 0 0 0 0 -62.587998419127416 532.15392808372781 0 532.15392808372781 3728.5878703769922 0 0 0 0 3.2712214496596062 55.132887165818829 0 55.132887165818829 179.84782026502216 0 0 0 0 287.48223437569942 -304.05566256268867 0 -304.05566256268867 607.28460131018073 0 0 0 0 2.3296876680929484 -4.419814358397872 0 -4.419814358397872 3.9360404300857255 0 0 0 0 9.417107847285255 -13.254715784924684 0 -13.254715784924684 14.798595096901863 0 0 0 0 -10.519593905844864 0.89261392173725085 0 0.89261392173725085 8.9043666749996859 0 0 0 0 -11.905106889149579 -10.875619711951003 0 -10.875619711951003 84.920668247979847 0 0 0 0 39.477452407072406 36.627228998790088 0 36.627228998790088 106.3593455068476 0 0 0 0 10.539512787414971 13.805475783003743 0 13.805475783003743 23.807232092860495 0 0 0 0 -0.25321610956780205 11.450747221693746 0 11.450747221693746 91.675389676129271 0 0 0 0 -7.1336592829432783 -11.81840681689215 0 -11.81840681689215 44.825140092633859 0 0 0 0 -60.862394370118636 14.093401948688552 0 14.093401948688552 -46.193787201293162 0 0 0 0 -53.632815222914132 -45.31891498445475 0 -45.31891498445475 36.716567653551465 0 0 0 0 -28.175025371833613 43.29957518511219 0 43.29957518511219 -130.77055448084138 0 0 0 0 -13.7455841732863 -4.8989283091140408 0 -4.8989283091140408 37.890983603867369 0 0 0 0 -23.686102689394147 -5.5408329151832731 0 -5.5408329151832731 114.59279514191439 0 0 0 0 -36.454391490324042 31.567326672608033 0 31.567326672608033 63.877422150340863 0 0 0 0 -4.8001821188379381 -33.734715957936714 0 -33.734715957936714 -70.533635801286437 0 0 0 0 0.69001267448268777 6.015640801142581 0 6.015640801142581 58.287491894181585 0 0 0 0 -2.3100178871551975 18.849498091651185 0 18.849498091651185 18.879137049312703 0 0 0 0 -0.85979328361470664 -17.310565116848011 0 -17.310565116848011 38.85218887461815 0 0 0 0 -30.159258554644794 4.0592479891711264 0 4.0592479891711264 58.733974026050419 0 0 0 0 -57.453196461123838 -28.100610278605018 0 -28.100610278605018 131.05696370849182 0 0 0 0 -49.171268116377718 -46.561108812355087 0 -46.561108812355087 39.99990944005549 0 0 0 0 -14.756750598881595 -10.947368699871731 0 -10.947368699871731 124.43166719461442 0 0 0 0 -11.974788303519858 34.453603322901472 0 34.453603322901472 102.64404739747988 0 0 0 0 1.9098896986838554 13.734859593470901 0 13.734859593470901 68.966807344433619 0 0 0 0 -15.307802809687928 61.093519423928228 0 61.093519423928228 200.52338686495204 0 0 0 0 36.739998648950404 -92.298949833289953 0 -92.298949833289953 217.43534737230766 0 0 0 0 105.40994013584248 -195.68233578285435 0 -195.68233578285435 376.90026104581193 0 0 0 0 -5.0443970648996128 29.291859719902277 0 29.291859719902277 298.21468404441839 0 0 0 0 43.962761529847512 -13.216972801295924 0 -13.216972801295924 45.881293230078882 0 0 0 0 -7.4717589534072033 -8.9586636298336089 0 -8.9586636298336089 49.646346101289964 0 0 0 0 -12.274730693965807 2.8346857016222202 0 2.8346857016222202 62.345723849735805 0 0 0 0 -22.631134378369705 -26.865518420683088 0 -26.865518420683088 37.131265724674449 0 0 0 0 -23.03966776860841 -8.1638850246017682 0 -8.1638850246017682 76.300899255467812 0 0 0 0 -6.4644819075083433 -21.42610217397305 0 -21.42610217397305 27.163958707460552 0 0 0 0 -15.096729270478136 -15.551035035583482 0 -15.551035035583482 51.39529548551036 0 0 0 0 -3.081406482890884 -28.064455427400389 0 -28.064455427400389 3.4519714024645509 0 0 0 0 4.242119688365392 -13.694342107715784 0 -13.694342107715784 30.249331392740714 0 0 0 0 -24.848417974362235 -25.233793989660626 0 -25.233793989660626 36.831256734016279 0 0 0 0 -24.314507446837467 -21.253942042307244 0 -21.253942042307244 8.0383033826365136 0 0 0 0 193.12273382356045 -113.33237594562888 0 -113.33237594562888 780.74581153108011 0 0 0 0 -62.478211839992809 -301.16973803617293 0 -301.16973803617293 1017.6265779499063 0 0 0 0 56.620187676764147 -269.72150049587799 0 -269.72150049587799 711.36770178301958 0 0 0 0 3.5438122026416514 -4.3927765882430663 0 -4.3927765882430663 -0.45262516113716345 0 0 0 0 57.083126051507179 -335.88878044985177 0 -335.88878044985177 652.72682611248456 0 0 0 0 104.88395820037226 -452.10255705055897 0 -452.10255705055897 935.21573548504966 0 0 0 0 -39.809521184227833 -170.65965944544587 0 -170.65965944544587 641.55194986742572 0 0 0 0 -2.9335949718856682 -289.95008933533973 0 -289.95008933533973 551.68131136988814 0 0 0 0 46.009007922614728 -40.257424293016811 0 -40.257424293016811 319.20990503538633 0 0 0 0 353.31389084997772 -93.03942327410914 0 -93.03942327410914 660.3093738653115 0 0 0 0 0.53224309050688356 -1.3115122160778014 0 -1.3115122160778014 0.64955173420796797 0 0 0 0 46.138678212404216 -80.168787453716504 0 -80.168787453716504 -191.23336134338024 0 0 0 0 3.2272229785777711 -258.2773056048427 0 -258.2773056048427 104.327062747936 0 0 0 0 -221.83024953752994 -529.27386155296699 0 -529.27386155296699 1421.7557714634895 0 0 0 0 24.746518022166924 49.770008332277939 0 49.770008332277939 645.85873853907106 0 0 0 0 84.192148439503853 -259.44876594868401 0 -259.44876594868401 1074.5465333156753 0 0 0 0 -0.24253931433013001 2.7219225874212292 0 2.7219225874212292 3.5328297933518229 0 0 0 0 14.40217703808662 -549.36990637067356 0 -549.36990637067356 713.89711004534911 0 0 0 0 -26.46676394001679 64.491561859897047 0 64.491561859897047 1039.580191773066 0 0 0 0 -1.4694666969183556 9.6752875295369005 0 9.6752875295369005 34.938564045140993 0 0 0 0 -742.1501984693557 173.33836515320945 0 173.33836515320945 161.69961128657451 0 0 0 0 -27.466217114614437 -1.8682259660381533 0 -1.8682259660381533 101.01237586384377 0 0 0 0 123.5022263224443 143.59627025761802 0 143.59627025761802 2.0131077356163587 0 0 0 0 -5.0862261656580321 -0.97693434219365827 0 -0.97693434219365827 5.839435042737648 0 0 0 0 48.070391406477825 -3.1839789528894471 0 -3.1839789528894471 90.412717927010817 0 0 0 0 264.92662286808797 -95.942944740389066 0 -95.942944740389066 616.1872640465881 0 0 0 0 -281.33205472001947 -210.2903423761054 0 -210.2903423761054 774.52937264605134 0 0 0 0 127.62777174610372 283.55572923700674 0 283.55572923700674 -168.97710904573614 0 0 0 0 17.62201524722812 203.52098869860129 0 203.52098869860129 1180.5523281958449 0 0 0 0 0.5565873280034872 0.89609582485397254 0 0.89609582485397254 0.63036940226515981 0 0 0 0 78.729717103863379 203.20517924481828 0 203.20517924481828 986.23740361778255 0 0 0 0 118.01655165068874 44.799477303658932 0 44.799477303658932 1377.9432651845855 0 0 0 0 300.07696822130521 238.29509502407745 0 238.29509502407745 1109.9409353868687 0 0 0 0 205.75618201060195 -7.7520794056981686 0 -7.7520794056981686 1025.622771234659 0 0 0 0 191.437400602401 21.788690100191161 0 21.788690100191161 992.09288118414406 0 0 0 0 192.24542106734634 236.81808763277513 0 236.81808763277513 1158.7148236893408 0 0 0 0 46.648561415435779 13.468851586338133 0 13.468851586338133 1073.1972866905789 0 0 0 0 331.82491571861351 170.72029118998034 0 170.72029118998034 1073.1844296002948 0 0 0 0 390.42686967173552 180.18622157643404 0 180.18622157643404 1167.6576113013725 0 0 0 0 230.14666795373239 62.780448719619017 0 62.780448719619017 1630.1418934714166 0 0 0 0 -71.554848130939234 110.59324570870376 0 110.59324570870376 1201.5768187755821 0 0 0 0 65.875467537409548 364.1575874176815 0 364.1575874176815 1409.9455479681492 0 0 0 0 0.35926986410959216 64.310076012097852 0 64.310076012097852 1015.3795472294732 0 0 0 0 0.038351889129987604 122.66145697238608 0 122.66145697238608 1154.892579660067 0 0 0 0 -12.559703004274814 124.43712378686359 0 124.43712378686359 1168.0967434460763 0 0 0 0 87.595950314748734 258.85814443982963 0 258.85814443982963 1156.3710028410514 0 0 0 0 30.454817236437748 236.51396019850836 0 236.51396019850836 1287.5399163779221 0 0 0 0 166.28682592173834 258.7301583160297 0 258.7301583160297 1222.6555151486973 0 0 0 0 74.309223817418342 297.44909023816581 0 297.44909023816581 1266.0872873175467 0 0 0 0 122.20949627357004 169.85801226134936 0 169.85801226134936 1205.2864625916773 0 0 0 0 174.95486175477686 241.27467324666213 0 241.27467324666213 1184.2533534666582 0 0 0 0 45.398315373856633 34.660578278402681 0 34.660578278402681 -30.251404257462127 0 0 0 0 99.373130862032099 240.29910506709712 0 240.29910506709712 1337.9363205352856 0 0 0 0 54.678589183932445 131.92414673458552 0 131.92414673458552 1377.2707287716148 0 0 0 0 2.1643468907916823 1.2523747176065569 0 1.2523747176065569 4.3143754565737638 0 0 0 0 -0.015958237019627536 85.06665562220951 0 85.06665562220951 898.33946392669168 0 0 0 0 115.45981224932504 237.21358677484159 0 237.21358677484159 368.73948872298934 0 0 0 0 -19.576744486456903 -9.2049011291092029 0 -9.2049011291092029 176.4113318206073 0 0 0 0 107.54443719036186 87.01375874467567 0 87.01375874467567 9.1849056476494297 0 0 0 0 -14.868572476919475 -11.726022160190951 0 -11.726022160190951 19.527203495701542 0 0 0 0 1.3811148316353321 -4.3869440622709854 0 -4.3869440622709854 25.42984460371764 0 0 0 0 -75.627346501740419 0.40206963395758066 0 0.40206963395758066 62.997152084994013 0 0 0 0 0.96035455301557704 -15.344871024615713 0 -15.344871024615713 23.968203164666193 0 0 0 0 4.7605644674949872 -13.636923793852475 0 -13.636923793852475 23.064403296972159 0 0 0 0 3.3921640384610328 -15.056474994838936 0 -15.056474994838936 21.775150489136649 0 0 0 0 7.9713102195033052 -5.97180176156931 0 -5.97180176156931 1.5962422260714675 0 0 0 0 207.42860333031371 -175.09319347428391 0 -175.09319347428391 695.87104318990896 0 0 0 0 2.2658708765325173 -14.225670884807187 0 -14.225670884807187 24.831552660485613 0 0 0 0 218.63001689480939 -71.642749159502273 0 -71.642749159502273 826.55459776165662 0 0 0 0 -30.817089931949795 -297.71042047659284 0 -297.71042047659284 931.57689972088701 0 0 0 0 2.3689243200520029 -1.2585619700916606 0 -1.2585619700916606 -0.042038230868627124 0 0 0 0 -29.322379868451662 -40.100806500558974 0 -40.100806500558974 1172.0921599037683 0 0 0 0 145.4103877335433 141.48535466827161 0 141.48535466827161 1235.8615507180511 0 0 0 0 -170.89401723735403 -152.89567077074207 0 -152.89567077074207 1164.4845893092497 0 0 0 0 4.3179778973125194 1.2621817802011321 0 1.2621817802011321 -3.9740510406140714 0 0 0 0 52.414264591845722 -42.598883195089002 0 -42.598883195089002 475.40579970412728 0 0 0 0 -0.30396816270203253 3.027231665062061 0 3.027231665062061 -0.63799026413330751 0 0 0 0 883.10415584699376 490.36864546640209 0 490.36864546640209 597.84427649915597 0 0 0 0 1026.1912182658361 1179.3556860460394 0 1179.3556860460394 862.58691886402084 0 0 0 0 -6.5970217892668188 82.605098858512065 0 82.605098858512065 547.45189612784998 0 0 0 0 -177.72018229925925 512.66125953297524 0 512.66125953297524 1892.8511189370838 0 0 0 0 -18.202954744425767 1043.0657072510612 0 1043.0657072510612 2300.3726947622708 0 0 0 0 -5.8922903796494195 -2.1147294274244359 0 -2.1147294274244359 10.724406222653741 0 0 0 0 74.521332291898148 939.76530616987566 0 939.76530616987566 2554.9226029517449 0 0 0 0 161.09023783052837 933.92211164945911 0 933.92211164945911 2918.967039007598 0 0 0 0 488.604198682711 1283.1813302609353 0 1283.1813302609353 2995.1111287346357 0 0 0 0 -1.6222475362472744 -0.48365454722073764 0 -0.48365454722073764 8.6267026783005463 0 0 0 0 627.97716659778041 1582.0236708755547 0 1582.0236708755547 3499.7747139434432 0 0 0 0 1048.6577431305416 718.7610695102303 0 718.7610695102303 1807.7335399576004 0 0 0 0 304.27909174402816 1415.8272986938464 0 1415.8272986938464 2614.2100673567402 0 0 0 0 149.70190214497845 735.46078259246224 0 735.46078259246224 2871.4084308126476 0 0 0 0 125.0359783173808 129.05300760132377 0 129.05300760132377 -316.00139419495281 0 0 0 0 29.93440357750459 616.21860223473777 0 616.21860223473777 4022.2039853354072 0 0 0 0 10.79741404786143 3.9070501187111972 0 3.9070501187111972 3.4844114043455505 0 0 0 0 458.9265082613507 1214.8445741678552 0 1214.8445741678552 3187.6274017411051 0 0 0 0 47.951147327336159 1004.3312358477706 0 1004.3312358477706 3497.8520030454556 0 0 0 0 -64.833708421803607 1392.4320285927242 0 1392.4320285927242 2782.6700846790482 0 0 0 0 247.61497114053856 463.61307174120884 0 463.61307174120884 1439.9333605002539 0 0 0 0 29.213130741674902 12.166226732507425 0 12.166226732507425 -2.6545376767285624 0 0 0 0 -86.972761765872264 666.60879759449745 0 666.60879759449745 2658.1913012248569 0 0 0 0 -16.322132679969769 704.43047580205166 0 704.43047580205166 1499.8166376853915 0 0 0 0 -44.272269421190217 146.83874434394238 0 146.83874434394238 1907.048101535227 0 0 0 0 -5.1563944710014766 61.685059216986701 0 61.685059216986701 324.45699512126794 0 0 0 0 -53.037000569650445 110.63761509520555 0 110.63761509520555 73.704905240127118 0 0 0 0 7.2648704580133199 57.85096755730774 0 57.85096755730774 323.66611736684717 0 0 0 0 -11.345630473617884 9.1394457920181651 0 9.1394457920181651 1.0269994150421766 0 0 0 0 -24.67696802693672 48.929131787353981 0 48.929131787353981 320.74447876182967 0 0 0 0 -15.851220151121197 63.750735716894269 0 63.750735716894269 329.28412349092832 0 0 0 0 37.847706263951295 115.58773201845906 0 115.58773201845906 409.96141599191469 0 0 0 0 42.476756561646766 89.16483290805445 0 89.16483290805445 347.27758149769215 0 0 0 0 -19.618200712279304 14.925771006230207 0 14.925771006230207 379.39514519865043 0 0 0 0 58.387637947943176 -14.770932143697792 0 -14.770932143697792 317.20966142991892 0 0 0 0 -6.3641961419180006 49.314596313190123 0 49.314596313190123 438.47794345842522 0 0 0 0 -4.35061865739317 13.659797872889612 0 13.659797872889612 306.52954131932347 0 0 0 0 -27.052302216117369 36.87779407380367 0 36.87779407380367 288.25448631489417 0 0 0 0 -46.525191051114234 -1.5939639278913091 0 -1.5939639278913091 280.75375258088434 0 0 0 0 -6.9159662365900658 -23.479474062001827 0 -23.479474062001827 179.50878957544046 0 0 0 0 -8.6526127100041776 46.518754563803668 0 46.518754563803668 287.95128478138395 0 0 0 0 -16.05993490394394 25.513312433879037 0 25.513312433879037 298.20640917509445 0 0 0 0 -5.2627049230486591 51.498781403868634 0 51.498781403868634 266.5343170721826 0 0 0 0 -4.542693858336861 19.916314569942188 0 19.916314569942188 283.16729827378731 0 0 0 0 -3.8727243672692566 15.899872024216165 0 15.899872024216165 332.74912098304776 0 0 0 0 7.6833486026305362 2.588438154556826 0 2.588438154556826 -5.1016438568660334 0 0 0 0 1.7544025511670043 20.94659373950708 0 20.94659373950708 332.24998078219505 0 0 0 0 -0.61022274227434536 37.16575089478647 0 37.16575089478647 321.53125990995613 0 0 0 0 36.766855813522852 4.3326650681192405 0 4.3326650681192405 304.83609819236153 0 0 0 0 25.585837589896983 25.087038497105823 0 25.087038497105823 330.0735540800888 0 0 0 0 -9.6733792938284751 28.215148350172967 0 28.215148350172967 326.71844260985381 0 0 0 0 -2.7672264229731809 20.113406805030536 0 20.113406805030536 332.27848682360309 0 0 0 0 -12.157152806568774 21.012036642670864 0 21.012036642670864 332.36050135125333 0 0 0 0 14.134718383673317 23.565998018966638 0 23.565998018966638 324.4223060093791 0 0 0 0 0.074306815846284735 29.030358752388565 0 29.030358752388565 322.30991584458388 0 0 0 0 -24.632766342887635 45.480619420295625 0 45.480619420295625 305.46535361159476 0 0 0 0 -26.866170683391829 24.981527672680386 0 24.981527672680386 313.97927685332252 0 0 0 0 -6.3894571627351979 23.34822180896299 0 23.34822180896299 313.87196218605095 0 0 0 0 -12.847588766523586 30.32574303857109 0 30.32574303857109 323.0240170986217 0 0 0 0 -0.72613399886722618 33.487174353329465 0 33.487174353329465 310.73011355024937 0 0 0 0 -11.314681164951253 39.564701574636274 0 39.564701574636274 299.30315720035287 0 0 0 0 -7.3176463531071931 49.005331287371519 0 49.005331287371519 315.75049911576207 0 0 0 0 19.005398844139563 40.140165235643508 0 40.140165235643508 315.99988811532967 0 0 0 0 1.4005278139647999 60.525032504439878 0 60.525032504439878 322.26666029258286 0 0 0 0 115.58539400145926 416.62051403672376 0 416.62051403672376 1443.1393211063405 0 0 0 0 -45.787353274588668 -65.590016909787664 0 -65.590016909787664 14.285381545632845 0 0 0 0 63.026897752405148 -17.010318278102204 0 -17.010318278102204 -137.96434240145027 0 0 0 0 -0.80361267097716615 -3.5168917450044574 0 -3.5168917450044574 -4.2794223507448912 0 0 0 0 12.382674286510966 25.335027736569955 0 25.335027736569955 11.701034626887662 0 0 0 0 66.319495215041229 208.18108179098635 0 208.18108179098635 -488.73323555493516 0 0 0 0 -198.99820211667219 263.91910168038521 0 263.91910168038521 1004.0444007474871 0 0 0 0 -309.27409240339398 256.77083144637436 0 256.77083144637436 684.99828354126657 0 0 0 0 374.85227036488061 1056.134174637351 0 1056.134174637351 1051.3173905746385 0 0 0 0 278.67842002879729 279.8449902817747 0 279.8449902817747 599.67792620873661 0 0 0 0 -63.223799896828872 909.2160305734069 0 909.2160305734069 2056.1211056681932 0 0 0 0 79.451317475462531 1925.585241687626 0 1925.585241687626 3494.6703578933884 0 0 0 0 -64.669000166632316 1238.2990838064113 0 1238.2990838064113 2045.3725224069494 0 0 0 0 9.1583667173216359 5.4741285651652731 0 5.4741285651652731 8.6039827263143991 0 0 0 0 1736.5642373477465 1554.3027757170021 0 1554.3027757170021 687.39370524548576 0 0 0 0 1376.9626523644317 279.67233442277029 0 279.67233442277029 -167.00982279598247 0 0 0 0 0.81813429540312832 -2.9820054606011155 0 -2.9820054606011155 9.2568312733486593 0 0 0 0 342.36452442161567 -206.24031064327573 0 -206.24031064327573 -179.77591631378164 0 0 0 0 716.85590587519255 298.13490783328598 0 298.13490783328598 31.189070782042108 0 0 0 0 -9.8072835136554204 27.989434985807748 0 27.989434985807748 122.82344799647399 0 0 0 0 -172.45769217827547 -118.42647713725819 0 -118.42647713725819 364.01128029412939 0 0 0 0 -28.896388450779341 51.330843087635003 0 51.330843087635003 -74.826729766760764 0 0 0 0 6.7010405141971816 16.681062664842656 0 16.681062664842656 -5.9604492296074394 0 0 0 0 19.495203522883457 11.150350761607115 0 11.150350761607115 -100.66183657948932 0 0 0 0 95.758154145645676 439.26587473630207 0 439.26587473630207 961.26829175738749 0 0 0 0 5.8501511794083854 19.396080491780594 0 19.396080491780594 86.236920673218265 0 0 0 0 -214.39422126079057 8.2850907731472034 0 8.2850907731472034 74.432944480548031 0 0 0 0 11.108833319715767 20.007223594467007 0 20.007223594467007 18.282641598153397 0 0 0 0 -4.8353630589281913 2.1621762010574201 0 2.1621762010574201 18.868201536514619 0 0 0 0 28.164886355632007 14.626546844807308 0 14.626546844807308 82.91712323736283 0 0 0 0 288.09649659576354 -1547.9446217330333 0 -1547.9446217330333 3497.3294442253173 0 0 0 0 -70.762595144460349 -193.98466004853981 0 -193.98466004853981 2073.6171822666565 0 0 0 0 18.374908514433205 17.636031215112951 0 17.636031215112951 24.935444715375439 0 0 0 0 -71.043074757920223 -505.1078533015534 0 -505.1078533015534 2079.5239015335355 0 0 0 0 230.16188758389472 -190.05142878498009 0 -190.05142878498009 2071.3464943333856 0 0 0 0 -341.1506753442842 -86.78553435417416 0 -86.78553435417416 3499.4691965423617 0 0 0 0 -69.762747847706834 -530.61280371603198 0 -530.61280371603198 2463.9648930328985 0 0 0 0 -75.538598627057269 -189.73904877428868 0 -189.73904877428868 2441.6615680453124 0 0 0 0 13.814897846204531 32.459698930135346 0 32.459698930135346 137.5319778364501 0 0 0 0 35.171763503502007 32.186362158026895 0 32.186362158026895 -107.46122303815264 0 0 0 0 7.9119087499780978 -8.0898872531381016 0 -8.0898872531381016 19.425719635435811 0 0 0 0 13.649865354576699 30.461937515401928 0 30.461937515401928 33.498869704584877 0 0 0 0 12.164326852841285 39.454362607995733 0 39.454362607995733 71.505226540318347 0 0 0 0 348.85194821053301 114.37701492082851 0 114.37701492082851 325.89215727023839 0 0 0 0 -24.965740590827053 -55.309439812191144 0 -55.309439812191144 85.277853183643998 0 0 0 0 29.860537064124799 -170.73359590394102 0 -170.73359590394102 -210.29779786306608 0 0 0 0 127.51696757643731 365.35309438361583 0 365.35309438361583 171.18853782304359 0 0 0 0 -133.22375377444405 132.21907756520523 0 132.21907756520523 572.79175628047233 0 0 0 0 -91.814677074042265 -28.907666453545971 0 -28.907666453545971 640.30484158317267 0 0 0 0 40.991811124345986 -8.2563103029024205 0 -8.2563103029024205 -141.44022878224496 0 0 0 0 2.825752370423487 -0.97052938292165436 0 -0.97052938292165436 0.83714058904264732 0 0 0 0 122.17090685514813 -40.78283996205937 0 -40.78283996205937 343.53049736129469 0 0 0 0 19.637887024016891 5.6902196313239983 0 5.6902196313239983 343.94881358424027 0 0 0 0 92.392528472204503 22.745523190853419 0 22.745523190853419 271.27064223223715 0 0 0 0 -23.29592064425373 -62.550579091073843 0 -62.550579091073843 81.957856593202465 0 0 0 0 33.793615419011985 -13.245072362185965 0 -13.245072362185965 275.81848354954855 0 0 0 0 -187.2067126333674 70.572372686054223 0 70.572372686054223 947.78744397321134 0 0 0 0 434.36520983066066 -296.06717853061127 0 -296.06717853061127 -188.4330031638965 0 0 0 0 174.4066892675196 73.804544951548451 0 73.804544951548451 -199.76132412417974 0 0 0 0 -84.763345800372008 117.70125809498131 0 117.70125809498131 666.71241926964285 0 0 0 0 55.78705210535486 -70.670605380182678 0 -70.670605380182678 105.68101126712281 0 0 0 0 -27.189784348392777 217.19293177960208 0 217.19293177960208 142.72183591956855 0 0 0 0 112.54416380788939 -338.68838662061899 0 -338.68838662061899 707.76898989967594 0 0 0 0 52.291515528695982 -302.6143386636395 0 -302.6143386636395 777.68012827220082 0 0 0 0 -11.41959357399719 -295.33094403443101 0 -295.33094403443101 858.20181003373727 0 0 0 0 3.591965701366477 3.8951533879019138 0 3.8951533879019138 4.0036734564485528 0 0 0 0 -11.417538428089756 -669.63717680058471 0 -669.63717680058471 1442.7154442649044 0 0 0 0 -106.93673133410726 715.48247734297456 0 715.48247734297456 -559.41513364983257 0 0 0 0 -164.84705852501631 571.37808537643014 0 571.37808537643014 98.194583607735694 0 0 0 0 -54.758134257395113 239.97417202519864 0 239.97417202519864 -527.18054911760555 0 0 0 0 189.21278207494277 199.09151580788603 0 199.09151580788603 -146.9759612286889 0 0 0 0 -55.461829830675242 358.85234627321188 0 358.85234627321188 -176.55057001777459 0 0 0 0 -423.13644533580691 359.94405527278286 0 359.94405527278286 -258.1483563202346 0 0 0 0 4.5493449437595306 10.996371966443959 0 10.996371966443959 16.468362919772801 0 0 0 0 -428.5504889020483 406.80435232835953 0 406.80435232835953 83.43656458199257 0 0 0 0 -314.77665325755106 168.34766928091994 0 168.34766928091994 -171.08958966881619 0 0 0 0 -332.30127184526509 181.06813779522054 0 181.06813779522054 -61.735518352397776 0 0 0 0 -310.36453622585907 295.195207654142 0 295.195207654142 449.61063979924074 0 0 0 0 -607.18067264442516 324.09262094666701 0 324.09262094666701 247.89990710250277 0 0 0 0 -331.34144286074184 -13.886869507950905 0 -13.886869507950905 543.25927255085844 0 0 0 0 -334.39015871009133 46.515975895657903 0 46.515975895657903 -78.411531437268422 0 0 0 0 -45.769714051599522 129.88462924664782 0 129.88462924664782 95.795973999687703 0 0 0 0 439.04085094617835 130.30735186838137 0 130.30735186838137 177.1521827505494 0 0 0 0 60.946258714947362 78.804327650366758 0 78.804327650366758 98.17176200542599 0 0 0 0 438.46180900153695 -159.93508711056347 0 -159.93508711056347 149.68481251012417 0 0 0 0 -63.546245585858287 187.72685283113242 0 187.72685283113242 1069.3159601887455 0 0 0 0 298.65371209657405 164.99674720413168 0 164.99674720413168 88.324359136808198 0 0 0 0 208.62690997653056 249.20459735141776 0 249.20459735141776 804.27372868263046 0 0 0 0 -55.527130339655741 406.60948932133033 0 406.60948932133033 -27.022778481536079 0 0 0 0 -42.851155638166802 224.69343383574596 0 224.69343383574596 143.18427338293986 0 0 0 0 182.45569637593024 41.866478904789346 0 41.866478904789346 11.226548637787346 0 0 0 0 278.46018198206446 -19.281368091227705 0 -19.281368091227705 27.786917610661476 0 0 0 0 98.163242665415055 -52.607363176051877 0 -52.607363176051877 27.421992106274274 0 0 0 0 6.3703347565323831 1.3001506902943731 0 1.3001506902943731 -4.3326261288175658 0 0 0 0 393.91854854592134 192.96483683463157 0 192.96483683463157 100.91054903629265 0 0 0 0 5.4117019641690742 -2.4145725185989875 0 -2.4145725185989875 1.5180769898311723 0 0 0 0 235.34711663379039 203.7339217436529 0 203.7339217436529 233.05253279534008 0 0 0 0 594.06586680782948 -63.850924954458605 0 -63.850924954458605 817.41134122521635 0 0 0 0 31.033984311450808 3.6327744930840709 0 3.6327744930840709 274.38125787902391 0 0 0 0 -61.805947551571762 -241.99069218640216 0 -241.99069218640216 944.58269241655944 0 0 0 0 10.635388672825627 -47.638214057104051 0 -47.638214057104051 57.260977702069795 0 0 0 0 254.85436747633935 44.922572311508702 0 44.922572311508702 -57.030740932954359 0 0 0 0 19.965366294322848 159.98386497281899 0 159.98386497281899 -43.521816334581672 0 0 0 0 99.350017843677165 186.02045723043921 0 186.02045723043921 -116.4517946911219 0 0 0 0 68.230264596370716 54.489838719731779 0 54.489838719731779 147.49532866277877 0 0 0 0 -257.45210915290772 3.0867990836409263 0 3.0867990836409263 236.3501138779975 0 0 0 0 -286.44572835145937 138.34464374867093 0 138.34464374867093 872.7381085511588 0 0 0 0 -26.470001231430629 -61.699000293735565 0 -61.699000293735565 82.983121957867155 0 0 0 0 -4.4498494282925094 2.4336426978043164 0 2.4336426978043164 213.29561334863683 0 0 0 0 -6.4686613207722985 -87.381652285606833 0 -87.381652285606833 166.47517815740684 0 0 0 0 -29.983534028651384 -56.915057413386691 0 -56.915057413386691 83.374246326586629 0 0 0 0 8.1306973476659721 -11.381126414729806 0 -11.381126414729806 324.19037738942279 0 0 0 0 -0.80945441558303521 -0.80520400299104011 0 -0.80520400299104011 32.096365260272535 0 0 0 0 -24.835612787213741 -56.859124969909189 0 -56.859124969909189 81.933458992093563 0 0 0 0 -54.014844402462131 45.984398308612072 0 45.984398308612072 154.45894409050561 0 0 0 0 -6.0593401435376109 -95.285535018014343 0 -95.285535018014343 114.98308609379455 0 0 0 0 32.085619340854009 44.49718636642865 0 44.49718636642865 163.3123817499436 0 0 0 0 4.2262974305648306 0.85410061493776368 0 0.85410061493776368 32.063056585760279 0 0 0 0 -20.319443449313212 25.364981515268482 0 25.364981515268482 162.89578352196258 0 0 0 0 13.369390733399086 -24.080908246847684 0 -24.080908246847684 291.51766305109049 0 0 0 0 5.205409067880737 49.562000038033148 0 49.562000038033148 340.47254453950882 0 0 0 0 12.792703571209502 -4.9719115116306511 0 -4.9719115116306511 1.9380957402426304 0 0 0 0 53.1812886180021 10.724693753609245 0 10.724693753609245 216.04174762588809 0 0 0 0 -24.919027631033714 16.343388394052454 0 16.343388394052454 220.87956346481951 0 0 0 0 -24.7547039439843 -59.448642372446749 0 -59.448642372446749 79.481078048322075 0 0 0 0 -61.537928850773255 -62.956372583917982 0 -62.956372583917982 175.53512345367199 0 0 0 0 -27.249667021941335 -74.42638854518691 0 -74.42638854518691 129.81446349529142 0 0 0 0 13.88021310055926 -6.8261376634094404 0 -6.8261376634094404 1.3914902452231033 0 0 0 0 17.378152995680466 41.12011299414371 0 41.12011299414371 203.12956785331698 0 0 0 0 -37.583813989145256 20.793438224187412 0 20.793438224187412 307.10901161198854 0 0 0 0 -23.985543759700231 -59.022540762992122 0 -59.022540762992122 82.366591196728066 0 0 0 0 7.5093553948900649 -44.340519281401612 0 -44.340519281401612 155.57043949815852 0 0 0 0 -60.542846306352963 -54.597049329828224 0 -54.597049329828224 143.83172087484854 0 0 0 0 -19.041069992785424 -127.54909967440653 0 -127.54909967440653 55.941759232304321 0 0 0 0 -18.406034080725931 20.382041478647807 0 20.382041478647807 280.77572582168796 0 0 0 0 -103.22293294109818 -59.492568402787583 0 -59.492568402787583 183.54156719105049 0 0 0 0 -52.370431409797959 -61.400770734078833 0 -61.400770734078833 84.451991177600576 0 0 0 0 21.50704210794656 284.98215161806002 0 284.98215161806002 -27.994588971564554 0 0 0 0 108.66825968394278 261.62040137240547 0 261.62040137240547 1911.3367444233008 0 0 0 0 350.56959615142136 -261.41402915077924 0 -261.41402915077924 3040.3871145062585 0 0 0 0 1537.1810786381477 387.46309509726416 0 387.46309509726416 1591.1947847531701 0 0 0 0 620.24499624411396 18.552606054498028 0 18.552606054498028 1710.5505714670035 0 0 0 0 338.39035381183317 214.0057533495783 0 214.0057533495783 1575.0139701619628 0 0 0 0 125.68159030138531 -585.56731477419089 0 -585.56731477419089 1541.6561155218078 0 0 0 0 -50.115106820203891 -69.403099345734518 0 -69.403099345734518 120.22099000067101 0 0 0 0 174.77398798303125 -19.190022054957808 0 -19.190022054957808 -104.19200052396445 0 0 0 0 2.3860094521400859 1.8188031097421344 0 1.8188031097421344 1.6573740187849921 0 0 0 0 248.09034469710014 128.41392157432711 0 128.41392157432711 9.932145311810018 0 0 0 0 375.55955257850053 456.57146281541827 0 456.57146281541827 336.46988237147161 0 0 0 0 32.463995479973846 310.09978807675361 0 310.09978807675361 1285.8478762760496 0 0 0 0 -19.122200959650144 -85.995156718210637 0 -85.995156718210637 305.62167296223924 0 0 0 0 5.8143269946103828 243.25591883894253 0 243.25591883894253 521.16943697175884 0 0 0 0 111.17867557285103 57.509313080638094 0 57.509313080638094 45.535700526525034 0 0 0 0 88.578760819070226 287.09078632545425 0 287.09078632545425 510.30087171217383 0 0 0 0 -124.23925198815039 201.15482425719165 0 201.15482425719165 1250.9799010337447 0 0 0 0 -225.74904486199358 118.57811110334296 0 118.57811110334296 1225.0279459344893 0 0 0 0 -156.31213979156792 333.01453629221942 0 333.01453629221942 1874.651040174067 0 0 0 0 378.28884699665906 158.88122069421661 0 158.88122069421661 1302.6412826949818 0 0 0 0 -341.45309931581204 -223.79360518983594 0 -223.79360518983594 1651.4111488301005 0 0 0 0 -209.81578534974443 162.83054888014885 0 162.83054888014885 2526.4585082225385 0 0 0 0 -244.07086397091382 -122.0810803731365 0 -122.0810803731365 1485.8770169823385 0 0 0 0 -270.30083869803946 54.708462602815416 0 54.708462602815416 1480.7644765811156 0 0 0 0 -294.04866119735959 -30.211206834464974 0 -30.211206834464974 1398.9395811710783 0 0 0 0 -268.6505733993925 -52.271116623021953 0 -52.271116623021953 1301.3871627400804 0 0 0 0 -297.81904994661193 -17.142396067509253 0 -17.142396067509253 1478.2024339744603 0 0 0 0 -279.72818230321798 47.399975105661724 0 47.399975105661724 1348.5269675717864 0 0 0 0 -206.97049584634146 -181.31543336789764 0 -181.31543336789764 1292.5885275487526 0 0 0 0 -160.9666458147648 -14.876937187488693 0 -14.876937187488693 928.94806676880398 0 0 0 0 -162.86669645310872 -13.234108953896794 0 -13.234108953896794 1225.3841631030991 0 0 0 0 -270.52369260629314 37.123958559735911 0 37.123958559735911 1267.0644945430831 0 0 0 0 31.529391526796644 13.081306813975971 0 13.081306813975971 584.66623268241528 0 0 0 0 -119.23685136543548 176.95899133138482 0 176.95899133138482 787.11089140445984 0 0 0 0 -46.096553487227425 122.59610107296248 0 122.59610107296248 508.63090396682674 0 0 0 0 46.03068712025015 209.22255548062822 0 209.22255548062822 288.55268376047025 0 0 0 0 174.14663028394511 31.491973535565194 0 31.491973535565194 159.64166339802614 0 0 0 0 177.33220136772275 63.278923948426382 0 63.278923948426382 441.88058067679231 0 0 0 0 51.254958431795103 -113.41192939520988 0 -113.41192939520988 778.23458567976195 0 0 0 0 30.728040101270196 71.018098250634296 0 71.018098250634296 470.86827092664316 0 0 0 0 53.988331906886003 -109.5271880195819 0 -109.5271880195819 411.81569116565515 0 0 0 0 -49.052445973112981 -424.65027717399062 0 -424.65027717399062 876.50711251481698 0 0 0 0 109.50105170848997 -216.40633244124547 0 -216.40633244124547 50.443614967836766 0 0 0 0 157.55960211797606 -83.62317023750802 0 -83.62317023750802 417.28076384027736 0 0 0 0 -264.2640284755596 177.55490609396475 0 177.55490609396475 4.1325377534085419 0 0 0 0 -97.919220471453173 -299.23173873682026 0 -299.23173873682026 1143.5079217356251 0 0 0 0 93.948091354524365 -506.33973861863342 0 -506.33973861863342 -2.3389746019456652 0 0 0 0 -21.941584967175231 -385.84967553079332 0 -385.84967553079332 1171.8114305788604 0 0 0 0 -270.53398822473321 39.644484275431751 0 39.644484275431751 2325.4772388001584 0 0 0 0 -191.05940923562952 -141.83840627799145 0 -141.83840627799145 1183.5874995762861 0 0 0 0 -204.45873964864518 -388.81815958605148 0 -388.81815958605148 1775.0124625354074 0 0 0 0 -248.85146231962244 189.66615768188058 0 189.66615768188058 1986.2969594257302 0 0 0 0 1784.1249745480452 169.25770629791077 0 169.25770629791077 1794.2444711527351 0 0 0 0 15.255061568054771 188.12359408095176 0 188.12359408095176 2577.5097295483283 0 0 0 0 0.77906261821635781 421.68158461626444 0 421.68158461626444 1454.4934667945199 0 0 0 0 -33.967894013959381 206.4170096013695 0 206.4170096013695 1133.7759230170268 0 0 0 0 275.29204459698735 397.653650698212 0 397.653650698212 988.65837791665399 0 0 0 0 110.93094054528001 6.8575085136490088 0 6.8575085136490088 237.77006820237148 0 0 0 0 376.27509241531197 427.25072426446786 0 427.25072426446786 548.04241533856839 0 0 0 0 235.88435030070093 -210.25394124651575 0 -210.25394124651575 368.78241786590661 0 0 0 0 4.4557635879232294 -111.42576654907316 0 -111.42576654907316 71.382398538498819 0 0 0 0 120.05294692810094 -18.822461165909772 0 -18.822461165909772 55.963869359751698 0 0 0 0 155.98357066179778 136.7080662939843 0 136.7080662939843 -3.1599818830945878 0 0 0 0 -40.868717923490522 -89.753406909905607 0 -89.753406909905607 93.903849800815806 0 0 0 0 32.971595693750373 164.62175253961686 0 164.62175253961686 769.64823284994054 0 0 0 0 88.019970713363875 371.72667968733003 0 371.72667968733003 345.83353733808326 0 0 0 0 0.29080425032058832 0.47717872069787148 0 0.47717872069787148 2.1526387201005832 0 0 0 0 112.05110843084026 185.41543028297019 0 185.41543028297019 487.7710770357844 0 0 0 0 62.942711069832967 235.47222405589127 0 235.47222405589127 531.050840048174 0 0 0 0 164.50590947640774 169.94259543133739 0 169.94259543133739 252.96117110006162 0 0 0 0 114.95490629018707 128.45625457708229 0 128.45625457708229 317.75233459001174 0 0 0 0 150.81026543608368 184.91504657269252 0 184.91504657269252 405.79217082462856 0 0 0 0 105.85970114445541 1.0695123094701557 0 1.0695123094701557 524.09531289269216 0 0 0 0 78.243142087842159 111.34744987409067 0 111.34744987409067 552.75969075856119 0 0 0 0 -111.47531382395749 24.63174316023651 0 24.63174316023651 935.96504566305521 0 0 0 0 -12.69183278909793 146.91539243402804 0 146.91539243402804 955.22806189657422 0 0 0 0 -63.739074311452612 193.48748427591454 0 193.48748427591454 1359.1207889480138 0 0 0 0 -179.13663449644247 -86.625059863792558 0 -86.625059863792558 1302.7499180029713 0 0 0 0 -183.39179095419354 -119.28021278700908 0 -119.28021278700908 1268.1364226674705 0 0 0 0 -244.20636806801065 -178.14604074995441 0 -178.14604074995441 1296.4615748846409 0 0 0 0 85.328687453759159 -90.74399017904409 0 -90.74399017904409 148.78212990547036 0 0 0 0 97.742869920185228 45.702911937267345 0 45.702911937267345 432.31673252640758 0 0 0 0 98.743969204371368 -367.31519608977032 0 -367.31519608977032 799.54415892955149 0 0 0 0 71.610066800715003 75.526323204867367 0 75.526323204867367 454.06345539112226 0 0 0 0 93.464466111769326 105.77602526972623 0 105.77602526972623 354.10080022143666 0 0 0 0 36.081664549394304 178.10545890267531 0 178.10545890267531 390.99415768505787 0 0 0 0 41.283003854301342 191.44135343473681 0 191.44135343473681 418.56277701688668 0 0 0 0 9.3110027331196221 90.486963078036752 0 90.486963078036752 397.67652541879215 0 0 0 0 -25.866678941081091 298.36710970419517 0 298.36710970419517 287.34709955846483 0 0 0 0 96.12431719161728 38.195580360912572 0 38.195580360912572 278.80926136483322 0 0 0 0 85.021854608020575 86.796339439049916 0 86.796339439049916 67.199110254980042 0 0 0 0 -339.9786028486206 85.754448013580259 0 85.754448013580259 311.62878252367955 0 0 0 0 -342.06446879562407 346.66082081574132 0 346.66082081574132 231.80342906706937 0 0 0 0 -283.02928686577877 -186.04230677878832 0 -186.04230677878832 42.870565948207513 0 0 0 0 -1.0282188418741565 0.80296604575868002 0 0.80296604575868002 -1.0567924882457476 0 0 0 0 -154.11498613285872 -3.3613760940879729 0 -3.3613760940879729 170.21959947838332 0 0 0 0 1.3453782855594767 -15.628912615860568 0 -15.628912615860568 57.756435695652613 0 0 0 0 111.99051885200313 250.05542600213084 0 250.05542600213084 18.056461112588295 0 0 0 0 -422.79901296756202 -34.446947446707782 0 -34.446947446707782 179.75091318657906 0 0 0 0 -767.44951714684385 96.587405743208365 0 96.587405743208365 903.42664490471361 0 0 0 0 -0.37877617400706742 -8.6438384149747378 0 -8.6438384149747378 50.824450325544944 0 0 0 0 15.309030148758666 403.33280966765597 0 403.33280966765597 229.67332616775457 0 0 0 0 -76.656742210790924 -956.59457640984692 0 -956.59457640984692 1090.4653445999174 0 0 0 0 -0.20188933609049187 -1.9572308069991422 0 -1.9572308069991422 21.409912575402416 0 0 0 0 865.7921829579592 1416.1958293000407 0 1416.1958293000407 1725.7993386178568 0 0 0 0 659.36892255419184 899.1203468989479 0 899.1203468989479 456.71201094311255 0 0 0 0 -33.110963449829057 102.0915216911817 0 102.0915216911817 362.53046950305361 0 0 0 0 -264.02467348859852 211.4485666760047 0 211.4485666760047 394.86167879139975 0 0 0 0 -458.12545993238763 -231.50244705672776 0 -231.50244705672776 123.78834196701064 0 0 0 0 -68.971792009362801 239.99117441476847 0 239.99117441476847 338.38958365732833 0 0 0 0 -174.13793566302121 280.7311526838821 0 280.7311526838821 672.94553447750513 0 0 0 0 -41.511101036471729 349.0648235697081 0 349.0648235697081 487.48735283018323 0 0 0 0 -27.446683697319827 283.9292749967135 0 283.9292749967135 626.29910360032227 0 0 0 0 13.741200740278316 377.57879189410596 0 377.57879189410596 750.73459175569587 0 0 0 0 36.807442082187606 180.27465863591351 0 180.27465863591351 544.72908132139855 0 0 0 0 463.32770906571909 657.43160446670663 0 657.43160446670663 852.5424218871226 0 0 0 0 41.334286059412875 304.27081484808878 0 304.27081484808878 841.69932532837379 0 0 0 0 68.252772838106395 210.03612804141085 0 210.03612804141085 460.58781101679779 0 0 0 0 1.3162048982806627 164.42194770104834 0 164.42194770104834 588.33395213862241 0 0 0 0 -25.037329514505643 200.57222567646386 0 200.57222567646386 546.25050071466831 0 0 0 0 16.290240967775418 -106.88944679837005 0 -106.88944679837005 414.57686883424867 0 0 0 0 -0.3682597307292837 122.39752331562761 0 122.39752331562761 989.21120062207046 0 0 0 0 -181.56471726419556 -5.9394808181641565 0 -5.9394808181641565 1164.4639202552644 0 0 0 0 -0.96002976189634137 -1.1847854404734903 0 -1.1847854404734903 9.5794341314879716 0 0 0 0 -387.65768384265874 -511.33321521478501 0 -511.33321521478501 -51.810122736147605 0 0 0 0 -3.0874634599563682 -4.3276534621719094 0 -4.3276534621719094 22.848499032858172 0 0 0 0 621.94008615537587 1199.6175641023801 0 1199.6175641023801 2126.1726621260386 0 0 0 0 517.98604071943009 730.96876350201364 0 730.96876350201364 936.02429034649685 0 0 0 0 118.05243783619065 753.5794518596158 0 753.5794518596158 832.20977943546313 0 0 0 0 282.51301732017311 774.37651677324175 0 774.37651677324175 754.46674012448784 0 0 0 0 -39.213202310977977 603.02081417100999 0 603.02081417100999 759.57068973025343 0 0 0 0 220.05221271477356 513.59332484716288 0 513.59332484716288 781.39451051735523 0 0 0 0 115.14934564757641 348.20070807821685 0 348.20070807821685 536.50178407741623 0 0 0 0 -1.2713154804227891 5.6263990921892031 0 5.6263990921892031 32.131268330710441 0 0 0 0 -1002.0237379116517 -112.91479975020047 0 -112.91479975020047 284.15538267549346 0 0 0 0 301.23922224207803 464.54309739350174 0 464.54309739350174 382.27995694658603 0 0 0 0 1280.2513937678368 1406.2885213568702 0 1406.2885213568702 1706.0429986460076 0 0 0 0 -467.96649032801906 -725.84526164529598 0 -725.84526164529598 1181.6614058964333 0 0 0 0 0.26888172570844993 2.1398359846146633 0 2.1398359846146633 14.097151663635088 0 0 0 0 358.88726829970113 1192.5339644296655 0 1192.5339644296655 1051.3285128741409 0 0 0 0 877.57411800994214 703.31019990058121 0 703.31019990058121 480.87791200187712 0 0 0 0 63.912734884747088 -88.707561887138581 0 -88.707561887138581 1463.5247753709118 0 0 0 0 485.57179681558227 511.05449474939633 0 511.05449474939633 1958.6934052994766 0 0 0 0 1765.8224389822408 -12.591448547871551 0 -12.591448547871551 1455.9716954807118 0 0 0 0 73.674194871504767 532.2339775882574 0 532.2339775882574 440.75642018386134 0 0 0 0 -178.20475290966846 741.35781651629077 0 741.35781651629077 805.49412466985086 0 0 0 0 -194.46442208739097 490.90217320525335 0 490.90217320525335 306.74477310851216 0 0 0 0 -1084.7403999263122 -176.31370438184967 0 -176.31370438184967 685.65305227802492 0 0 0 0 -2.6488257853047461 -6.4143884188867446 0 -6.4143884188867446 25.734779109269198 0 0 0 0 -160.70042444316113 143.79430926104033 0 143.79430926104033 451.37498177935777 0 0 0 0 228.27405674645163 449.64933836683304 0 449.64933836683304 555.82000953733223 0 0 0 0 -0.052475685813194506 -3.7328746250869216 0 -3.7328746250869216 11.708445415987057 0 0 0 0 354.74378913144807 874.80918257407393 0 874.80918257407393 1943.7584504651022 0 0 0 0 -498.58044017048286 -1554.2972775649614 0 -1554.2972775649614 447.48792166347494 0 0 0 0 506.19501723970666 -956.17165029590979 0 -956.17165029590979 2339.0666608612955 0 0 0 0 1018.6724006481287 -542.38491001990769 0 -542.38491001990769 1018.3096026327403 0 0 0 0 95.714278739641315 -276.27098060193055 0 -276.27098060193055 546.78431369554892 0 0 0 0 95.899642073182918 -188.6717519713784 0 -188.6717519713784 1653.8014761456143 0 0 0 0 0.66071801668724994 0.36456035257878128 0 0.36456035257878128 17.82224546449379 0 0 0 0 1044.2695083903295 -1455.1378016968592 0 -1455.1378016968592 1299.6169454324263 0 0 0 0 622.76235007489208 1123.5640252274861 0 1123.5640252274861 879.19992945100967 0 0 0 0 -101.09200287376848 -851.04241189773529 0 -851.04241189773529 1607.8122021518066 0 0 0 0 -26.462147239473779 -1087.3359832809583 0 -1087.3359832809583 2355.8007183560076 0 0 0 0 233.10896618252133 -565.3482363443909 0 -565.3482363443909 1778.7396220709779 0 0 0 0 295.97569962529258 -673.94564222781628 0 -673.94564222781628 1091.7473184599658 0 0 0 0 165.11442612096585 -201.61975916888878 0 -201.61975916888878 132.55289030470885 0 0 0 0 -339.93992809476413 183.64243114249985 0 183.64243114249985 343.35588938120054 0 0 0 0 -288.5151716151222 67.6080993847645 0 67.6080993847645 643.18719913254608 0 0 0 0 14.499417303370592 -167.64267605540226 0 -167.64267605540226 41.905483339833154 0 0 0 0 0.017324157321401801 3.9006905478599894 0 3.9006905478599894 42.575755403042876 0 0 0 0 74.366505942478398 222.22702683044918 0 222.22702683044918 507.82287715690472 0 0 0 0 185.8004112689469 -236.74257025715633 0 -236.74257025715633 960.77855005676793 0 0 0 0 40.154153130326108 52.556675334555621 0 52.556675334555621 -85.123846623871941 0 0 0 0 -251.97629703564371 -157.77337389417335 0 -157.77337389417335 30.837197948116227 0 0 0 0 0.27767068718135901 2.376849190872008 0 2.376849190872008 5.0259994939029866 0 0 0 0 -22.991188203321826 85.522806747772847 0 85.522806747772847 -77.683742847373651 0 0 0 0 -271.44126363753003 -78.346924641515216 0 -78.346924641515216 115.61742893254996 0 0 0 0 -23.370232912596293 -38.77720647026581 0 -38.77720647026581 41.03381231437379 0 0 0 0 -2.0006992004861632 0.7649069878072261 0 0.7649069878072261 55.961867448849773 0 0 0 0 256.10514964828292 -410.96315921978385 0 -410.96315921978385 362.03885005562915 0 0 0 0 293.16879970111142 -524.81319240698576 0 -524.81319240698576 368.3985256045562 0 0 0 0 699.49797775616037 -477.41623941800208 0 -477.41623941800208 54.597953728996799 0 0 0 0 2.5818012552748155 -1.9879701862159891 0 -1.9879701862159891 -0.71915516311571537 0 0 0 0 482.80393029260171 -863.62966257274093 0 -863.62966257274093 758.58187335157709 0 0 0 0 320.08362125339761 -25.874025520926807 0 -25.874025520926807 -151.81002556516614 0 0 0 0 428.03993969214577 -440.19326488044499 0 -440.19326488044499 201.56949729722692 0 0 0 0 -191.73945739808369 19.699523763501929 0 19.699523763501929 81.785412136523519 0 0 0 0 76.471770284398644 -10.755655274850142 0 -10.755655274850142 9.1325794397125719 0 0 0 0 122.83035163065136 -167.878559675617 0 -167.878559675617 183.90578284469666 0 0 0 0 218.03651792313667 -343.61874376367632 0 -343.61874376367632 291.04177462185908 0 0 0 0 185.54833902706096 -188.96884931666864 0 -188.96884931666864 46.769528422519215 0 0 0 0 92.713839654095636 -394.43927370687743 0 -394.43927370687743 315.65893653618696 0 0 0 0 59.021201853311823 -296.21777450437366 0 -296.21777450437366 363.6351866920304 0 0 0 0 102.88666242746609 -358.60910258715739 0 -358.60910258715739 374.05237294454128 0 0 0 0 60.821727458251644 -326.83399124219795 0 -326.83399124219795 565.42049734512693 0 0 0 0 67.884101350324613 -373.54670007292589 0 -373.54670007292589 401.26566671266846 0 0 0 0 109.64823311429734 -381.90994057859643 0 -381.90994057859643 418.10216865272378 0 0 0 0 115.55855702416392 -422.91333513529389 0 -422.91333513529389 683.38385748535802 0 0 0 0 -159.14815974466717 -171.13971494574071 0 -171.13971494574071 318.87178900759682 0 0 0 0 -22.476563999470756 -452.7732857833762 0 -452.7732857833762 669.13390327645175 0 0 0 0 -191.18061376109381 185.79666599376651 0 185.79666599376651 1250.8734010331464 0 0 0 0 -2.2673618751147266 1.9970220809726129 0 1.9970220809726129 -0.86192141932005484 0 0 0 0 -190.37179217367822 150.14831472101838 0 150.14831472101838 653.57047396415146 0 0 0 0 91.851477356600412 -113.32171308529723 0 -113.32171308529723 262.58911972595524 0 0 0 0 -22.703133935585129 229.22815934528626 0 229.22815934528626 689.33277327183896 0 0 0 0 149.43109496764055 379.77505644989287 0 379.77505644989287 640.74787014789763 0 0 0 0 1.5316829941894214 -5.0649697820481379 0 -5.0649697820481379 12.801797537266623 0 0 0 0 -0.1164285229588003 -24.672251584954211 0 -24.672251584954211 -23.025793897413678 0 0 0 0 -1.6820476208076451 1.4940124043637155 0 1.4940124043637155 2.6248926891205997 0 0 0 0 -0.021309246402973797 -3.2105529564869357 0 -3.2105529564869357 8.8516315635060892 0 0 0 0 -1.6911042085658892 0.19169459930333232 0 0.19169459930333232 8.3789717621492343 0 0 0 0 -6.2536549832603239 5.8505242549420302 0 5.8505242549420302 -1.3319207783639797 0 0 0 0 81.102812946645201 367.87288887007162 0 367.87288887007162 638.75070735560439 0 0 0 0 79.258463662583438 366.11885104425892 0 366.11885104425892 658.25116378741586 0 0 0 0 3.5052740817034191 -14.441931466339156 0 -14.441931466339156 3.0418009694694774 0 0 0 0 19.870422148079228 20.690422226271039 0 20.690422226271039 65.150760333664948 0 0 0 0 -11.722025922554872 -61.813496358900011 0 -61.813496358900011 -26.471895067894366 0 0 0 0 -33.385962897250693 19.305495376254839 0 19.305495376254839 38.848879905766807 0 0 0 0 -120.15313195339958 -65.853416923273471 0 -65.853416923273471 22.125899163715076 0 0 0 0 0.077228533784290412 -134.66118095754427 0 -134.66118095754427 61.481893390897312 0 0 0 0 2.0651636696943392 -4.7184154253434372 0 -4.7184154253434372 9.3535491394526957 0 0 0 0 -46.708673260080559 -12.841893315293419 0 -12.841893315293419 142.39841939620965 0 0 0 0 -71.373898835582622 -56.238620941148838 0 -56.238620941148838 71.124631070626492 0 0 0 0 0.97525176640665756 -1.9747834114198355 0 -1.9747834114198355 3.8988321223176854 0 0 0 0 440.17173186137302 -288.34242448975419 0 -288.34242448975419 45.570918476034421 0 0 0 0 -218.15992142096974 54.482156099147687 0 54.482156099147687 640.08076755742513 0 0 0 0 84.981660264589323 -293.88587208442186 0 -293.88587208442186 661.47692724333319 0 0 0 0 -0.2567258457969257 -207.32568324573731 0 -207.32568324573731 574.36924281305983 0 0 0 0 308.70801674243842 -300.94736725692201 0 -300.94736725692201 485.21450557498611 0 0 0 0 275.44282380628238 -33.640084446490164 0 -33.640084446490164 584.25274700506998 0 0 0 0 158.1618633592054 -173.05250114125374 0 -173.05250114125374 382.19624611747713 0 0 0 0 94.755674396626588 -157.78238517983118 0 -157.78238517983118 302.8062967647129 0 0 0 0 83.842686069212917 -256.94976361580484 0 -256.94976361580484 410.48661789640028 0 0 0 0 85.160672793816047 -125.3186717862045 0 -125.3186717862045 519.10330987703492 0 0 0 0 170.34067828886063 -177.78262372007885 0 -177.78262372007885 386.72712299137493 0 0 0 0 82.901355375974731 -109.39860170457541 0 -109.39860170457541 413.91026150415564 0 0 0 0 9.1351874586780824 -110.22681593994639 0 -110.22681593994639 351.16767622175394 0 0 0 0 112.68423285797378 -98.790096797029037 0 -98.790096797029037 243.33031280734576 0 0 0 0 14.068140874168122 -43.307188807510101 0 -43.307188807510101 264.03706088714534 0 0 0 0 -4.7935274368491747 -79.954510832183587 0 -79.954510832183587 195.33068036317854 0 0 0 0 123.4495248536569 -121.028556624864 0 -121.028556624864 181.52907535851409 0 0 0 0 264.11850342659716 -8.9040335573663469 0 -8.9040335573663469 149.8923617724904 0 0 0 0 0.35863997289684024 -32.63742346559593 0 -32.63742346559593 313.50836099540174 0 0 0 0 177.13058455943505 -60.747715018071176 0 -60.747715018071176 246.29835335396638 0 0 0 0 153.82711360026684 -148.28762498151627 0 -148.28762498151627 397.19385062373476 0 0 0 0 66.473557326615179 -25.076826637639897 0 -25.076826637639897 311.17902371600576 0 0 0 0 -0.16809875255129758 10.468975761188631 0 10.468975761188631 304.33764749130205 0 0 0 0 38.524372749305314 -76.567930229270132 0 -76.567930229270132 95.320085386818391 0 0 0 0 1.7055444874556283 1.6431040955801706 0 1.6431040955801706 1.8987597114119694 0 0 0 0 10.253794049101074 -25.16312307203043 0 -25.16312307203043 331.86996736508536 0 0 0 0 302.35230242629609 7.1697544434318843 0 7.1697544434318843 -3.0001707409828668 0 0 0 0 159.2710530202269 96.698914120734116 0 96.698914120734116 317.015298538754 0 0 0 0 10.234337892419333 -43.198003958837944 0 -43.198003958837944 326.04717962271388 0 0 0 0 5.3689309154372928 14.759784834503989 0 14.759784834503989 -123.84572616485821 0 0 0 0 -26.425720050759054 115.42313295364875 0 115.42313295364875 67.577376330227708 0 0 0 0 -30.925147957400483 100.33947602109401 0 100.33947602109401 95.899207541675423 0 0 0 0 171.04515350495333 226.93639725198591 0 226.93639725198591 101.43838504207451 0 0 0 0 10.217154234491034 65.719369418053248 0 65.719369418053248 29.133216557092965 0 0 0 0 109.75011728849825 118.38011515675316 0 118.38011515675316 53.436272140563233 0 0 0 0 91.459636838862195 28.586530289212533 0 28.586530289212533 5.5697067023429554 0 0 0 0 -39.968334417116296 87.955497111484874 0 87.955497111484874 90.525474842026597 0 0 0 0 11.501048818621939 69.729062651051208 0 69.729062651051208 41.307912553413189 0 0 0 0 -9.1668500335206318 61.65116157324519 0 61.65116157324519 38.164857243471488 0 0 0 0 -19.277576598449031 47.637917653097247 0 47.637917653097247 32.188711394701386 0 0 0 0 15.897877113524629 40.204781948763411 0 40.204781948763411 15.991611089026264 0 0 0 0 42.756413141764597 21.3175572247128 0 21.3175572247128 7.1866370263742283 0 0 0 0 67.998065875800421 55.372176104574464 0 55.372176104574464 19.763072392088361 0 0 0 0 45.426904876011577 17.730957499024953 0 17.730957499024953 9.1531465939478949 0 0 0 0 35.390312192897454 12.563053478254005 0 12.563053478254005 13.232032319856899 0 0 0 0 -0.73743361038968769 2.9779182286292993 0 2.9779182286292993 10.615129677844948 0 0 0 0 -6.6174179214144546 1.5331945415127848 0 1.5331945415127848 15.69796014300664 0 0 0 0 14.940087694340946 1.7290785796285491 0 1.7290785796285491 13.694760080790729 0 0 0 0 -0.0020883206110729746 1.3015109238112927 0 1.3015109238112927 3.8501473843061831 0 0 0 0 -1.4875483959287208 -0.5955369049607242 0 -0.5955369049607242 1.5162990073258129 0 0 0 0 38.271223327149585 0.57899577312218753 0 0.57899577312218753 8.9184445675346069 0 0 0 0 49.205823949965179 4.9212498380584293 0 4.9212498380584293 10.623194578620314 0 0 0 0 2.722757698353043 4.1834314763001572 0 4.1834314763001572 6.0469867438523579 0 0 0 0 0.64054372346445931 0.59401715908384034 0 0.59401715908384034 0.16978853466241617 0 0 0 0 0.0020217613672061188 1.3034489177589421 0 1.3034489177589421 3.8332381066866219 0 0 0 0 12.39575183898091 22.840347772318637 0 22.840347772318637 34.232334341082606 0 0 0 0 50.955963200866563 15.197194382468297 0 15.197194382468297 13.139213974949598 0 0 0 0 60.824070834184568 8.9646891645315918 0 8.9646891645315918 0.52966387906053569 0 0 0 0 -41.646066154337063 27.666196736730853 0 27.666196736730853 73.729468164819991 0 0 0 0 -7.5814988171047286 18.672755407242818 0 18.672755407242818 65.116192316425384 0 0 0 0 -8.5137747881535688 20.795994950516615 0 20.795994950516615 64.118904441525501 0 0 0 0 -6.4772642256948529 17.519878325765603 0 17.519878325765603 69.201434799600975 0 0 0 0 31.225627923360662 -3.7252113333161105 0 -3.7252113333161105 65.487748217513854 0 0 0 0 -15.743737855138534 -16.459388339084398 0 -16.459388339084398 98.571936391308554 0 0 0 0 69.778596198491869 -62.46711247596977 0 -62.46711247596977 123.06995908841782 0 0 0 0 -21.005467623957998 31.332639986720096 0 31.332639986720096 100.97027535433881 0 0 0 0 79.500747739088183 30.57729729807761 0 30.57729729807761 94.662686170922825 0 0 0 0 -14.490627478976421 3.6977639559481759 0 3.6977639559481759 89.260219183954177 0 0 0 0 -43.700628690264239 54.707431739225285 0 54.707431739225285 28.256001311849104 0 0 0 0 -8.5032249275962357 12.035589986839923 0 12.035589986839923 63.471669037616834 0 0 0 0 -10.223282586102286 8.4592164076784684 0 8.4592164076784684 15.073367719967905 0 0 0 0 -199.94599873840252 22.240808717149775 0 22.240808717149775 36.757703380141265 0 0 0 0 -121.75298849553405 75.502508947858587 0 75.502508947858587 33.033116670238087 0 0 0 0 -106.48990386674859 39.765056893258588 0 39.765056893258588 53.148255460349901 0 0 0 0 -105.42763270479372 55.019086963002337 0 55.019086963002337 66.318894886906492 0 0 0 0 -80.705758092955875 41.071287358732661 0 41.071287358732661 27.68306417047279 0 0 0 0 -78.591080952249285 49.382206305555883 0 49.382206305555883 52.416874783491949 0 0 0 0 -64.494280827538432 39.529987146743224 0 39.529987146743224 37.37777657515835 0 0 0 0 -90.131693230075598 63.342881028551346 0 63.342881028551346 85.957529747043736 0 0 0 0 -49.621176160803202 63.511994425520243 0 63.511994425520243 69.542873738217168 0 0 0 0 -89.78765595508537 62.563932110646419 0 62.563932110646419 125.83825876172341 0 0 0 0 -63.512019887416727 54.821605237390031 0 54.821605237390031 66.311382407180645 0 0 0 0 -34.88467368881993 8.7702417394903023 0 8.7702417394903023 75.137716132725473 0 0 0 0 -101.92180249461626 40.434591579658445 0 40.434591579658445 65.000800304461336 0 0 0 0 -102.53822975278513 35.157666632047039 0 35.157666632047039 83.535291431505357 0 0 0 0 -13.678993795964288 -30.871046509848384 0 -30.871046509848384 94.944958897729521 0 0 0 0 -119.50219204699317 -12.852463102233742 0 -12.852463102233742 92.326127493593958 0 0 0 0 -337.01841657483948 75.836966822163959 0 75.836966822163959 188.06243701666608 0 0 0 0 -93.565936079957623 107.78688876499291 0 107.78688876499291 180.48174562789791 0 0 0 0 -177.74383593552307 36.44199800179922 0 36.44199800179922 125.11769551713405 0 0 0 0 -140.6733335488982 -67.696189179074281 0 -67.696189179074281 101.54384895559633 0 0 0 0 -69.234120772666472 80.514591042396205 0 80.514591042396205 -86.169538418822412 0 0 0 0 -3.7358645461168671 0.50062531723452253 0 0.50062531723452253 -2.5341074116098383 0 0 0 0 -4.0495222766708423 29.449220494418114 0 29.449220494418114 72.402868754012161 0 0 0 0 -11.649506369283699 21.438026240412 0 21.438026240412 68.422289839378209 0 0 0 0 -8.6232055071957419 23.770216564078169 0 23.770216564078169 69.573786982559 0 0 0 0 -21.050238818146909 17.709290888054966 0 17.709290888054966 130.85435893661634 0 0 0 0 16.336266927705992 -46.517726795907947 0 -46.517726795907947 -77.086073144404509 0 0 0 0 -10.808280589384516 1.4317942132761061 0 1.4317942132761061 17.952290675917304 0 0 0 0 -24.246169864912417 -137.09779887609693 0 -137.09779887609693 166.86657123744953 0 0 0 0 -83.08543330968655 40.600411582330707 0 40.600411582330707 189.05301286303438 0 0 0 0 -51.042225639605931 119.25543213148194 0 119.25543213148194 381.272335672802 0 0 0 0 -74.769104328328396 39.832432096227421 0 39.832432096227421 123.9692794073344 0 0 0 0 -57.356953775879845 26.867145646639983 0 26.867145646639983 130.88138764428004 0 0 0 0 -100.3508993464178 83.326733880756365 0 83.326733880756365 167.9490162821603 0 0 0 0 -75.380571977762543 68.095620081607194 0 68.095620081607194 162.63137585081859 0 0 0 0 100.10769466391885 143.7347351057133 0 143.7347351057133 145.91015186885488 0 0 0 0 24.206418530742212 87.8858899622428 0 87.8858899622428 107.39468682387087 0 0 0 0 -41.035831441089158 8.8887138751160819 0 8.8887138751160819 89.519583906931075 0 0 0 0 -0.47994330467076907 39.700740564556327 0 39.700740564556327 40.785259005468106 0 0 0 0 -44.994482852585861 14.546607442985987 0 14.546607442985987 90.086531490203924 0 0 0 0 -19.975377741950069 125.66410489333794 0 125.66410489333794 213.74820966640254 0 0 0 0 -258.59697716578478 -54.491791452768666 0 -54.491791452768666 239.58775656623766 0 0 0 0 -227.72537887091224 139.89251127387251 0 139.89251127387251 140.11700377438683 0 0 0 0 -91.703174622554769 33.655384125377168 0 33.655384125377168 177.01116872787679 0 0 0 0 -125.70761093666383 60.651142025020818 0 60.651142025020818 199.36037422547815 0 0 0 0 -120.41690309009155 31.916898478055373 0 31.916898478055373 235.86217487309477 0 0 0 0 -41.532590337526727 -44.705244900338585 0 -44.705244900338585 260.44027626425304 0 0 0 0 30.600260315963446 -55.38828822792857 0 -55.38828822792857 192.19725368203945 0 0 0 0 -98.663139013409477 29.25440112267097 0 29.25440112267097 201.49979850719728 0 0 0 0 -76.900734218380734 39.392826556135333 0 39.392826556135333 188.2930561331159 0 0 0 0 30.952562517276775 -31.328530777165724 0 -31.328530777165724 108.16573859505297 0 0 0 0 -64.160862512218785 42.579967095643951 0 42.579967095643951 88.110212738043629 0 0 0 0 -29.105730631534243 -40.793383204327256 0 -40.793383204327256 195.30303434685811 0 0 0 0 48.561489238614278 -133.3103156496436 0 -133.3103156496436 303.3130330859567 0 0 0 0 64.639154455177902 -185.49643717383151 0 -185.49643717383151 183.26852511625475 0 0 0 0 -88.739507718244937 -24.5591012783716 0 -24.5591012783716 159.98124412186735 0 0 0 0 -79.61597473002621 -51.419700172917146 0 -51.419700172917146 96.782300553633831 0 0 0 0 -55.694359214824772 -16.006496679452539 0 -16.006496679452539 68.388046673149802 0 0 0 0 -26.375756628636736 46.827294054608501 0 46.827294054608501 141.70984153229801 0 0 0 0 -171.74716423203995 -8.2237738416297361 0 -8.2237738416297361 181.19482659644564 0 0 0 0 -46.176118366825904 57.791163260801113 0 57.791163260801113 161.62889377269585 0 0 0 0 -90.677858556665683 30.13687666680562 0 30.13687666680562 151.89085151268227 0 0 0 0 -1.1526437210952059 -5.2837402074181981 0 -5.2837402074181981 2.1345367772923396 0 0 0 0 -223.20419379143789 58.30405928107939 0 58.30405928107939 108.55481869266077 0 0 0 0 -124.31282188315663 -28.444012464657135 0 -28.444012464657135 139.90822654690419 0 0 0 0 -119.64043324873734 -20.688011916976393 0 -20.688011916976393 -38.296927825882449 0 0 0 0 -85.44650174919002 -98.300866592944658 0 -98.300866592944658 53.103078067564638 0 0 0 0 49.651388886674226 -92.31253871392255 0 -92.31253871392255 25.329587078762415 0 0 0 0 -2.4258417274615161 -10.647649970745917 0 -10.647649970745917 54.520959505222095 0 0 0 0 0.46519467964131378 1.7621112267233343 0 1.7621112267233343 4.245883493213114 0 0 0 0 179.02811476632451 -96.098308548775094 0 -96.098308548775094 12.11643053280568 0 0 0 0 -12.016388991842405 -16.930904632081365 0 -16.930904632081365 46.682753909073654 0 0 0 0 -0.036819359975803767 -7.2673740526711441 0 -7.2673740526711441 10.151988818936729 0 0 0 0 -69.655303362927981 -63.830807698202534 0 -63.830807698202534 70.507827407476725 0 0 0 0 -71.002114492038373 -33.979499933609077 0 -33.979499933609077 72.287288357620127 0 0 0 0 22.215590020809941 -83.059991639260261 0 -83.059991639260261 7.2540508064776077 0 0 0 0 -0.72795310232869959 -13.244520541156604 0 -13.244520541156604 54.238976877493599 0 0 0 0 -37.534048258738039 -20.665390486450633 0 -20.665390486450633 40.13098319171695 0 0 0 0 -32.112683763186396 -58.039161768567283 0 -58.039161768567283 83.427191614630829 0 0 0 0 24.14209170703225 -29.544740686116711 0 -29.544740686116711 45.887733934621792 0 0 0 0 -30.291905481743015 -37.590836772418697 0 -37.590836772418697 84.335881936043734 0 0 0 0 -158.96794184780822 44.216399649289087 0 44.216399649289087 45.606210748272133 0 0 0 0 -8.9246300078275453 -65.07959011838102 0 -65.07959011838102 20.58074102626415 0 0 0 0 67.498992785437622 -19.525311995435914 0 -19.525311995435914 360.36795176022861 0 0 0 0 94.568820227929791 -14.400246518474887 0 -14.400246518474887 26.798690463780076 0 0 0 0 1.1863705670761853 0.60116903837490554 0 0.60116903837490554 -0.21243637613656574 0 0 0 0 24.16415565228742 115.931268423662 0 115.931268423662 319.4490970284678 0 0 0 0 71.7827638822626 13.285432155837043 0 13.285432155837043 3.4286242364323698 0 0 0 0 -118.25061790908921 143.69068724964018 0 143.69068724964018 -80.346931991807651 0 0 0 0 0.70302017635162883 -7.7623832075551036 0 -7.7623832075551036 46.637082256158465 0 0 0 0 57.883729571534786 -87.78753700912057 0 -87.78753700912057 62.126311133924901 0 0 0 0 -51.239353097813023 184.59907062784623 0 184.59907062784623 -169.75140184579141 0 0 0 0 -2.2648966554534349 3.6515178818725076 0 3.6515178818725076 12.510100724700649 0 0 0 0 2.3500045685630653 -3.0073737175747652 0 -3.0073737175747652 6.3627298523502418 0 0 0 0 -123.56709299202339 115.8225278652717 0 115.8225278652717 25.095126472646371 0 0 0 0 -81.651047954380516 110.02909096701842 0 110.02909096701842 -109.72563994655502 0 0 0 0 -40.778122773056396 140.02175146907393 0 140.02175146907393 -80.794328549178317 0 0 0 0 -94.948417776394706 176.40168023121805 0 176.40168023121805 34.58909165422665 0 0 0 0 -104.63972267523718 188.41233129938337 0 188.41233129938337 99.692585494034574 0 0 0 0 -101.04436988824835 21.122548356361222 0 21.122548356361222 354.88011379390809 0 0 0 0 -46.255522980355096 55.413275487573628 0 55.413275487573628 145.26171225750295 0 0 0 0 -83.927700359542271 141.61357548608794 0 141.61357548608794 129.69424553807767 0 0 0 0 -4.6602747278211609 -19.139749749621842 0 -19.139749749621842 182.10801598091348 0 0 0 0 -152.52990919336054 151.08683334077796 0 151.08683334077796 55.298506914492464 0 0 0 0 -53.703739849655619 114.69059385142464 0 114.69059385142464 48.104261141743336 0 0 0 0 -127.13237092296059 179.34644705680694 0 179.34644705680694 66.674041228019632 0 0 0 0 -4.0800062563048982 82.837605593267654 0 82.837605593267654 27.795278687615792 0 0 0 0 -155.85684878645861 147.99706118539325 0 147.99706118539325 70.088209892841405 0 0 0 0 -176.42678689509569 131.79589717702765 0 131.79589717702765 59.547353241941892 0 0 0 0 -178.63880286162168 131.67338907397789 0 131.67338907397789 81.008862391787261 0 0 0 0 -49.531532561553718 -30.154876266373321 0 -30.154876266373321 35.782628069049679 0 0 0 0 49.815090325284473 329.30043207421568 0 329.30043207421568 196.92931755668542 0 0 0 0 -8.2277973599644341 22.476776997789415 0 22.476776997789415 70.330008670408063 0 0 0 0 102.30784151825316 -4.2234176776380536 0 -4.2234176776380536 34.888657722913194 0 0 0 0 208.12306362228173 -253.81768478635786 0 -253.81768478635786 37.374597783742502 0 0 0 0 0.2457115449081495 -6.3557748132583214 0 -6.3557748132583214 7.3629715652584764 0 0 0 0 -0.75477632796154737 -0.20106991209826219 0 -0.20106991209826219 10.205375613315738 0 0 0 0 89.367152517821523 -37.616976252524182 0 -37.616976252524182 14.788512537430506 0 0 0 0 -6.6295106267152732 14.909920102800243 0 14.909920102800243 36.618652216973715 0 0 0 0 -17.442717428769285 -15.695993420781249 0 -15.695993420781249 83.257206627470566 0 0 0 0 -22.360063246534992 6.6083622260484844 0 6.6083622260484844 32.464359318342758 0 0 0 0 -36.081549171498409 13.99340247490909 0 13.99340247490909 57.996812929719454 0 0 0 0 -46.715168828701053 5.057281090732431 0 5.057281090732431 50.861916925408877 0 0 0 0 -9.9480546358679707 16.014763059278607 0 16.014763059278607 68.347876914645155 0 0 0 0 -130.10966858359049 101.70075457777966 0 101.70075457777966 67.921564225820475 0 0 0 0 -96.970670101452583 -47.313230427498638 0 -47.313230427498638 159.54047980275936 0 0 0 0 5.0861959551053531 -29.496742162805901 0 -29.496742162805901 -2.7654545649740356 0 0 0 0 235.37287376240488 173.82371832874196 0 173.82371832874196 26.011333884445776 0 0 0 0 100.30787864012495 133.34335116259899 0 133.34335116259899 128.91662188216287 0 0 0 0 21.369542378120741 241.59886659586482 0 241.59886659586482 195.36448272252164 0 0 0 0 -41.947047838126991 91.332367564184096 0 91.332367564184096 211.35994868229318 0 0 0 0 -7.0624012678832493 6.5701202419277536 0 6.5701202419277536 7.4812949506779205 0 0 0 0 -50.916352579018508 509.27390539198677 0 509.27390539198677 382.35328737122154 0 0 0 0 136.98626633120443 203.65756807712023 0 203.65756807712023 140.61090075869652 0 0 0 0 -129.3095878065094 471.2884083122226 0 471.2884083122226 -61.22569463486434 0 0 0 0 123.16234032789862 209.62111336419912 0 209.62111336419912 -206.03307348685848 0 0 0 0 -150.80301577882096 11.811161367244495 0 11.811161367244495 -269.41557987790293 0 0 0 0 116.49013046665777 445.16025470462773 0 445.16025470462773 -863.26956408996921 0 0 0 0 1.0603023792089219 2.0626477194893198 0 2.0626477194893198 1.0070477702501108 0 0 0 0 -6.3983417811225536 113.34091855465886 0 113.34091855465886 386.98392571938166 0 0 0 0 -134.75429916156807 126.1171483104481 0 126.1171483104481 1026.7559686285313 0 0 0 0 61.206126862867507 123.26574970530055 0 123.26574970530055 251.66779973345183 0 0 0 0 0.40962184916270417 205.94621148348233 0 205.94621148348233 -497.6385665764974 0 0 0 0 -149.76491363658982 279.17463674653118 0 279.17463674653118 -109.41155664069811 0 0 0 0 0.45323215267777361 6.0620172581098331 0 6.0620172581098331 1.6200189457856169 0 0 0 0 -40.956845048384139 54.574970319952627 0 54.574970319952627 -43.774236460158136 0 0 0 0 -111.96653580852308 162.60869922369602 0 162.60869922369602 213.99434333619865 0 0 0 0 -17.35187353500362 127.92394657580735 0 127.92394657580735 234.12671748048888 0 0 0 0 64.094766033803694 -72.303652675684134 0 -72.303652675684134 265.75250619425788 0 0 0 0 30.147768916174478 92.391547871353396 0 92.391547871353396 347.46567428170965 0 0 0 0 -113.77728539605118 -43.661189732720231 0 -43.661189732720231 579.60436827925878 0 0 0 0 -3.871412486703707 1.1350793744522178 0 1.1350793744522178 1.3120784105305034 0 0 0 0 -56.804686602402469 238.68879819433641 0 238.68879819433641 30.353961809902103 0 0 0 0 -64.426602888946761 -26.929277392681797 0 -26.929277392681797 241.89677834845497 0 0 0 0 -74.418753031198506 16.84331847885187 0 16.84331847885187 156.76851285743032 0 0 0 0 32.99643193707692 157.82382134098202 0 157.82382134098202 300.01048357153195 0 0 0 0 63.55954884218562 -131.4402915298997 0 -131.4402915298997 450.3373320868377 0 0 0 0 -76.742715421562025 -32.319363522037747 0 -32.319363522037747 808.01980448562244 0 0 0 0 -1.4074542962488605 -0.15592121737182651 0 -0.15592121737182651 0.76021234860291287 0 0 0 0 -81.325017457720833 112.70918990922655 0 112.70918990922655 227.09891171733943 0 0 0 0 60.65323440936254 144.9591916092395 0 144.9591916092395 508.10051479656977 0 0 0 0 39.849217941463472 29.033470861875685 0 29.033470861875685 419.67356847734482 0 0 0 0 209.24848118629188 206.41066704456171 0 206.41066704456171 175.43772370826628 0 0 0 0 -169.83976870614492 -11.581272533461743 0 -11.581272533461743 436.14752396508993 0 0 0 0 -23.8613373464284 -21.054103911277707 0 -21.054103911277707 229.1316651267116 0 0 0 0 -92.609648839272268 -114.64260033238679 0 -114.64260033238679 315.97409933166637 0 0 0 0 -125.70497456971106 3.9497540412903618 0 3.9497540412903618 418.2798848610546 0 0 0 0 -89.267931575588932 177.01462189004269 0 177.01462189004269 589.20415886114642 0 0 0 0 -98.897970798109441 -65.038605203115367 0 -65.038605203115367 576.0316038763267 0 0 0 0 -171.94814267703055 -32.248527650786855 0 -32.248527650786855 391.47236252007133 0 0 0 0 -152.77228944393255 -74.331033472357376 0 -74.331033472357376 483.69428069269634 0 0 0 0 -239.83546289362585 36.886073086199758 0 36.886073086199758 437.54152177089418 0 0 0 0 -170.37152204045083 6.291089667713095 0 6.291089667713095 304.57935207750415 0 0 0 0 -160.57471157582017 310.64774663565913 0 310.64774663565913 275.53245766970213 0 0 0 0 10.527617290127182 29.936959808139363 0 29.936959808139363 262.83273559220106 0 0 0 0 222.68261563403081 -285.52085508299569 0 -285.52085508299569 102.37897905209684 0 0 0 0 -413.69309596555604 90.730866239620809 0 90.730866239620809 467.86307936820958 0 0 0 0 0.53754970752112752 -2.1133738789342118 0 -2.1133738789342118 4.9427298858272195 0 0 0 0 346.57518998729734 -60.128324402634462 0 -60.128324402634462 184.48878308746498 0 0 0 0 -212.88197788701387 -39.468742716648194 0 -39.468742716648194 545.10218084928056 0 0 0 0 -174.98746351416102 -123.80949705082639 0 -123.80949705082639 556.14201524783857 0 0 0 0 -153.11096199629856 -110.34531552493718 0 -110.34531552493718 663.72474749204412 0 0 0 0 -139.96145910154962 9.5335963492734663 0 9.5335963492734663 410.92148061370244 0 0 0 0 105.15789029928317 -348.63802628066333 0 -348.63802628066333 500.30904279026436 0 0 0 0 73.173916552163973 -95.985888850147603 0 -95.985888850147603 441.03759145456934 0 0 0 0 59.149820382003327 -228.222284685864 0 -228.222284685864 185.68920426313707 0 0 0 0 156.4854220696825 -193.95192781848164 0 -193.95192781848164 154.47273284208495 0 0 0 0 176.6201974677524 -205.37082354874292 0 -205.37082354874292 64.512837007481721 0 0 0 0 118.77272363912016 -71.89217680337606 0 -71.89217680337606 -16.856984801313956 0 0 0 0 163.02299559138334 -185.83628328777741 0 -185.83628328777741 223.52283491137496 0 0 0 0 59.16642280091088 70.532153589832888 0 70.532153589832888 358.83976291927684 0 0 0 0 63.80687659304499 54.701888478994078 0 54.701888478994078 100.66356360053396 0 0 0 0 1.9167442692306129 -1.1832543178009587 0 -1.1832543178009587 0.87981394301326077 0 0 0 0 -42.304254867782504 -88.653179391680169 0 -88.653179391680169 206.86346182129637 0 0 0 0 -275.7895784561444 -80.481867201901878 0 -80.481867201901878 147.57699738070369 0 0 0 0 -270.10947162351215 -30.239423801962403 0 -30.239423801962403 163.40613653030414 0 0 0 0 1.0071007641422207 -3.5640674161889336 0 -3.5640674161889336 8.1023156607811018 0 0 0 0 -24.396723800874781 -31.54462100407909 0 -31.54462100407909 64.348173116421094 0 0 0 0 -108.23784269821101 33.643543249061622 0 33.643543249061622 140.82860246175551 0 0 0 0 -159.32269668888506 -92.528909483658936 0 -92.528909483658936 -0.51388976545422338 0 0 0 0 -128.86865012122269 86.604649518518272 0 86.604649518518272 35.260782356737764 0 0 0 0 132.28890474325084 -73.173874981261179 0 -73.173874981261179 -145.22195626464963 0 0 0 0 203.96688968435797 -410.85629928491107 0 -410.85629928491107 -144.00944442094442 0 0 0 0 -102.83675253392016 -145.70806054799323 0 -145.70806054799323 27.496826735674404 0 0 0 0 -326.58754527167866 -275.28707777376985 0 -275.28707777376985 116.45055665826658 0 0 0 0 342.1174939453669 98.897261994430664 0 98.897261994430664 -96.250630124704912 0 0 0 0 -0.29703562233308645 -1.825435645777004 0 -1.825435645777004 2.8234988019673324 0 0 0 0 -571.53901669141146 -111.14436812976419 0 -111.14436812976419 187.05612337021739 0 0 0 0 -351.31842474520806 69.379889838824965 0 69.379889838824965 -40.363359440380009 0 0 0 0 -319.23836874575892 -53.869251750556941 0 -53.869251750556941 71.325247355882311 0 0 0 0 -127.86540734759228 -95.557736933631531 0 -95.557736933631531 60.070048881316325 0 0 0 0 -126.03484934055814 -46.168558573306655 0 -46.168558573306655 -53.930634758566157 0 0 0 0 -125.51069062432441 -52.901381966623376 0 -52.901381966623376 26.212112212408101 0 0 0 0 -0.93843162879875308 -88.948678500688402 0 -88.948678500688402 15.060719949797203 0 0 0 0 -134.28664931776009 -39.681994351860794 0 -39.681994351860794 83.161552419885993 0 0 0 0 61.486867761446319 -100.73865741981717 0 -100.73865741981717 89.861900298434193 0 0 0 0 -288.75357117018484 -66.138393008441199 0 -66.138393008441199 146.11942311700113 0 0 0 0 -167.58302626525904 -41.636986059234914 0 -41.636986059234914 251.98476928958553 0 0 0 0 -96.712555663843432 -123.15846351708024 0 -123.15846351708024 102.8394109903893 0 0 0 0 -109.95183704195668 -66.79578741210571 0 -66.79578741210571 243.5908321441384 0 0 0 0 -133.70562441724337 168.38059764189529 0 168.38059764189529 -100.46198421082227 0 0 0 0 1.9014103424378845 41.85354044817359 0 41.85354044817359 14.283067534848669 0 0 0 0 -161.81203351627755 34.161311702089733 0 34.161311702089733 167.69222151180293 0 0 0 0 -150.52070642508443 109.08029438732046 0 109.08029438732046 56.72431220607541 0 0 0 0 -20.103318607642905 12.198599709241535 0 12.198599709241535 96.221542080063955 0 0 0 0 -13.739646490508676 26.895322828953795 0 26.895322828953795 65.298560441457084 0 0 0 0 -10.983258208712698 2.0227162667028153 0 2.0227162667028153 25.418286407217344 0 0 0 0 -66.76986975240743 78.305372351205733 0 78.305372351205733 151.29786812770908 0 0 0 0 -4.3390483260651811 1.6566077002804036 0 1.6566077002804036 -0.35920198276451742 0 0 0 0 -342.9709296854848 235.82367490088666 0 235.82367490088666 30.72871752626088 0 0 0 0 -328.04091066701267 -522.55407068911882 0 -522.55407068911882 -224.10935415688436 0 0 0 0 -309.13131323050766 -129.71819893712382 0 -129.71819893712382 706.26290539566253 0 0 0 0 -3.644027574923606 0.55475841801070658 0 0.55475841801070658 0.79510960497209737 0 0 0 0 -665.44325725675799 -173.04617490844976 0 -173.04617490844976 767.19524550444112 0 0 0 0 -92.993435759908621 178.29210133954621 0 178.29210133954621 -73.095824029136566 0 0 0 0 -138.26861739437402 222.85261365110637 0 222.85261365110637 -87.324264247276005 0 0 0 0 347.55589263738352 -181.03955841379502 0 -181.03955841379502 -27.724386533664074 0 0 0 0 -4.7826848920940392 72.528588489934918 0 72.528588489934918 405.50828872136481 0 0 0 0 -6.1311765214677703 1.9031905764679919 0 1.9031905764679919 1.5175531010227274 0 0 0 0 218.28672649185592 123.23258025048563 0 123.23258025048563 288.99060734839441 0 0 0 0 155.91084253423833 -139.26774829623901 0 -139.26774829623901 110.23887992498203 0 0 0 0 56.588446998045129 -118.97777449173736 0 -118.97777449173736 156.78450916965085 0 0 0 0 77.636036369296164 -75.991480283712008 0 -75.991480283712008 120.2589840656583 0 0 0 0 -473.89797472312102 -277.32283776463737 0 -277.32283776463737 126.6636221120134 0 0 0 0 -410.7427095990638 174.76519289220596 0 174.76519289220596 90.037063354509883 0 0 0 0 53.399101960881126 -131.83738517416714 0 -131.83738517416714 112.62285210005939 0 0 0 0 -164.40600801497158 -152.68860733968904 0 -152.68860733968904 178.31086133172357 0 0 0 0 17.02738333262505 -47.168759310094174 0 -47.168759310094174 190.62450685480144 0 0 0 0 261.69132055804266 -163.26192142230138 0 -163.26192142230138 100.63069854599689 0 0 0 0 235.66551372611718 -34.52539040416741 0 -34.52539040416741 162.01245731327799 0 0 0 0 139.49165870232196 -163.585936197298 0 -163.585936197298 101.71596693924221 0 0 0 0 46.761826266567823 -127.81410601171228 0 -127.81410601171228 130.90865637749084 0 0 0 0 112.84418137290959 -195.54855677748128 0 -195.54855677748128 215.27631424681022 0 0 0 0 33.903239820119552 -19.921710671958863 0 -19.921710671958863 300.91026881310972 0 0 0 0 -79.738255911239321 -61.223456024134066 0 -61.223456024134066 213.20167323795613 0 0 0 0 -8.5028608067759706 -110.74252935207187 0 -110.74252935207187 203.39236558909215 0 0 0 0 -16.630967801677343 -129.85399008522654 0 -129.85399008522654 207.3796780659759 0 0 0 0 -75.723984760607891 -42.493654571277148 0 -42.493654571277148 144.78006802676828 0 0 0 0 -75.870575608760646 -60.458203287831566 0 -60.458203287831566 189.82427780677244 0 0 0 0 -74.217569767552845 -52.083259231865668 0 -52.083259231865668 175.96920148788195 0 0 0 0 -183.50921095352834 25.497252365736585 0 25.497252365736585 166.87395732545701 0 0 0 0 -126.70024489051411 -26.998185660784657 0 -26.998185660784657 215.07131363437657 0 0 0 0 -111.44223574838793 26.589301133029039 0 26.589301133029039 126.81109077231667 0 0 0 0 -55.87788641066436 32.154565675307822 0 32.154565675307822 119.24956985742028 0 0 0 0 -24.652612328829491 5.1258016020619834 0 5.1258016020619834 106.40566146701167 0 0 0 0 -54.648285901092095 33.393617957772221 0 33.393617957772221 80.451075484750618 0 0 0 0 -54.603804367075099 -3.6307683656996232 0 -3.6307683656996232 104.02516125822876 0 0 0 0 -12.906460456693821 -32.851452070557571 0 -32.851452070557571 124.50075953969645 0 0 0 0 -57.937609540876565 -18.784444659439032 0 -18.784444659439032 165.28337384175393 0 0 0 0 -47.679689319097463 -42.644405851105148 0 -42.644405851105148 124.52562842229963 0 0 0 0 -27.205097737679807 -44.727955686357745 0 -44.727955686357745 118.11407419471652 0 0 0 0 -45.159691374311365 -30.247557073957068 0 -30.247557073957068 135.64432022022083 0 0 0 0 -20.610683478357714 -23.660240712131781 0 -23.660240712131781 99.116783519217279 0 0 0 0 -11.329297670142296 -33.383858339257131 0 -33.383858339257131 36.743232322987751 0 0 0 0 -2.4387838143488807 -8.2842605992809695 0 -8.2842605992809695 105.17873559496365 0 0 0 0 11.387549794689221 -23.508634932535642 0 -23.508634932535642 41.032697786009521 0 0 0 0 -40.042942370324909 -74.141676925042702 0 -74.141676925042702 50.73044556943205 0 0 0 0 8.6164898002884911 -38.381546063748829 0 -38.381546063748829 22.804180715844268 0 0 0 0 -53.641211141410736 -59.665067252042718 0 -59.665067252042718 105.10130952394684 0 0 0 0 -41.045934685740121 -80.612856692903733 0 -80.612856692903733 112.95124097874213 0 0 0 0 54.787248507969423 -96.725549379141739 0 -96.725549379141739 54.750950702073169 0 0 0 0 24.372450518104415 -51.578127948021574 0 -51.578127948021574 48.178505834433054 0 0 0 0 150.66545861688235 -68.776049739565678 0 -68.776049739565678 -46.879801380477147 0 0 0 0 71.609956347891114 -54.499754702814244 0 -54.499754702814244 -6.9194873521046247 0 0 0 0 68.676286071317207 -31.723920696541882 0 -31.723920696541882 -22.991452113739797 0 0 0 0 45.453375631599556 -43.144826952993753 0 -43.144826952993753 -11.751973703299882 0 0 0 0 2.4325834412450149 -18.055888776001666 0 -18.055888776001666 3.526025842220406 0 0 0 0 45.577246987002582 -42.310728120755812 0 -42.310728120755812 -24.074342082651128 0 0 0 0 42.21090250062457 -30.928190562615782 0 -30.928190562615782 2.113906546299404 0 0 0 0 49.687018063275787 -33.704530182014423 0 -33.704530182014423 2.3360416767536663 0 0 0 0 6.3235927618388814 -35.722752039975603 0 -35.722752039975603 60.483876216312638 0 0 0 0 -22.993825238791032 -6.1145023372882861 0 -6.1145023372882861 28.376960659516953 0 0 0 0 -24.130732848316939 2.2460713037703499 0 2.2460713037703499 12.492783647263423 0 0 0 0 7.3837397913916902 -16.071508733839437 0 -16.071508733839437 30.10471751181467 0 0 0 0 -1.0279742464670711 -3.6823834592782134 0 -3.6823834592782134 5.3990130392131164 0 0 0 0 -62.787050612737858 -6.8784504190080042 0 -6.8784504190080042 8.1290030938544078 0 0 0 0 37.409509643244746 -18.081614192835332 0 -18.081614192835332 7.9832373942990671 0 0 0 0 -1.4540219112190229 0.041900946095594804 0 0.041900946095594804 0.39528056928787692 0 0 0 0 -180.73729195474971 -86.355886945260863 0 -86.355886945260863 -48.613919657334918 0 0 0 0 -126.09517472484501 -101.07470212786302 0 -101.07470212786302 9.7111308626626851 0 0 0 0 -129.19101932798594 -120.07058724787203 0 -120.07058724787203 -29.545017458905932 0 0 0 0 -215.69380507904498 -108.45775491082895 0 -108.45775491082895 15.489919265841309 0 0 0 0 -127.69491997953912 -102.00040143086335 0 -102.00040143086335 18.825479790946702 0 0 0 0 -124.78122787879295 -115.1615321330255 0 -115.1615321330255 -14.455230590247083 0 0 0 0 -14.200587807444208 -64.345038516010391 0 -64.345038516010391 -31.310650923391222 0 0 0 0 -106.66539597856877 -94.355217836464362 0 -94.355217836464362 -66.238043947407277 0 0 0 0 -108.15708841809044 -93.888172335686249 0 -93.888172335686249 13.022105858864961 0 0 0 0 -204.67165019222102 -143.69959435841884 0 -143.69959435841884 -47.941375168389641 0 0 0 0 -189.9845553593168 -91.898519615031546 0 -91.898519615031546 -9.4305904425564222 0 0 0 0 -217.92126539561104 -45.075344370605308 0 -45.075344370605308 -67.570803790353239 0 0 0 0 -189.10846432591234 -105.32669052988786 0 -105.32669052988786 5.4060798138962127 0 0 0 0 0.6598519450561271 -1.6626829682433808 0 -1.6626829682433808 3.0397442099869352 0 0 0 0 -58.700150903799624 60.551057528937235 0 60.551057528937235 -35.711973474768456 0 0 0 0 -271.1755640034246 -122.50941272330965 0 -122.50941272330965 3.2162791659357026 0 0 0 0 128.4608051205374 -52.463028565602144 0 -52.463028565602144 -54.771829406793586 0 0 0 0 -212.92296371603311 -118.69873474468113 0 -118.69873474468113 -102.35228163757711 0 0 0 0 -211.06466030132935 -36.244795208313008 0 -36.244795208313008 -165.70489360121428 0 0 0 0 146.9707442892672 -456.2640540274042 0 -456.2640540274042 702.83248692867346 0 0 0 0 2.7045672643400871 -6.1712353243923257 0 -6.1712353243923257 7.1736873592321047 0 0 0 0 -226.76946643993358 -73.299250884583671 0 -73.299250884583671 -8.7557196605484933 0 0 0 0 341.13954530048841 -767.41937568504363 0 -767.41937568504363 842.52819616961642 0 0 0 0 5.2252977264701874 -6.0282358813539076 0 -6.0282358813539076 6.9981435011879114 0 0 0 0 -6.4279858733491437 -56.014952995021304 0 -56.014952995021304 -44.262710764989606 0 0 0 0 -53.863662840084771 87.586475654519745 0 87.586475654519745 -121.83118398991064 0 0 0 0 -35.847007962358845 -52.400299237501258 0 -52.400299237501258 -9.6236376046726946 0 0 0 0 -38.405241397388181 -30.893147280759877 0 -30.893147280759877 -4.0822289677889785 0 0 0 0 -91.23082062683784 37.146483221771632 0 37.146483221771632 121.19655349173991 0 0 0 0 -53.214247122207652 103.86461171546671 0 103.86461171546671 77.017154708213639 0 0 0 0 -77.246117257632477 48.628661640759674 0 48.628661640759674 -31.495247295055378 0 0 0 0 4.4545974096308596 -3.8508335078564215 0 -3.8508335078564215 3.3586527588075228 0 0 0 0 -13.514824517822944 -4.8494795832775708 0 -4.8494795832775708 -4.5320372178794059 0 0 0 0 34.467626482211244 -13.883358874314581 0 -13.883358874314581 -21.115319519201876 0 0 0 0 -2.6874842456559236 -33.299303252650134 0 -33.299303252650134 7.8651990969956387 0 0 0 0 18.163749734008888 -19.577079908602173 0 -19.577079908602173 7.0155134947999613 0 0 0 0 25.367710705776517 -41.818461513230432 0 -41.818461513230432 50.73119384238089 0 0 0 0 16.088431329631703 -3.9957336036022753 0 -3.9957336036022753 68.708698030006417 0 0 0 0 28.25026756931959 -26.166118670465949 0 -26.166118670465949 40.481321660719914 0 0 0 0 -11.526178220515249 -35.494639308773912 0 -35.494639308773912 46.252611737749248 0 0 0 0 -12.649366604605575 -23.886697046338668 0 -23.886697046338668 4.4113397010660265 0 0 0 0 -0.47957880329249747 -31.476965906360419 0 -31.476965906360419 -9.0729468266654294 0 0 0 0 -32.905051634422762 -47.130566673462454 0 -47.130566673462454 10.054616805471596 0 0 0 0 -64.436033417129238 -43.817022131217527 0 -43.817022131217527 5.9872596070199506 0 0 0 0 4.3925736788502032 -4.7105307107909411 0 -4.7105307107909411 -0.97858229553554565 0 0 0 0 -41.592125908612161 -33.755196835227252 0 -33.755196835227252 -9.6899419722057303 0 0 0 0 -63.442208778179292 -8.4697960961420904 0 -8.4697960961420904 -28.86360763607081 0 0 0 0 -104.7126561565783 -8.9948152565048076 0 -8.9948152565048076 73.0072817590044 0 0 0 0 -114.19394966631398 -0.1740418081972166 0 -0.1740418081972166 66.868195979855955 0 0 0 0 -42.983291700186783 -51.553781011687533 0 -51.553781011687533 48.124729020346422 0 0 0 0 113.7527211320371 -33.768958398672112 0 -33.768958398672112 -7.1076405357016483 0 0 0 0 0.13661476338949563 -0.40648193978771197 0 -0.40648193978771197 -0.095328605817542211 0 0 0 0 13.499015719444287 -3.3990954683249583 0 -3.3990954683249583 7.9372824986203341 0 0 0 0 74.803120676258914 -7.3755700329638785 0 -7.3755700329638785 -17.258521001218469 0 0 0 0 10.222811873541104 -41.898735924056382 0 -41.898735924056382 53.937176252162317 0 0 0 0 86.728976249216203 -53.973113099462353 0 -53.973113099462353 37.396798808971653 0 0 0 0 64.450847034731851 -21.548699814433348 0 -21.548699814433348 13.913259075845417 0 0 0 0 -19.523147811331 -19.379416346157086 0 -19.379416346157086 39.987532802027999 0 0 0 0 13.260430244050216 -13.696833538974133 0 -13.696833538974133 12.799077953995436 0 0 0 0 -198.97899433975968 -67.332303470195257 0 -67.332303470195257 -13.999830014770851 0 0 0 0 24.085994385576242 -36.218241108378606 0 -36.218241108378606 -18.033892689942149 0 0 0 0 -183.33786524809602 -155.06519678110635 0 -155.06519678110635 -50.996428149306439 0 0 0 0 64.770092159241472 -416.26110135930503 0 -416.26110135930503 1048.778691301166 0 0 0 0 54.876533166603508 -260.50019379321384 0 -260.50019379321384 857.77601706514542 0 0 0 0 70.469950761399559 -232.08240392596781 0 -232.08240392596781 1291.9964336320627 0 0 0 0 -9.2204721471734956 -240.25304572604364 0 -240.25304572604364 1313.9587643683772 0 0 0 0 3.1377401914542133 -48.673941985252895 0 -48.673941985252895 59.902594749786658 0 0 0 0 -15.251575038723448 4.4753925144907214 0 4.4753925144907214 4.8245433479430275 0 0 0 0 44.827627028031202 -41.721741617846419 0 -41.721741617846419 53.894846380768286 0 0 0 0 -17.169925883292535 -246.11899494809768 0 -246.11899494809768 1325.6959952351754 0 0 0 0 -41.657873546280598 -352.47878853798284 0 -352.47878853798284 1160.9494937728741 0 0 0 0 55.607741388357454 -295.54589627011592 0 -295.54589627011592 1048.2315863159456 0 0 0 0 -13.234164043388594 2.3257294964703306 0 2.3257294964703306 2.9223992074093488 0 0 0 0 -52.182412707201706 -0.19994770893754321 0 -0.19994770893754321 154.63196947981487 0 0 0 0 40.460030972774803 -43.235614381133928 0 -43.235614381133928 61.361748712137341 0 0 0 0 53.842181143595326 -357.07843465948827 0 -357.07843465948827 684.96972983783053 0 0 0 0 -36.258944950414843 -378.1047783588001 0 -378.1047783588001 1023.097003759236 0 0 0 0 97.223929263478908 -241.5475191910773 0 -241.5475191910773 795.68833699845709 0 0 0 0 27.899773232849839 -245.17540567443211 0 -245.17540567443211 1052.6338257432435 0 0 0 0 -34.068861462575001 -61.647622020813287 0 -61.647622020813287 105.11538333470526 0 0 0 0 15.485466989776796 -53.263153041985788 0 -53.263153041985788 140.71356040162209 0 0 0 0 -7.9944733712651228 0.39564792742413601 0 0.39564792742413601 1.7221774960203788 0 0 0 0 42.8515937282952 -328.28021063511005 0 -328.28021063511005 886.21446143728826 0 0 0 0 36.277058295196241 -232.48662683482598 0 -232.48662683482598 888.77917139351484 0 0 0 0 48.03428410077646 16.661066671791559 0 16.661066671791559 531.10201919147221 0 0 0 0 22.916282239616066 -27.081677918911737 0 -27.081677918911737 800.08346013894334 0 0 0 0 140.97667440466012 -83.498870876690489 0 -83.498870876690489 638.66529646574236 0 0 0 0 168.50156980091742 -82.088800993362383 0 -82.088800993362383 239.62751662393566 0 0 0 0 47.843553027998183 -192.42265391260025 0 -192.42265391260025 614.47727311625204 0 0 0 0 46.005818225098437 -278.90267576521728 0 -278.90267576521728 792.35430302208988 0 0 0 0 71.212999383469992 -204.68286895754045 0 -204.68286895754045 664.26243449749018 0 0 0 0 71.3768680248495 -304.03894365422093 0 -304.03894365422093 508.43848709345912 0 0 0 0 -425.30988244323873 -85.409788809083693 0 -85.409788809083693 249.58797563244298 0 0 0 0 118.5698555687744 -57.841274982674349 0 -57.841274982674349 91.966919473401504 0 0 0 0 202.89227351411091 -663.96801363751729 0 -663.96801363751729 545.84383303875074 0 0 0 0 121.4504267645757 -97.343417576696083 0 -97.343417576696083 27.281870365288341 0 0 0 0 2.5828796673874352 -4.1080273226029504 0 -4.1080273226029504 7.3786819888299533 0 0 0 0 144.08233766663716 -51.910449318391329 0 -51.910449318391329 -45.952495130470197 0 0 0 0 193.92529124780799 44.785130551972543 0 44.785130551972543 -110.42515071883099 0 0 0 0 89.79578910226337 216.2658373999875 0 216.2658373999875 181.42003962791932 0 0 0 0 -32.106116781022592 113.59433889190041 0 113.59433889190041 951.56010207728832 0 0 0 0 12.038968613777115 149.43614440385136 0 149.43614440385136 642.6864367016824 0 0 0 0 7.0014926788120437 -11.140042162656982 0 -11.140042162656982 17.127492983850175 0 0 0 0 -8.362875578510284 -111.01718726906984 0 -111.01718726906984 -75.073972861498078 0 0 0 0 -56.302844477658596 -24.186857351404797 0 -24.186857351404797 32.378996403160272 0 0 0 0 -45.642425736914504 22.134542230345687 0 22.134542230345687 39.556777672463795 0 0 0 0 66.269857066063651 -24.935038581141271 0 -24.935038581141271 24.361827118455039 0 0 0 0 20.541402190304495 -43.278562845167471 0 -43.278562845167471 141.89018354505242 0 0 0 0 40.504933305932809 -23.066722148090776 0 -23.066722148090776 60.348389027822577 0 0 0 0 -25.420145840992745 -280.93609908872531 0 -280.93609908872531 853.44196759875194 0 0 0 0 -2.5599492364173955 0.43319712691896939 0 0.43319712691896939 0.92394627499466964 0 0 0 0 64.647516533313279 -162.00649016050465 0 -162.00649016050465 211.0988909826192 0 0 0 0 259.48702487238597 -272.00635988091381 0 -272.00635988091381 303.65690897901368 0 0 0 0 -33.257172906213782 -250.04782955186965 0 -250.04782955186965 973.2169723668776 0 0 0 0 36.85102287058271 -59.675047761607857 0 -59.675047761607857 1446.8189462197915 0 0 0 0 -22.720737995941363 -304.41156582111216 0 -304.41156582111216 1023.3185402484814 0 0 0 0 -63.820582361794294 -116.32670798255276 0 -116.32670798255276 1076.9208908380533 0 0 0 0 -54.223376194749108 -82.108860161184566 0 -82.108860161184566 766.30655922836741 0 0 0 0 110.27684164512266 -112.49872951887664 0 -112.49872951887664 947.97805142706784 0 0 0 0 -33.51186863934845 61.487389762412931 0 61.487389762412931 931.92288089427893 0 0 0 0 -5.3733744313258285 -218.731051785202 0 -218.731051785202 1196.2715520322963 0 0 0 0 202.67254740260432 -274.76123323466163 0 -274.76123323466163 1051.5150588342658 0 0 0 0 386.93973840266358 -477.00292115002958 0 -477.00292115002958 1182.092066542391 0 0 0 0 110.01363275480981 -370.74844428460347 0 -370.74844428460347 1183.731579815973 0 0 0 0 431.49449852618 -815.45923162497638 0 -815.45923162497638 984.12394938741636 0 0 0 0 717.28161337462961 -327.09062118620204 0 -327.09062118620204 1056.7754471601038 0 0 0 0 306.51763374192478 -502.97227071153611 0 -502.97227071153611 1157.95740685481 0 0 0 0 115.49021806037581 -372.25472694294876 0 -372.25472694294876 1238.2871163354794 0 0 0 0 58.230367453946997 -64.932307259266963 0 -64.932307259266963 738.97723998638685 0 0 0 0 260.1261379016828 -358.11709960296866 0 -358.11709960296866 1010.3076566765085 0 0 0 0 -77.552000884303425 -149.52611772757518 0 -149.52611772757518 1051.6548000028706 0 0 0 0 35.769315652156365 -274.51009324398183 0 -274.51009324398183 1079.0108062270447 0 0 0 0 393.82399029165254 -496.7715399985027 0 -496.7715399985027 1085.3161759178547 0 0 0 0 151.71611735893703 -416.27300901644048 0 -416.27300901644048 1125.6407026092202 0 0 0 0 677.17494586890393 -538.29368328553392 0 -538.29368328553392 1117.6961330944596 0 0 0 0 250.35348881687491 -418.62532775202999 0 -418.62532775202999 1141.5695754985209 0 0 0 0 135.14630073901867 -368.83837990113534 0 -368.83837990113534 1165.9324283909518 0 0 0 0 344.46717676944945 -292.17748885438778 0 -292.17748885438778 1019.6450359982846 0 0 0 0 83.776965902653501 -236.54137036408065 0 -236.54137036408065 1095.1864891323494 0 0 0 0 -49.577418581425718 -264.3351895039159 0 -264.3351895039159 985.83420474178274 0 0 0 0 -8.8430838203585154 -325.17643820038938 0 -325.17643820038938 1018.9338610800596 0 0 0 0 -26.242230501349241 -160.60312456788961 0 -160.60312456788961 1015.2160200671503 0 0 0 0 -19.632341654689185 -209.98133088339819 0 -209.98133088339819 831.64849641532055 0 0 0 0 97.519082003052517 -229.19048593925618 0 -229.19048593925618 899.18636934200185 0 0 0 0 -29.606595374574454 -256.85149037545489 0 -256.85149037545489 808.83395262437261 0 0 0 0 -58.771627921851177 -249.39698519820377 0 -249.39698519820377 827.4749183988024 0 0 0 0 -34.674393953879417 -292.16161251906306 0 -292.16161251906306 894.65815035733249 0 0 0 0 -76.310103277990947 -159.53972888931457 0 -159.53972888931457 872.21303562064531 0 0 0 0 -58.297382105540578 -174.28985695268057 0 -174.28985695268057 757.83610296322149 0 0 0 0 -44.047436044056099 -198.85074752241417 0 -198.85074752241417 761.79775726544904 0 0 0 0 -59.641196868292354 -173.51569522637874 0 -173.51569522637874 618.31639385479502 0 0 0 0 -81.548132400717805 -108.71414216869744 0 -108.71414216869744 731.01837004269328 0 0 0 0 -38.022976641675314 -147.05186547552876 0 -147.05186547552876 672.85957253340166 0 0 0 0 -49.991534093801874 -66.104542534507345 0 -66.104542534507345 644.1221224363544 0 0 0 0 -37.205591226235811 -114.52320389541273 0 -114.52320389541273 513.44452398885915 0 0 0 0 -47.812405838776385 -67.069616793736714 0 -67.069616793736714 526.86930789833423 0 0 0 0 -21.867542426066393 -192.64999734016601 0 -192.64999734016601 307.03921781410463 0 0 0 0 -42.655891446341286 -83.452079643873731 0 -83.452079643873731 589.79573781901854 0 0 0 0 -102.5713392860805 -178.59612106197164 0 -178.59612106197164 571.23410024188343 0 0 0 0 -43.644723152177448 -116.48366499270196 0 -116.48366499270196 932.36196593757995 0 0 0 0 22.996698897422675 -100.33582981298969 0 -100.33582981298969 709.28907529090066 0 0 0 0 -75.977457458659956 -124.63550104298338 0 -124.63550104298338 844.05394629065268 0 0 0 0 -48.257408386940142 -75.491491491207853 0 -75.491491491207853 722.07101973571116 0 0 0 0 -3.0250583535680562 -89.222546744611464 0 -89.222546744611464 546.04141041685943 0 0 0 0 -27.230450495224432 -29.756325367387035 0 -29.756325367387035 547.35034791375529 0 0 0 0 -13.472939831528947 -60.308888511368423 0 -60.308888511368423 759.57288238662295 0 0 0 0 23.716730021407329 21.950698663538788 0 21.950698663538788 541.00746799229819 0 0 0 0 80.690168717141432 102.91982251723675 0 102.91982251723675 212.49614145926898 0 0 0 0 20.262063605804769 16.41921240236843 0 16.41921240236843 536.06419409277441 0 0 0 0 38.444491218360326 11.855579971685074 0 11.855579971685074 202.77347187050236 0 0 0 0 58.206858904878345 86.644981760677183 0 86.644981760677183 193.58306112557511 0 0 0 0 42.488126315638056 -51.612260044261348 0 -51.612260044261348 216.79717971227365 0 0 0 0 30.798088584660945 31.690579508474912 0 31.690579508474912 330.26379787022597 0 0 0 0 2.143460292360718 1.9962636157604763 0 1.9962636157604763 -1.5906874442920298 0 0 0 0 6.9030262462797509 27.970258643108536 0 27.970258643108536 226.5766306232108 0 0 0 0 -88.808658724903466 -3.9446859082381707 0 -3.9446859082381707 226.1009285492546 0 0 0 0 -36.748612381338262 -23.584947684823419 0 -23.584947684823419 358.75816222408321 0 0 0 0 -9.7351978921374211 2.6719749662443064 0 2.6719749662443064 380.80497921508504 0 0 0 0 10.49525416375127 -2.6419647045186139 0 -2.6419647045186139 28.21439711565472 0 0 0 0 50.264309270323224 -43.759110103266721 0 -43.759110103266721 -10.886481521069072 0 0 0 0 6.9295708059360761 0.39146183871172013 0 0.39146183871172013 6.3376366678636487 0 0 0 0 36.87534541249795 48.991194917660323 0 48.991194917660323 -43.666933383179639 0 0 0 0 -3.309175778613735 6.5279491471155779 0 6.5279491471155779 29.313367538896273 0 0 0 0 52.415230608949287 38.479574507262441 0 38.479574507262441 3.0305070217546017 0 0 0 0 -0.46121463243875382 20.454945750021579 0 20.454945750021579 91.513797400286421 0 0 0 0 -9.9265056904825997 -23.935752591176424 0 -23.935752591176424 71.5764305483317 0 0 0 0 -3.6628019141860477 -2.8875700151038473 0 -2.8875700151038473 51.720912530421629 0 0 0 0 0.17909688021654802 -0.080915384060062934 0 -0.080915384060062934 28.966201582043141 0 0 0 0 -5.9778143430157797 3.8720334384706803 0 3.8720334384706803 33.863687952922191 0 0 0 0 -0.74931313958632018 7.0220381996041397 0 7.0220381996041397 23.921168828266673 0 0 0 0 21.436756733256288 45.080960778785993 0 45.080960778785993 32.613709174955147 0 0 0 0 1.9048967024918309 7.4190211717962882 0 7.4190211717962882 17.72596473701563 0 0 0 0 -2.9535223944056619 -7.3471499306647274 0 -7.3471499306647274 19.210735811010949 0 0 0 0 -53.275856483380267 15.795174121914897 0 15.795174121914897 51.252351198283577 0 0 0 0 18.690764402357559 -9.553067322820425 0 -9.553067322820425 -8.2658565855526831 0 0 0 0 -5.2487213578929186 -1.1392624750296818 0 -1.1392624750296818 26.494408419675892 0 0 0 0 -84.801207899820838 16.116768171501462 0 16.116768171501462 51.256132611175417 0 0 0 0 95.026790099593313 -143.59692606642011 0 -143.59692606642011 439.99575597664807 0 0 0 0 25.25746667578683 -53.832022201058294 0 -53.832022201058294 461.64750787256344 0 0 0 0 -0.061681151296692605 15.134406165584494 0 15.134406165584494 27.440535421976591 0 0 0 0 50.450457904963969 -149.09577342940611 0 -149.09577342940611 92.122017015222809 0 0 0 0 -0.42647474183207912 1.9570970538655104 0 1.9570970538655104 9.7544456624054021 0 0 0 0 29.031493149521211 -134.05314806766341 0 -134.05314806766341 530.43580056275823 0 0 0 0 53.92652452590346 -140.09195246348099 0 -140.09195246348099 522.51382357468538 0 0 0 0 7.1690669480440192 -140.05782163371623 0 -140.05782163371623 652.41050760557118 0 0 0 0 33.786498822814792 -313.67445998558833 0 -313.67445998558833 760.36757269556256 0 0 0 0 11.184561566144794 -228.49396299706132 0 -228.49396299706132 715.85417253120977 0 0 0 0 3.3591316110882872 -167.58165899642336 0 -167.58165899642336 641.2413587177216 0 0 0 0 12.716005612809909 -227.79722765214683 0 -227.79722765214683 683.49508428256377 0 0 0 0 87.84441627168917 -228.95372110613971 0 -228.95372110613971 616.4363302935526 0 0 0 0 141.47523083575265 -317.3727982918499 0 -317.3727982918499 601.30581331369103 0 0 0 0 128.03518682171023 -286.6060722045695 0 -286.6060722045695 846.23991692667187 0 0 0 0 -401.36346209444179 128.24508859720299 0 128.24508859720299 50.609738496255886 0 0 0 0 -1.1271564684389617 12.161773342488559 0 12.161773342488559 21.727398930467899 0 0 0 0 -108.48398871011256 -21.069987485874663 0 -21.069987485874663 112.51005537100718 0 0 0 0 -105.84534977467695 -17.583064093167195 0 -17.583064093167195 54.236032985849306 0 0 0 0 -376.41508660003109 -233.11933456442785 0 -233.11933456442785 474.28547940115095 0 0 0 0 -130.91944245452288 -218.80346754605853 0 -218.80346754605853 311.08741344625781 0 0 0 0 652.40388547095779 337.92567634009174 0 337.92567634009174 311.55803234380272 0 0 0 0 -140.82540903566294 -164.55932686360939 0 -164.55932686360939 103.01447132653266 0 0 0 0 0.71722604740394558 -230.00286984750346 0 -230.00286984750346 87.326566493036808 0 0 0 0 -84.336176661235072 -144.8401973693035 0 -144.8401973693035 12.112046122063475 0 0 0 0 -60.03022511863773 -172.16161011850636 0 -172.16161011850636 -14.368690298753791 0 0 0 0 -112.2707908230569 -199.04467964431024 0 -199.04467964431024 75.540165164435166 0 0 0 0 -152.43963881569039 -143.18948897398514 0 -143.18948897398514 9.8429999363142997 0 0 0 0 -102.11728074762271 -176.29566317991703 0 -176.29566317991703 -141.40563732531882 0 0 0 0 -128.42172606894042 -156.78090577403054 0 -156.78090577403054 1.371931834728457 0 0 0 0 -151.75950378028722 -155.1276485354465 0 -155.1276485354465 -72.339909346064815 0 0 0 0 -114.40999725841304 -108.8646230223294 0 -108.8646230223294 -82.330621488043107 0 0 0 0 -101.47067107632802 -155.84945049740054 0 -155.84945049740054 -73.1086903133546 0 0 0 0 -0.25996594860641675 -144.50797393409812 0 -144.50797393409812 -107.4238865343068 0 0 0 0 -54.98184605629325 -150.24007860287384 0 -150.24007860287384 -111.73109225407097 0 0 0 0 -61.788371101956045 -70.570378532465838 0 -70.570378532465838 -8.730232537840493 0 0 0 0 -29.480400213261873 -24.080145937099587 0 -24.080145937099587 54.602353197835328 0 0 0 0 -126.61594120476707 -79.147638932990958 0 -79.147638932990958 95.933113780974963 0 0 0 0 -156.10025075322426 -125.69628528440808 0 -125.69628528440808 24.473307043255772 0 0 0 0 -80.970038452509471 -90.754567014093482 0 -90.754567014093482 -14.974782086923369 0 0 0 0 -84.538584011588682 -84.781796933340956 0 -84.781796933340956 -17.703713840979617 0 0 0 0 -100.19329126834475 -121.95762695796293 0 -121.95762695796293 -104.76989438652527 0 0 0 0 -4.4920135393648764 -8.4986235665041647 0 -8.4986235665041647 12.203601052526892 0 0 0 0 32.795928384055856 46.674155303175212 0 46.674155303175212 59.152854934116476 0 0 0 0 -18.34393745092234 -22.347200990887359 0 -22.347200990887359 89.06970683169493 0 0 0 0 -9.0845478500907575 -27.931187826994574 0 -27.931187826994574 34.204189365322236 0 0 0 0 -4.1117180983359276 -26.058259153251129 0 -26.058259153251129 2.8551211940066423 0 0 0 0 0.79988262778124408 -7.937322264406248 0 -7.937322264406248 11.249168997746892 0 0 0 0 -0.55649382893218013 -0.43783420554612462 0 -0.43783420554612462 1.1855342513265441 0 0 0 0 -3.7071715449749263 2.0297609279077733 0 2.0297609279077733 20.586234853166388 0 0 0 0 -3.4420023435196185 -1.212885091023054 0 -1.212885091023054 23.924127020989545 0 0 0 0 -9.0561172370717884 10.665152490088076 0 10.665152490088076 19.101075107246288 0 0 0 0 -2.5931002453565242 1.9702768467468559 0 1.9702768467468559 -4.8757794396369718 0 0 0 0 -0.16556438255765715 -1.1261724898348007 0 -1.1261724898348007 1.7587722844572511 0 0 0 0 5.8447578432405862 31.165570462791948 0 31.165570462791948 47.899122853268636 0 0 0 0 -14.40972306537742 18.350562612416979 0 18.350562612416979 55.181893805245636 0 0 0 0 -7.3346062728628283 4.1111993573949803 0 4.1111993573949803 18.234998505926342 0 0 0 0 -6.9329151750953315 7.6199121015015407 0 7.6199121015015407 41.126066185534 0 0 0 0 21.522909093672297 20.851987671892857 0 20.851987671892857 28.673984980472596 0 0 0 0 7.7977390625441103 13.342977495631203 0 13.342977495631203 21.121539161424153 0 0 0 0 -0.91566860871239442 7.3642722901604429 0 7.3642722901604429 17.972498021787032 0 0 0 0 -5.8849521536319713 13.587419595354731 0 13.587419595354731 30.055199725349667 0 0 0 0 -11.080298504607981 9.4934266420459608 0 9.4934266420459608 34.134568084395141 0 0 0 0 -9.4213026296166902 10.491545607257649 0 10.491545607257649 31.998705388075905 0 0 0 0 -8.8485457624400681 7.8607044916861923 0 7.8607044916861923 21.886555700708413 0 0 0 0 -67.216670762726523 -139.35506949898263 0 -139.35506949898263 -159.45505622564451 0 0 0 0 -50.223006719042445 -95.776669678074541 0 -95.776669678074541 -148.68301804378279 0 0 0 0 -65.833833286865826 -156.06168436091684 0 -156.06168436091684 -172.59024012925511 0 0 0 0 -31.500331647638745 -88.216386903455714 0 -88.216386903455714 -209.22672741665156 0 0 0 0 6.5693482247902466 3.8420184831920778 0 3.8420184831920778 26.136831392301247 0 0 0 0 -5.7348791302217883 -6.2671526756575133 0 -6.2671526756575133 12.43046989195949 0 0 0 0 -299.49912954282428 -110.94023845954871 0 -110.94023845954871 47.352219235152006 0 0 0 0 -0.010847470030627304 -3.6497753727878077 0 -3.6497753727878077 -1.9046634858178777 0 0 0 0 -118.09365289334005 -72.646907822592766 0 -72.646907822592766 -206.09462328767404 0 0 0 0 8.1125807833436738 14.682838173597702 0 14.682838173597702 26.227103492063634 0 0 0 0 1.5445957877093592 0.069496335539753318 0 0.069496335539753318 5.1108440289856958 0 0 0 0 -2.6597024180998479 1.5939366682003779 0 1.5939366682003779 14.817524632549009 0 0 0 0 7.6629145612544107 10.573806156557112 0 10.573806156557112 19.659518777087214 0 0 0 0 5.8555913879895343 8.3686424192565028 0 8.3686424192565028 22.653092712062062 0 0 0 0 2.5641809873998227 9.9005252530914731 0 9.9005252530914731 26.181306013895664 0 0 0 0 19.103544334142612 9.7484490602237202 0 9.7484490602237202 22.76998916870798 0 0 0 0 -89.558041844421851 -88.798943239635264 0 -88.798943239635264 -66.191246727343241 0 0 0 0 -0.046154194540430619 -72.794070347332308 0 -72.794070347332308 -95.792180950462352 0 0 0 0 -62.984349882050431 -35.930178465387144 0 -35.930178465387144 -10.813554170221323 0 0 0 0 -2.4496815119577753 7.0399501420324668 0 7.0399501420324668 28.649296369461808 0 0 0 0 12.514321748983093 6.3433535370968457 0 6.3433535370968457 14.546805340898572 0 0 0 0 -1.130779693693057 1.6715851399402339 0 1.6715851399402339 13.609911587158138 0 0 0 0 -14.612025533140866 -24.223484757363622 0 -24.223484757363622 -18.216854606260313 0 0 0 0 0.90683415247350019 2.1147373998862236 0 2.1147373998862236 3.8489519555990626 0 0 0 0 15.118829028842811 9.8119716924484237 0 9.8119716924484237 18.639749735390069 0 0 0 0 15.112058862534468 12.41104178479145 0 12.41104178479145 14.336623795854393 0 0 0 0 20.538997644028697 14.272089245478128 0 14.272089245478128 14.161654151190305 0 0 0 0 29.232501351269548 17.062749671807978 0 17.062749671807978 11.918773861616501 0 0 0 0 26.699262149217475 14.994820835636347 0 14.994820835636347 10.23078674669523 0 0 0 0 28.226564916858422 10.733849056767212 0 10.733849056767212 10.460556540754624 0 0 0 0 20.716678249178983 6.9482373309894001 0 6.9482373309894001 9.1077240270387847 0 0 0 0 -0.048408174805987803 2.5342585999860603 0 2.5342585999860603 14.088692382792942 0 0 0 0 0.32910877229771901 1.0219009910124441 0 1.0219009910124441 6.1050253025896382 0 0 0 0 -17.100443407637762 28.048537410309081 0 28.048537410309081 49.970623685338069 0 0 0 0 -17.096618474091997 29.270688085234724 0 29.270688085234724 35.946894704902661 0 0 0 0 -14.007824803669109 17.410445098183118 0 17.410445098183118 39.07467870725668 0 0 0 0 -6.5960258256235207 17.148489229599363 0 17.148489229599363 27.819432601965673 0 0 0 0 -9.5990642226150271 21.577954511787539 0 21.577954511787539 39.118796367722098 0 0 0 0 1.37866822199436 22.449214548287273 0 22.449214548287273 29.008210953237722 0 0 0 0 2.5603295756084208 15.950715260354627 0 15.950715260354627 19.934539374313317 0 0 0 0 16.977218920041423 22.168899162199523 0 22.168899162199523 20.156918867738568 0 0 0 0 2.1342398425815361 26.543906189748668 0 26.543906189748668 24.979886247398099 0 0 0 0 7.3071018312924707 28.836143711720069 0 28.836143711720069 16.97687813983066 0 0 0 0 30.86320103078674 33.016916578279051 0 33.016916578279051 17.713570990337757 0 0 0 0 -7.5667475937154336 42.124931356178422 0 42.124931356178422 28.982505669177044 0 0 0 0 17.979854227630028 49.089654461933605 0 49.089654461933605 23.709341078152647 0 0 0 0 -2.7893139217096916 35.645005716214655 0 35.645005716214655 32.541545432759449 0 0 0 0 -19.222955356645343 56.093924891625647 0 56.093924891625647 36.719680350346607 0 0 0 0 -37.558930663462547 42.581116232642671 0 42.581116232642671 49.645723024732433 0 0 0 0 -46.401593626047543 59.672432859209948 0 59.672432859209948 34.397654567903373 0 0 0 0 -132.18265469981452 69.680128930718638 0 69.680128930718638 56.511905281455256 0 0 0 0 -90.086976471385015 32.276998938366887 0 32.276998938366887 75.436954245058587 0 0 0 0 -39.63960398985796 13.201844137875014 0 13.201844137875014 74.15589850131073 0 0 0 0 -33.0451942741322 38.072506993907155 0 38.072506993907155 47.338681112865743 0 0 0 0 -21.419077887911044 9.3895092032471439 0 9.3895092032471439 58.645066118573595 0 0 0 0 -44.097627889215914 19.460326085212728 0 19.460326085212728 65.463908785750391 0 0 0 0 -22.969485498958306 13.12449566370924 0 13.12449566370924 52.553598649741616 0 0 0 0 -18.12946668059476 19.861007648592931 0 19.861007648592931 42.940376470636693 0 0 0 0 7.6912928848023512 -10.611726006602112 0 -10.611726006602112 57.53047524979047 0 0 0 0 -25.520183714815062 1.8436670021947066 0 1.8436670021947066 62.165702265716391 0 0 0 0 -6.7560628659130089 -5.0185749754164135 0 -5.0185749754164135 55.347819227150467 0 0 0 0 -9.9117277130267212 -6.6552465794811724 0 -6.6552465794811724 65.057205842866097 0 0 0 0 -10.966009252750212 -11.531142538020504 0 -11.531142538020504 71.366105433291523 0 0 0 0 -3.1953573339311987 -23.478127231287544 0 -23.478127231287544 71.167814038490178 0 0 0 0 -48.155936909623961 -3.389381723041879 0 -3.389381723041879 73.321573839508346 0 0 0 0 -4.5370710761014266 -44.636141110720018 0 -44.636141110720018 112.219338135008 0 0 0 0 -133.00412783041565 59.944544093639706 0 59.944544093639706 36.002673363610484 0 0 0 0 -1.0711652728385177 -7.9392837089179267 0 -7.9392837089179267 12.15801003209458 0 0 0 0 6.5076923524292152 -24.100178107871386 0 -24.100178107871386 59.489519046921913 0 0 0 0 -59.207174968225445 -50.750378728880605 0 -50.750378728880605 88.494935932215412 0 0 0 0 -39.760550809046208 1.2650397384022654 0 1.2650397384022654 200.83346629343578 0 0 0 0 -21.268079095974826 -34.845170199245331 0 -34.845170199245331 172.06493093990139 0 0 0 0 -8.2085452264027481 14.297184879749693 0 14.297184879749693 94.590812687805737 0 0 0 0 4.4939530695942267 -9.3001158502356702 0 -9.3001158502356702 28.467441222688649 0 0 0 0 10.617217139806598 -0.95825143801630475 0 -0.95825143801630475 65.580045223730849 0 0 0 0 1.4853477898268417 -6.8699295517248657 0 -6.8699295517248657 3.8988780806261047 0 0 0 0 75.808633762268983 -100.58484312789733 0 -100.58484312789733 21.569838100418565 0 0 0 0 6.9787926073909086 -19.881109205116203 0 -19.881109205116203 53.142260595743267 0 0 0 0 13.190674028060357 -10.928401829427457 0 -10.928401829427457 36.694036215689266 0 0 0 0 1.0632432563488892 -5.690734229377334 0 -5.690734229377334 31.851194292618686 0 0 0 0 20.45857855023462 -22.168055804131654 0 -22.168055804131654 53.262125696113799 0 0 0 0 4.8312707181921706 -9.2075381132992504 0 -9.2075381132992504 22.549941899704351 0 0 0 0 4.5693974129849266 -25.145815972551645 0 -25.145815972551645 24.712710966780833 0 0 0 0 4.3935862972211908 -7.6501553294947371 0 -7.6501553294947371 22.806418596912408 0 0 0 0 0.92429800028078324 1.8593740733276718 0 1.8593740733276718 21.078826753287444 0 0 0 0 9.7402796624983239 -1.7546375498277484 0 -1.7546375498277484 21.209851779814926 0 0 0 0 7.6144134123342155 -6.2901456774125108 0 -6.2901456774125108 33.650628580006014 0 0 0 0 2.5839955364583602 -4.1363281644953531 0 -4.1363281644953531 35.802749165319256 0 0 0 0 2.2771883904101742 -10.450809919428139 0 -10.450809919428139 39.788196903013159 0 0 0 0 0.79073152411251613 -9.0410353431070689 0 -9.0410353431070689 36.425515767160505 0 0 0 0 0.33236969796575977 -11.742971147890785 0 -11.742971147890785 36.660546094673919 0 0 0 0 0.13815144697596793 -10.169243921765883 0 -10.169243921765883 37.42073292681016 0 0 0 0 1.9985383642524539 -13.215752622956643 0 -13.215752622956643 33.762579900649143 0 0 0 0 -3.946584535360671 -0.19873668346554041 0 -0.19873668346554041 32.587529151431227 0 0 0 0 1.7144921201570469 -7.9400168194115395 0 -7.9400168194115395 26.024269926696434 0 0 0 0 1.7696012673654877 -8.5125875559897395 0 -8.5125875559897395 34.533768470399082 0 0 0 0 -4.2505090161459407 -4.2563793858862482 0 -4.2563793858862482 40.352253413642757 0 0 0 0 -1.8337079900184108 -7.4370394539146218 0 -7.4370394539146218 44.17392841547553 0 0 0 0 -3.7432844330544839 -1.4600100566603942 0 -1.4600100566603942 34.366892914142227 0 0 0 0 -11.365309996537036 4.4869826502545038 0 4.4869826502545038 44.835357355797896 0 0 0 0 -11.298764518687221 6.6660295136971399 0 6.6660295136971399 41.573256809650047 0 0 0 0 -13.122532350831307 0.32947081181191606 0 0.32947081181191606 50.915769897575956 0 0 0 0 4.6189475219853193 -15.694725151304738 0 -15.694725151304738 53.371029235437163 0 0 0 0 -6.5348375740011306 -4.1329160947134369 0 -4.1329160947134369 58.889944965601899 0 0 0 0 -1.2355545106829595 -7.0614676876139129 0 -7.0614676876139129 40.643609501566971 0 0 0 0 196.67793984826744 239.72149526389148 0 239.72149526389148 514.60326128562156 0 0 0 0 52.449368809185898 183.69816728393926 0 183.69816728393926 481.07800922423485 0 0 0 0 165.36435819137478 172.51303242549329 0 172.51303242549329 425.71583807945717 0 0 0 0 97.085008025728712 160.85557632677956 0 160.85557632677956 425.40338069545396 0 0 0 0 247.21503930201288 172.18049844571215 0 172.18049844571215 22.258789526822511 0 0 0 0 258.90437145583564 400.43467069441431 0 400.43467069441431 596.98433148795448 0 0 0 0 258.12760914976752 250.04723770108831 0 250.04723770108831 372.45632311793452 0 0 0 0 135.1410949906624 83.446436428039306 0 83.446436428039306 894.03076073249758 0 0 0 0 68.564629644359343 160.31502506033212 0 160.31502506033212 651.18556035600341 0 0 0 0 159.44200568738006 137.60027866660312 0 137.60027866660312 507.13608044966531 0 0 0 0 135.17809502802083 139.95481929022935 0 139.95481929022935 528.82810903338031 0 0 0 0 136.043194557422 141.04590093409843 0 141.04590093409843 435.76219624700025 0 0 0 0 -2.4543411496614453 74.360330547206104 0 74.360330547206104 548.909207038967 0 0 0 0 -5.0636960314144517 41.021553397920798 0 41.021553397920798 335.47510619717468 0 0 0 0 -117.90346452054638 163.44147479237654 0 163.44147479237654 205.64440461967024 0 0 0 0 -277.52771935686013 31.64343833555904 0 31.64343833555904 286.20537585117199 0 0 0 0 -156.00909317356371 175.50238661550975 0 175.50238661550975 349.7883180242643 0 0 0 0 -149.5942040224063 149.23496419625008 0 149.23496419625008 395.06962508882862 0 0 0 0 -125.9854377322157 194.12593377604207 0 194.12593377604207 475.39361448334239 0 0 0 0 -161.76632029932122 224.31421141066676 0 224.31421141066676 485.45750457045506 0 0 0 0 -138.65143394529747 224.77156257120077 0 224.77156257120077 436.65193686301063 0 0 0 0 -50.654105180346733 211.11901727251825 0 211.11901727251825 401.1922157666304 0 0 0 0 31.047825003023263 146.57438646181981 0 146.57438646181981 436.93124017285299 0 0 0 0 -138.02082534224195 194.35529418976876 0 194.35529418976876 455.43511398612463 0 0 0 0 -125.48956347499302 197.08800913218874 0 197.08800913218874 486.05731940925762 0 0 0 0 -47.625010219176147 187.51296493722475 0 187.51296493722475 446.30463332714862 0 0 0 0 -47.631171059702638 190.09819479656289 0 190.09819479656289 471.10751439450542 0 0 0 0 68.877561284841249 137.06789429453056 0 137.06789429453056 476.43169010725978 0 0 0 0 -45.592224290180638 169.07436083805806 0 169.07436083805806 473.9649408525438 0 0 0 0 -38.774303879577246 184.62887247299659 0 184.62887247299659 504.30390347840148 0 0 0 0 -96.596031715809204 207.88234323549113 0 207.88234323549113 480.25929754224489 0 0 0 0 -94.183507487841098 170.83197763573116 0 170.83197763573116 432.15257544995984 0 0 0 0 -87.576058407581968 201.55349225515965 0 201.55349225515965 415.59294983028667 0 0 0 0 -74.635534003684825 200.24855106323957 0 200.24855106323957 468.45059774496258 0 0 0 0 -41.921112832322024 207.18925686392322 0 207.18925686392322 441.68980278342497 0 0 0 0 -21.417519956183924 163.82115151098697 0 163.82115151098697 450.31880391875166 0 0 0 0 -155.68417109939753 194.62836893552594 0 194.62836893552594 509.01054465831112 0 0 0 0 -159.17574190061873 194.89275168680615 0 194.89275168680615 510.6519621542684 0 0 0 0 -152.33941687733966 199.88364252276733 0 199.88364252276733 485.47921163955471 0 0 0 0 -126.92665639414304 191.80480037152302 0 191.80480037152302 480.41874678508884 0 0 0 0 -141.14158586555186 166.77393122039939 0 166.77393122039939 446.16760031098966 0 0 0 0 -126.96825120510499 190.14748691177374 0 190.14748691177374 480.31384144246113 0 0 0 0 -147.65584417815933 158.00566491077552 0 158.00566491077552 531.40086975251324 0 0 0 0 -138.45986291729821 112.291597092546 0 112.291597092546 460.03621068679786 0 0 0 0 -117.63645288084763 93.817840484645785 0 93.817840484645785 472.74535663628194 0 0 0 0 -116.82432780471396 106.92536178592127 0 106.92536178592127 360.21147943518008 0 0 0 0 -126.0920274408054 140.371026859837 0 140.371026859837 446.67364027742451 0 0 0 0 -95.723233080811269 169.62977593865071 0 169.62977593865071 358.25811125367181 0 0 0 0 -83.214162293505979 95.299658898831694 0 95.299658898831694 277.56571090927901 0 0 0 0 -83.821964705424989 101.01226565617981 0 101.01226565617981 355.71809832339932 0 0 0 0 -40.222020805889542 62.60081692172389 0 62.60081692172389 217.46124499794678 0 0 0 0 -54.127979167785043 201.20409420386568 0 201.20409420386568 358.48782960488461 0 0 0 0 2.6918224939752236 220.04010284496326 0 220.04010284496326 374.48917586921016 0 0 0 0 -9.6624990726986653 180.01324319941341 0 180.01324319941341 258.18040185233235 0 0 0 0 -53.003155370297918 172.66859778843354 0 172.66859778843354 367.73052630983875 0 0 0 0 -102.80126340805487 157.12703974967008 0 157.12703974967008 370.08743537249393 0 0 0 0 -51.760396736141502 161.8294213787085 0 161.8294213787085 268.81762497151794 0 0 0 0 -57.507615583435467 132.02294311823607 0 132.02294311823607 187.93437363926205 0 0 0 0 -59.480755152014808 164.62938519618183 0 164.62938519618183 268.105483507381 0 0 0 0 -69.843623821287792 88.784207393226097 0 88.784207393226097 170.232460961779 0 0 0 0 -20.066008097526151 109.44484137100153 0 109.44484137100153 88.758590056619141 0 0 0 0 77.375953640311536 176.28933372382016 0 176.28933372382016 37.472383009677287 0 0 0 0 76.689214875862035 99.46022168356285 0 99.46022168356285 -111.40060395034379 0 0 0 0 -31.889514117030103 89.857739238956128 0 89.857739238956128 118.51066423113662 0 0 0 0 -11.109441754503905 151.66451582778973 0 151.66451582778973 109.55277514754562 0 0 0 0 -8.0076145366178935 191.0784932415263 0 191.0784932415263 258.30622837845385 0 0 0 0 84.636712577420667 230.74747106145514 0 230.74747106145514 266.01921838172711 0 0 0 0 -4.9450263126101142 9.3627900177798722 0 9.3627900177798722 16.213880996627665 0 0 0 0 -279.11339418322734 -212.34935786402275 0 -212.34935786402275 91.101192409136274 0 0 0 0 85.364133730802223 207.76312454332947 0 207.76312454332947 160.53446112736128 0 0 0 0 282.47753721364529 -197.11763546088332 0 -197.11763546088332 -463.04205741081387 0 0 0 0 0.56058844010609588 -1.7855402650893524 0 -1.7855402650893524 4.6891752821854595 0 0 0 0 82.587404074071173 224.04519485593482 0 224.04519485593482 377.22327298326127 0 0 0 0 -249.65738357851995 -157.1476765180405 0 -157.1476765180405 -171.37625978479628 0 0 0 0 -6.9557204428238668 -22.664813225626901 0 -22.664813225626901 18.968368693202507 0 0 0 0 7.6182088356695203 193.14691453690466 0 193.14691453690466 362.86678410509194 0 0 0 0 9.0745996654816281 207.71946752045915 0 207.71946752045915 487.1768227526336 0 0 0 0 62.879420966503858 149.48694868168968 0 149.48694868168968 448.46353406164417 0 0 0 0 -297.55004013772975 -151.72748380569647 0 -151.72748380569647 1168.5447716654744 0 0 0 0 363.79467626824783 170.83992566442248 0 170.83992566442248 249.21826156863244 0 0 0 0 300.46442928117858 41.532635860063237 0 41.532635860063237 466.04233839028166 0 0 0 0 47.985399718886583 122.90542276505585 0 122.90542276505585 601.52617056042072 0 0 0 0 24.185734660826938 200.03915509339276 0 200.03915509339276 469.35363505150599 0 0 0 0 -90.611949052164618 -87.298394321049273 0 -87.298394321049273 -45.313228654122213 0 0 0 0 -1830.628429655907 -374.96078113678368 0 -374.96078113678368 430.53179020403331 0 0 0 0 -66.571557847390068 -192.45054113019432 0 -192.45054113019432 369.88959842853001 0 0 0 0 11.943265304941347 -41.84890790768133 0 -41.84890790768133 110.61398801735845 0 0 0 0 -858.82053987094605 157.53139396956067 0 157.53139396956067 1.949054718386833 0 0 0 0 -915.20801296069476 379.97329245676337 0 379.97329245676337 245.81014398024672 0 0 0 0 -137.81320159676432 438.41289591641907 0 438.41289591641907 143.49735789818806 0 0 0 0 -840.93279892242401 375.22405386769469 0 375.22405386769469 425.41436348749994 0 0 0 0 893.87602465509644 145.10919850685423 0 145.10919850685423 120.04683914354246 0 0 0 0 -148.35856671494935 149.25311814447014 0 149.25311814447014 327.0419648271145 0 0 0 0 -81.916735049102613 331.64985032398909 0 331.64985032398909 538.76424847204544 0 0 0 0 2181.1031908587597 130.74455213019246 0 130.74455213019246 167.12938310368008 0 0 0 0 -1300.7840114996256 580.47701233108 0 580.47701233108 988.11222835586523 0 0 0 0 -80.057197450939498 336.62662106113203 0 336.62662106113203 202.44869684743571 0 0 0 0 361.43704296566284 -299.32746670211782 0 -299.32746670211782 1143.4106377682465 0 0 0 0 614.00912226979108 -367.37796889734091 0 -367.37796889734091 603.63684905769696 0 0 0 0 528.83599322829787 -266.64603071776673 0 -266.64603071776673 398.43848763230562 0 0 0 0 548.30537383242199 -499.01823552224869 0 -499.01823552224869 1209.6560983551608 0 0 0 0 182.6883227093731 -601.37759241767526 0 -601.37759241767526 1181.0076603740863 0 0 0 0 692.84128260385296 -18.305161734006106 0 -18.305161734006106 1290.1010568450693 0 0 0 0 178.20943634863676 -547.48934184514792 0 -547.48934184514792 2013.07815676881 0 0 0 0 109.43312063757094 -768.91361210949071 0 -768.91361210949071 1853.0891261380621 0 0 0 0 175.80339651930399 67.73855173055199 0 67.73855173055199 14.760062688656035 0 0 0 0 -193.32342722733097 47.308171849699647 0 47.308171849699647 2349.3394730086584 0 0 0 0 89.854226454628588 149.36171936294522 0 149.36171936294522 550.74943911759328 0 0 0 0 231.28431896296752 -183.96674370025721 0 -183.96674370025721 107.78888525049479 0 0 0 0 309.94864737176295 83.204890499263911 0 83.204890499263911 -22.535151669995685 0 0 0 0 16.806306062671901 -38.908071106186242 0 -38.908071106186242 78.63135972782473 0 0 0 0 -1294.885447522604 -55.472121092132511 0 -55.472121092132511 3002.6756818346912 0 0 0 0 -1902.6508228382013 -1677.1141573909717 0 -1677.1141573909717 63.378521244403601 0 0 0 0 1257.6773613799469 -1851.9285399182663 0 -1851.9285399182663 2635.7922366327366 0 0 0 0 14.476288816461503 -18.633256784118331 0 -18.633256784118331 20.57734335539719 0 0 0 0 2187.5226340064082 -1927.3805545394107 0 -1927.3805545394107 -1310.4083550734285 0 0 0 0 2304.8808385760149 -1643.6077723941744 0 -1643.6077723941744 -1142.5963424065994 0 0 0 0 1870.271508634688 -1905.8221538593134 0 -1905.8221538593134 -926.54767948609515 0 0 0 0 1725.6501796458663 -2236.1190083635956 0 -2236.1190083635956 -1195.7564478008662 0 0 0 0 11.669732569344632 -18.275934690310038 0 -18.275934690310038 27.759989560528595 0 0 0 0 238.35281052670587 449.76114676304678 0 449.76114676304678 3715.3204789830124 0 0 0 0 -884.2281475562213 316.70133842779978 0 316.70133842779978 3476.4594988011813 0 0 0 0 2567.6817521824523 703.59779077229905 0 703.59779077229905 -218.25560563767067 0 0 0 0 288.14565908670875 1351.2783416424245 0 1351.2783416424245 -861.67376535346557 0 0 0 0 -550.04872341083956 645.27934845921845 0 645.27934845921845 231.88814040016223 0 0 0 0 429.15077480655123 -665.09686889396107 0 -665.09686889396107 330.0452314713184 0 0 0 0 1598.018081777348 -1849.2321305667738 0 -1849.2321305667738 1274.6831439304806 0 0 0 0 118.96335281083157 -8.7257897573890659 0 -8.7257897573890659 -48.12536571558303 0 0 0 0 23.67319761672843 -26.720597184164944 0 -26.720597184164944 -9.3866231367501314 0 0 0 0 59.525904176163749 -96.478291929073748 0 -96.478291929073748 -95.380140834546182 0 0 0 0 -82.575934410664559 -119.07173562791286 0 -119.07173562791286 -7.3487984931489336 0 0 0 0 19.407508021047619 -37.293565602603813 0 -37.293565602603813 62.825146307807415 0 0 0 0 -148.31253367683894 -189.4617001727529 0 -189.4617001727529 -32.429872909880942 0 0 0 0 -1367.8202617695542 -885.56091920425024 0 -885.56091920425024 826.32150321635709 0 0 0 0 -1400.7131169707745 -696.01043356348782 0 -696.01043356348782 -201.14963395960513 0 0 0 0 2.8066843104295627 -22.878502048976095 0 -22.878502048976095 7.7484953629262634 0 0 0 0 13.709967004610007 -310.21603392650286 0 -310.21603392650286 34.615230789357838 0 0 0 0 -1762.74111697427 238.73794535403431 0 238.73794535403431 662.22694360555579 0 0 0 0 -6.6457520406126367 -19.953563104543978 0 -19.953563104543978 63.182039252878297 0 0 0 0 -1756.9668854286319 131.03536166549748 0 131.03536166549748 918.97511840627703 0 0 0 0 1.2546697827656317 -6.3435153510217788 0 -6.3435153510217788 61.881800652783568 0 0 0 0 2.8783812419189658 5.991578660109127 0 5.991578660109127 21.035435840885086 0 0 0 0 19.039914164327001 -22.901474926860828 0 -22.901474926860828 -40.299153576117533 0 0 0 0 3.8201645880308206 -41.249117158971785 0 -41.249117158971785 32.790426912073599 0 0 0 0 4.0736119393464918 -7.3947341064585999 0 -7.3947341064585999 41.898649653509779 0 0 0 0 15.845658012153763 30.376736233101838 0 30.376736233101838 67.500859522355313 0 0 0 0 -3.3799661624879782 -11.889440990665292 0 -11.889440990665292 71.821196642872167 0 0 0 0 -20.031280857962884 -9.8333278350946784 0 -9.8333278350946784 45.154831909574568 0 0 0 0 -15.039233676174263 31.428645241998311 0 31.428645241998311 83.304418747189629 0 0 0 0 3.0453703385301196 12.103191993850487 0 12.103191993850487 50.376851631153841 0 0 0 0 -5.6662475277126667 7.7483069948416556 0 7.7483069948416556 25.916001955991646 0 0 0 0 -6.3747017587314208 -2.5819007297739347 0 -2.5819007297739347 39.001298340303549 0 0 0 0 -38.576690763849911 -30.823979635995784 0 -30.823979635995784 152.88258161897829 0 0 0 0 2.2714923468965722 19.290545288804218 0 19.290545288804218 101.5896024988873 0 0 0 0 -112.67876906163474 -57.340565585112927 0 -57.340565585112927 217.10999727956369 0 0 0 0 -15.612866788732418 -6.7034473936960666 0 -6.7034473936960666 17.067738282117929 0 0 0 0 -53.239049914548559 90.811856743795033 0 90.811856743795033 28.30279280909599 0 0 0 0 -99.04476834520392 32.815050581008109 0 32.815050581008109 111.66108629014343 0 0 0 0 -148.88839312087021 39.951823157112813 0 39.951823157112813 110.74654928304335 0 0 0 0 58.540876357912566 -0.3533331352246023 0 -0.3533331352246023 -120.09954566119268 0 0 0 0 58.693026199081942 -16.407814066185892 0 -16.407814066185892 42.806943702660647 0 0 0 0 14.733439512508124 12.419357811857086 0 12.419357811857086 13.337999164146638 0 0 0 0 72.34907464753951 63.052328698791825 0 63.052328698791825 -11.370741783757694 0 0 0 0 -82.492173020285009 417.07890084599057 0 417.07890084599057 -699.95813300754344 0 0 0 0 610.88818841005013 -831.64148507952632 0 -831.64148507952632 -533.7456794600439 0 0 0 0 -203.21700823622086 -31.008196876682632 0 -31.008196876682632 209.88040147769425 0 0 0 0 -319.0688830764766 69.44533265366772 0 69.44533265366772 175.6536663567822 0 0 0 0 -157.48328921933353 59.212551043252461 0 59.212551043252461 146.27396735848743 0 0 0 0 109.5339376623815 86.926124111792888 0 86.926124111792888 6.6396188168364461 0 0 0 0 265.21819453537955 -106.85763973270514 0 -106.85763973270514 75.789291077155212 0 0 0 0 213.71821101905061 -102.12492645262682 0 -102.12492645262682 211.45782702731958 0 0 0 0 139.4954509399231 -141.28277471077308 0 -141.28277471077308 345.1449536907603 0 0 0 0 103.7721852283471 -104.37678875356505 0 -104.37678875356505 323.55873161729323 0 0 0 0 84.128172689230041 -549.2912623349257 0 -549.2912623349257 507.77500139331823 0 0 0 0 317.33579131848683 -459.02552399387787 0 -459.02552399387787 528.71655780072979 0 0 0 0 537.59449382321964 -884.67615858740828 0 -884.67615858740828 293.91792402849569 0 0 0 0 200.65147579376912 -185.86827067966806 0 -185.86827067966806 -20.385482170902833 0 0 0 0 184.3681133128523 -884.86306417760352 0 -884.86306417760352 1295.2195874577737 0 0 0 0 60.551401876121247 -557.14627468322942 0 -557.14627468322942 782.02891729856492 0 0 0 0 -9.929146059066511 -270.1968704062856 0 -270.1968704062856 656.00476589144091 0 0 0 0 -11.893761453869729 -148.58053038598155 0 -148.58053038598155 1516.6451236876255 0 0 0 0 226.20720289810043 55.066166975898341 0 55.066166975898341 834.70478381905559 0 0 0 0 0.10790191901314528 -0.36853821561695099 0 -0.36853821561695099 0.54464238258040609 0 0 0 0 -81.828483806805252 -456.69039606453953 0 -456.69039606453953 55.651158166736423 0 0 0 0 -57.591077686583219 -305.43568945155494 0 -305.43568945155494 856.52584744550404 0 0 0 0 80.840026522315952 -507.92569770382397 0 -507.92569770382397 754.76687205024655 0 0 0 0 208.60688582575699 -65.325188188828179 0 -65.325188188828179 714.06963634844578 0 0 0 0 137.58123275356655 -671.67785969022952 0 -671.67785969022952 1110.9109913839566 0 0 0 0 37.130895686307184 -570.87005318056617 0 -570.87005318056617 919.51195565026137 0 0 0 0 86.849109995991057 -193.84422765509225 0 -193.84422765509225 732.32254557768465 0 0 0 0 74.739309952843087 -243.51563723768777 0 -243.51563723768777 674.67273895765902 0 0 0 0 431.233265784661 -15.963708281258732 0 -15.963708281258732 687.9777604016781 0 0 0 0 85.355821177118727 -163.31788743599463 0 -163.31788743599463 1267.5490252869495 0 0 0 0 -7.3760346604845139 -522.5238883328675 0 -522.5238883328675 1299.4862482157914 0 0 0 0 489.28438846104257 -466.46998583940513 0 -466.46998583940513 737.62035752828524 0 0 0 0 -122.74332639498027 289.55865924149111 0 289.55865924149111 880.56470663734945 0 0 0 0 -285.24606307511374 -61.73202216833306 0 -61.73202216833306 1406.221736278887 0 0 0 0 -230.1685371749482 -131.39808359221934 0 -131.39808359221934 1049.4629527231591 0 0 0 0 -244.16343193794972 89.511551117189811 0 89.511551117189811 689.58106696380855 0 0 0 0 -118.99369783319709 -250.35347739134158 0 -250.35347739134158 822.66021563787945 0 0 0 0 -145.80273554703911 -142.47215032637905 0 -142.47215032637905 819.73566840444983 0 0 0 0 -57.829051150580966 -56.969786175563058 0 -56.969786175563058 613.71952742675785 0 0 0 0 -157.15958634948586 -55.886186048974196 0 -55.886186048974196 642.48608564572351 0 0 0 0 -63.0248561518722 -143.31210002669832 0 -143.31210002669832 722.93849299674184 0 0 0 0 -62.460475924299885 -81.76448049780447 0 -81.76448049780447 596.07838803022605 0 0 0 0 -166.00778627101207 101.18543469894757 0 101.18543469894757 473.3664702639071 0 0 0 0 -141.56218553663928 47.961112682998646 0 47.961112682998646 582.04317620947768 0 0 0 0 -75.079812626867067 -37.204539858070348 0 -37.204539858070348 601.5940284106764 0 0 0 0 -56.030247458628963 93.080064659887285 0 93.080064659887285 456.30511856987141 0 0 0 0 -218.75787991055316 -20.266226425972945 0 -20.266226425972945 683.13175337774737 0 0 0 0 -222.97012486067587 10.408831647029729 0 10.408831647029729 710.57910516137053 0 0 0 0 -227.54527376455178 171.71043823314903 0 171.71043823314903 428.70438621856738 0 0 0 0 -157.17521631096679 118.3975158334506 0 118.3975158334506 285.88361300525139 0 0 0 0 -181.03458569216997 4.8486530926284104 0 4.8486530926284104 198.32561664108653 0 0 0 0 -96.901130334370293 59.647744498797692 0 59.647744498797692 454.64804669900695 0 0 0 0 -149.11417136003956 45.493873768267804 0 45.493873768267804 454.80008484409336 0 0 0 0 -112.3283789695254 102.55815945475479 0 102.55815945475479 353.53729115791793 0 0 0 0 -126.24123879889797 8.4364232791231188 0 8.4364232791231188 334.19657144720259 0 0 0 0 -70.856436771797007 9.5511244329245528 0 9.5511244329245528 233.8064065137869 0 0 0 0 -127.33102781378841 29.304812686461446 0 29.304812686461446 178.77526392528671 0 0 0 0 -124.9170014709191 -95.615797504942748 0 -95.615797504942748 103.02145212492178 0 0 0 0 -76.512353841872255 -84.622490183421178 0 -84.622490183421178 240.68275412217008 0 0 0 0 -293.4108413336553 -17.984805824977229 0 -17.984805824977229 233.01943174379994 0 0 0 0 -194.45389521778884 -26.475929083630035 0 -26.475929083630035 238.0730235136034 0 0 0 0 -195.69381565936305 13.513424455424683 0 13.513424455424683 44.961692116950871 0 0 0 0 -550.39915722792648 -256.28511532250559 0 -256.28511532250559 58.662895480862062 0 0 0 0 3.5550720836966465 -9.7544158240324563 0 -9.7544158240324563 22.324084670353074 0 0 0 0 -313.90235869698665 -277.11230535931827 0 -277.11230535931827 -56.605418866165564 0 0 0 0 -474.49225206765061 -51.886115706540295 0 -51.886115706540295 -7.4834287462872453 0 0 0 0 -453.08897145526362 -102.08418084336154 0 -102.08418084336154 109.32027898009983 0 0 0 0 -220.39128075852341 -41.095050234376686 0 -41.095050234376686 8.9422777369181858 0 0 0 0 -250.20176568731449 61.91420975762594 0 61.91420975762594 70.652179814744159 0 0 0 0 1.7287648004136944 -4.1567330054652558 0 -4.1567330054652558 9.7654148833839542 0 0 0 0 254.58767266890663 -572.7217688848541 0 -572.7217688848541 336.23474270225415 0 0 0 0 168.96271241553185 160.07460795387487 0 160.07460795387487 -82.180136823648354 0 0 0 0 -49.699473517666348 167.20632227869282 0 167.20632227869282 -82.212193438943359 0 0 0 0 -257.08808355899924 69.930639366575633 0 69.930639366575633 677.24227807841453 0 0 0 0 -215.39692174911829 504.83617587213666 0 504.83617587213666 263.05247280645926 0 0 0 0 47.209437666338488 29.067049621342449 0 29.067049621342449 -244.55075002375088 0 0 0 0 -515.52806943404573 -27.715412410521822 0 -27.715412410521822 237.27594195117854 0 0 0 0 -1.0954097927738029 2.1947716965487416 0 2.1947716965487416 17.890352181786142 0 0 0 0 -20.793132433948017 -255.62636221609864 0 -255.62636221609864 414.40222020755027 0 0 0 0 110.99098657103059 57.568838148661598 0 57.568838148661598 181.78855391130492 0 0 0 0 53.243500174424213 87.156495002590873 0 87.156495002590873 278.49614704481792 0 0 0 0 85.907159572727039 231.77997163822874 0 231.77997163822874 161.42069076866028 0 0 0 0 69.686251296592189 223.06030841742177 0 223.06030841742177 476.21773028423195 0 0 0 0 35.731534985938424 140.24556743526045 0 140.24556743526045 331.15008494383983 0 0 0 0 125.24083197572679 5.7552551235694409 0 5.7552551235694409 370.13120874980814 0 0 0 0 36.716599375041568 -30.912417359846586 0 -30.912417359846586 501.23412791817827 0 0 0 0 8.4881892964986037 3.0188973702133808 0 3.0188973702133808 477.19316501243156 0 0 0 0 31.188845297888648 122.65609838483215 0 122.65609838483215 454.61911785557459 0 0 0 0 -41.676142054053798 70.291481788997771 0 70.291481788997771 487.92865846276527 0 0 0 0 -47.939936259984094 93.82931934464068 0 93.82931934464068 455.70752368777175 0 0 0 0 -53.819525185969496 107.31298492040878 0 107.31298492040878 425.75590928872407 0 0 0 0 -70.752068292978606 17.274250496036757 0 17.274250496036757 355.5517625149223 0 0 0 0 -64.016315842620543 -5.4558882749042823 0 -5.4558882749042823 404.150883920056 0 0 0 0 -29.32935884408721 -96.484125337126898 0 -96.484125337126898 265.97939562704414 0 0 0 0 -12.836073812705195 -117.55081959856034 0 -117.55081959856034 394.96407351708331 0 0 0 0 -7.0214107123151734 -117.08874216892582 0 -117.08874216892582 360.53696185891749 0 0 0 0 -24.282832190310444 -81.421823182077787 0 -81.421823182077787 307.92548775841715 0 0 0 0 -54.849498153779109 7.4195307069967384 0 7.4195307069967384 414.16924982398632 0 0 0 0 -56.6903815113345 -16.124509173518163 0 -16.124509173518163 567.1590516922879 0 0 0 0 -47.949467900618565 -58.234353115381964 0 -58.234353115381964 482.85740286218788 0 0 0 0 2.0162542439830418 -169.32102489992394 0 -169.32102489992394 546.85925971806137 0 0 0 0 32.117763766206892 -205.89629376848097 0 -205.89629376848097 386.28608495194931 0 0 0 0 55.140598438961547 -255.68905911988986 0 -255.68905911988986 554.55497627530713 0 0 0 0 46.395919071438385 -255.78487033300917 0 -255.78487033300917 556.34703575909953 0 0 0 0 -18.895907647607743 -160.19791488358169 0 -160.19791488358169 832.69820901175262 0 0 0 0 -52.916161884501363 -92.872643699936816 0 -92.872643699936816 722.44026695442153 0 0 0 0 -36.899875508664053 136.97703120883671 0 136.97703120883671 529.54655951220775 0 0 0 0 -143.32984995727054 183.95336847423459 0 183.95336847423459 773.78018251947651 0 0 0 0 -28.816049179006406 128.38737151291571 0 128.38737151291571 517.88483641856146 0 0 0 0 -179.53009087033095 363.934551971357 0 363.934551971357 799.00647410516831 0 0 0 0 -80.804334474335349 -25.008002236741959 0 -25.008002236741959 1235.4205238808063 0 0 0 0 23.233659021326446 -141.19501246816071 0 -141.19501246816071 804.03838249191176 0 0 0 0 63.914247667616166 -309.7871386019724 0 -309.7871386019724 841.03995752648916 0 0 0 0 226.88203390511865 -390.10730170697207 0 -390.10730170697207 603.24330835271758 0 0 0 0 339.31323294933111 -454.64117109945801 0 -454.64117109945801 920.59415489216917 0 0 0 0 704.01911591143357 -357.02990552361007 0 -357.02990552361007 647.8818356146221 0 0 0 0 235.78064798878097 -319.80851651506964 0 -319.80851651506964 748.00029855783214 0 0 0 0 653.23830004220872 -271.92023217301175 0 -271.92023217301175 907.26278070343596 0 0 0 0 230.82897375609105 -406.89076932454191 0 -406.89076932454191 1121.3574392717856 0 0 0 0 665.85007331829263 -42.394331560426508 0 -42.394331560426508 1217.1157814350881 0 0 0 0 357.70288343440205 -64.443875004726578 0 -64.443875004726578 1538.0253131888458 0 0 0 0 140.48373560226298 -206.16170436141692 0 -206.16170436141692 1300.0335730805764 0 0 0 0 751.12159890563203 -531.81591381850012 0 -531.81591381850012 1113.4233040229446 0 0 0 0 382.34835653519531 -285.77102077109157 0 -285.77102077109157 1017.5621326080582 0 0 0 0 -197.28389702467484 -720.70373839163221 0 -720.70373839163221 1929.2915615734528 0 0 0 0 189.53606724672318 -186.21867464802926 0 -186.21867464802926 1295.8793415159453 0 0 0 0 181.72914137131283 -289.65295479464112 0 -289.65295479464112 1272.7100215359733 0 0 0 0 406.32087329449359 -177.96450462659413 0 -177.96450462659413 1259.856098433369 0 0 0 0 28.973842104972164 -347.4811372207696 0 -347.4811372207696 1478.6136024806037 0 0 0 0 -0.49845450980401995 0.80763666007823076 0 0.80763666007823076 9.1791549258954603 0 0 0 0 93.068455198297443 -250.09333260820131 0 -250.09333260820131 1549.2270828812684 0 0 0 0 111.16478112184149 -564.97922139075672 0 -564.97922139075672 1036.001921455405 0 0 0 0 164.84255156390702 -117.21964868548821 0 -117.21964868548821 -83.271970136403979 0 0 0 0 71.928344047571329 -170.15065831100219 0 -170.15065831100219 -10.610072416209732 0 0 0 0 35.292801429621932 -40.766329779849912 0 -40.766329779849912 -232.72835036218748 0 0 0 0 -21.762056196279389 -46.906986787261076 0 -46.906986787261076 59.779001370116021 0 0 0 0 13.555061561765564 -13.394010671551712 0 -13.394010671551712 11.531305247991639 0 0 0 0 168.7059352866936 -354.00231930772861 0 -354.00231930772861 -114.19258352517136 0 0 0 0 273.49558346398226 -448.77607686989359 0 -448.77607686989359 159.96017178503098 0 0 0 0 -167.68449295824121 77.00937048450578 0 77.00937048450578 -195.14214603300206 0 0 0 0 -3.7285775568327981 -0.64257326687376803 0 -0.64257326687376803 5.0541901667749585 0 0 0 0 339.00518526385054 -394.22354229664779 0 -394.22354229664779 11.677815369970631 0 0 0 0 241.70236729772296 -174.8080058376363 0 -174.8080058376363 -106.38593050032068 0 0 0 0 333.09203057950072 -339.21997762951651 0 -339.21997762951651 107.90100020782847 0 0 0 0 288.22141200909027 -339.40915159699216 0 -339.40915159699216 112.43800166653818 0 0 0 0 287.27591331975464 -335.87510875098815 0 -335.87510875098815 221.70902731537353 0 0 0 0 255.24032847484068 -432.9595133542316 0 -432.9595133542316 408.44776954181725 0 0 0 0 342.80323670206144 -432.38714109439752 0 -432.38714109439752 209.16613687333302 0 0 0 0 277.12084140270031 -402.13280572526855 0 -402.13280572526855 412.41191491510835 0 0 0 0 294.7225510236301 -514.75340411982324 0 -514.75340411982324 611.88733083609259 0 0 0 0 265.53724508661378 -491.36420939816344 0 -491.36420939816344 427.8637641177047 0 0 0 0 335.76975823496332 -308.22357522381935 0 -308.22357522381935 654.35753356963687 0 0 0 0 245.9516510620044 -408.33462046599789 0 -408.33462046599789 319.30558473448036 0 0 0 0 164.35728406067963 -323.59034827926371 0 -323.59034827926371 407.71822465586592 0 0 0 0 189.04529182746683 -432.2971565197513 0 -432.2971565197513 608.35677798299002 0 0 0 0 215.89797329992484 -317.30347408590023 0 -317.30347408590023 187.01760419516359 0 0 0 0 216.49245592390685 -326.83533012727275 0 -326.83533012727275 186.92639068643382 0 0 0 0 244.78825929785853 -351.59960974821297 0 -351.59960974821297 256.76285148804891 0 0 0 0 235.00371375830798 -329.1456763983806 0 -329.1456763983806 149.40625556201849 0 0 0 0 140.7410111941017 -186.51224849226128 0 -186.51224849226128 53.936978435580386 0 0 0 0 263.43838120209585 -242.34027665617032 0 -242.34027665617032 -11.659152464519138 0 0 0 0 158.28030557390241 -235.31135871495644 0 -235.31135871495644 93.735679285397055 0 0 0 0 143.35580291259959 -283.18715144244197 0 -283.18715144244197 129.13820061966362 0 0 0 0 161.94616182893242 -283.11104708740459 0 -283.11104708740459 128.98650206910679 0 0 0 0 180.07847112101467 -309.95050652386999 0 -309.95050652386999 162.01358656620141 0 0 0 0 235.10289314754266 -324.40241436904762 0 -324.40241436904762 129.35540759001742 0 0 0 0 180.66721226381799 -317.63005897338735 0 -317.63005897338735 167.352206543801 0 0 0 0 201.07460685210924 -275.89212710477295 0 -275.89212710477295 84.439901055091468 0 0 0 0 205.50343969016944 -291.74411130984663 0 -291.74411130984663 143.11722433442628 0 0 0 0 174.53382843560161 -348.05240169159515 0 -348.05240169159515 309.66217814403353 0 0 0 0 111.10825918853767 -281.78755021819961 0 -281.78755021819961 335.35035676101688 0 0 0 0 148.27705372097682 -356.94069734511868 0 -356.94069734511868 428.35997794926516 0 0 0 0 95.537024248603927 -282.81086190548376 0 -282.81086190548376 419.43732274722424 0 0 0 0 76.73900828700522 -224.56982676184271 0 -224.56982676184271 272.20077670167666 0 0 0 0 125.19093773542136 -291.67346324702521 0 -291.67346324702521 279.77386315137846 0 0 0 0 112.6970458374353 -255.75192087465257 0 -255.75192087465257 176.51639676789637 0 0 0 0 145.65765329280083 -283.1421016457025 0 -283.1421016457025 204.46451532121864 0 0 0 0 101.13803572428105 -254.44093388285546 0 -254.44093388285546 155.10891149528823 0 0 0 0 53.159809289623695 -196.0756444613362 0 -196.0756444613362 155.47822644928237 0 0 0 0 79.747605178671392 -247.57158372248523 0 -247.57158372248523 253.43389388950891 0 0 0 0 36.477291510693362 -171.08921162727347 0 -171.08921162727347 252.19288625395347 0 0 0 0 31.498593286853406 -177.69443850027892 0 -177.69443850027892 248.00931404653238 0 0 0 0 57.467335201739985 -223.9975602541017 0 -223.9975602541017 367.57625288545387 0 0 0 0 -50.723843782609947 -60.641992658092931 0 -60.641992658092931 206.45134566456545 0 0 0 0 -17.545501935081234 -151.53309656638157 0 -151.53309656638157 181.99308124030358 0 0 0 0 1.5449185538088841 -134.29383527455502 0 -134.29383527455502 190.43183702070382 0 0 0 0 5.6187794210924267 -144.16888555227342 0 -144.16888555227342 97.863665413227864 0 0 0 0 40.927852430367636 -229.35583717996997 0 -229.35583717996997 100.99860946470289 0 0 0 0 35.691042081389924 -196.78991942726134 0 -196.78991942726134 184.53684156587951 0 0 0 0 113.80277044786203 -295.47757009486668 0 -295.47757009486668 88.780783621561568 0 0 0 0 55.241787855205047 -210.59761124567376 0 -210.59761124567376 113.54982270591427 0 0 0 0 141.64107113754091 -304.90808125882177 0 -304.90808125882177 138.06058813958953 0 0 0 0 101.73350912232337 -250.96413670119364 0 -250.96413670119364 174.58653423802753 0 0 0 0 117.11692710909637 -281.40832880470407 0 -281.40832880470407 141.84056455569225 0 0 0 0 139.12113540175642 -278.08238176075974 0 -278.08238176075974 140.05075462670357 0 0 0 0 66.952553061668482 -250.89666806197056 0 -250.89666806197056 75.194639245455619 0 0 0 0 82.21044995592095 -288.2487267186516 0 -288.2487267186516 259.18507791115553 0 0 0 0 81.925251891812081 -362.81460072548361 0 -362.81460072548361 116.76493913860759 0 0 0 0 87.358459505370462 -298.60111347070779 0 -298.60111347070779 172.07064648359665 0 0 0 0 6.2023162927258682 -400.33140524338523 0 -400.33140524338523 401.48541208812094 0 0 0 0 -7.1934849722761669 -137.61838345321075 0 -137.61838345321075 690.0995983472676 0 0 0 0 -90.873057464510907 55.317530365944549 0 55.317530365944549 505.94900774929556 0 0 0 0 6.3487606371187439 61.408559094557859 0 61.408559094557859 453.05832148629997 0 0 0 0 63.448213549233316 27.277619735868939 0 27.277619735868939 378.15590132093348 0 0 0 0 -7.0249176199054943 -135.76820264471007 0 -135.76820264471007 283.0919736034848 0 0 0 0 122.48237522079398 0.011686415520671289 0 0.011686415520671289 184.87462426845741 0 0 0 0 82.195577746204208 3.5434647380971001 0 3.5434647380971001 210.1593751743203 0 0 0 0 103.80724032924155 -19.904464055336575 0 -19.904464055336575 167.77438665645604 0 0 0 0 129.38614512631705 -146.10531575309142 0 -146.10531575309142 166.78742954808695 0 0 0 0 93.474579170855066 -206.81923011609615 0 -206.81923011609615 330.88417891479185 0 0 0 0 93.816984920908766 -182.82455044524249 0 -182.82455044524249 137.60351057851221 0 0 0 0 164.81818457078492 -258.14157732720196 0 -258.14157732720196 154.18159607381676 0 0 0 0 189.44832670552779 -212.08961104184345 0 -212.08961104184345 40.276228287839331 0 0 0 0 98.958933578012193 -116.64414609973755 0 -116.64414609973755 99.13566608086694 0 0 0 0 100.28682424833846 -100.87953248131134 0 -100.87953248131134 -3.2769622062332928 0 0 0 0 124.8800363613002 -121.61753309360211 0 -121.61753309360211 48.11545469583325 0 0 0 0 98.459193360741097 -45.987035785197804 0 -45.987035785197804 47.101491001580143 0 0 0 0 129.44574302136175 -16.232089548764634 0 -16.232089548764634 54.398883406433015 0 0 0 0 33.366676610549803 -72.027352790137229 0 -72.027352790137229 -7.9570433962653624 0 0 0 0 35.945408398611107 -85.721626047641621 0 -85.721626047641621 61.37901634631271 0 0 0 0 73.961749327021153 -22.275663808264653 0 -22.275663808264653 32.737201508149155 0 0 0 0 60.914327983154863 -75.617253619006078 0 -75.617253619006078 -8.2974794781912351 0 0 0 0 -26.077283074297156 -86.563890610181261 0 -86.563890610181261 -21.942693900084123 0 0 0 0 -29.57810170941184 -78.706966780271614 0 -78.706966780271614 36.159375673421891 0 0 0 0 -26.246041907695599 -104.93062112675398 0 -104.93062112675398 22.248616506978578 0 0 0 0 -28.159034327925838 -94.813504848629236 0 -94.813504848629236 -18.970870108125382 0 0 0 0 49.380464783069101 -68.792633827746613 0 -68.792633827746613 3.2169132167764474 0 0 0 0 -10.688917164229224 -123.27544890843274 0 -123.27544890843274 21.766654651975841 0 0 0 0 -10.608743341704667 -105.16476204396167 0 -105.16476204396167 -40.583692074091232 0 0 0 0 -598.12242494292741 -308.12622500146972 0 -308.12622500146972 -4.7296553705527913 0 0 0 0 -124.10942223726511 30.334733164789213 0 30.334733164789213 92.36102271474374 0 0 0 0 128.10030392907601 116.68969596494935 0 116.68969596494935 211.46419993760355 0 0 0 0 5.421162996022205 -13.536617439317219 0 -13.536617439317219 23.191152665026777 0 0 0 0 -6.1870106275163099 3.2777144297321996 0 3.2777144297321996 2.2254988995023552 0 0 0 0 299.48994031277698 159.53097685411922 0 159.53097685411922 120.23236897369497 0 0 0 0 132.034052830924 253.81145512759394 0 253.81145512759394 297.23014134849291 0 0 0 0 121.25803474107551 246.07050734063523 0 246.07050734063523 380.52944452341762 0 0 0 0 -54.786171284361217 231.91757874042378 0 231.91757874042378 479.29149428436358 0 0 0 0 -73.82019008231191 267.57241878106288 0 267.57241878106288 499.41380883412785 0 0 0 0 -157.38317812030641 203.73123617013152 0 203.73123617013152 488.63031059884815 0 0 0 0 -91.15222225131032 219.08185405531549 0 219.08185405531549 379.97676383841099 0 0 0 0 -171.82432066073943 75.211364050313023 0 75.211364050313023 217.19735660130391 0 0 0 0 -115.90820007499053 202.95935116204782 0 202.95935116204782 386.4225368970765 0 0 0 0 1.3615489133126175 169.22711022252406 0 169.22711022252406 102.34198961002403 0 0 0 0 13.357395150639604 238.97471398334892 0 238.97471398334892 302.15039388990044 0 0 0 0 106.7922759564749 70.516512196780241 0 70.516512196780241 -16.327598781084816 0 0 0 0 -226.90278886207329 -98.388277801876029 0 -98.388277801876029 142.49343913122721 0 0 0 0 -1.9974031300725235 0.34083590916156936 0 0.34083590916156936 1.1214312801078563 0 0 0 0 -27.639695179106297 53.913966120380792 0 53.913966120380792 40.066779302753275 0 0 0 0 -396.19580168414905 -304.01797316609009 0 -304.01797316609009 -174.06110045921358 0 0 0 0 -352.27592881364171 -79.813470312357822 0 -79.813470312357822 -174.81215203208558 0 0 0 0 -313.72531173789503 -86.818712550426426 0 -86.818712550426426 85.961002841653681 0 0 0 0 -312.85596974700798 -149.22396349593328 0 -149.22396349593328 -64.868819494993659 0 0 0 0 -200.92475063675647 -106.17499211172981 0 -106.17499211172981 -32.33832736776094 0 0 0 0 -223.07172442019794 -108.01311100590829 0 -108.01311100590829 13.78394899884006 0 0 0 0 -301.26360331695219 -208.01095935492776 0 -208.01095935492776 2.4894138395902701 0 0 0 0 -409.99847806612502 -150.86608270981378 0 -150.86608270981378 11.622987863986054 0 0 0 0 -105.92101931848777 -32.851006100783707 0 -32.851006100783707 150.21813659873442 0 0 0 0 -47.284640665147435 -146.217980529138 0 -146.217980529138 94.379849460558034 0 0 0 0 -202.22258187474301 -59.93372093044195 0 -59.93372093044195 107.92599197279196 0 0 0 0 -134.0380610635259 -153.47964373959985 0 -153.47964373959985 16.557193564352929 0 0 0 0 -112.5840783186826 -99.455964032782504 0 -99.455964032782504 69.140691126754973 0 0 0 0 -46.108241969700202 -130.51359567088366 0 -130.51359567088366 166.64006506068108 0 0 0 0 -40.209281671006011 -206.95408114210295 0 -206.95408114210295 30.312757769890595 0 0 0 0 42.284102125911886 -284.01427747763228 0 -284.01427747763228 33.824879692444483 0 0 0 0 -12.237500757851535 -169.53610570650926 0 -169.53610570650926 39.956240088213235 0 0 0 0 -172.94416763410663 -191.67054049595026 0 -191.67054049595026 -18.789126346651756 0 0 0 0 -50.546490915627146 -250.89955206219747 0 -250.89955206219747 -32.989932257049986 0 0 0 0 -135.78925927575642 -124.83655254857149 0 -124.83655254857149 -22.444097087602131 0 0 0 0 -110.5472742655038 -319.29736029347259 0 -319.29736029347259 -69.068035397664062 0 0 0 0 -118.01407986827166 -146.80114299064007 0 -146.80114299064007 -162.65641635432257 0 0 0 0 3.6397166117608322 -340.20208740427915 0 -340.20208740427915 15.442797181040078 0 0 0 0 -14.675665383652472 -216.21291377761372 0 -216.21291377761372 -13.420183024602011 0 0 0 0 -309.12244663115371 -215.33757425547083 0 -215.33757425547083 -48.116240427254525 0 0 0 0 -322.78133775568722 -127.32036096398951 0 -127.32036096398951 -15.280991382693173 0 0 0 0 -206.13447594303648 -146.19173038777808 0 -146.19173038777808 -365.0832799585769 0 0 0 0 -568.36794001206476 -105.8419303521805 0 -105.8419303521805 -32.114695826327079 0 0 0 0 400.32400970973322 892.65093696888289 0 892.65093696888289 2087.2254879549582 0 0 0 0 -0.47935190193552663 -0.4832324085059696 0 -0.4832324085059696 -1.9722038837977607 0 0 0 0 0.64580117888311594 -5.5178286889913579 0 -5.5178286889913579 12.736795988800083 0 0 0 0 -167.50601114149163 -597.71163878691004 0 -597.71163878691004 -118.94915985814077 0 0 0 0 250.86601340350069 135.17939397846203 0 135.17939397846203 2337.4167892907863 0 0 0 0 -55.371805980390434 866.42947644324158 0 866.42947644324158 2242.9726613067978 0 0 0 0 47.716340524866268 -292.7008317160944 0 -292.7008317160944 65.023827565019019 0 0 0 0 37.22873122372107 -464.4549102352903 0 -464.4549102352903 244.61160203968757 0 0 0 0 -84.933538029869851 -264.27519656629738 0 -264.27519656629738 38.555231757927686 0 0 0 0 20.892186281525483 -377.04152934571903 0 -377.04152934571903 -53.446802807382483 0 0 0 0 -175.09208411632881 -646.65972704059823 0 -646.65972704059823 365.03218793506676 0 0 0 0 4.8459269762878421 -364.29711193640105 0 -364.29711193640105 373.13636583044718 0 0 0 0 -203.89018318581975 -542.76794812439039 0 -542.76794812439039 974.63561327500793 0 0 0 0 1172.7047856136069 27.995312911683868 0 27.995312911683868 323.69124891344109 0 0 0 0 -91.218064376697498 193.56381476645038 0 193.56381476645038 1304.1793848258858 0 0 0 0 1.8273933109409546 -2.9445610077922311 0 -2.9445610077922311 9.2068584035462777 0 0 0 0 157.15968379992196 -430.64824523700986 0 -430.64824523700986 -31.360752894179313 0 0 0 0 352.05373081205795 856.12874283657584 0 856.12874283657584 2185.8601281816664 0 0 0 0 -42.704456011709738 1000.5251356325753 0 1000.5251356325753 2078.7897436807689 0 0 0 0 -714.62122985759822 1172.8059414823801 0 1172.8059414823801 2036.0018422924695 0 0 0 0 2.082530658369016 -0.7471992871901989 0 -0.7471992871901989 -0.36514080042630326 0 0 0 0 77.348122482282179 53.589854056030163 0 53.589854056030163 -115.38031417736784 0 0 0 0 148.77086925475203 -116.88287565185601 0 -116.88287565185601 212.09078933343699 0 0 0 0 121.06722694620066 -158.86463604162418 0 -158.86463604162418 156.82969232169853 0 0 0 0 167.05156426363752 -273.91694667447155 0 -273.91694667447155 377.38951776680187 0 0 0 0 -59.876971579984854 -67.277047973453591 0 -67.277047973453591 800.90977721966192 0 0 0 0 167.73038075678025 -626.55735644016249 0 -626.55735644016249 716.24753100576345 0 0 0 0 -157.05153219208717 64.014443157480855 0 64.014443157480855 2168.3095028941752 0 0 0 0 -117.66459871102848 103.48974259226816 0 103.48974259226816 986.67888507855241 0 0 0 0 -160.36591955196729 -16.942997880432813 0 -16.942997880432813 775.73546017213084 0 0 0 0 50.419332932867746 490.07116431140457 0 490.07116431140457 990.11082856616417 0 0 0 0 -21.81578935841469 301.98334746213732 0 301.98334746213732 532.99277477673604 0 0 0 0 400.64772363170391 493.85555433122499 0 493.85555433122499 350.82444196371944 0 0 0 0 392.53845927378461 338.57334830297623 0 338.57334830297623 113.32843171909917 0 0 0 0 744.82968120308487 866.94212067438639 0 866.94212067438639 675.27449255847023 0 0 0 0 -157.50862281958669 185.01630410677171 0 185.01630410677171 558.75337668259453 0 0 0 0 -135.4606242604371 228.90442914812593 0 228.90442914812593 508.19530732010026 0 0 0 0 -135.64743480889376 228.84264989661006 0 228.84264989661006 591.26649493747391 0 0 0 0 -126.20268175077075 243.29799936819472 0 243.29799936819472 816.86532839256688 0 0 0 0 -131.07502864803575 192.4449941762723 0 192.4449941762723 570.58752359428036 0 0 0 0 -128.92998079151499 95.83042874858802 0 95.83042874858802 641.62818659460754 0 0 0 0 -106.0032927687619 69.432191306979803 0 69.432191306979803 665.28335641833837 0 0 0 0 -135.6737037693417 80.057479857932776 0 80.057479857932776 606.8457734817348 0 0 0 0 -146.10917834009209 201.95288413370872 0 201.95288413370872 581.1353724328219 0 0 0 0 -52.149320681621987 -83.927938465349143 0 -83.927938465349143 519.34713012450811 0 0 0 0 -50.459822521773191 16.021823703995324 0 16.021823703995324 397.25881185603794 0 0 0 0 -50.387127564056783 13.116060964028293 0 13.116060964028293 358.43121674157737 0 0 0 0 25.878431908771859 18.234281620494585 0 18.234281620494585 115.9399235953606 0 0 0 0 78.851761575433272 -41.06451257981098 0 -41.06451257981098 71.774835964301019 0 0 0 0 68.550525075916823 -97.212785206334956 0 -97.212785206334956 260.48434702412487 0 0 0 0 18.858696765613672 -36.172368022285809 0 -36.172368022285809 80.983304686582414 0 0 0 0 45.248148633469782 -5.0620591077422432 0 -5.0620591077422432 117.5904995814999 0 0 0 0 43.406704328203773 39.858975151953928 0 39.858975151953928 17.344819795238891 0 0 0 0 44.300509365545281 22.078214662527898 0 22.078214662527898 65.614023484831705 0 0 0 0 90.969195151014617 -7.9568927863219869 0 -7.9568927863219869 49.882790330229909 0 0 0 0 39.178914238116249 -22.619182509337406 0 -22.619182509337406 22.182515459688148 0 0 0 0 49.605583439510838 2.2002148334941012 0 2.2002148334941012 81.078321960027097 0 0 0 0 121.68252768209925 -77.027556141758396 0 -77.027556141758396 84.237056744619622 0 0 0 0 72.407485529656185 -40.98643925577926 0 -40.98643925577926 207.62578171800124 0 0 0 0 52.208912321422417 23.964788659679471 0 23.964788659679471 88.339084485225612 0 0 0 0 -184.56875085404931 80.474108367066947 0 80.474108367066947 95.319686764574726 0 0 0 0 1.4858010565322355 -4.0867109201129175 0 -4.0867109201129175 17.880540065796737 0 0 0 0 6.0798672964438083 -36.086226724695734 0 -36.086226724695734 42.405870979579049 0 0 0 0 -250.91616204294587 -58.126477708143284 0 -58.126477708143284 101.3337289532501 0 0 0 0 -49.523274515315734 24.320382786376285 0 24.320382786376285 57.675670938067924 0 0 0 0 5.2198059975727915 -2.5039106881736899 0 -2.5039106881736899 2.7238846379168535 0 0 0 0 155.01633520356728 -17.903770006625564 0 -17.903770006625564 419.27746514090904 0 0 0 0 -2.0371185810888619 7.4449971149151679 0 7.4449971149151679 58.051082193531329 0 0 0 0 21.704619074660059 -36.302281549098552 0 -36.302281549098552 7.1853600621470832 0 0 0 0 -24.602968475506486 18.600668194287209 0 18.600668194287209 54.906716393801617 0 0 0 0 -76.098566598824846 -70.512499347700214 0 -70.512499347700214 -44.476587786251912 0 0 0 0 -33.073108042398417 44.184986557549564 0 44.184986557549564 -22.267803125205319 0 0 0 0 54.996556870818608 90.467293801293636 0 90.467293801293636 57.737075318698771 0 0 0 0 -9.4365780683817775 -22.044250424653001 0 -22.044250424653001 21.761042229722079 0 0 0 0 -0.044723049831862483 -3.5633832609153231 0 -3.5633832609153231 19.797080661172799 0 0 0 0 -367.12167490006618 185.46617811814394 0 185.46617811814394 -96.839424925754429 0 0 0 0 -123.51805368926398 -9.1113908703136985 0 -9.1113908703136985 63.30608230920916 0 0 0 0 0.7582335349376228 -3.1062147725604845 0 -3.1062147725604845 9.2457353860388309 0 0 0 0 96.098793391399454 266.47919528229977 0 266.47919528229977 575.01942425082962 0 0 0 0 -47.150382841800479 133.29261773873986 0 133.29261773873986 491.63515029156406 0 0 0 0 145.23234822660152 178.92971468022006 0 178.92971468022006 103.64669317552762 0 0 0 0 -38.15816549451506 112.73952824225125 0 112.73952824225125 257.26811083736538 0 0 0 0 -84.498076601757361 116.18094211193966 0 116.18094211193966 364.26874465352012 0 0 0 0 -77.844878130390725 -35.966618555550667 0 -35.966618555550667 388.51102649242239 0 0 0 0 -34.137394394886655 10.683884605703497 0 10.683884605703497 117.60652446350286 0 0 0 0 -9.4930342096938602 66.063991882743721 0 66.063991882743721 239.41832416892794 0 0 0 0 215.62753327375458 -76.258558023484511 0 -76.258558023484511 164.54975297547935 0 0 0 0 89.450260065924397 18.888405263888671 0 18.888405263888671 99.265520937988185 0 0 0 0 95.485785624851246 -65.801894080119382 0 -65.801894080119382 50.419457687865361 0 0 0 0 -17.065635502423902 -66.49499250991903 0 -66.49499250991903 41.847039827567642 0 0 0 0 34.965062009024336 -9.8800884230604424 0 -9.8800884230604424 14.346320005512098 0 0 0 0 184.36127348377906 40.831912033295339 0 40.831912033295339 53.745506616061903 0 0 0 0 166.3021461675612 47.599800004616554 0 47.599800004616554 65.061048616990774 0 0 0 0 363.44320163421548 93.5659790021964 0 93.5659790021964 69.271253630879073 0 0 0 0 162.84552645116884 133.13632835489989 0 133.13632835489989 130.19873792164071 0 0 0 0 234.86771114973953 174.06367030860565 0 174.06367030860565 135.26091667953733 0 0 0 0 167.06208934595082 138.84273519508497 0 138.84273519508497 121.2724965151283 0 0 0 0 208.83434148220618 135.55638754661049 0 135.55638754661049 113.84400022879709 0 0 0 0 148.62665290954453 128.74320406774495 0 128.74320406774495 243.24963810565532 0 0 0 0 140.662435349075 91.688269104022766 0 91.688269104022766 94.28087619210055 0 0 0 0 130.49881259576355 183.04643408866104 0 183.04643408866104 99.505746000577346 0 0 0 0 133.51702903200675 235.43072399621451 0 235.43072399621451 407.15076466228311 0 0 0 0 218.5889500917485 316.64856558119118 0 316.64856558119118 73.75160385252093 0 0 0 0 190.0719284557232 103.90271881073568 0 103.90271881073568 38.318914532093913 0 0 0 0 6.6331293459323071 -4.554456307749021 0 -4.554456307749021 2.2823419818520563 0 0 0 0 2.4352450737314371 57.989550382673769 0 57.989550382673769 -300.22669007521472 0 0 0 0 576.98688917546019 -49.814128223864827 0 -49.814128223864827 -280.18444078574248 0 0 0 0 -66.741382290823822 71.125348977642716 0 71.125348977642716 568.08722598956228 0 0 0 0 -0.53213442415653844 522.05533940424721 0 522.05533940424721 -405.61492764716968 0 0 0 0 -230.50503266081387 -890.7220475253489 0 -890.7220475253489 1458.4332031664599 0 0 0 0 363.76093448615876 -904.47271913854502 0 -904.47271913854502 2232.8329750078265 0 0 0 0 559.92091970925412 119.76215691440302 0 119.76215691440302 -553.51903742647482 0 0 0 0 61.722855426909689 -339.05956233995221 0 -339.05956233995221 759.74574549490353 0 0 0 0 75.973560370563064 293.59492869711539 0 293.59492869711539 1256.2993673342753 0 0 0 0 2.98770253640649 -2.1885563951483249 0 -2.1885563951483249 2.1311461918502346 0 0 0 0 576.13148885100577 96.621987745209481 0 96.621987745209481 134.27209997771524 0 0 0 0 431.19350820641813 -250.16807892211182 0 -250.16807892211182 488.11321787108318 0 0 0 0 392.2829961113448 283.46825245961372 0 283.46825245961372 728.20765184999254 0 0 0 0 112.69410852977535 -70.188267666242609 0 -70.188267666242609 876.93025862160721 0 0 0 0 110.08338464247117 -2.8805858524574433 0 -2.8805858524574433 452.44956450001337 0 0 0 0 59.034626427680678 -152.77620988196577 0 -152.77620988196577 438.37909806320386 0 0 0 0 247.92562595506752 -12.880778952363471 0 -12.880778952363471 194.58706248118324 0 0 0 0 610.86997760822987 438.10203933993034 0 438.10203933993034 361.48390169194317 0 0 0 0 77.334414233206985 26.132856310028728 0 26.132856310028728 -4.6696089660545113 0 0 0 0 -0.32284022686866232 0.84739152966207598 0 0.84739152966207598 5.1926607265239113 0 0 0 0 233.00049189530296 138.43817724094788 0 138.43817724094788 123.87517204214237 0 0 0 0 69.753144710425957 347.87606352255102 0 347.87606352255102 694.02399807656184 0 0 0 0 147.87877701124785 18.329878783930326 0 18.329878783930326 612.20903280787024 0 0 0 0 390.14691130586812 352.35375356318218 0 352.35375356318218 468.67662241169455 0 0 0 0 6.5649021578648199 -15.393639459093222 0 -15.393639459093222 23.121686114265032 0 0 0 0 8.7323617180029487 -126.09460914116426 0 -126.09460914116426 380.87623705449914 0 0 0 0 -667.99549163959409 -536.57457624161725 0 -536.57457624161725 -225.50614362314082 0 0 0 0 -546.02554883154414 85.934255528039103 0 85.934255528039103 50.368003045761725 0 0 0 0 6.7781480292560445 475.3444629898222 0 475.3444629898222 1452.9451821476687 0 0 0 0 232.25847164422885 121.73058736771054 0 121.73058736771054 -276.35839117919204 0 0 0 0 3.6474327644965356 -6.6141225948639715 0 -6.6141225948639715 10.100798704725747 0 0 0 0 -224.03722699714808 -1090.7846805704685 0 -1090.7846805704685 102.63558293262031 0 0 0 0 777.78151514085948 -268.95914415020525 0 -268.95914415020525 -157.79980178813275 0 0 0 0 106.17711448736964 -100.84731228486999 0 -100.84731228486999 -96.793021445490012 0 0 0 0 293.42621481537685 82.604775708841771 0 82.604775708841771 -125.52452074504981 0 0 0 0 209.58398325875146 -62.402084621491667 0 -62.402084621491667 134.81163324572844 0 0 0 0 16.56257386915695 121.31532846733171 0 121.31532846733171 -36.42329882660124 0 0 0 0 179.59574673988072 -43.082013584273227 0 -43.082013584273227 409.52682689125504 0 0 0 0 171.65551931020627 123.6076863855269 0 123.6076863855269 158.11175058506342 0 0 0 0 -148.84846950474684 -40.612877184976242 0 -40.612877184976242 253.61555200941802 0 0 0 0 86.759235685780368 35.928052593564644 0 35.928052593564644 68.132017458447081 0 0 0 0 2.6077422699572708 105.91036782784795 0 105.91036782784795 452.92718232380503 0 0 0 0 -142.49571674043091 35.383703227023943 0 35.383703227023943 105.33061961859494 0 0 0 0 -203.32193785700338 -209.02922201989531 0 -209.02922201989531 -72.065664225243381 0 0 0 0 -157.09347141395847 -128.2851198004355 0 -128.2851198004355 -292.97649833020478 0 0 0 0 -435.35689233272933 -109.67936124245171 0 -109.67936124245171 -101.19949966663989 0 0 0 0 -200.78915205497719 -201.70878486264246 0 -201.70878486264246 -87.329878163742251 0 0 0 0 -118.01796423327232 41.57604456115223 0 41.57604456115223 80.212969568994595 0 0 0 0 -158.0339310080906 -312.73293628370902 0 -312.73293628370902 -272.33108850849385 0 0 0 0 -39.371889936482148 36.301807042822475 0 36.301807042822475 -16.072588795846968 0 0 0 0 0.41945620111582427 -3.8469601048999991 0 -3.8469601048999991 11.169353410386293 0 0 0 0 12.18514934681707 -37.01915239488153 0 -37.01915239488153 -16.123985699465265 0 0 0 0 -489.56666897339971 -476.21434237650465 0 -476.21434237650465 -154.7155824354486 0 0 0 0 233.78739777246415 186.01005903117039 0 186.01005903117039 95.170063166937325 0 0 0 0 3.6629093118082157 -13.688109390147005 0 -13.688109390147005 33.771061277110078 0 0 0 0 -30.082442023601175 -106.16729766880599 0 -106.16729766880599 220.04434754125123 0 0 0 0 57.353284862219027 -49.26231684126833 0 -49.26231684126833 160.96833937340853 0 0 0 0 -49.361299055296683 53.829819780912658 0 53.829819780912658 211.89059805562511 0 0 0 0 -37.786692985671891 -23.94322214062413 0 -23.94322214062413 -2.061296903382754 0 0 0 0 -82.789611831313849 80.147244263328503 0 80.147244263328503 273.7916876940435 0 0 0 0 -88.754050803693389 48.424570043142012 0 48.424570043142012 290.97116657502193 0 0 0 0 -83.181144362705368 78.601670252795429 0 78.601670252795429 340.7519353540265 0 0 0 0 -13.254491615613688 -2.2797785226939595 0 -2.2797785226939595 292.33431166502851 0 0 0 0 -19.773011939288438 -5.7033566322252227 0 -5.7033566322252227 376.50606353939656 0 0 0 0 25.562081587896273 -34.996644388993445 0 -34.996644388993445 393.94361833299263 0 0 0 0 16.370899477887406 -174.79813739745441 0 -174.79813739745441 1037.2418044123078 0 0 0 0 250.03796136949404 -148.67805648222566 0 -148.67805648222566 127.42508039590757 0 0 0 0 632.55585758733525 -644.79352341509002 0 -644.79352341509002 424.79280957080482 0 0 0 0 331.52268132840595 -241.09656589872611 0 -241.09656589872611 214.62377575808932 0 0 0 0 564.25880222818023 -188.34373338681689 0 -188.34373338681689 8.5592929531994741 0 0 0 0 214.63853151624085 -198.60299929019675 0 -198.60299929019675 299.11365227073838 0 0 0 0 276.20816735222388 -141.71623716438626 0 -141.71623716438626 194.64107481317478 0 0 0 0 278.18786568847355 -59.957206336878755 0 -59.957206336878755 113.73775469478278 0 0 0 0 366.89247321384255 -117.90338617362431 0 -117.90338617362431 129.04154702210872 0 0 0 0 340.24447490084185 -35.019422082441451 0 -35.019422082441451 -40.930016481135681 0 0 0 0 181.92786544474893 -60.030536070993548 0 -60.030536070993548 531.98577909065352 0 0 0 0 274.5786036693321 -109.18078821102608 0 -109.18078821102608 208.5946011953929 0 0 0 0 297.78590723372145 -237.99679188188748 0 -237.99679188188748 131.42958489853208 0 0 0 0 236.47318141271421 -202.80341071421572 0 -202.80341071421572 492.03399044577964 0 0 0 0 52.316438541893746 46.938257557991165 0 46.938257557991165 -193.26599540220923 0 0 0 0 -9.6538210536857036 -145.01580816376372 0 -145.01580816376372 176.09108551828103 0 0 0 0 -46.448905931543464 -124.70697472295433 0 -124.70697472295433 239.96323487242626 0 0 0 0 -211.43332986629824 -291.94195147592109 0 -291.94195147592109 74.104958141762836 0 0 0 0 -330.70722341300916 -15.94746036314973 0 -15.94746036314973 222.0200535717504 0 0 0 0 90.976501382268196 -558.96938934299033 0 -558.96938934299033 -182.22068161060088 0 0 0 0 30.877936293945965 -32.856968871326195 0 -32.856968871326195 26.533593703410432 0 0 0 0 34.873501247054605 1892.9213582480227 0 1892.9213582480227 2189.9631443322578 0 0 0 0 39.455118761143495 -37.605529886142492 0 -37.605529886142492 27.764512205464186 0 0 0 0 501.48215136207727 1063.3788673677918 0 1063.3788673677918 487.05140042660787 0 0 0 0 124.19032667559441 -254.37709941756839 0 -254.37709941756839 191.08147963788451 0 0 0 0 -341.32718866354844 114.78463265101891 0 114.78463265101891 1894.2601112638877 0 0 0 0 -309.00693656311341 364.33824320058193 0 364.33824320058193 1733.694133007637 0 0 0 0 -21.494823503965108 136.37551177651767 0 136.37551177651767 352.96037682733004 0 0 0 0 121.93366153666045 -139.26965784808999 0 -139.26965784808999 56.904270940958668 0 0 0 0 -216.35456823524987 346.12864011679994 0 346.12864011679994 630.72716176612084 0 0 0 0 -83.656353166073643 -379.49259870425885 0 -379.49259870425885 -338.95517904986627 0 0 0 0 1.7186977855969658 -2.454635437646445 0 -2.454635437646445 2.3036621022303336 0 0 0 0 184.83709796212952 140.71669409920469 0 140.71669409920469 993.75524926809157 0 0 0 0 34.612472318773143 201.94911989231696 0 201.94911989231696 1147.5188035168248 0 0 0 0 15.230774389568978 114.40570876666607 0 114.40570876666607 1131.1053561131521 0 0 0 0 314.78054661925853 251.48296067429328 0 251.48296067429328 1064.2677467494141 0 0 0 0 117.25497606114368 196.93836267182451 0 196.93836267182451 1487.4548849803759 0 0 0 0 287.77727172506275 56.708903125596407 0 56.708903125596407 1263.2143453447643 0 0 0 0 -256.19731240849706 373.53806291725505 0 373.53806291725505 1134.4573889099047 0 0 0 0 26.829502679870082 -30.415334809907954 0 -30.415334809907954 22.946025801897363 0 0 0 0 62.799527766793972 -0.50790237926776172 0 -0.50790237926776172 126.56028239008447 0 0 0 0 245.29255409030429 -133.89318620511222 0 -133.89318620511222 -131.59469142419039 0 0 0 0 2.8567020156065759 -1.0307247664920354 0 -1.0307247664920354 0.44471347043773335 0 0 0 0 1.6647257191598328 55.682283173144242 0 55.682283173144242 -16.717581670178333 0 0 0 0 93.109086369338911 266.63583321521946 0 266.63583321521946 950.26539220220729 0 0 0 0 30.199077600770579 77.412519563353271 0 77.412519563353271 218.81883109145565 0 0 0 0 56.941753331876953 24.624185839062193 0 24.624185839062193 137.20202031417284 0 0 0 0 11.61948459295429 -13.075011265815633 0 -13.075011265815633 8.0662021135652253 0 0 0 0 -52.868754651493134 -139.17678109724034 0 -139.17678109724034 11.553915917196719 0 0 0 0 -51.798011451056823 -6.7757859855119023 0 -6.7757859855119023 147.43600141888601 0 0 0 0 -79.446605390606692 -21.968531768070534 0 -21.968531768070534 -174.96083443828138 0 0 0 0 -157.68027864386522 -95.189230021316689 0 -95.189230021316689 122.66949699757242 0 0 0 0 -110.45403270813802 -220.83833572501317 0 -220.83833572501317 -115.47883943704073 0 0 0 0 5.4577136755360902 -7.833974412641183 0 -7.833974412641183 7.5347152933383654 0 0 0 0 -67.895233032550394 -5.6705994059836939 0 -5.6705994059836939 36.844659320100618 0 0 0 0 20.449594896865733 -152.0236324091893 0 -152.0236324091893 176.40554483649612 0 0 0 0 28.83421118729234 121.95022071004496 0 121.95022071004496 217.39266163211141 0 0 0 0 -27.591207861211217 3.6511184729697561 0 3.6511184729697561 75.147357836685842 0 0 0 0 79.251258335118905 226.98344222067317 0 226.98344222067317 270.75583489859309 0 0 0 0 -119.17474820034363 11.917740482142108 0 11.917740482142108 393.39331158528148 0 0 0 0 -114.17247599954692 -181.65352767535842 0 -181.65352767535842 81.065437267490779 0 0 0 0 0.27692997340244085 -1.1108931500451789 0 -1.1108931500451789 3.6715366309124136 0 0 0 0 -75.305695153605484 -14.896358933860029 0 -14.896358933860029 158.39413014151069 0 0 0 0 -18.022040847310876 68.200034750441318 0 68.200034750441318 156.2879977206976 0 0 0 0 -56.486112832817071 9.0059316381775716 0 9.0059316381775716 186.59544762509904 0 0 0 0 21.029748840700933 28.1372275900967 0 28.1372275900967 70.554285855643684 0 0 0 0 -18.835878212409725 59.316966618974675 0 59.316966618974675 62.187015973911912 0 0 0 0 -63.119578299931618 22.027628723775706 0 22.027628723775706 119.06125678324679 0 0 0 0 -52.011251358636571 85.992789016087045 0 85.992789016087045 192.44940062065143 0 0 0 0 -7.6788519327122291 8.2923194574071069 0 8.2923194574071069 127.59368857855456 0 0 0 0 -364.50026372506147 157.21880800633335 0 157.21880800633335 475.61854042756386 0 0 0 0 9.157010725811233 1.7191072607056412 0 1.7191072607056412 113.00463720463449 0 0 0 0 0.14910550028487135 -2.4733843668300537 0 -2.4733843668300537 8.8256197946665225 0 0 0 0 -243.14551515288167 -120.72093734158625 0 -120.72093734158625 64.934293856815202 0 0 0 0 -24.773359212921605 -92.263566386740422 0 -92.263566386740422 -102.27838335147135 0 0 0 0 -117.04164924294679 26.224957304748159 0 26.224957304748159 178.39615505204711 0 0 0 0 -120.90460894975331 -43.268000115604082 0 -43.268000115604082 64.320116851420607 0 0 0 0 -25.286117837153768 32.117682398766192 0 32.117682398766192 69.910178118771 0 0 0 0 -17.754828245674162 -9.7386138850051793 0 -9.7386138850051793 220.09473767441955 0 0 0 0 14.526913453887488 -12.259803819280933 0 -12.259803819280933 -36.720422693826549 0 0 0 0 -177.18759721873039 27.658846922618977 0 27.658846922618977 78.60235615091915 0 0 0 0 107.74471217204655 302.76527081578433 0 302.76527081578433 76.656074575326784 0 0 0 0 233.48572790143498 103.16099732746261 0 103.16099732746261 119.06857539801604 0 0 0 0 218.6819006267051 -164.0313025719106 0 -164.0313025719106 214.73101175022384 0 0 0 0 31.903270689919736 34.588908584463752 0 34.588908584463752 290.4970366466514 0 0 0 0 266.3025433861967 -202.77711261217246 0 -202.77711261217246 554.514551706372 0 0 0 0 446.59399721321824 -132.0098518101322 0 -132.0098518101322 299.14586020339993 0 0 0 0 365.26752842605651 -4.0246146886174756 0 -4.0246146886174756 141.65162288701322 0 0 0 0 216.44932143645474 4.472518447370021 0 4.472518447370021 527.55600149422844 0 0 0 0 144.38063843898908 379.35720410095564 0 379.35720410095564 88.103181925655008 0 0 0 0 -289.70978113739778 211.41817239012045 0 211.41817239012045 101.77776586564869 0 0 0 0 -298.695961794428 393.17591004030146 0 393.17591004030146 -119.87378328646446 0 0 0 0 -770.97648243912761 173.81900997720368 0 173.81900997720368 127.9181477983293 0 0 0 0 -445.23689154929559 175.40178780031783 0 175.40178780031783 0.8568831558823149 0 0 0 0 -6.6988745168554349 22.695573822338353 0 22.695573822338353 138.02946428673454 0 0 0 0 -730.51341129227103 496.42701757187479 0 496.42701757187479 74.268666851076887 0 0 0 0 58.292072372815483 216.28830260651011 0 216.28830260651011 -49.228826706807013 0 0 0 0 -31.860953568290142 385.09033432604883 0 385.09033432604883 -24.179162983162314 0 0 0 0 -107.17943876002369 262.06403071573232 0 262.06403071573232 69.35118013382089 0 0 0 0 -118.27860049299466 311.83511813844598 0 311.83511813844598 -133.84329475624691 0 0 0 0 -419.76034519513485 361.38341748262519 0 361.38341748262519 82.732273421446735 0 0 0 0 -31.737289900468966 -1.3252951895337901 0 -1.3252951895337901 146.05858322656422 0 0 0 0 -0.57267155648273749 30.389397356586148 0 30.389397356586148 146.0157571819858 0 0 0 0 -212.083538051696 277.55648832822772 0 277.55648832822772 53.495730370068486 0 0 0 0 179.76657655299368 313.18039736292485 0 313.18039736292485 -18.68641996585211 0 0 0 0 -305.43331431202887 180.66246797214444 0 180.66246797214444 -73.414627944119275 0 0 0 0 -286.40492174787664 112.91297754134121 0 112.91297754134121 83.586517900053877 0 0 0 0 -136.1008939511446 155.25588124311253 0 155.25588124311253 12.835570424576872 0 0 0 0 -113.5150998494446 93.865578431657923 0 93.865578431657923 -56.555827404707088 0 0 0 0 -57.283873803922688 150.90449189401261 0 150.90449189401261 -84.321896384240972 0 0 0 0 -68.261272724976152 224.06844560824538 0 224.06844560824538 27.174733233232473 0 0 0 0 -42.777682366800946 222.99118734584772 0 222.99118734584772 10.871846954607463 0 0 0 0 63.009705634828606 152.73666198918363 0 152.73666198918363 26.427605778539146 0 0 0 0 79.078269194445056 208.58987241921204 0 208.58987241921204 -1.6893756364588626 0 0 0 0 100.43696673957902 159.2584546119615 0 159.2584546119615 -9.6424433588399552 0 0 0 0 97.518986718228916 168.71997531788656 0 168.71997531788656 -9.0670417834548971 0 0 0 0 183.67879514549895 152.47108603827655 0 152.47108603827655 -25.505510156886885 0 0 0 0 136.19439136874644 111.6661678079563 0 111.6661678079563 53.783200717167347 0 0 0 0 134.23109062370622 184.54287464737718 0 184.54287464737718 -45.178531079771346 0 0 0 0 270.25028441964605 -56.340576175738533 0 -56.340576175738533 -737.82783345493954 0 0 0 0 10.890152848977184 20.012225477668025 0 20.012225477668025 -33.001632563490858 0 0 0 0 229.19007673810029 47.274633815201014 0 47.274633815201014 -33.303033474782751 0 0 0 0 -52.006332212463917 69.659169751579157 0 69.659169751579157 3.3790227223507827 0 0 0 0 382.98252421411519 -26.343522179415118 0 -26.343522179415118 -13.328847466091247 0 0 0 0 2.4949554614969056 3.121319164408785 0 3.121319164408785 -5.0815292390686295 0 0 0 0 411.8391579683248 150.01830551392595 0 150.01830551392595 -89.884348058033538 0 0 0 0 211.33331649367483 294.36640749661456 0 294.36640749661456 -78.954716851189914 0 0 0 0 -378.07102683424091 480.74227663030251 0 480.74227663030251 -194.19484197242036 0 0 0 0 -261.09975591156763 294.51307220032322 0 294.51307220032322 84.203242819104617 0 0 0 0 148.70932998084936 425.8969740548423 0 425.8969740548423 -188.67556736638653 0 0 0 0 -192.65834151630042 -69.235796895844942 0 -69.235796895844942 242.27717078827118 0 0 0 0 -60.089116966195888 46.923096519651153 0 46.923096519651153 84.437680081831786 0 0 0 0 -776.367222619534 37.755220146711508 0 37.755220146711508 -64.801343308750802 0 0 0 0 -519.73980613626918 200.38636498427877 0 200.38636498427877 38.202859947952675 0 0 0 0 -285.55400980027571 -125.40373982161509 0 -125.40373982161509 140.92951376276324 0 0 0 0 -514.81016852125322 136.74421537956732 0 136.74421537956732 -116.04254679036876 0 0 0 0 -230.80824207701517 -119.35899982373667 0 -119.35899982373667 -118.36726426144742 0 0 0 0 -274.23204683891072 -144.43932938569924 0 -144.43932938569924 -100.67671313064056 0 0 0 0 -705.05300564171739 714.89693816156796 0 714.89693816156796 -672.51024277889519 0 0 0 0 -730.4394874312311 300.70027160763857 0 300.70027160763857 128.85832995035889 0 0 0 0 -336.02822436418137 300.45624943736038 0 300.45624943736038 -172.10752491543099 0 0 0 0 -402.55399956988913 682.90602616591787 0 682.90602616591787 -795.78210608714289 0 0 0 0 -439.91790999661134 61.425160637207227 0 61.425160637207227 -613.51961924328498 0 0 0 0 -982.55862121018436 680.80971635229071 0 680.80971635229071 -555.15149970315451 0 0 0 0 -1431.3791457185362 431.88484077796602 0 431.88484077796602 -629.09778641362936 0 0 0 0 0.47296103351440522 3.357281653311702 0 3.357281653311702 4.0561629692781551 0 0 0 0 -89.425761413884175 40.287939964151519 0 40.287939964151519 242.28241790754691 0 0 0 0 -51.592646141372597 60.674751534443203 0 60.674751534443203 167.84382717072731 0 0 0 0 -979.02450377680725 585.8353902093877 0 585.8353902093877 -642.14877424575297 0 0 0 0 10.67573444855676 26.50439825492024 0 26.50439825492024 28.431550775778462 0 0 0 0 -1096.1449561518639 994.07156582231619 0 994.07156582231619 -271.15756886086638 0 0 0 0 -1406.963652504548 728.34897631209606 0 728.34897631209606 200.96708419510833 0 0 0 0 -489.07379430929723 126.33595127232547 0 126.33595127232547 235.03733368742542 0 0 0 0 -120.16848555757412 85.949495219836137 0 85.949495219836137 292.15898365173052 0 0 0 0 -196.47330486177066 37.655511634539835 0 37.655511634539835 281.63332925116265 0 0 0 0 -298.03077607189061 -215.67816506810777 0 -215.67816506810777 442.86051733386557 0 0 0 0 60.667525115019998 -81.846694753556221 0 -81.846694753556221 337.04531888311612 0 0 0 0 -295.62287497946454 -128.50340804491134 0 -128.50340804491134 485.33373657448101 0 0 0 0 -469.16249704292613 -53.445730612078478 0 -53.445730612078478 557.54246288750073 0 0 0 0 -263.64047706379779 278.70059341457818 0 278.70059341457818 282.80809745608713 0 0 0 0 -199.46574345261342 80.437551228373195 0 80.437551228373195 616.86021721315046 0 0 0 0 -119.19585090510887 138.51260187290154 0 138.51260187290154 136.97343289760465 0 0 0 0 -129.87698252163727 895.87184342525143 0 895.87184342525143 1282.3062932772227 0 0 0 0 -212.21903723654304 555.72788170039712 0 555.72788170039712 -24.972810236441092 0 0 0 0 -229.35306261567143 403.30712019876592 0 403.30712019876592 707.7036551166384 0 0 0 0 -343.77211683978112 -438.45615559441467 0 -438.45615559441467 3055.7067662214831 0 0 0 0 951.516242473901 1734.5416072169392 0 1734.5416072169392 -939.88144380590711 0 0 0 0 292.79415582836111 427.26509599796009 0 427.26509599796009 467.83792499889387 0 0 0 0 -453.28833343446149 204.09703288683158 0 204.09703288683158 1084.6115729043895 0 0 0 0 -511.10902617853435 62.701366114113625 0 62.701366114113625 740.9029387573205 0 0 0 0 182.15678948197788 822.98563100794036 0 822.98563100794036 -6.3841102218357264 0 0 0 0 -666.45039681093772 -110.99671711676274 0 -110.99671711676274 683.36019037967708 0 0 0 0 1.5559698601519072 7.1677262850730443 0 7.1677262850730443 19.265816022463156 0 0 0 0 -501.84973353481769 -333.33611391250088 0 -333.33611391250088 218.50989800963362 0 0 0 0 -47.188791357463742 -274.17356705855855 0 -274.17356705855855 123.41474977250618 0 0 0 0 -388.58945211583068 -255.56086337062879 0 -255.56086337062879 444.56844110890961 0 0 0 0 -405.69555646889148 -173.64939331779897 0 -173.64939331779897 482.03301694252877 0 0 0 0 19.135231691766915 -9.0582028346142636 0 -9.0582028346142636 36.072504535423548 0 0 0 0 27.293348355226044 62.335440059629036 0 62.335440059629036 161.11724956261764 0 0 0 0 -51.105550521652233 -17.988317841419644 0 -17.988317841419644 137.06414966381999 0 0 0 0 32.36708609487323 35.312378666989389 0 35.312378666989389 160.12332039945204 0 0 0 0 42.551719573380979 55.27586894747219 0 55.27586894747219 129.77471043750666 0 0 0 0 -3.5044965545982336 222.94756953338174 0 222.94756953338174 92.239707616725354 0 0 0 0 10.897682966670907 35.200017067992505 0 35.200017067992505 132.96271893167551 0 0 0 0 2.8575020404432507 155.77247733454351 0 155.77247733454351 88.369907015476201 0 0 0 0 -104.53727684280511 123.88704548816895 0 123.88704548816895 111.25866734344709 0 0 0 0 -517.47735673118223 331.99095365908579 0 331.99095365908579 168.57916488181218 0 0 0 0 -9.0865088260481031 -0.71433302817651168 0 -0.71433302817651168 25.350719653165939 0 0 0 0 -72.109281115752083 247.77419487948919 0 247.77419487948919 83.276157843363762 0 0 0 0 -9.8698565018157751 226.69575782179163 0 226.69575782179163 105.75812609859713 0 0 0 0 44.411107906618781 156.43659149052837 0 156.43659149052837 130.01358758087918 0 0 0 0 -20.466883890503595 211.3510820542615 0 211.3510820542615 25.58659379990786 0 0 0 0 -17.062817844393521 222.27530194038445 0 222.27530194038445 59.532692746746761 0 0 0 0 2.6121563453738919 33.363658974225132 0 33.363658974225132 -16.815563906455338 0 0 0 0 -98.318992076588529 -342.52147760317894 0 -342.52147760317894 698.80396023896174 0 0 0 0 1425.9761793061111 18.175650010900426 0 18.175650010900426 -563.49789724149014 0 0 0 0 69.098981571790148 0.47592145768290095 0 0.47592145768290095 613.59800553997775 0 0 0 0 5.2363879579443786 11.390961709776995 0 11.390961709776995 20.218052911235745 0 0 0 0 69.400042585822575 -84.286268732084864 0 -84.286268732084864 91.777834571985295 0 0 0 0 273.4852592838688 371.9673916753236 0 371.9673916753236 334.76964420857985 0 0 0 0 113.24122892866581 -67.173610037156323 0 -67.173610037156323 -264.28342074887769 0 0 0 0 2.7548525049525878 2.5886180378093684 0 2.5886180378093684 46.658960860304148 0 0 0 0 32.540792323903588 -57.144771242106799 0 -57.144771242106799 -28.640319987694966 0 0 0 0 8.6296510232500037 -18.645010220018946 0 -18.645010220018946 21.800099986085456 0 0 0 0 50.903571240207384 33.615554626827361 0 33.615554626827361 124.3094956288769 0 0 0 0 23.282909054169522 46.694223633920046 0 46.694223633920046 148.04670340367011 0 0 0 0 13.025010707258843 22.938780190306716 0 22.938780190306716 121.79927771822076 0 0 0 0 -152.52236354138176 -195.96145138354768 0 -195.96145138354768 169.14048047301185 0 0 0 0 5.6916876697995153 -4.361610912207297 0 -4.361610912207297 -3.9888358873038499 0 0 0 0 65.30537537105738 380.70163806369237 0 380.70163806369237 641.01510374576901 0 0 0 0 135.93490798842504 332.1228772814793 0 332.1228772814793 289.85999284987338 0 0 0 0 111.54977628636334 -38.171309092707816 0 -38.171309092707816 45.879433909853105 0 0 0 0 -38.759231982431629 224.91681464184876 0 224.91681464184876 699.36129280211753 0 0 0 0 68.501793368582184 341.87898018554188 0 341.87898018554188 641.84560040256474 0 0 0 0 38.322380604285627 337.54635795464856 0 337.54635795464856 698.84342093636951 0 0 0 0 -102.1413731391367 42.430465037898102 0 42.430465037898102 698.7847460830526 0 0 0 0 185.15343635634781 620.73286841543086 0 620.73286841543086 1120.7579656726448 0 0 0 0 523.5136077674855 191.21926757165784 0 191.21926757165784 31.850790564276394 0 0 0 0 368.1458838866165 399.14079640908312 0 399.14079640908312 710.1742603050825 0 0 0 0 57.169792949995099 305.17379098632955 0 305.17379098632955 727.26474018506815 0 0 0 0 144.75387346141179 198.53163499415132 0 198.53163499415132 853.65271884499816 0 0 0 0 79.026453682439751 126.08169099562656 0 126.08169099562656 797.22346207382361 0 0 0 0 63.748649346485763 109.84229917716948 0 109.84229917716948 1076.8593353302786 0 0 0 0 -11.927109775344434 209.60470011942743 0 209.60470011942743 961.63395465130452 0 0 0 0 54.959150419434081 191.84305512892752 0 191.84305512892752 943.46439246045702 0 0 0 0 -389.38014618787111 84.927021480286385 0 84.927021480286385 355.37557267353259 0 0 0 0 -315.27043995067811 178.41708171697064 0 178.41708171697064 -460.7332097837716 0 0 0 0 -929.10964046614208 491.00210982521821 0 491.00210982521821 400.61626122301459 0 0 0 0 1381.30477450326 784.87715274921902 0 784.87715274921902 -1789.0145909292987 0 0 0 0 -516.95310724685646 -936.49904347811389 0 -936.49904347811389 2547.5269173895795 0 0 0 0 0.51650181859077549 10.459884681957073 0 10.459884681957073 38.166640969856616 0 0 0 0 451.79402342160256 -431.99236245469365 0 -431.99236245469365 -593.10783152386648 0 0 0 0 470.99538254656312 -282.85532423810582 0 -282.85532423810582 535.5857642012179 0 0 0 0 -1390.4069897905656 742.61421879493537 0 742.61421879493537 985.97640019157552 0 0 0 0 1085.5192359372891 736.17368765624997 0 736.17368765624997 398.36538817919791 0 0 0 0 -350.06728472109194 -25.469872438224229 0 -25.469872438224229 -341.82775033444705 0 0 0 0 0.29115128563273984 3.1300083915945045 0 3.1300083915945045 18.887556437511478 0 0 0 0 558.6276195479727 807.07817605946911 0 807.07817605946911 227.40826785409445 0 0 0 0 -162.58348616253647 -877.59614730795602 0 -877.59614730795602 1036.3675317066536 0 0 0 0 -88.80943139833002 -270.30485131595026 0 -270.30485131595026 1927.5936162344442 0 0 0 0 -109.94026133125192 -540.40798543801839 0 -540.40798543801839 1114.8686066306545 0 0 0 0 339.17285736654475 279.37381676172117 0 279.37381676172117 1713.0345025400329 0 0 0 0 1057.5658592222901 -323.55230010910327 0 -323.55230010910327 285.32537750525444 0 0 0 0 -156.9254159001357 -580.18416581496422 0 -580.18416581496422 920.96478325804674 0 0 0 0 163.97269978985787 -10.707024392115272 0 -10.707024392115272 1299.9108195390145 0 0 0 0 137.94162818862361 -30.944835529855482 0 -30.944835529855482 13.16142508953817 0 0 0 0 372.61900191572931 -797.65408259201331 0 -797.65408259201331 514.40333015173019 0 0 0 0 696.79628781256622 -599.94402355043076 0 -599.94402355043076 411.59865641069382 0 0 0 0 -0.8658311449971019 -1.6254825379725855 0 -1.6254825379725855 6.0927852875807389 0 0 0 0 169.75554146474542 349.39086247942214 0 349.39086247942214 342.11742406127814 0 0 0 0 30.543153919286851 -65.595279476538053 0 -65.595279476538053 117.43989419573791 0 0 0 0 -49.774696228480025 -368.41046830530104 0 -368.41046830530104 1240.5265671837296 0 0 0 0 -124.21635217552375 -196.73719663335942 0 -196.73719663335942 1282.3908756086748 0 0 0 0 -151.48081855934288 -77.693908907286186 0 -77.693908907286186 983.93801299262122 0 0 0 0 -59.39582577325109 -375.01215291356311 0 -375.01215291356311 974.97530567481954 0 0 0 0 -104.09193526360377 -308.07110202405784 0 -308.07110202405784 1253.1998364519604 0 0 0 0 -1.9319790562294656 -211.13715643302567 0 -211.13715643302567 1241.5009024652827 0 0 0 0 -105.34688357736377 -257.88606948930101 0 -257.88606948930101 1243.7850153193549 0 0 0 0 -198.88981277521634 -205.37558755919599 0 -205.37558755919599 1340.6211588696897 0 0 0 0 56.535819487795834 -341.57859905702571 0 -341.57859905702571 1165.1195001292472 0 0 0 0 64.802609048177601 -130.77381768754094 0 -130.77381768754094 1572.2122121096982 0 0 0 0 -1.2212570172168853 -245.67537358759728 0 -245.67537358759728 1078.3693434065062 0 0 0 0 202.94748832208779 -211.83859112804748 0 -211.83859112804748 1051.2776670073872 0 0 0 0 193.8993111718496 -276.07270535095086 0 -276.07270535095086 646.89378411331563 0 0 0 0 -73.774948490639872 -94.404129682478015 0 -94.404129682478015 1369.9258529514918 0 0 0 0 -80.433093499814277 -133.57315580963041 0 -133.57315580963041 1169.6288796918088 0 0 0 0 26.509304562247053 -84.533354821604007 0 -84.533354821604007 1187.7776910985413 0 0 0 0 84.597998550925695 -68.370700551189657 0 -68.370700551189657 894.54337927013694 0 0 0 0 -11.011976179803241 14.498350311398099 0 14.498350311398099 1020.0735142332633 0 0 0 0 -10.134096445647629 53.292351298321591 0 53.292351298321591 1289.2563145676395 0 0 0 0 -58.5844862977101 50.609393030186766 0 50.609393030186766 1445.4276456344815 0 0 0 0 -247.7617197030122 -45.947323702828726 0 -45.947323702828726 1398.0393058276277 0 0 0 0 -89.229685560261714 -31.11754457893403 0 -31.11754457893403 1240.8863437544096 0 0 0 0 -556.77016669600562 447.6248696227558 0 447.6248696227558 1385.2050399790714 0 0 0 0 289.85194929664613 362.25944410294323 0 362.25944410294323 1371.7203022106114 0 0 0 0 -39.53603001787269 66.616813049608027 0 66.616813049608027 1341.838776792174 0 0 0 0 50.772621592426731 210.50681768407776 0 210.50681768407776 1388.1155017110286 0 0 0 0 773.30063180839352 -110.67344758508989 0 -110.67344758508989 1281.307841451875 0 0 0 0 185.16151545764478 -366.68297175295083 0 -366.68297175295083 2144.2736381351133 0 0 0 0 -1483.0660098252265 97.161189678859955 0 97.161189678859955 2639.5378991320322 0 0 0 0 1185.46216836847 -1460.7043748287797 0 -1460.7043748287797 17.204593150043365 0 0 0 0 -607.04853575742891 728.57778187253643 0 728.57778187253643 490.88321665565309 0 0 0 0 -373.85315460850688 -808.30476106454807 0 -808.30476106454807 2350.8748644933503 0 0 0 0 -192.02062887023203 -509.32323632563566 0 -509.32323632563566 1647.8074805672695 0 0 0 0 -179.77415820522037 -508.37613024968596 0 -508.37613024968596 1313.2025212250937 0 0 0 0 -197.70700483396649 -158.46308354791836 0 -158.46308354791836 1590.5592943596421 0 0 0 0 -248.22559441121848 16.862123429660642 0 16.862123429660642 1922.794621849258 0 0 0 0 531.26403878059136 -565.05196379888912 0 -565.05196379888912 158.18945887697919 0 0 0 0 3.9983097261005902 -7.9715493982916428 0 -7.9715493982916428 16.277003239984879 0 0 0 0 191.12791894718976 1578.801329637754 0 1578.801329637754 4560.0548078480651 0 0 0 0 171.42946320211195 -1097.4026105538178 0 -1097.4026105538178 4361.6069459466962 0 0 0 0 -519.07078438859753 291.76815969547897 0 291.76815969547897 3772.9926430653941 0 0 0 0 -162.97201500174924 -441.30093025155657 0 -441.30093025155657 3158.6214793757063 0 0 0 0 -8.8177253470901107 -1.7621908452489876 0 -1.7621908452489876 1.4730023834692147 0 0 0 0 -327.50056777338978 -99.418786473008367 0 -99.418786473008367 2675.4319584151308 0 0 0 0 -454.31987236544228 17.965343837699038 0 17.965343837699038 2696.8451150856745 0 0 0 0 -393.68211059126952 425.8917376231193 0 425.8917376231193 2063.8830601937952 0 0 0 0 699.02506002204063 1442.7581327056068 0 1442.7581327056068 142.9952913636771 0 0 0 0 262.87955215601869 892.7739766104205 0 892.7739766104205 -347.26772626106322 0 0 0 0 -67.060049863191125 -797.58449406335058 0 -797.58449406335058 1439.1030828982548 0 0 0 0 -43.026956521188467 2.4522552026623003 0 2.4522552026623003 14.385925305668493 0 0 0 0 198.80330461011204 -400.87970333202247 0 -400.87970333202247 -283.88565159674545 0 0 0 0 -131.63433280724712 9.1112863474590995 0 9.1112863474590995 387.81569760783532 0 0 0 0 -40.601842413612758 674.32959396558363 0 674.32959396558363 163.29450211838412 0 0 0 0 146.20986401891241 1191.5559986285662 0 1191.5559986285662 1595.1813312026975 0 0 0 0 -401.35512469257264 1304.4657807915828 0 1304.4657807915828 1870.9881949485207 0 0 0 0 -359.42843591032215 -78.834791602261248 0 -78.834791602261248 1513.8030296001234 0 0 0 0 -135.58202673120468 -42.663707979529136 0 -42.663707979529136 -27.233057579825982 0 0 0 0 -0.56448468864906554 2.6185244782896762 0 2.6185244782896762 28.402956330604155 0 0 0 0 25.916536002389876 -265.81268149680909 0 -265.81268149680909 262.58139914384083 0 0 0 0 744.61295666481828 1649.1496342636001 0 1649.1496342636001 -60.429198749101488 0 0 0 0 1276.2725302233484 1622.2979531877572 0 1622.2979531877572 -2132.7027822574601 0 0 0 0 658.0441890072816 832.64726000381052 0 832.64726000381052 198.63565248890154 0 0 0 0 1480.4987189143462 735.20597912741141 0 735.20597912741141 -357.08536823352915 0 0 0 0 300.7726132174048 -389.48518654275722 0 -389.48518654275722 -66.127464628065354 0 0 0 0 -755.16153775874864 888.19091136830957 0 888.19091136830957 709.21492298703379 0 0 0 0 349.0766978710235 -786.02855260108845 0 -786.02855260108845 1150.9459367224699 0 0 0 0 -307.29842750891112 121.93111362309719 0 121.93111362309719 -232.36277129502923 0 0 0 0 -1.0712089470215567 1.0757603336412025 0 1.0757603336412025 22.723614744892799 0 0 0 0 -521.48041325018312 -439.09918199861568 0 -439.09918199861568 21.14604700838936 0 0 0 0 -991.52782168732756 -149.4104619157697 0 -149.4104619157697 170.15584121133361 0 0 0 0 -0.72443394923791526 3.4188515398168704 0 3.4188515398168704 53.135690100265208 0 0 0 0 -278.90178060900962 216.19068662188693 0 216.19068662188693 186.771004360608 0 0 0 0 -480.58538966681499 -47.031315346004703 0 -47.031315346004703 48.371944114089274 0 0 0 0 -281.64265678251559 -97.373353958813823 0 -97.373353958813823 60.302852674125461 0 0 0 0 -519.97209466101413 -263.29119248848292 0 -263.29119248848292 -12.540216778652393 0 0 0 0 -254.65227378289501 -102.06068036167926 0 -102.06068036167926 0.91578334611040191 0 0 0 0 -8.8030584728375523 6.5655426189733568 0 6.5655426189733568 67.386833385875718 0 0 0 0 -119.38064416427164 85.560491041672321 0 85.560491041672321 21.849765141316311 0 0 0 0 -0.62863198108386964 -5.3768389789179842 0 -5.3768389789179842 51.049802194334575 0 0 0 0 -1048.8960686798282 -1694.7315448211702 0 -1694.7315448211702 4102.7135199658951 0 0 0 0 -451.2783252808722 1268.4657642810598 0 1268.4657642810598 1209.9793432426959 0 0 0 0 30.405636484705063 9.4616220657747476 0 9.4616220657747476 5.0264635608424442 0 0 0 0 1680.684102720933 -949.59631495160465 0 -949.59631495160465 -322.27554464081186 0 0 0 0 -363.61772265197578 628.08328517366317 0 628.08328517366317 2807.2428112568887 0 0 0 0 -623.71912167212031 977.34755203973327 0 977.34755203973327 2677.329575170821 0 0 0 0 -137.97508545419259 462.47268370337406 0 462.47268370337406 1334.4776199184707 0 0 0 0 2952.5986365875797 -275.02221717855718 0 -275.02221717855718 -3644.6007111408253 0 0 0 0 -325.8456296559325 -45.964125245807736 0 -45.964125245807736 99.61356746628735 0 0 0 0 -422.47844275688294 -155.50813979572558 0 -155.50813979572558 -24.565846853289031 0 0 0 0 -534.96504551313842 -124.05637787286059 0 -124.05637787286059 243.95956963256322 0 0 0 0 1618.3819560384563 351.47236967382923 0 351.47236967382923 -1867.143252386104 0 0 0 0 -42.437727652855756 1335.5485165140271 0 1335.5485165140271 306.71967648464488 0 0 0 0 415.25608076272874 -1482.7686883397719 0 -1482.7686883397719 1612.784919133439 0 0 0 0 1.432694586138556 -7.5094367471299686 0 -7.5094367471299686 22.743694258208762 0 0 0 0 28.191662226698099 664.19501166071132 0 664.19501166071132 19.578534224732721 0 0 0 0 -7.8841042690033873 -4.0279032504502226 0 -4.0279032504502226 22.247664628773322 0 0 0 0 -516.64766930194332 25.372438060327113 0 25.372438060327113 1272.6020340094619 0 0 0 0 -824.68658563509962 -324.81197090742717 0 -324.81197090742717 139.31607070567406 0 0 0 0 -417.14434888945289 -487.43512996536265 0 -487.43512996536265 -366.79885870793805 0 0 0 0 -10.994268766451984 2.0887743155663117 0 2.0887743155663117 -0.036377606986928157 0 0 0 0 -891.77998734024254 -1501.5139476657559 0 -1501.5139476657559 2729.999469107046 0 0 0 0 -1082.6880106293129 -102.88692081125373 0 -102.88692081125373 1609.9605462985201 0 0 0 0 -640.87687979765406 -595.25201196125636 0 -595.25201196125636 2108.3457114937628 0 0 0 0 -12.645218645421267 -6.8024659415693947 0 -6.8024659415693947 12.445252872238743 0 0 0 0 722.39762412203163 -1161.1215888747556 0 -1161.1215888747556 1898.2388145103032 0 0 0 0 2184.316105076814 -1044.3484173068064 0 -1044.3484173068064 -482.21022437096326 0 0 0 0 -31.879761202140955 3.5081959186135947 0 3.5081959186135947 19.67038162260377 0 0 0 0 105.44051046313689 -234.39354024413478 0 -234.39354024413478 575.27639132208151 0 0 0 0 -177.6428641409384 -9.7766341617643775 0 -9.7766341617643775 98.280053034213779 0 0 0 0 -114.71405650252564 -180.71306328564606 0 -180.71306328564606 -67.449345544198877 0 0 0 0 -554.56894303720264 -811.24164816756456 0 -811.24164816756456 805.51649153180188 0 0 0 0 -18.911088256733024 -195.50539262060011 0 -195.50539262060011 963.80088030997649 0 0 0 0 -9.1604374427584645 1.4449616954871138 0 1.4449616954871138 45.067935062452619 0 0 0 0 458.28579619180027 -472.99358560842393 0 -472.99358560842393 232.06916063301833 0 0 0 0 -87.869425622061499 -19.035299434437547 0 -19.035299434437547 54.523534812182334 0 0 0 0 -32.376787251756767 8.8080703080127947 0 8.8080703080127947 14.979399624428392 0 0 0 0 -51.569348107873338 30.744607839236778 0 30.744607839236778 44.253706301141392 0 0 0 0 -32.423850202665562 -5.4806447586270224 0 -5.4806447586270224 42.099173606200566 0 0 0 0 -1.8867221637119655 14.54381365431982 0 14.54381365431982 6.2568999366621938 0 0 0 0 -20.728347251848227 7.06427522023953 0 7.06427522023953 -0.75780850021873292 0 0 0 0 -10.431556643494332 -2.302881433713992 0 -2.302881433713992 10.635190717341175 0 0 0 0 -31.952621231824821 -7.807161530255371 0 -7.807161530255371 19.209272656484245 0 0 0 0 9.3415309955039447 -29.861383746883803 0 -29.861383746883803 30.928698215906479 0 0 0 0 -3.7299975686344107 -0.43658007467350046 0 -0.43658007467350046 8.8250094786818636 0 0 0 0 -37.271961278993331 13.875207610888538 0 13.875207610888538 19.429725038573451 0 0 0 0 10.142199823683377 25.610527109774779 0 25.610527109774779 13.73543821032581 0 0 0 0 -678.10805640192189 -183.58937036754287 0 -183.58937036754287 215.23536635600522 0 0 0 0 -352.75492062375008 335.66983709820579 0 335.66983709820579 -170.75575824840234 0 0 0 0 -500.40344651067471 -150.62655491913802 0 -150.62655491913802 315.89090068861333 0 0 0 0 0.48567213770041789 -4.9167085940873569 0 -4.9167085940873569 26.68545305114209 0 0 0 0 89.140517813875817 108.30811078655461 0 108.30811078655461 -211.13245929930599 0 0 0 0 -903.73996858188434 158.37956110100095 0 158.37956110100095 186.89148682617451 0 0 0 0 -959.37863336289888 -61.782700449264667 0 -61.782700449264667 -163.31819181759784 0 0 0 0 -813.95802606833615 329.91204594214651 0 329.91204594214651 -173.94780902279626 0 0 0 0 -0.39675048348449171 0.22023999913709957 0 0.22023999913709957 0.77925507668297023 0 0 0 0 -26.221215854965521 6.5817477448599675 0 6.5817477448599675 7.1160888363738195 0 0 0 0 -2.2684827014983555 2.7734025249059382 0 2.7734025249059382 5.9445683499732809 0 0 0 0 -880.20261369509251 259.75269172876779 0 259.75269172876779 177.0314274699922 0 0 0 0 1.3232710963096759 -3.8053101786646906 0 -3.8053101786646906 8.6394909231174921 0 0 0 0 268.32796304703061 5.2968023645953508 0 5.2968023645953508 -22.886345943248671 0 0 0 0 -455.89602844024074 -103.69833693364671 0 -103.69833693364671 101.63199831092788 0 0 0 0 -250.86363782749584 -7.2841064823974193 0 -7.2841064823974193 585.46984801467988 0 0 0 0 -223.71191541827565 38.865316115523683 0 38.865316115523683 -247.30584847755017 0 0 0 0 -0.89033324902921462 0.24982321199743751 0 0.24982321199743751 10.631651931254936 0 0 0 0 -835.64619527670664 32.205734202882013 0 32.205734202882013 481.75124552290254 0 0 0 0 -24.416537014895425 9.5812165236002329 0 9.5812165236002329 20.835685733516584 0 0 0 0 120.50097706380029 29.936833545705667 0 29.936833545705667 -32.633507574508258 0 0 0 0 48.748787917020536 19.120131987121567 0 19.120131987121567 -17.967857051815372 0 0 0 0 -15.050396229417402 31.286064677116883 0 31.286064677116883 -14.987198665057804 0 0 0 0 -21.789326043013716 82.802910499469363 0 82.802910499469363 -38.974593673897061 0 0 0 0 2.6600377251834288 -11.746148574502513 0 -11.746148574502513 7.7206020847415857 0 0 0 0 -64.732148667863839 393.12318713122659 0 393.12318713122659 670.32096343164449 0 0 0 0 -20.499194628811892 618.26400006106633 0 618.26400006106633 1794.9220698903227 0 0 0 0 -19.153272333252971 375.90330677213205 0 375.90330677213205 639.27158562344266 0 0 0 0 -438.58490861275823 189.03457458774938 0 189.03457458774938 529.66315784111794 0 0 0 0 -335.15690800136872 32.790836349216988 0 32.790836349216988 555.41797710134233 0 0 0 0 379.96437456528747 869.20489316126623 0 869.20489316126623 -660.54234303062549 0 0 0 0 7.4652673239390062 5.3191490280690772 0 5.3191490280690772 3.9702889300563555 0 0 0 0 -93.919880061841468 120.77021640799649 0 120.77021640799649 -219.14552007491875 0 0 0 0 -157.42158108941658 -153.72674630943948 0 -153.72674630943948 2516.5833065653314 0 0 0 0 316.18507195969937 1027.5122669912998 0 1027.5122669912998 1279.056974461826 0 0 0 0 471.5206702300693 1155.9180254603561 0 1155.9180254603561 195.17567193312425 0 0 0 0 1042.3703550264545 537.41596740992463 0 537.41596740992463 553.13989890324592 0 0 0 0 168.56355356881068 -99.403038777854817 0 -99.403038777854817 1139.478463137857 0 0 0 0 -61.410536933618459 111.41098681469157 0 111.41098681469157 679.2479140003561 0 0 0 0 -269.51681536098795 475.08003589992586 0 475.08003589992586 388.325721123314 0 0 0 0 261.86801987191029 -198.2413413842005 0 -198.2413413842005 -202.68918076155023 0 0 0 0 -702.87156514257845 -499.01350773439117 0 -499.01350773439117 124.40111073377193 0 0 0 0 -187.87351300379896 -26.134379451759742 0 -26.134379451759742 349.80365005315252 0 0 0 0 500.43867954731604 431.20297717635549 0 431.20297717635549 434.88717810223898 0 0 0 0 319.1429960055134 995.71571389857309 0 995.71571389857309 1722.2228346477496 0 0 0 0 -18.40569081963622 194.46563411370153 0 194.46563411370153 1071.405714655164 0 0 0 0 41.091847924841204 123.04790163880534 0 123.04790163880534 1233.0441170113736 0 0 0 0 27.547718067164737 441.44010454441377 0 441.44010454441377 1022.5493114879937 0 0 0 0 226.12024615575046 202.28256083567976 0 202.28256083567976 280.93654313202478 0 0 0 0 -72.023896390142909 281.92004201840973 0 281.92004201840973 723.71815849442646 0 0 0 0 19.948859772329342 239.54519763726421 0 239.54519763726421 736.24587175701345 0 0 0 0 4.0001484261783844 150.90037711823607 0 150.90037711823607 808.7399813124066 0 0 0 0 29.655630642045253 141.27412298607669 0 141.27412298607669 432.80662503453277 0 0 0 0 -61.748301871531112 354.67547110749001 0 354.67547110749001 997.19368505947932 0 0 0 0 -129.48945390587551 207.63459148311449 0 207.63459148311449 788.59072446110076 0 0 0 0 -76.138151543110325 288.96042938137543 0 288.96042938137543 1034.5080855727574 0 0 0 0 -19.418288452618071 311.63238503848697 0 311.63238503848697 1038.9622839456861 0 0 0 0 -93.696652173601706 255.00737451326859 0 255.00737451326859 1100.9731711452077 0 0 0 0 8.7684028527617102 -15.108077859191326 0 -15.108077859191326 9.569833184556046 0 0 0 0 12.290338368806582 5.9199908601251678 0 5.9199908601251678 9.2923259803808378 0 0 0 0 2.6415807979880039 0.91186255260551263 0 0.91186255260551263 2.4556704045309772 0 0 0 0 18.019460402629562 13.777902428222802 0 13.777902428222802 8.7564196624400239 0 0 0 0 182.17854204455398 318.48837428021943 0 318.48837428021943 646.27794747293228 0 0 0 0 -278.76133899067281 267.01414838007622 0 267.01414838007622 -173.73731263792433 0 0 0 0 -158.1869906265083 -85.489763466321165 0 -85.489763466321165 1019.1218890690143 0 0 0 0 -49.144077185184869 78.836265238831402 0 78.836265238831402 226.91973515618884 0 0 0 0 1.0690704011563099 3.6880981686532266 0 3.6880981686532266 7.4806004656858818 0 0 0 0 -399.5197292945777 332.00460193304752 0 332.00460193304752 186.06738587789005 0 0 0 0 -388.02564532226643 172.90813424558291 0 172.90813424558291 846.15109655745619 0 0 0 0 -386.2273869183191 -3.3290215660308604 0 -3.3290215660308604 533.76528266187961 0 0 0 0 -363.44337127698259 190.09124803937902 0 190.09124803937902 657.58309196843766 0 0 0 0 -154.66306385303324 39.656048746444867 0 39.656048746444867 650.95316985353929 0 0 0 0 -209.13181925458048 -3.8702687716213404 0 -3.8702687716213404 832.78869744227995 0 0 0 0 17.457943585881367 9.8961254512469168 0 9.8961254512469168 19.747917523462093 0 0 0 0 13.855085034531115 11.766887728479816 0 11.766887728479816 8.3663982593082977 0 0 0 0 -8.9481204207368137 -55.578176031805924 0 -55.578176031805924 611.44822822855713 0 0 0 0 29.541378288060514 -44.634381737883814 0 -44.634381737883814 508.52017064810207 0 0 0 0 -2.8491341259905312 -197.2005145088915 0 -197.2005145088915 588.16216576151783 0 0 0 0 18.118367982409445 12.845098295250381 0 12.845098295250381 8.4590168259654064 0 0 0 0 17.423491086689239 9.695176532374262 0 9.695176532374262 19.148055638812366 0 0 0 0 302.29942922847476 -233.53458860992396 0 -233.53458860992396 789.89987133165414 0 0 0 0 23.698376613097935 15.456621534889564 0 15.456621534889564 17.714522713606129 0 0 0 0 13.016954311379504 11.765092630562421 0 11.765092630562421 8.7692957687516753 0 0 0 0 -226.45147405183525 -316.83128339242467 0 -316.83128339242467 431.90441084119084 0 0 0 0 27.887670822927426 7.4301424817537907 0 7.4301424817537907 4.2893028708666634 0 0 0 0 13.563999913983025 20.659740474759019 0 20.659740474759019 31.517351545615384 0 0 0 0 3.1182805790390944 -4.1862625922669139 0 -4.1862625922669139 5.2935711005049768 0 0 0 0 213.96576956164654 156.32935293141782 0 156.32935293141782 -53.997769984576735 0 0 0 0 -68.378031551726281 247.02349341760419 0 247.02349341760419 995.02607189607079 0 0 0 0 -311.11741679859233 384.99812395930712 0 384.99812395930712 1110.5356113782254 0 0 0 0 -107.24313964024907 360.19774406618671 0 360.19774406618671 954.74117740996007 0 0 0 0 -115.26458014673881 116.50859663546726 0 116.50859663546726 1330.6316244276823 0 0 0 0 179.88417579197653 -318.21895981325133 0 -318.21895981325133 801.89186669893388 0 0 0 0 176.38655410570419 -231.96171027888226 0 -231.96171027888226 483.88367168520926 0 0 0 0 239.08870197915758 -948.03024212252785 0 -948.03024212252785 1474.4377179839576 0 0 0 0 306.98762665881418 1029.6081249304407 0 1029.6081249304407 878.77211004647688 0 0 0 0 -312.74634351891387 309.34493525925245 0 309.34493525925245 2269.8625146044797 0 0 0 0 709.69706505240447 -45.115887998483231 0 -45.115887998483231 -73.583873406452767 0 0 0 0 328.97792372213053 -957.56929726642306 0 -957.56929726642306 2944.1852675357732 0 0 0 0 10.016595952855036 -11.938148523911977 0 -11.938148523911977 12.418684955466162 0 0 0 0 256.40470822695477 -715.90852446789097 0 -715.90852446789097 -427.79979597686906 0 0 0 0 -540.01776970624087 1832.8031776735697 0 1832.8031776735697 3783.1899764347072 0 0 0 0 576.69150337715746 1323.7746203039278 0 1323.7746203039278 1901.2882600164667 0 0 0 0 524.51562120295512 -662.06563964189991 0 -662.06563964189991 2355.7051800818444 0 0 0 0 277.91809257152636 1477.3674298788173 0 1477.3674298788173 2595.204446123932 0 0 0 0 -595.84956548272567 -99.210028745561431 0 -99.210028745561431 1922.4627099794284 0 0 0 0 2.9262369912460358 -27.278877388942437 0 -27.278877388942437 39.29012426798036 0 0 0 0 -318.95643128636402 230.63769672717535 0 230.63769672717535 578.00801383596263 0 0 0 0 121.21864689524364 463.85518316075832 0 463.85518316075832 265.77468336552556 0 0 0 0 -66.243811198842195 336.26556871342473 0 336.26556871342473 187.00433892381261 0 0 0 0 -125.63824004316848 151.56105423163535 0 151.56105423163535 226.61910297834766 0 0 0 0 -419.27044113344618 -83.065945889789873 0 -83.065945889789873 155.5681754006946 0 0 0 0 -36.79141048388415 -2.7620730630251629 0 -2.7620730630251629 36.41013633825365 0 0 0 0 0.38177086396717641 -11.302849470466754 0 -11.302849470466754 39.445710859887186 0 0 0 0 -3.2328205191962986 -5.2581918353224211 0 -5.2581918353224211 15.181453742232556 0 0 0 0 -21.783614020296227 29.955988749024982 0 29.955988749024982 71.489203924949834 0 0 0 0 -21.296159321412105 21.486990534608601 0 21.486990534608601 26.500726165049116 0 0 0 0 -49.889361621088028 261.33327368169557 0 261.33327368169557 -79.404365870424954 0 0 0 0 -68.690047301878622 116.66043632922447 0 116.66043632922447 -28.748008292488521 0 0 0 0 288.83137302855084 407.24872106328075 0 407.24872106328075 885.39145609158004 0 0 0 0 73.576593255823994 30.627982026882009 0 30.627982026882009 9.4988107549775265 0 0 0 0 762.46811980181064 345.70118043564435 0 345.70118043564435 -457.86878483278997 0 0 0 0 39.368116938058847 153.44997797750693 0 153.44997797750693 -122.0424413927758 0 0 0 0 425.71536267633087 330.37847419433456 0 330.37847419433456 -41.166273958297097 0 0 0 0 -122.48133479643593 216.86982821581114 0 216.86982821581114 81.570856874939636 0 0 0 0 -92.353500049934155 258.7656282678945 0 258.7656282678945 90.362591267272364 0 0 0 0 -142.43685037517207 540.13190779757133 0 540.13190779757133 2534.4079357916053 0 0 0 0 4.2840715778802405 -732.4862407847686 0 -732.4862407847686 508.67523709575471 0 0 0 0 77.543877108693493 710.23168334420131 0 710.23168334420131 2512.0244900186372 0 0 0 0 98.31117876659961 -1752.2546261130553 0 -1752.2546261130553 3649.8149593426933 0 0 0 0 -214.36045052568443 1532.2805473681219 0 1532.2805473681219 4068.0371816314209 0 0 0 0 7.7097413977651357 -11.211960036846506 0 -11.211960036846506 12.736570500918319 0 0 0 0 521.77287895918562 245.1773300911882 0 245.1773300911882 914.87760510107728 0 0 0 0 121.09599254506793 -106.88264911303122 0 -106.88264911303122 2434.6604650290683 0 0 0 0 38.005298753974785 706.58670220608474 0 706.58670220608474 3051.2765508589364 0 0 0 0 -334.60613503900822 176.27929713838603 0 176.27929713838603 -519.06285601622949 0 0 0 0 154.85372897778507 -1515.6619179934141 0 -1515.6619179934141 -1149.9816045531479 0 0 0 0 -225.5799802990914 -1242.6038581230496 0 -1242.6038581230496 759.45187484729104 0 0 0 0 1723.9402587940513 -481.07413788856502 0 -481.07413788856502 215.22483584608381 0 0 0 0 1008.5600123034419 -1293.7771660767794 0 -1293.7771660767794 59.567186081123509 0 0 0 0 232.06162365384716 359.55338317122005 0 359.55338317122005 486.71647752063291 0 0 0 0 -150.40049933683622 -428.10860385122214 0 -428.10860385122214 1617.4900829308681 0 0 0 0 -51.29289803122083 23.981531709923729 0 23.981531709923729 525.25332187582535 0 0 0 0 16.258219244838983 352.20053713019297 0 352.20053713019297 1116.8422633920127 0 0 0 0 292.31424372676338 233.23301414662637 0 233.23301414662637 108.69402274473396 0 0 0 0 -107.50609189569786 -42.586475894688192 0 -42.586475894688192 160.72148518656104 0 0 0 0 -36.489339323990428 -3.5747449605541703 0 -3.5747449605541703 13.70118810682083 0 0 0 0 -27.313626130431764 1.0127755173619164 0 1.0127755173619164 1.8666380791470516 0 0 0 0 -116.12567026143915 85.336720825209341 0 85.336720825209341 57.046761111887463 0 0 0 0 -475.06109309165004 -28.138390866903137 0 -28.138390866903137 994.49849469675974 0 0 0 0 -153.53178769459464 169.68192025592725 0 169.68192025592725 683.33894541596965 0 0 0 0 -111.82187502892521 -412.5881176675839 0 -412.5881176675839 460.75565948204894 0 0 0 0 -1008.1707143035346 -312.47649279906909 0 -312.47649279906909 342.70340102182035 0 0 0 0 3.5515288068011159 -742.09963422231351 0 -742.09963422231351 -88.972587416232273 0 0 0 0 -431.78594244681153 -958.78371237521787 0 -958.78371237521787 -76.899422021423334 0 0 0 0 61.571594852670387 43.477937203075271 0 43.477937203075271 391.47813718443467 0 0 0 0 -131.77053236090546 65.1163955182883 0 65.1163955182883 30.918578154443821 0 0 0 0 -132.46521707680586 73.274583918049757 0 73.274583918049757 -57.108834266524354 0 0 0 0 -251.92898754808266 235.44528741035901 0 235.44528741035901 -254.15211607792298 0 0 0 0 -599.10802953800157 709.33816481981921 0 709.33816481981921 -442.4590302304714 0 0 0 0 -627.27905720764829 26.677587845195376 0 26.677587845195376 133.86980182389016 0 0 0 0 -1656.655797315565 50.450616874746629 0 50.450616874746629 914.02734104706906 0 0 0 0 -84.495866271445266 -377.65966277826374 0 -377.65966277826374 306.58257354976377 0 0 0 0 -11.397833511520453 1.1556971206573508 0 1.1556971206573508 1.2476318014665395 0 0 0 0 -198.43188773063594 -477.90675778385776 0 -477.90675778385776 318.69310018419128 0 0 0 0 -1043.1120425899571 985.74805096627824 0 985.74805096627824 -1343.07314162486 0 0 0 0 235.52977790060686 434.71930974475254 0 434.71930974475254 926.41225064120954 0 0 0 0 337.50210982845783 659.88297671034525 0 659.88297671034525 1280.3621381742996 0 0 0 0 10.895090888861887 426.98096925651043 0 426.98096925651043 1519.7514616589469 0 0 0 0 -0.8723635283040494 411.15024289229041 0 411.15024289229041 1654.4405822454719 0 0 0 0 80.475871442984499 268.4525162519858 0 268.4525162519858 1557.0519911945084 0 0 0 0 15.118732862590619 -31.278888629783879 0 -31.278888629783879 33.605195361396099 0 0 0 0 347.13831036355714 563.0217790279421 0 563.0217790279421 1628.6761661604978 0 0 0 0 720.13318175289533 623.026097549322 0 623.026097549322 1638.3175396779588 0 0 0 0 324.89902579097179 291.94526244220469 0 291.94526244220469 2156.2652469460299 0 0 0 0 462.97211859612435 293.58400926845206 0 293.58400926845206 2151.2004252239785 0 0 0 0 449.94710800871326 365.78920197601838 0 365.78920197601838 3025.5942167627509 0 0 0 0 884.26855122017514 1026.4164268969398 0 1026.4164268969398 2568.997315987217 0 0 0 0 191.58710188526311 824.95156528874941 0 824.95156528874941 149.83892129015294 0 0 0 0 75.406201469813823 200.87887420583866 0 200.87887420583866 3163.6234727355186 0 0 0 0 4.291093579710207 -3.3696129392935461 0 -3.3696129392935461 -1.7158906942897119 0 0 0 0 260.45857414824059 -1348.8811031913501 0 -1348.8811031913501 1630.0505323383259 0 0 0 0 264.30140380562807 213.82491454158298 0 213.82491454158298 2009.6243202408368 0 0 0 0 512.63850309362897 -290.37407429364976 0 -290.37407429364976 2831.7329700220725 0 0 0 0 -5.0700285163402441 68.695898371253861 0 68.695898371253861 3066.7692658804299 0 0 0 0 2.4039073364423089 1.5668560405483944 0 1.5668560405483944 4.0083198644822176 0 0 0 0 -52.253829682289506 -249.95116948593932 0 -249.95116948593932 1436.8648542156152 0 0 0 0 35.987507381058094 42.776652752057998 0 42.776652752057998 1424.7098769434738 0 0 0 0 -58.686118223757148 -313.4639248269541 0 -313.4639248269541 1131.3518821424514 0 0 0 0 -78.794349432442687 71.06472907969146 0 71.06472907969146 1256.7615263609914 0 0 0 0 -51.982275857153581 -17.983429830950627 0 -17.983429830950627 1495.8242825458583 0 0 0 0 -82.5990087280843 163.07620947100804 0 163.07620947100804 1386.6605349582387 0 0 0 0 5.4987199815313943 311.65035911501764 0 311.65035911501764 1610.5219334542344 0 0 0 0 225.37230371101941 486.1983615904137 0 486.1983615904137 1818.2041659730603 0 0 0 0 5.4781245084923285 -41.899190643249312 0 -41.899190643249312 1903.7732191435061 0 0 0 0 -259.16313294340858 40.356490985195123 0 40.356490985195123 1082.8348475432867 0 0 0 0 -258.90716079536651 112.80570417651325 0 112.80570417651325 1252.3681523564737 0 0 0 0 -215.76966902087952 81.191755887222826 0 81.191755887222826 1275.4951852179656 0 0 0 0 -105.4408804391278 192.76766875799512 0 192.76766875799512 1356.7625516078806 0 0 0 0 -186.26360562230911 -12.275501284384518 0 -12.275501284384518 1320.0163994189788 0 0 0 0 -161.34163710216671 34.731879594026395 0 34.731879594026395 1043.6857148356212 0 0 0 0 -126.67457031321101 -96.917117703611439 0 -96.917117703611439 1058.3498391548928 0 0 0 0 -357.00898874103768 132.39767274136102 0 132.39767274136102 1014.7191311326096 0 0 0 0 -345.29589732144996 17.693754731742956 0 17.693754731742956 973.0425561819502 0 0 0 0 -422.02081767991695 92.808996809420933 0 92.808996809420933 1125.6690578808484 0 0 0 0 -347.36558710700979 17.784190434163406 0 17.784190434163406 1186.1278329560446 0 0 0 0 -342.4397389866117 138.27227653103182 0 138.27227653103182 1194.1744330326546 0 0 0 0 -246.41367709902624 8.4739103747342597 0 8.4739103747342597 1176.3217504996574 0 0 0 0 -174.02120639916211 52.144958368851803 0 52.144958368851803 1088.4311485883154 0 0 0 0 -269.31281265985854 67.615847701003077 0 67.615847701003077 1102.8232701347588 0 0 0 0 -221.47200473312932 150.6463253745751 0 150.6463253745751 1179.2709967749252 0 0 0 0 -164.25414615564659 170.11586876574438 0 170.11586876574438 1071.1452385793937 0 0 0 0 -72.216966249827237 280.55628576460003 0 280.55628576460003 1201.4804810230562 0 0 0 0 -223.84024273652904 132.91560535732424 0 132.91560535732424 1167.7117141686758 0 0 0 0 -244.73113370443298 168.43801780354261 0 168.43801780354261 1234.8942001084506 0 0 0 0 -140.02544555368149 274.68798634420091 0 274.68798634420091 1332.067386520026 0 0 0 0 -45.963454653449844 272.21243751350266 0 272.21243751350266 1229.2276884157909 0 0 0 0 83.959640249238873 435.82704282324994 0 435.82704282324994 1180.6451655661731 0 0 0 0 -87.046406918922003 287.11317808907188 0 287.11317808907188 1262.1784810468162 0 0 0 0 -98.779586680811917 -179.86603394260601 0 -179.86603394260601 24.066764570838131 0 0 0 0 47.252748635661192 223.57023574135383 0 223.57023574135383 864.21055339306986 0 0 0 0 -35.610648647991184 268.54704234122619 0 268.54704234122619 986.39880726586853 0 0 0 0 170.74756457125841 322.33653087184939 0 322.33653087184939 842.84962197998539 0 0 0 0 27.905728868943434 -42.381106356505995 0 -42.381106356505995 38.729776356517021 0 0 0 0 -29.169355639463902 243.93710453304811 0 243.93710453304811 1075.0631348395364 0 0 0 0 3.3126622496274365 -4.2086526746294766 0 -4.2086526746294766 20.332905166170313 0 0 0 0 46.155191715908586 -84.826082675666839 0 -84.826082675666839 5.2087516025203513 0 0 0 0 54.200879998265009 -125.46145942638759 0 -125.46145942638759 -63.307710216424312 0 0 0 0 35.444175507280306 -131.53624377019514 0 -131.53624377019514 20.235947236476932 0 0 0 0 28.776047579973543 -37.737037981551694 0 -37.737037981551694 31.330640397091486 0 0 0 0 18.379810723690753 -131.28220452439382 0 -131.28220452439382 117.8302254686605 0 0 0 0 -12.91307703649727 87.153525471960165 0 87.153525471960165 687.93902446480934 0 0 0 0 48.782834342913702 207.41420479706721 0 207.41420479706721 917.41519575566053 0 0 0 0 -109.02582160614384 125.83267815323779 0 125.83267815323779 900.42222760345612 0 0 0 0 11.580611937511094 -164.27630445252726 0 -164.27630445252726 782.14764279796509 0 0 0 0 -97.485873578268183 -136.11672060156707 0 -136.11672060156707 957.24971896171337 0 0 0 0 -83.895670415357017 -158.91379950466944 0 -158.91379950466944 792.23143697518753 0 0 0 0 18.395183236472349 -25.846363771523116 0 -25.846363771523116 26.393747764212463 0 0 0 0 53.485817396921448 -118.63893173039105 0 -118.63893173039105 495.42833654249989 0 0 0 0 8.4990868279965071 -14.216198960304609 0 -14.216198960304609 66.506324485824734 0 0 0 0 9.0669120547377346 -6.1730493759588114 0 -6.1730493759588114 62.468200019273041 0 0 0 0 4.3460906225414 1.7981929812549993 0 1.7981929812549993 9.3643511930761747 0 0 0 0 -59.919726558165166 -40.07047128186241 0 -40.07047128186241 32.535630879072414 0 0 0 0 12.735033101563012 -7.1929879839127011 0 -7.1929879839127011 7.5166508459048629 0 0 0 0 85.596139147572103 -393.11002161004581 0 -393.11002161004581 739.28679879471747 0 0 0 0 69.546808256617624 -119.49956571751682 0 -119.49956571751682 656.54805285863404 0 0 0 0 -35.813462926726515 -371.99150143000952 0 -371.99150143000952 1209.2778626046493 0 0 0 0 -247.00033892328611 -118.56196234393428 0 -118.56196234393428 1475.8291090766943 0 0 0 0 -204.193137029431 -20.968127089347036 0 -20.968127089347036 1080.5509619361546 0 0 0 0 -294.94779235479109 -54.79428548978467 0 -54.79428548978467 1101.2490813318873 0 0 0 0 -241.11663029087549 -143.18295206560106 0 -143.18295206560106 1241.1729898317571 0 0 0 0 -307.97797677205926 27.698963260452729 0 27.698963260452729 1252.6771988983983 0 0 0 0 -166.85891756901128 -32.77764356030093 0 -32.77764356030093 1171.5441080043674 0 0 0 0 -347.95201706037415 -32.455973888561857 0 -32.455973888561857 1162.6979679772921 0 0 0 0 -329.90076960079023 222.78903105960489 0 222.78903105960489 949.57374850855558 0 0 0 0 -320.08863218470833 131.79593154373788 0 131.79593154373788 1294.7236784318811 0 0 0 0 -16.131055362456891 -35.159491488031563 0 -35.159491488031563 1330.1922046205145 0 0 0 0 -125.0391146391612 58.394751335392357 0 58.394751335392357 1343.3534088032902 0 0 0 0 53.783607949377824 176.70624639160815 0 176.70624639160815 654.64415887784162 0 0 0 0 296.62473534988635 381.57584898585992 0 381.57584898585992 505.58849405649744 0 0 0 0 47.890521576656397 26.067292813258973 0 26.067292813258973 200.21509427987985 0 0 0 0 23.429871257892444 347.94158839540978 0 347.94158839540978 529.09980858302879 0 0 0 0 16.154126466840012 187.42765310007235 0 187.42765310007235 876.39065520470467 0 0 0 0 -10.969351671285494 311.94586918096684 0 311.94586918096684 845.31851155239201 0 0 0 0 -23.543572634287329 -30.564270464168658 0 -30.564270464168658 383.0803670884834 0 0 0 0 100.86075947832467 25.088678200698723 0 25.088678200698723 350.60182452847948 0 0 0 0 -26.949084259500864 -112.45621997734634 0 -112.45621997734634 222.18890726556674 0 0 0 0 35.044989365939045 -58.988785520527017 0 -58.988785520527017 134.86648642127693 0 0 0 0 -50.152972366233257 -89.209835901532642 0 -89.209835901532642 144.97352934060655 0 0 0 0 -15.371187913464382 -7.6848888612148585 0 -7.6848888612148585 215.88486661888783 0 0 0 0 -22.92014720077168 -68.367989358353952 0 -68.367989358353952 79.476654261416115 0 0 0 0 -6.2105292938116889 -53.305263706862959 0 -53.305263706862959 49.059795151821632 0 0 0 0 30.53987207496175 -23.133356835318409 0 -23.133356835318409 143.94914925850753 0 0 0 0 -25.672148587990705 -28.188982518061025 0 -28.188982518061025 11.705046558446362 0 0 0 0 21.238553934431593 -126.63955639971937 0 -126.63955639971937 125.46453736226249 0 0 0 0 37.126518687210137 -34.778279979203944 0 -34.778279979203944 2.8464428207371384 0 0 0 0 -18.708191349296278 -21.744657450076929 0 -21.744657450076929 -12.071440555799292 0 0 0 0 -34.568377204932972 23.003092635020494 0 23.003092635020494 413.71136814151396 0 0 0 0 59.123426000075142 -34.024564898434619 0 -34.024564898434619 58.910892847603463 0 0 0 0 -20.227767951928399 -93.817318548361072 0 -93.817318548361072 110.06484029133753 0 0 0 0 -14.767711435803108 -32.350437308678011 0 -32.350437308678011 91.703178154064517 0 0 0 0 -44.723949304059119 -16.54087113908902 0 -16.54087113908902 22.446752669305155 0 0 0 0 -122.34958165382341 -29.124450617331604 0 -29.124450617331604 169.7654612779661 0 0 0 0 35.827560703957715 -69.664078279740352 0 -69.664078279740352 44.351766516800126 0 0 0 0 -11.521142311518016 -23.520934626462171 0 -23.520934626462171 -7.6381508342087727 0 0 0 0 28.651213373766041 -11.602584906098855 0 -11.602584906098855 158.5813097707869 0 0 0 0 -7.9767019628327489 -38.922844197919403 0 -38.922844197919403 141.76400231549633 0 0 0 0 -36.25119916497831 1.7428804933673518 0 1.7428804933673518 15.98366821029947 0 0 0 0 -70.016135872644554 -94.484028384988051 0 -94.484028384988051 559.30872232630509 0 0 0 0 -102.80186901698971 -17.050060982774085 0 -17.050060982774085 836.58917126872257 0 0 0 0 -100.7455769161661 -27.691882406581499 0 -27.691882406581499 563.97279270174477 0 0 0 0 8.6802419941323024 -8.8741413642273983 0 -8.8741413642273983 417.93207309431773 0 0 0 0 -279.80588657770068 98.617553300962754 0 98.617553300962754 1061.7147950434687 0 0 0 0 -115.81544430559165 68.098062001790822 0 68.098062001790822 1056.9755501838372 0 0 0 0 -132.95992919311175 -254.68159909578389 0 -254.68159909578389 1146.3223498183524 0 0 0 0 -283.43497742426371 -102.05799947907872 0 -102.05799947907872 1255.2731198890197 0 0 0 0 -48.810296593974272 -214.52481374193667 0 -214.52481374193667 721.17882741469657 0 0 0 0 -73.9044666595737 -355.15136608229295 0 -355.15136608229295 1256.1725095621596 0 0 0 0 28.518747157217149 -349.71825865678329 0 -349.71825865678329 772.25085077078984 0 0 0 0 -20.71652590605845 -4.2749113234822289 0 -4.2749113234822289 61.177087191928877 0 0 0 0 69.426890404773076 -118.77629743790021 0 -118.77629743790021 339.7258850816288 0 0 0 0 -14.65569406966009 -4.356510244945035 0 -4.356510244945035 5.3964755912789286 0 0 0 0 57.284162339043178 -323.79119315044954 0 -323.79119315044954 787.09019589357922 0 0 0 0 -11.266366642906632 -226.66906249247404 0 -226.66906249247404 458.71453677518366 0 0 0 0 -48.401595147247463 -164.30635160156817 0 -164.30635160156817 738.64072953442519 0 0 0 0 -51.61427166272631 46.257759178443166 0 46.257759178443166 86.54204523426597 0 0 0 0 -72.729401667200364 -129.23933410547761 0 -129.23933410547761 199.59096627895997 0 0 0 0 -291.89628737991688 176.90368879633752 0 176.90368879633752 31.500858804269228 0 0 0 0 -205.09512048203396 -90.400550976406521 0 -90.400550976406521 150.19090028936989 0 0 0 0 -136.34526894040118 113.97708598124882 0 113.97708598124882 88.423545735822699 0 0 0 0 -172.01229950004517 144.51601706251699 0 144.51601706251699 64.359982533147559 0 0 0 0 -179.6385105056288 84.238254820771544 0 84.238254820771544 107.16854005667119 0 0 0 0 -121.64985935367804 101.67569261280732 0 101.67569261280732 57.54132782889792 0 0 0 0 -68.7912346480407 22.509623099602322 0 22.509623099602322 103.5247734975419 0 0 0 0 -17.045712488418829 -3.7834117418706654 0 -3.7834117418706654 4.6189311830012514 0 0 0 0 -88.506797051915783 121.26476031227867 0 121.26476031227867 -104.45312038244811 0 0 0 0 -294.73556403911425 196.08720655033858 0 196.08720655033858 37.793663468837622 0 0 0 0 -135.05713529006425 113.13135929619602 0 113.13135929619602 78.015629786139471 0 0 0 0 -38.326111632121865 12.611150182212441 0 12.611150182212441 81.196384762297384 0 0 0 0 -220.41637592953111 61.587493288723635 0 61.587493288723635 137.40985113279021 0 0 0 0 -453.72971501081224 -121.87153362274694 0 -121.87153362274694 157.81930646172987 0 0 0 0 -216.89571295264287 -210.84973490267885 0 -210.84973490267885 148.36846064693964 0 0 0 0 -256.99726453613744 32.527173045937616 0 32.527173045937616 102.08150022981863 0 0 0 0 -162.70402610611291 65.311144878065534 0 65.311144878065534 96.076374496937206 0 0 0 0 -577.34270081724844 180.84667398018792 0 180.84667398018792 45.654616126699693 0 0 0 0 243.30771497777866 60.127582754088507 0 60.127582754088507 -486.02592817390541 0 0 0 0 -803.53650124326305 6.563834237971605 0 6.563834237971605 166.84961409892276 0 0 0 0 -273.82681805009543 302.82842154491846 0 302.82842154491846 -243.03103872630163 0 0 0 0 98.907695524841984 -294.66365994791704 0 -294.66365994791704 529.52943882987893 0 0 0 0 -9.9384380644401062 14.946199105272171 0 14.946199105272171 -25.673125299465028 0 0 0 0 -385.43973488359734 -237.82105384586612 0 -237.82105384586612 -95.53963524739811 0 0 0 0 -7.9878783663936588 2.388266258137854 0 2.388266258137854 1.1842049859799602 0 0 0 0 -3.8119308213910177 -1.4572140611697648 0 -1.4572140611697648 0.042137002729930373 0 0 0 0 -148.39399679705821 -723.88520317509756 0 -723.88520317509756 710.19794774995535 0 0 0 0 -123.33413016785244 -445.07644230004007 0 -445.07644230004007 1407.3154228323547 0 0 0 0 301.82993485528868 -346.27076318491527 0 -346.27076318491527 276.77611827410874 0 0 0 0 -624.15720228665941 -234.10999205002099 0 -234.10999205002099 1501.8464820348818 0 0 0 0 -6.1043656203373757 -394.76088078136308 0 -394.76088078136308 1525.4900061110634 0 0 0 0 -319.39127883089986 -379.60286879402156 0 -379.60286879402156 3110.6640652093847 0 0 0 0 -368.12110526636752 -450.75935455299623 0 -450.75935455299623 2456.0239583747971 0 0 0 0 -27.470651116676891 -391.79155060767152 0 -391.79155060767152 1416.0637858773262 0 0 0 0 186.44530671502389 336.48147226616493 0 336.48147226616493 2705.3809322042002 0 0 0 0 -508.12635064177312 -220.9556606467977 0 -220.9556606467977 3033.9553351731038 0 0 0 0 -527.21905856444948 489.92541744642222 0 489.92541744642222 4518.7378244419378 0 0 0 0 -6.9704675385097516 -1.5392661836011641 0 -1.5392661836011641 6.1725677509534478 0 0 0 0 -932.14951098731831 -583.85673899884932 0 -583.85673899884932 2883.5320739812705 0 0 0 0 -389.10338896394842 -608.13583628462948 0 -608.13583628462948 1764.2656813541835 0 0 0 0 -728.74761350927372 -239.02227229711934 0 -239.02227229711934 2831.5460847949025 0 0 0 0 -860.80256145603835 -129.69093840321329 0 -129.69093840321329 3499.8979180563747 0 0 0 0 -278.48201169028926 143.44179218238241 0 143.44179218238241 2540.818429413277 0 0 0 0 -286.21389904437865 362.79093896254363 0 362.79093896254363 3423.4859179795312 0 0 0 0 -285.90838639610138 174.57344492215998 0 174.57344492215998 3204.6711034965447 0 0 0 0 -14.215302188587952 -4.6167254940859834 0 -4.6167254940859834 9.7521767059021265 0 0 0 0 -112.48381639807646 353.52926097281488 0 353.52926097281488 3236.9904081482346 0 0 0 0 -188.14325707359512 451.33279727013542 0 451.33279727013542 3499.0313846677527 0 0 0 0 29.923981961674784 807.06447737135124 0 807.06447737135124 3979.3176751618266 0 0 0 0 39.870592205555326 485.39911703166217 0 485.39911703166217 3344.7662934413311 0 0 0 0 -163.47137967163991 -120.96521175311454 0 -120.96521175311454 1841.0798401155771 0 0 0 0 -559.06656023992969 -254.94879537216912 0 -254.94879537216912 2202.6557067874892 0 0 0 0 -94.274122378276047 213.48503917219932 0 213.48503917219932 2404.3839795572057 0 0 0 0 -184.7702912703744 -335.20103562687291 0 -335.20103562687291 1952.6303337381178 0 0 0 0 -9.2742029084397473 -183.99403372050074 0 -183.99403372050074 2457.8297908549721 0 0 0 0 -20.71697788406891 -2.2070851290991413 0 -2.2070851290991413 2108.9547671219661 0 0 0 0 -193.88582159040743 -470.43374290412794 0 -470.43374290412794 1932.4096537742589 0 0 0 0 -116.62611902231856 -241.07250609074254 0 -241.07250609074254 1290.6022066344331 0 0 0 0 -228.9561189479241 -360.06295611239148 0 -360.06295611239148 1737.625107924745 0 0 0 0 -317.68567151763909 -170.74189544804176 0 -170.74189544804176 1762.5047400037656 0 0 0 0 -680.84592530069176 -15.712979620690021 0 -15.712979620690021 1805.1121324738351 0 0 0 0 -338.5972824445987 -66.437874324322365 0 -66.437874324322365 1802.1928799698871 0 0 0 0 -225.10809590105919 326.30791658826456 0 326.30791658826456 1795.8481803604009 0 0 0 0 -577.45788552216823 233.82806686012009 0 233.82806686012009 1795.8661921754538 0 0 0 0 -624.02817383695378 145.90474757479933 0 145.90474757479933 2205.2817798282413 0 0 0 0 -640.1140538327063 -474.03023693621071 0 -474.03023693621071 1648.1108443521662 0 0 0 0 -828.77871340729087 -647.5775354849975 0 -647.5775354849975 1572.2206558835514 0 0 0 0 -637.98858505193618 -108.37333918273757 0 -108.37333918273757 2054.9684694662865 0 0 0 0 -1589.7563082512372 -547.55812323365535 0 -547.55812323365535 1952.0197987475331 0 0 0 0 -7.2220588147293929 -2.7098782376673398 0 -2.7098782376673398 6.3032627818278542 0 0 0 0 -1099.4797568401418 12.609100567809946 0 12.609100567809946 3501.177080417935 0 0 0 0 -1101.8185456154699 119.1248098277884 0 119.1248098277884 2717.1016380383153 0 0 0 0 -1258.3856080491535 310.404484423756 0 310.404484423756 3499.1974778914991 0 0 0 0 -988.3807979721231 205.78210966386996 0 205.78210966386996 2285.136071390225 0 0 0 0 -1171.7099112609894 87.761459864515928 0 87.761459864515928 2217.6077130545837 0 0 0 0 -1664.9059473334746 63.276709705383837 0 63.276709705383837 2739.1415017696672 0 0 0 0 -949.51476347386449 -111.58798132791594 0 -111.58798132791594 2054.3416514558921 0 0 0 0 -4.3329611689036955 -0.62502973657784366 0 -0.62502973657784366 6.6513672635301688 0 0 0 0 -387.40584212206937 442.66945622672756 0 442.66945622672756 2335.7088087507254 0 0 0 0 -122.30636700349352 1013.2216508336423 0 1013.2216508336423 3308.9551868570379 0 0 0 0 -34.744954335924859 1198.3609330419131 0 1198.3609330419131 3499.0444913698038 0 0 0 0 431.63256583329394 804.3642675656447 0 804.3642675656447 2421.5964084221996 0 0 0 0 450.55394001629406 862.73161649109534 0 862.73161649109534 2027.9884256808273 0 0 0 0 380.37171264637527 798.33884193883569 0 798.33884193883569 2349.7239461355621 0 0 0 0 620.97189490688902 1062.084209473378 0 1062.084209473378 2260.2480582976568 0 0 0 0 -438.27850361758328 654.61318682286583 0 654.61318682286583 2682.6147015192291 0 0 0 0 112.23615770455581 1360.4219925300131 0 1360.4219925300131 3218.6317519042423 0 0 0 0 333.60631655793838 600.79845326280338 0 600.79845326280338 1538.6710275128644 0 0 0 0 40.790253925135175 519.78808943456534 0 519.78808943456534 1538.1374871721564 0 0 0 0 2.4793152549636006 0.88760350795989496 0 0.88760350795989496 1.9573303664806829 0 0 0 0 404.48702845223312 90.047462560833083 0 90.047462560833083 636.89786568326235 0 0 0 0 90.135982390979493 258.45799697624352 0 258.45799697624352 646.13090346357785 0 0 0 0 -416.37304734481859 -212.45757750101802 0 -212.45757750101802 360.21471745180497 0 0 0 0 -211.34414621678525 -208.50433587417319 0 -208.50433587417319 277.39151549121925 0 0 0 0 1039.9681767282875 -466.89994347103379 0 -466.89994347103379 749.25356432290209 0 0 0 0 940.14246497121053 -992.22610266013271 0 -992.22610266013271 -164.64524416007407 0 0 0 0 67.18867748722846 -866.62749113396967 0 -866.62749113396967 2288.0726825712736 0 0 0 0 267.87542682717822 -1020.150528510856 0 -1020.150528510856 2104.9487249101467 0 0 0 0 602.93113735041516 -401.32449978374734 0 -401.32449978374734 -1198.6128170359007 0 0 0 0 2.7313440146369121 -1.7628422556160075 0 -1.7628422556160075 -0.18170423598216345 0 0 0 0 -1.4420769521926302 -11.016916615629013 0 -11.016916615629013 47.700542302995458 0 0 0 0 557.70400282274295 84.090086694128331 0 84.090086694128331 27.337599957692873 0 0 0 0 -28.581921974691795 -12.601607892707761 0 -12.601607892707761 129.37056351189312 0 0 0 0 -779.59561608722743 -421.17987206031808 0 -421.17987206031808 323.91240350709904 0 0 0 0 -118.3000198611532 388.59920239275533 0 388.59920239275533 1479.151555055897 0 0 0 0 198.38060211317134 -183.4779768497674 0 -183.4779768497674 -316.05366886000502 0 0 0 0 114.53387113500116 -287.66980831999581 0 -287.66980831999581 -521.31494300838904 0 0 0 0 -3.9936563094655675 0.61743429864558763 0 0.61743429864558763 13.485337492498433 0 0 0 0 -67.425318465723876 21.69952245400782 0 21.69952245400782 85.398176475795481 0 0 0 0 -4.1181918365583758 -3.0970727273700334 0 -3.0970727273700334 17.12092270092759 0 0 0 0 -416.84403662951763 -403.33942161210462 0 -403.33942161210462 205.65749258737196 0 0 0 0 -286.15931437889049 -279.58161268905315 0 -279.58161268905315 -431.58114383133579 0 0 0 0 -226.36060390154944 -162.86002446609564 0 -162.86002446609564 104.12987726980828 0 0 0 0 -36.547908636106513 -593.2005607961637 0 -593.2005607961637 276.00427136031794 0 0 0 0 -445.40530244789693 -127.37320871169868 0 -127.37320871169868 358.7996260643049 0 0 0 0 -108.17333487179076 -149.90177983423564 0 -149.90177983423564 359.77579096067439 0 0 0 0 -510.81492465598399 -324.05861915337391 0 -324.05861915337391 305.63722709639478 0 0 0 0 -1.2376544778587917 -10.802796847177923 0 -10.802796847177923 58.672458082666566 0 0 0 0 -86.00933144290596 36.741496866202851 0 36.741496866202851 76.746892877886239 0 0 0 0 -46.609771554773488 50.951011768872377 0 50.951011768872377 20.728333524473783 0 0 0 0 -364.6773124657725 40.075802192427318 0 40.075802192427318 123.94499332420492 0 0 0 0 0.13888130726718662 -6.0246354726283293 0 -6.0246354726283293 44.726420279044461 0 0 0 0 -752.04260149186155 288.92073357781555 0 288.92073357781555 -32.891033080009038 0 0 0 0 -140.09738743042749 7.3777703299342647 0 7.3777703299342647 6.9223232673748498 0 0 0 0 -0.47111720778450428 0.067644493196171496 0 0.067644493196171496 3.7830242323872056 0 0 0 0 101.3243917107427 -163.6390592924804 0 -163.6390592924804 173.6972675488214 0 0 0 0 -797.48439849892179 230.06247286740017 0 230.06247286740017 -75.660023678719881 0 0 0 0 12.195134480774868 -49.179452550437418 0 -49.179452550437418 43.537421561343763 0 0 0 0 -21.445910698226271 -15.334209369171731 0 -15.334209369171731 232.79078385765752 0 0 0 0 13.795844346676404 10.330605041999661 0 10.330605041999661 61.888068226695395 0 0 0 0 -181.4652659283887 10.082188310410857 0 10.082188310410857 231.94404406188914 0 0 0 0 -68.36838252273219 160.7441932033671 0 160.7441932033671 430.48186996006552 0 0 0 0 -292.8643853013441 -118.3511247460292 0 -118.3511247460292 517.5075155303457 0 0 0 0 -214.44623726078268 -274.38321713704448 0 -274.38321713704448 1256.8653131441788 0 0 0 0 1.2649526055927427 -1.7589265345602731 0 -1.7589265345602731 15.41763821718294 0 0 0 0 52.415561211423665 271.73711318569531 0 271.73711318569531 424.75454895949588 0 0 0 0 -17.746421918118813 -30.097469435032508 0 -30.097469435032508 34.467260524994344 0 0 0 0 17.270559423068676 91.562446134326819 0 91.562446134326819 85.121318856854487 0 0 0 0 350.96587718787038 -426.55972181029756 0 -426.55972181029756 368.175359554225 0 0 0 0 229.64895652038149 -747.86759190957036 0 -747.86759190957036 784.46839556627856 0 0 0 0 357.57411786368988 -536.54508423429616 0 -536.54508423429616 -200.73696274492249 0 0 0 0 -627.63765795408244 -848.27355162102322 0 -848.27355162102322 367.91173887182958 0 0 0 0 -293.5031934091046 -235.70825830456852 0 -235.70825830456852 394.35476181322366 0 0 0 0 1632.0813144565379 -768.33908694568072 0 -768.33908694568072 21.663407317508245 0 0 0 0 109.46532428347301 -113.70445965011459 0 -113.70445965011459 66.281042795839312 0 0 0 0 -401.50824957208306 -182.94643708046715 0 -182.94643708046715 -7.7898415925924382 0 0 0 0 -11.057914431218894 -11.133324904668948 0 -11.133324904668948 51.282472689638254 0 0 0 0 -229.35586132386334 -706.5486793392447 0 -706.5486793392447 -1089.9708240350046 0 0 0 0 -5.37700607397365 -0.37006804039145891 0 -0.37006804039145891 1.0958425458343406 0 0 0 0 -178.68957717878993 -405.40940579340077 0 -405.40940579340077 -82.859525315430801 0 0 0 0 -454.08151581963193 -513.91693047832814 0 -513.91693047832814 50.270011554734992 0 0 0 0 -4.307962017704031 -7.9410036107847368 0 -7.9410036107847368 45.643760067175364 0 0 0 0 235.74234352662648 -26.131394901918611 0 -26.131394901918611 -130.46323692895385 0 0 0 0 -1478.9327711876629 -261.16390648236256 0 -261.16390648236256 412.05516147224625 0 0 0 0 -733.78107583851192 887.16628123020746 0 887.16628123020746 -34.080287422608308 0 0 0 0 -284.5216590169955 -376.85684557211607 0 -376.85684557211607 -203.3954429622172 0 0 0 0 526.22877972346259 -607.43747627879202 0 -607.43747627879202 768.86525220757358 0 0 0 0 51.689027144744472 220.2250766455918 0 220.2250766455918 153.10579419606802 0 0 0 0 464.1648841008863 -49.887461335747503 0 -49.887461335747503 609.84311832898766 0 0 0 0 -303.45207146039246 -300.8124200097709 0 -300.8124200097709 909.64035741405678 0 0 0 0 -20.933470397412748 227.98685245197885 0 227.98685245197885 732.79586387835616 0 0 0 0 172.29790655022475 -201.36152899145327 0 -201.36152899145327 1686.1504249059471 0 0 0 0 302.14016989807408 -190.84813374534133 0 -190.84813374534133 978.15764292427139 0 0 0 0 -133.10650150404246 -187.69755603911108 0 -187.69755603911108 2431.4850931656147 0 0 0 0 -169.21370690631392 -16.231746108203879 0 -16.231746108203879 1679.0070684317648 0 0 0 0 -514.54338946484813 240.43370705374218 0 240.43370705374218 1712.478333829953 0 0 0 0 -467.65883394840677 194.49763523272304 0 194.49763523272304 1711.7286585063157 0 0 0 0 -438.86929411582599 38.886746663149097 0 38.886746663149097 2551.4318220487839 0 0 0 0 -1015.482310256824 327.80543251794188 0 327.80543251794188 2654.1048623374445 0 0 0 0 -631.75990005176357 -270.75890129289292 0 -270.75890129289292 3236.5954625421473 0 0 0 0 -662.04790007540521 -48.649808795344143 0 -48.649808795344143 2789.7067558173076 0 0 0 0 -460.87774549440871 -32.033721925461577 0 -32.033721925461577 2519.2030939250926 0 0 0 0 -357.43807646587265 -47.903313694768258 0 -47.903313694768258 2786.3607837720556 0 0 0 0 -422.90665917614962 -128.60583266762842 0 -128.60583266762842 2746.2107594936097 0 0 0 0 846.24742523997509 -1360.5221553820011 0 -1360.5221553820011 2487.9379010079101 0 0 0 0 -2017.3026035260184 1012.4102782941955 0 1012.4102782941955 1716.2142028851085 0 0 0 0 -2.6983742570169746 -3.3597609257283807 0 -3.3597609257283807 22.021107012794332 0 0 0 0 230.47534376113339 -779.63966653714124 0 -779.63966653714124 2721.3267039547245 0 0 0 0 -1160.2008347853564 -419.31192447020385 0 -419.31192447020385 4087.2637239895921 0 0 0 0 -499.85858496790343 -324.93948298993018 0 -324.93948298993018 3890.1185092585674 0 0 0 0 430.94716281487979 4.9331272938197799 0 4.9331272938197799 2842.6511440444392 0 0 0 0 -677.44966852775337 -255.59718213639735 0 -255.59718213639735 2798.734310011263 0 0 0 0 24.697069170165094 -489.89464245460294 0 -489.89464245460294 2844.6929895150024 0 0 0 0 -229.99696886853923 -481.8204473223941 0 -481.8204473223941 2728.6678276639359 0 0 0 0 23.314622600463963 -512.39911294667581 0 -512.39911294667581 2608.1129226886696 0 0 0 0 -158.52681433624122 -501.92418623450794 0 -501.92418623450794 2732.1082984520508 0 0 0 0 -364.96938928774381 -728.46290186859551 0 -728.46290186859551 3498.9634128783364 0 0 0 0 -81.939920738474072 -566.57905206942564 0 -566.57905206942564 2715.5497198908779 0 0 0 0 28.452101707476444 -530.61510776564501 0 -530.61510776564501 3271.7721537153193 0 0 0 0 31.636500944586764 -891.77320024561322 0 -891.77320024561322 2681.8004710478344 0 0 0 0 -718.82523101804043 -312.80607135318678 0 -312.80607135318678 3171.1468646066769 0 0 0 0 -306.2685546952689 -189.46311001957201 0 -189.46311001957201 2385.905468242905 0 0 0 0 -294.14488721997623 -35.467003593515983 0 -35.467003593515983 2649.405746195519 0 0 0 0 -205.17666072982115 69.173140232052901 0 69.173140232052901 2731.9333064841121 0 0 0 0 -288.85115910855029 -34.287540765271842 0 -34.287540765271842 2604.5708361315192 0 0 0 0 -338.48104568556789 -75.320238170828816 0 -75.320238170828816 2778.8763652552807 0 0 0 0 -353.19434494950889 -48.362553095465046 0 -48.362553095465046 2761.7654348243013 0 0 0 0 -460.57135596870216 -145.49387367167583 0 -145.49387367167583 2689.4880803721362 0 0 0 0 -441.6825992442873 -204.36378578552285 0 -204.36378578552285 2834.8887011222359 0 0 0 0 -363.57982031815095 -364.48532020116545 0 -364.48532020116545 2758.0496266475784 0 0 0 0 -239.52791613934414 -493.09381577971271 0 -493.09381577971271 2844.3608862815745 0 0 0 0 -225.09943555703001 -351.91369737408968 0 -351.91369737408968 2531.9575966500925 0 0 0 0 -159.92817380754195 -429.6918145033456 0 -429.6918145033456 2592.4276284995794 0 0 0 0 -310.71323689186192 -223.45728303283249 0 -223.45728303283249 2611.9509424068656 0 0 0 0 -375.34412902582244 -279.46091480519681 0 -279.46091480519681 2621.3842671957973 0 0 0 0 -231.16394832213098 -309.09307279794302 0 -309.09307279794302 2366.1432718805809 0 0 0 0 -5.9682763105784158 -357.76326705875977 0 -357.76326705875977 1782.415390145512 0 0 0 0 1.7254951435047565 -2.7848155887522275 0 -2.7848155887522275 5.078686730301385 0 0 0 0 87.969996938981467 -463.41783600568124 0 -463.41783600568124 1764.9108623357079 0 0 0 0 214.89885839004666 -847.53684314486713 0 -847.53684314486713 3501.4288353689699 0 0 0 0 -182.55882409423248 -425.02029837681766 0 -425.02029837681766 2316.1082545125792 0 0 0 0 -85.94893266141132 -529.26176135418746 0 -529.26176135418746 2370.1603183390544 0 0 0 0 -192.86430591015869 -451.28307142609992 0 -451.28307142609992 2509.2675164760076 0 0 0 0 -6.3180877917222915 -348.96103853463137 0 -348.96103853463137 2312.4314810069172 0 0 0 0 27.042246131471472 -830.71470515557257 0 -830.71470515557257 2081.9546391346666 0 0 0 0 51.017336443328858 264.49552914418382 0 264.49552914418382 3790.5843841548603 0 0 0 0 -53.075654141831592 -62.088523397678728 0 -62.088523397678728 1944.0402838537975 0 0 0 0 -157.21626115416188 154.11088414822188 0 154.11088414822188 2259.87664875263 0 0 0 0 -154.52535071217198 215.56620997312712 0 215.56620997312712 2542.0306501133609 0 0 0 0 -40.858780360512355 225.72131572264971 0 225.72131572264971 2703.7722022616126 0 0 0 0 43.473140007095203 334.84100134057599 0 334.84100134057599 3501.5787161103572 0 0 0 0 5.3524235246961656 -7.0826360485917021 0 -7.0826360485917021 7.5580548360380284 0 0 0 0 -575.70799726669543 108.28212780944523 0 108.28212780944523 3428.112476659694 0 0 0 0 -181.97677230738043 224.63133491954113 0 224.63133491954113 2771.2430363344756 0 0 0 0 -649.03408789933576 173.20485316869326 0 173.20485316869326 3491.5907847266053 0 0 0 0 47.64236450379849 379.27453737363066 0 379.27453737363066 2819.7066114972622 0 0 0 0 88.109041301576553 87.59802675941728 0 87.59802675941728 3631.9360094321437 0 0 0 0 -83.919144799346668 354.65425738178328 0 354.65425738178328 3289.3416332138331 0 0 0 0 295.4138727453992 -48.371617782926478 0 -48.371617782926478 3225.5851012271996 0 0 0 0 234.71860292359088 -75.610085169821105 0 -75.610085169821105 3275.1704968895729 0 0 0 0 -12.868666110007553 157.42343297620664 0 157.42343297620664 3132.5509812785385 0 0 0 0 25.989633001163838 -167.03884131826999 0 -167.03884131826999 3125.6436838649852 0 0 0 0 246.94162542718527 38.473759335182876 0 38.473759335182876 3260.8169174895775 0 0 0 0 699.89179458170929 -243.05434830755075 0 -243.05434830755075 3220.2225605772746 0 0 0 0 -183.02729995789696 50.063882391597872 0 50.063882391597872 2732.6179594676901 0 0 0 0 -125.33850773122958 141.27543927582883 0 141.27543927582883 2875.4045084919962 0 0 0 0 -79.425326703587416 60.375124177278849 0 60.375124177278849 3004.891902029447 0 0 0 0 -69.537201701656613 -28.499958213824357 0 -28.499958213824357 2934.9903108737199 0 0 0 0 -205.91670747491389 -30.01804132199868 0 -30.01804132199868 2747.6732113979524 0 0 0 0 -185.18793987585354 -96.403547689487823 0 -96.403547689487823 2923.8460379158873 0 0 0 0 -75.757199931599871 -370.17079616024421 0 -370.17079616024421 2929.6626725828273 0 0 0 0 -92.461176513273585 -273.98529802624944 0 -273.98529802624944 2532.0429124684588 0 0 0 0 30.948075860553843 -300.3757338492951 0 -300.3757338492951 2902.4303764592933 0 0 0 0 26.391885291730887 -411.76751463935489 0 -411.76751463935489 3343.1610483516051 0 0 0 0 260.68983310280566 -958.05676206328098 0 -958.05676206328098 2481.6046930070152 0 0 0 0 299.39698564425953 -924.98331624767252 0 -924.98331624767252 2264.6773242795753 0 0 0 0 448.52459439504003 -605.17460044711152 0 -605.17460044711152 1581.4480389454202 0 0 0 0 463.42172075523638 -864.67593151337132 0 -864.67593151337132 2228.5227192428119 0 0 0 0 -231.5299285265736 355.13575126442112 0 355.13575126442112 1513.7589590863727 0 0 0 0 -19.08929884718691 1265.9438351772965 0 1265.9438351772965 1837.7236582429787 0 0 0 0 -503.74545187216813 61.471338464450128 0 61.471338464450128 4557.012695325524 0 0 0 0 -81.408953844103053 -1218.3648354937627 0 -1218.3648354937627 4258.8095096689885 0 0 0 0 1.2046931476539524 -3.8679111477530626 0 -3.8679111477530626 20.426877862660724 0 0 0 0 1308.3953198237286 -1833.6851941458626 0 -1833.6851941458626 1897.641234292646 0 0 0 0 597.68881519779143 167.26837174913817 0 167.26837174913817 3890.0808345472883 0 0 0 0 1587.4819133196129 -69.317272526868692 0 -69.317272526868692 3157.4124164282366 0 0 0 0 -180.53958952524545 -237.603466997753 0 -237.603466997753 3479.0053419107726 0 0 0 0 1112.6179040352654 -1149.132659399585 0 -1149.132659399585 4080.723215709294 0 0 0 0 -76.555419415720735 0.19429550543190999 0 0.19429550543190999 3002.5584771401882 0 0 0 0 -57.247877210435632 -208.68893073732005 0 -208.68893073732005 3137.3755426433399 0 0 0 0 938.23932566621716 -558.26934718852772 0 -558.26934718852772 3246.9230293194692 0 0 0 0 1507.9878995511153 -726.68995084345352 0 -726.68995084345352 2462.3790415444464 0 0 0 0 770.43898133761422 -179.6265804796858 0 -179.6265804796858 3145.2002293386331 0 0 0 0 1093.2056523901128 -309.5368523811967 0 -309.5368523811967 3088.3518263344558 0 0 0 0 1111.6857499415307 -950.56324404582847 0 -950.56324404582847 3588.253016335917 0 0 0 0 804.51801486746444 -372.66495159830447 0 -372.66495159830447 3074.9643068023815 0 0 0 0 752.80897836860777 -409.37295619297402 0 -409.37295619297402 3507.9663469875522 0 0 0 0 3.6945803321741959 -3.8113469728740732 0 -3.8113469728740732 5.0357218051221508 0 0 0 0 1621.0046189072814 -2036.8722376755595 0 -2036.8722376755595 1545.0044038754108 0 0 0 0 370.33344518751414 -396.06141853064582 0 -396.06141853064582 4112.0362363776676 0 0 0 0 -22.069123087278058 -107.1541838291223 0 -107.1541838291223 -80.159479797909626 0 0 0 0 7.6402953886524241 -6.9939926043417069 0 -6.9939926043417069 9.7738749101987441 0 0 0 0 580.94493637826827 576.12245073914073 0 576.12245073914073 739.03416938939699 0 0 0 0 821.76417138069974 -1033.9728240709446 0 -1033.9728240709446 836.60243945882939 0 0 0 0 62.445603702007674 476.44508017476528 0 476.44508017476528 3498.2010525101623 0 0 0 0 -3.1280508490816139 -5.1871102061848351 0 -5.1871102061848351 12.756947904319512 0 0 0 0 -256.05787114358418 -124.327093307214 0 -124.327093307214 1950.9854557423143 0 0 0 0 -15.192013997781693 5.6536378069852429 0 5.6536378069852429 13.448633133470651 0 0 0 0 49.178782543766474 391.31223517892602 0 391.31223517892602 2977.1652186172705 0 0 0 0 -147.5657978080485 -336.06577263695181 0 -336.06577263695181 3499.5137685514046 0 0 0 0 21.934637597970266 -23.315757169282577 0 -23.315757169282577 19.787027547953315 0 0 0 0 -361.76912244949972 86.441396194329172 0 86.441396194329172 59.292378455249491 0 0 0 0 43.727017470710848 255.26296364813345 0 255.26296364813345 2629.2699477080473 0 0 0 0 106.11521765293674 850.08986864062103 0 850.08986864062103 3044.1008910207338 0 0 0 0 169.31673336090603 1248.7879657528995 0 1248.7879657528995 4438.2898669649248 0 0 0 0 -342.65799681473891 -272.19300895616686 0 -272.19300895616686 5170.8953806657073 0 0 0 0 -346.46799285550924 -193.68933391418335 0 -193.68933391418335 3796.5096386151108 0 0 0 0 -339.85941702738728 191.18127977753829 0 191.18127977753829 4142.0499204177304 0 0 0 0 -345.82201389012215 104.66498265081646 0 104.66498265081646 3094.0421339242307 0 0 0 0 -508.11990063226676 -264.37882820735194 0 -264.37882820735194 3646.0137713708532 0 0 0 0 -542.10283722700933 -143.49379936074592 0 -143.49379936074592 3433.1248747366571 0 0 0 0 -880.56069893549011 194.21367159864803 0 194.21367159864803 2967.448977952904 0 0 0 0 -131.64694351762682 265.74612112220029 0 265.74612112220029 3144.792230672987 0 0 0 0 -3.5443554763150193 4.2311445002389867 0 4.2311445002389867 4.9326424817353454 0 0 0 0 1166.9665565790638 -632.83294414544889 0 -632.83294414544889 734.22926699375421 0 0 0 0 64.333222422828797 -367.26685693518448 0 -367.26685693518448 3499.8061306375112 0 0 0 0 -52.069088517201919 -515.88259419766473 0 -515.88259419766473 1912.1778886640541 0 0 0 0 -107.01101421291965 -318.90291952863208 0 -318.90291952863208 3486.1816912899167 0 0 0 0 304.4865486574372 -500.3039299405973 0 -500.3039299405973 841.20887884991862 0 0 0 0 -211.97972689618678 196.7365066823686 0 196.7365066823686 54.092022941067626 0 0 0 0 9.3945747471780372 -7.301196187092434 0 -7.301196187092434 7.9315054715151856 0 0 0 0 422.17029922674658 555.20962916269991 0 555.20962916269991 6281.2406433981396 0 0 0 0 811.59273818273687 -786.79710594693643 0 -786.79710594693643 -214.11886864478947 0 0 0 0 2325.9877833729252 -763.65419666278694 0 -763.65419666278694 5213.3208095763157 0 0 0 0 1551.9485297965102 -1531.2134981541201 0 -1531.2134981541201 493.96175172353469 0 0 0 0 151.34542398764921 -725.37356436333812 0 -725.37356436333812 4403.1547186757525 0 0 0 0 1091.4818235260589 -2371.3389163479469 0 -2371.3389163479469 3365.66830333486 0 0 0 0 2069.3063102050746 -1417.66691980527 0 -1417.66691980527 3982.289064284867 0 0 0 0 290.39192487404057 427.83333166696275 0 427.83333166696275 4125.7868459769325 0 0 0 0 829.55605774409787 194.91808712289921 0 194.91808712289921 4725.6943703502075 0 0 0 0 74.60353657300368 -1119.3996104039968 0 -1119.3996104039968 4634.8587814935336 0 0 0 0 1471.8582988817093 -1282.5876449308066 0 -1282.5876449308066 1320.635541696196 0 0 0 0 1157.167626341602 16.009257951012387 0 16.009257951012387 152.45183187558723 0 0 0 0 7.0391248095172543 -10.253437709788846 0 -10.253437709788846 20.29201663192179 0 0 0 0 -174.69513603310074 -199.98869631674032 0 -199.98869631674032 3311.1584814792905 0 0 0 0 -474.50420151506046 -171.56026940019993 0 -171.56026940019993 3852.4968383691385 0 0 0 0 -76.4820021690266 -720.81286673898751 0 -720.81286673898751 3614.7273239855649 0 0 0 0 195.89600042165716 -457.88488647698699 0 -457.88488647698699 2443.7664311821827 0 0 0 0 614.78789929955929 -391.23615500673225 0 -391.23615500673225 1010.2942839631153 0 0 0 0 658.41330942685863 -877.33757332166351 0 -877.33757332166351 2337.5602107227887 0 0 0 0 -316.13988471852122 49.814958983130282 0 49.814958983130282 2432.4093255279299 0 0 0 0 -367.73443095174935 -130.83030549187356 0 -130.83030549187356 3359.8912917032399 0 0 0 0 76.950266037766482 -490.50428176635364 0 -490.50428176635364 145.75964946634235 0 0 0 0 69.831658097963398 231.14990750024106 0 231.14990750024106 82.611193779263886 0 0 0 0 5.6355975892870847 0.22126190591989392 0 0.22126190591989392 -2.7516259501720768 0 0 0 0 549.43857834653431 -282.8812170606343 0 -282.8812170606343 -724.91463944521502 0 0 0 0 110.40574210225054 -200.17700078221912 0 -200.17700078221912 989.37156067435535 0 0 0 0 392.11121044760785 414.45405713369928 0 414.45405713369928 242.74325720387253 0 0 0 0 879.95893255594456 272.17852265964598 0 272.17852265964598 -118.21452899363067 0 0 0 0 148.02889951574161 117.35617046259517 0 117.35617046259517 22.027269898364466 0 0 0 0 417.62639592562755 113.96440832118219 0 113.96440832118219 21.454393546694064 0 0 0 0 61.526403254017168 257.8995643457506 0 257.8995643457506 -86.867585628161578 0 0 0 0 635.56960316527716 391.57109632465153 0 391.57109632465153 -163.19281296783902 0 0 0 0 185.35846774949732 -207.03785177375858 0 -207.03785177375858 -173.80662939038939 0 0 0 0 4.1239351605200394 0.77721860017317823 0 0.77721860017317823 -1.1147424286653589 0 0 0 0 419.36393227587178 107.99972387227035 0 107.99972387227035 52.451703147924491 0 0 0 0 743.82550500482148 18.528329647604437 0 18.528329647604437 -66.369981482822368 0 0 0 0 668.17132708877307 99.025083355354582 0 99.025083355354582 -31.61414240596423 0 0 0 0 655.28608041720236 120.18726324076988 0 120.18726324076988 128.01212012002725 0 0 0 0 454.89970226153218 -121.89087440298317 0 -121.89087440298317 -147.52722209150807 0 0 0 0 264.86915260723799 201.89649558395831 0 201.89649558395831 54.799188451785085 0 0 0 0 -100.61614371764881 40.456192362986258 0 40.456192362986258 74.593306054714162 0 0 0 0 -86.694071350036666 154.55266220112571 0 154.55266220112571 89.186810561307198 0 0 0 0 26.917298661678501 74.648412272463759 0 74.648412272463759 -65.318536140289325 0 0 0 0 -3.1978082151808849 12.547030452814397 0 12.547030452814397 52.315571077035202 0 0 0 0 -3.1484014812440364 121.07771211443469 0 121.07771211443469 30.734889275910973 0 0 0 0 38.27010289371583 126.07307210738804 0 126.07307210738804 -36.065677768965088 0 0 0 0 -112.63313500360232 -210.35507262334977 0 -210.35507262334977 855.96156186896224 0 0 0 0 801.13002986771789 1224.4466482073949 0 1224.4466482073949 773.85975197739208 0 0 0 0 -135.00822822040828 -97.933831010951963 0 -97.933831010951963 294.79999305156525 0 0 0 0 -81.621458743245853 -46.492379518077541 0 -46.492379518077541 193.9876889669431 0 0 0 0 -120.62738735169273 -62.155176870212017 0 -62.155176870212017 380.88849693508871 0 0 0 0 -74.30890344287036 47.648103389434254 0 47.648103389434254 282.3440907574527 0 0 0 0 -80.506248644368839 -9.2770093182853088 0 -9.2770093182853088 275.47905100530625 0 0 0 0 -4.4984408022029214 -2.8691597648867528 0 -2.8691597648867528 38.026824220609029 0 0 0 0 -27.137446881920141 175.27755932311811 0 175.27755932311811 384.01092548082244 0 0 0 0 -40.809942072717604 53.88020482738375 0 53.88020482738375 157.59628638829872 0 0 0 0 -62.293298105512122 95.067143977013984 0 95.067143977013984 201.0190724032509 0 0 0 0 22.99200302230583 -13.95306282343104 0 -13.95306282343104 22.04231375022971 0 0 0 0 6.1527444881937967 -20.938206967560603 0 -20.938206967560603 54.674936794436434 0 0 0 0 203.95859722015243 83.821547860247847 0 83.821547860247847 -206.41875111289846 0 0 0 0 14.714924612106188 3.9811977148965525 0 3.9811977148965525 89.413822927479487 0 0 0 0 148.21657971704735 -177.44441528181233 0 -177.44441528181233 -378.47915177980212 0 0 0 0 -271.68006479764426 -332.08708029194418 0 -332.08708029194418 73.996640188980564 0 0 0 0 560.17975813901285 -24.168301122116645 0 -24.168301122116645 -33.081422167871096 0 0 0 0 10.495805216623921 -26.384567052593411 0 -26.384567052593411 69.69803750526853 0 0 0 0 14.341124349768506 -95.614377977233289 0 -95.614377977233289 57.723798772609371 0 0 0 0 466.62441870918701 8.3110421436920205 0 8.3110421436920205 -121.11794550528248 0 0 0 0 20.860682063219844 -34.186205965825252 0 -34.186205965825252 60.286199751665485 0 0 0 0 -212.4039375750715 57.21024482123039 0 57.21024482123039 1014.9443388598429 0 0 0 0 3.9187974727919936 -72.696562517256552 0 -72.696562517256552 104.27975107470752 0 0 0 0 -6.1432184096232731 -1.0744752710589367 0 -1.0744752710589367 23.52303697702493 0 0 0 0 46.324581002811556 369.16359106435129 0 369.16359106435129 142.81952210934833 0 0 0 0 197.43560675425297 206.33536530843594 0 206.33536530843594 -315.12293830558338 0 0 0 0 242.00694067865498 68.031819416510189 0 68.031819416510189 110.25590141281907 0 0 0 0 14.371114867480362 -25.594003097313454 0 -25.594003097313454 46.751448194460863 0 0 0 0 426.03665380766807 173.982244009444 0 173.982244009444 -10.03097087036258 0 0 0 0 382.04884559968872 -1.9217609425477349 0 -1.9217609425477349 164.84854821550744 0 0 0 0 403.36450497794698 308.14341838815017 0 308.14341838815017 18.778172140799143 0 0 0 0 -323.8102572902593 -72.608179122610636 0 -72.608179122610636 -85.569428359265657 0 0 0 0 -803.90275666233458 300.19753773627281 0 300.19753773627281 441.56416868738779 0 0 0 0 -317.36223355571303 267.2333430022918 0 267.2333430022918 740.85453788318409 0 0 0 0 -0.56577888909621121 3.5973310395707516 0 3.5973310395707516 25.862033653602793 0 0 0 0 232.17763524769748 76.593041199595973 0 76.593041199595973 -519.16484566130748 0 0 0 0 49.985223655036421 -325.39729930227986 0 -325.39729930227986 296.17590727391507 0 0 0 0 53.69344170554524 -330.87086073641149 0 -330.87086073641149 139.43380130400328 0 0 0 0 37.080933999754052 403.85597285300128 0 403.85597285300128 14.965480806789856 0 0 0 0 0.078764828866582648 1.6876361781050742 0 1.6876361781050742 11.749251455505174 0 0 0 0 97.825189267467522 -213.82792947301095 0 -213.82792947301095 -309.70884735978689 0 0 0 0 -79.681182308640928 -73.312596349242085 0 -73.312596349242085 209.13900780661061 0 0 0 0 95.22939396555708 -171.34591847504095 0 -171.34591847504095 -21.661334313619591 0 0 0 0 211.91172226430569 95.827212946847339 0 95.827212946847339 -194.1569199757505 0 0 0 0 96.213737227853017 66.778603074732018 0 66.778603074732018 472.64325209902381 0 0 0 0 3.6987856810665116 -2.959683893335658 0 -2.959683893335658 -0.19655123699655519 0 0 0 0 14.659369598293893 -44.588060847070665 0 -44.588060847070665 416.69092519124206 0 0 0 0 -182.28344006035979 -359.75716125066356 0 -359.75716125066356 -84.59987341588203 0 0 0 0 184.30788829736269 1.4538180970612302 0 1.4538180970612302 -215.14958182679402 0 0 0 0 356.39400888736503 103.31234282602668 0 103.31234282602668 -156.42332078485924 0 0 0 0 336.21090023106831 -54.745751466491129 0 -54.745751466491129 -411.67896126046799 0 0 0 0 -434.18087222216741 491.62497747749057 0 491.62497747749057 398.18247154194614 0 0 0 0 114.92031985562244 -1285.7573402535631 0 -1285.7573402535631 2030.2178962707376 0 0 0 0 -0.026536194634003585 0.76170931893923566 0 0.76170931893923566 14.551586093942454 0 0 0 0 199.51701957016184 -54.762135825649239 0 -54.762135825649239 -15.775565115271093 0 0 0 0 27.288680955471875 372.75359664061489 0 372.75359664061489 237.86061475095448 0 0 0 0 -36.97681769339367 264.04417907281731 0 264.04417907281731 1477.8421575974826 0 0 0 0 282.73595600895226 713.72151770250287 0 713.72151770250287 1980.4942140482708 0 0 0 0 628.59691255369432 219.47914103905896 0 219.47914103905896 242.01189954763595 0 0 0 0 291.39186388655025 -210.03412976569325 0 -210.03412976569325 -7.3570997339538735 0 0 0 0 -222.51591960111367 -393.01127425730192 0 -393.01127425730192 2138.3412609720481 0 0 0 0 36.881996336358569 -400.66989370781471 0 -400.66989370781471 2082.9839247951168 0 0 0 0 -258.70417843903346 -621.3679976130652 0 -621.3679976130652 3868.6159560748974 0 0 0 0 90.051812671492897 -1188.690186742298 0 -1188.690186742298 3219.9332914021325 0 0 0 0 -193.61290791382413 -1177.3743041395865 0 -1177.3743041395865 3316.886755214241 0 0 0 0 -299.83722984808156 -1167.2402480362844 0 -1167.2402480362844 3031.476541588042 0 0 0 0 -205.05531534815105 -1015.6959956781502 0 -1015.6959956781502 3182.5805302437584 0 0 0 0 -146.54378829190665 -1140.8351963263631 0 -1140.8351963263631 3499.2126354531429 0 0 0 0 -13.468982469160061 -1087.2888116172139 0 -1087.2888116172139 3201.182790219973 0 0 0 0 -131.27477469742931 -1080.9761852868933 0 -1080.9761852868933 3512.9970761566801 0 0 0 0 0.63660386969202887 -0.25444686053652887 0 -0.25444686053652887 5.030996299603185 0 0 0 0 -90.525569035742919 -1152.0875317092541 0 -1152.0875317092541 3163.8961176668436 0 0 0 0 10.790544222222382 -577.0281507128966 0 -577.0281507128966 3333.6279304451309 0 0 0 0 39.896462662593038 -1239.6387030534179 0 -1239.6387030534179 3222.6621132219007 0 0 0 0 648.55593597789721 -1345.9781125099853 0 -1345.9781125099853 2613.6386982599215 0 0 0 0 44.093249846041886 -1231.4204135460495 0 -1231.4204135460495 2939.580940866641 0 0 0 0 -191.30223128709946 -685.4355756653664 0 -685.4355756653664 2898.4028003564636 0 0 0 0 624.52599867624042 -1008.2482455291811 0 -1008.2482455291811 3025.4773191318673 0 0 0 0 -38.354372357237445 -1037.8420921455213 0 -1037.8420921455213 3069.8126177978011 0 0 0 0 152.39891552427241 -1768.332000725637 0 -1768.332000725637 2990.605698381778 0 0 0 0 223.22152697645939 -1386.6066510879418 0 -1386.6066510879418 3500.117235408492 0 0 0 0 607.87878773729631 -2193.4324435776216 0 -2193.4324435776216 3496.6597055607963 0 0 0 0 223.79439034962763 -1566.8466702145201 0 -1566.8466702145201 2600.1596479574 0 0 0 0 317.64669159623952 -1689.8427868908675 0 -1689.8427868908675 2469.8869512088968 0 0 0 0 425.90030431424293 -666.38098168683609 0 -666.38098168683609 1168.9028768201824 0 0 0 0 431.68799936878156 -825.66041894214686 0 -825.66041894214686 962.2011441717259 0 0 0 0 -1.4095576335150553 8.5165645289245706 0 8.5165645289245706 3.9139517633373657 0 0 0 0 115.25228186304957 -953.87327909514534 0 -953.87327909514534 600.05539687654891 0 0 0 0 -71.69919165940388 -540.75248469281541 0 -540.75248469281541 1376.509446398386 0 0 0 0 -29.562081538599841 48.569396099675942 0 48.569396099675942 76.514265857396822 0 0 0 0 0.20009797994481993 8.556455376639164 0 8.556455376639164 43.617715442750068 0 0 0 0 2530.4078436657492 -2623.4723400962102 0 -2623.4723400962102 2278.3158152362994 0 0 0 0 2.7062948404139515 2.0236924302680634 0 2.0236924302680634 17.613590271807524 0 0 0 0 -339.27181835642068 693.13561016150925 0 693.13561016150925 3494.4374373551677 0 0 0 0 1072.1163150936977 1082.3841328231892 0 1082.3841328231892 419.48226609565609 0 0 0 0 -194.08854376761604 -207.02301057944351 0 -207.02301057944351 1069.4877892609693 0 0 0 0 -214.50252322784934 328.98964467706264 0 328.98964467706264 967.28080461198988 0 0 0 0 449.95323441033065 -0.93964557230538048 0 -0.93964557230538048 -21.364175327762496 0 0 0 0 76.066781258391757 -173.08987284141404 0 -173.08987284141404 535.39340363680708 0 0 0 0 8.700962392183726 168.06863838851677 0 168.06863838851677 -55.816250592692541 0 0 0 0 20.716747187393818 38.081836540880495 0 38.081836540880495 59.808940856028954 0 0 0 0 -727.61808030382417 304.66219238299163 0 304.66219238299163 115.93555241476861 0 0 0 0 135.14528083628744 -11.043606291455035 0 -11.043606291455035 7.7878129022356006 0 0 0 0 12.101385516807568 1.8334305183961987 0 1.8334305183961987 15.701116119493236 0 0 0 0 1.2000742808958307 1.2627582711524603 0 1.2627582711524603 0.30244889477042136 0 0 0 0 29.963957807287329 -66.443564644500839 0 -66.443564644500839 276.64806526849497 0 0 0 0 -1.2700162001321869 -3.9152268007194344 0 -3.9152268007194344 7.7500386673201973 0 0 0 0 -27.727879696841228 -44.547915930788804 0 -44.547915930788804 67.570191105874983 0 0 0 0 -89.280269272153191 378.49282319460644 0 378.49282319460644 445.45486715368679 0 0 0 0 6.7419587774586489 -66.716657688142732 0 -66.716657688142732 127.08035582326556 0 0 0 0 -1.2235378137043318 -4.0078594535298251 0 -4.0078594535298251 52.988748890444427 0 0 0 0 379.24792680847952 1001.7887204093204 0 1001.7887204093204 1569.9446325597819 0 0 0 0 312.68727085576802 1134.5196188096525 0 1134.5196188096525 1663.1127886337272 0 0 0 0 172.7857203964071 138.47064581411541 0 138.47064581411541 1605.1089484979675 0 0 0 0 176.92505231526189 10.067516188682703 0 10.067516188682703 2978.2702764345595 0 0 0 0 -170.52979910750946 643.79549277455953 0 643.79549277455953 2342.8909100990568 0 0 0 0 -145.7570908902328 704.64845362905544 0 704.64845362905544 1583.3835078901611 0 0 0 0 -112.87982136303344 323.22296318200097 0 323.22296318200097 1605.0649182743509 0 0 0 0 -71.889480554956663 341.18556067872851 0 341.18556067872851 1231.8707944907183 0 0 0 0 -404.05281846989192 485.17655731630475 0 485.17655731630475 3502.1052816609663 0 0 0 0 2.5753325626491383 12.816437725399794 0 12.816437725399794 8.9824748409001813 0 0 0 0 168.97272876647952 302.72683295144816 0 302.72683295144816 1236.7664836658805 0 0 0 0 -200.85572437473817 853.66260841768144 0 853.66260841768144 -1075.2539605014899 0 0 0 0 1.169616354359819 6.7694463556354236 0 6.7694463556354236 5.6267450877983407 0 0 0 0 -130.99242115418775 888.2456978530754 0 888.2456978530754 5565.7607739501473 0 0 0 0 704.36064129347312 4389.739140151265 0 4389.739140151265 3485.910565631872 0 0 0 0 1393.1358683741737 2592.8154909857367 0 2592.8154909857367 3515.381592841637 0 0 0 0 693.09924558458226 1578.4797933711525 0 1578.4797933711525 2588.8092885122405 0 0 0 0 1043.5170370854378 1064.56960097704 0 1064.56960097704 1547.4570489775942 0 0 0 0 1226.5134366798115 116.56552581975484 0 116.56552581975484 -861.81072008527553 0 0 0 0 2306.4066900786379 1952.4125489233338 0 1952.4125489233338 1145.2015179440896 0 0 0 0 2466.3881106331769 2020.2539637534019 0 2020.2539637534019 158.5777789385902 0 0 0 0 -82.302576875363329 -1099.2853759270711 0 -1099.2853759270711 3496.1261976686874 0 0 0 0 12.084608861901062 14.136517456305505 0 14.136517456305505 20.600263147937738 0 0 0 0 -966.08224244197845 146.31650188233834 0 146.31650188233834 730.49959420193045 0 0 0 0 18.528546042886287 32.925507932409772 0 32.925507932409772 51.632438284402241 0 0 0 0 -1021.5276139565149 976.64136956264701 0 976.64136956264701 -88.797516179663944 0 0 0 0 -343.90429803130701 83.841636484699848 0 83.841636484699848 -170.44185595933504 0 0 0 0 -387.90012701363776 111.67649827775676 0 111.67649827775676 346.0601475770236 0 0 0 0 76.53872193301504 -76.198775111774012 0 -76.198775111774012 99.81119911272981 0 0 0 0 654.06870489098856 76.139757645214559 0 76.139757645214559 91.039574112706759 0 0 0 0 68.673192849367297 10.498170765211398 0 10.498170765211398 371.3649315183975 0 0 0 0 405.10271088222589 284.18942452849842 0 284.18942452849842 456.3459060088062 0 0 0 0 314.14798485971187 -53.903286321852647 0 -53.903286321852647 -50.251327970763668 0 0 0 0 1310.2693390970185 205.24132095132518 0 205.24132095132518 -72.766469527745357 0 0 0 0 1404.3696611552741 1347.0203223725402 0 1347.0203223725402 1220.4054123903916 0 0 0 0 822.16978094601416 617.57757282319903 0 617.57757282319903 471.75591654935852 0 0 0 0 664.27633255989031 559.91070689603657 0 559.91070689603657 582.19925346321543 0 0 0 0 556.22854426736876 366.69110216544141 0 366.69110216544141 338.76565659132757 0 0 0 0 410.79580040967363 657.14215235754455 0 657.14215235754455 758.60751928489481 0 0 0 0 304.01801416941453 526.80192554837413 0 526.80192554837413 599.81237319571665 0 0 0 0 126.72874744355471 756.21222571607359 0 756.21222571607359 945.92368014415842 0 0 0 0 81.611408296471893 651.96889625677795 0 651.96889625677795 931.08038289159595 0 0 0 0 370.60449497487014 975.19026508368438 0 975.19026508368438 1138.213796637734 0 0 0 0 361.34699956104214 710.62681873264228 0 710.62681873264228 722.09045206005248 0 0 0 0 247.77856052612935 954.92108702449332 0 954.92108702449332 1555.9678315359415 0 0 0 0 821.88087015349652 1130.7101917383577 0 1130.7101917383577 1089.7052841310942 0 0 0 0 65.745994122402465 889.81873264579554 0 889.81873264579554 1333.5315569929662 0 0 0 0 -47.399635473564786 848.37856925367669 0 848.37856925367669 1318.3862245121563 0 0 0 0 172.86181043505303 1076.5725138776761 0 1076.5725138776761 1639.7848202655732 0 0 0 0 96.443036058701523 149.39411919667873 0 149.39411919667873 424.92567731962481 0 0 0 0 -47.881224651734669 242.28548661611785 0 242.28548661611785 647.2338578003255 0 0 0 0 110.35333895277637 376.52562971140651 0 376.52562971140651 605.16815933267935 0 0 0 0 106.44364139191316 383.85393966295669 0 383.85393966295669 641.47040643643777 0 0 0 0 305.53482829497057 275.38428324900087 0 275.38428324900087 422.60906761910155 0 0 0 0 217.03298791220914 226.52068705368583 0 226.52068705368583 450.576774499561 0 0 0 0 49.111227089258364 93.852216848645185 0 93.852216848645185 397.08240880791254 0 0 0 0 148.81115454858491 11.23290927394919 0 11.23290927394919 250.21397148346296 0 0 0 0 15.209167613913451 -18.844327014114242 0 -18.844327014114242 258.72995934658684 0 0 0 0 0.61762924100457894 -95.502480595016095 0 -95.502480595016095 241.44862177904542 0 0 0 0 307.30415262775637 80.047965237854442 0 80.047965237854442 213.54189488576958 0 0 0 0 39.299313334990984 -51.86853885031087 0 -51.86853885031087 295.30514795869385 0 0 0 0 -283.25381530172854 -9.1704716206331796 0 -9.1704716206331796 294.60746513689082 0 0 0 0 -43.153276388922677 -109.55686224585952 0 -109.55686224585952 221.4541930591331 0 0 0 0 -213.05388740377566 -34.792107817916985 0 -34.792107817916985 276.99525803174038 0 0 0 0 -56.793699401973299 -55.815840208928421 0 -55.815840208928421 229.89331489287724 0 0 0 0 -98.425048703938501 37.843314685303994 0 37.843314685303994 432.31510720492224 0 0 0 0 -2.4178796018237101 -0.9179413212529397 0 -0.9179413212529397 1.9364662691812384 0 0 0 0 -229.95387991334974 -213.90773501183867 0 -213.90773501183867 -106.62717360285751 0 0 0 0 9.4900055631139821 -21.591020760326501 0 -21.591020760326501 136.90893363513169 0 0 0 0 -12.592468464155218 -21.863550255890004 0 -21.863550255890004 251.0419102122396 0 0 0 0 -63.210101320302329 -62.965385812965906 0 -62.965385812965906 254.67039359766204 0 0 0 0 14.084798838485312 -12.601195685798302 0 -12.601195685798302 286.81384418999369 0 0 0 0 3.9435751795392662 -62.312437966596917 0 -62.312437966596917 228.91146185107209 0 0 0 0 -19.917065185528827 -40.116334413109143 0 -40.116334413109143 151.82651841760526 0 0 0 0 -5.7722217710622772 -11.157328115943528 0 -11.157328115943528 174.92509469002835 0 0 0 0 -49.600578249058515 -50.928410211716255 0 -50.928410211716255 179.65204959901166 0 0 0 0 -88.459614058979412 -27.373649957811722 0 -27.373649957811722 341.55789747116796 0 0 0 0 5.8572881063611453 20.854193889952967 0 20.854193889952967 229.24911105091451 0 0 0 0 7.8813026663010533 74.893987780787938 0 74.893987780787938 191.14117780509696 0 0 0 0 79.225661283639056 179.85634370785192 0 179.85634370785192 234.10110290203011 0 0 0 0 25.919552387600334 81.416145121225782 0 81.416145121225782 111.53881862787784 0 0 0 0 5.5930731793008466 12.432178202763451 0 12.432178202763451 37.049720460437925 0 0 0 0 28.16129291024528 50.726315183080274 0 50.726315183080274 107.48901883464801 0 0 0 0 26.316193593950629 85.283330369655232 0 85.283330369655232 130.8956924890972 0 0 0 0 9.7363068037988381 4.6068285551492885 0 4.6068285551492885 23.437507497186289 0 0 0 0 26.818874232301937 63.097853187142391 0 63.097853187142391 126.30232941591703 0 0 0 0 101.53937631930771 118.26997194732905 0 118.26997194732905 158.87078953929813 0 0 0 0 -67.302161345977368 5.518177325124725 0 5.518177325124725 201.13186689304712 0 0 0 0 7.0577542380715821 6.226815982216765 0 6.226815982216765 65.905155975818843 0 0 0 0 51.009366209159907 49.22410878352639 0 49.22410878352639 -10.180544858802023 0 0 0 0 27.04121940038624 60.436974394298886 0 60.436974394298886 99.053016008034319 0 0 0 0 21.042165823709393 32.981420435432824 0 32.981420435432824 71.05963648446108 0 0 0 0 -332.10398810181323 122.35484820585407 0 122.35484820585407 102.9722533808017 0 0 0 0 -262.14651369848707 122.5285537038144 0 122.5285537038144 43.248086479219637 0 0 0 0 -293.10335749731166 31.203068466587865 0 31.203068466587865 187.16912074283027 0 0 0 0 -246.45355943745244 20.543128248487847 0 20.543128248487847 154.26988095528213 0 0 0 0 -188.06483942671093 -20.655191888647096 0 -20.655191888647096 145.0108496860048 0 0 0 0 -239.26940058203945 32.57112434690498 0 32.57112434690498 119.85981909447401 0 0 0 0 -258.31315257325514 48.259042178025993 0 48.259042178025993 106.94592663759249 0 0 0 0 -161.41393561268887 -257.71260324503965 0 -257.71260324503965 211.69074957648263 0 0 0 0 -0.58370925754188185 -1.3833415413987744 0 -1.3833415413987744 9.8511628155426365 0 0 0 0 567.07702060364682 465.79853902642571 0 465.79853902642571 197.12677313780296 0 0 0 0 -189.32788317049562 -65.196638172106759 0 -65.196638172106759 -12.304062980903836 0 0 0 0 -241.81236199249906 -135.36541382033465 0 -135.36541382033465 267.98943321075058 0 0 0 0 -235.87415587040414 -99.002830304169038 0 -99.002830304169038 313.91795971184547 0 0 0 0 -176.18528252783517 -129.88515135004309 0 -129.88515135004309 225.12058360413357 0 0 0 0 -316.26117324396 -117.55423481368052 0 -117.55423481368052 277.2859527018154 0 0 0 0 -12.484443390794695 202.42861875637027 0 202.42861875637027 120.14265589891875 0 0 0 0 -399.86269111353522 -76.537847773310205 0 -76.537847773310205 381.74882949031598 0 0 0 0 -304.04741198162924 -198.03754998523527 0 -198.03754998523527 689.25612134640687 0 0 0 0 683.63383574119871 936.19579278603487 0 936.19579278603487 354.01884688490463 0 0 0 0 -535.81659474461776 181.77928525372408 0 181.77928525372408 1674.2580466759682 0 0 0 0 -37.094884918084972 11.101825786769041 0 11.101825786769041 86.918116033513797 0 0 0 0 -159.583007304489 -222.02027730798727 0 -222.02027730798727 337.76890530875971 0 0 0 0 -37.617193132974997 4.479643389243229 0 4.479643389243229 64.313975103729035 0 0 0 0 402.3719064553261 149.81713336918983 0 149.81713336918983 -0.85689658994670026 0 0 0 0 -10.088942994971148 397.92895224025415 0 397.92895224025415 35.29595051376964 0 0 0 0 252.07936646536109 287.95860464594443 0 287.95860464594443 -62.56790572135651 0 0 0 0 -28.573532190291914 -20.971308622917363 0 -20.971308622917363 31.282803257431965 0 0 0 0 172.31518276810675 225.90318537877465 0 225.90318537877465 141.52754389033362 0 0 0 0 -42.054155832882316 58.360808601461031 0 58.360808601461031 40.490919617914187 0 0 0 0 -69.313942410308528 -88.297693425766283 0 -88.297693425766283 130.0720728296983 0 0 0 0 -38.719302013356355 -155.22207174212963 0 -155.22207174212963 3.7855381900735665 0 0 0 0 -20.593577845564759 -13.509399346148594 0 -13.509399346148594 32.220161010685587 0 0 0 0 -39.43999139495736 -106.12979004408044 0 -106.12979004408044 202.16975433903281 0 0 0 0 -27.042275702132059 -14.994699971318301 0 -14.994699971318301 145.80188966217042 0 0 0 0 -29.972132774692909 36.52194757498728 0 36.52194757498728 164.27701291892026 0 0 0 0 -78.946610283584789 -18.508609545428271 0 -18.508609545428271 217.9746435002744 0 0 0 0 -71.825227137297588 39.729711194253468 0 39.729711194253468 218.22176591698729 0 0 0 0 -14.468500051159101 21.052438119918627 0 21.052438119918627 100.59539420947624 0 0 0 0 -44.746328756228195 57.690738009476263 0 57.690738009476263 184.37116993959808 0 0 0 0 -42.164247528704891 20.842211580994444 0 20.842211580994444 96.710134085311438 0 0 0 0 -430.87060427288725 366.01528814879202 0 366.01528814879202 529.8803486401157 0 0 0 0 253.34440884829382 -246.81098762926013 0 -246.81098762926013 -217.54307550355588 0 0 0 0 -129.71009796851104 -142.24763698278002 0 -142.24763698278002 78.794218301212823 0 0 0 0 -254.69637716929356 -463.64744275337489 0 -463.64744275337489 997.45252065715613 0 0 0 0 -555.2154433768992 479.38837546770446 0 479.38837546770446 877.11806941083705 0 0 0 0 1201.8275324563028 -380.9010258312228 0 -380.9010258312228 108.21661070292612 0 0 0 0 2.2552460726818051 -6.541491298649909 0 -6.541491298649909 14.933983075118647 0 0 0 0 -1108.7567692390476 -32.986392885519308 0 -32.986392885519308 1513.9520934274333 0 0 0 0 -33.90239331976727 34.202729288634146 0 34.202729288634146 105.74569601949042 0 0 0 0 1997.8779862544288 1135.7255266040447 0 1135.7255266040447 493.39727167136152 0 0 0 0 -42.034501868927798 18.838396133288583 0 18.838396133288583 20.952852437615036 0 0 0 0 -14.29099930125858 27.674966266356932 0 27.674966266356932 72.937074390487396 0 0 0 0 72.655971113366832 91.15188938598294 0 91.15188938598294 -287.62234538055782 0 0 0 0 -3.3671849590800775 40.940350345830666 0 40.940350345830666 84.135813915323524 0 0 0 0 -45.679936652548648 -4.7417995665682611 0 -4.7417995665682611 42.110266998353495 0 0 0 0 -76.770449806845136 -91.926568587376096 0 -91.926568587376096 -188.17703073714074 0 0 0 0 -200.93675975909628 15.104978797098738 0 15.104978797098738 -22.99267110969231 0 0 0 0 -84.75177305942907 -19.304714666497603 0 -19.304714666497603 -13.087946336716413 0 0 0 0 -101.72202523205306 -18.660637692228192 0 -18.660637692228192 11.15923326612392 0 0 0 0 -94.624933078692266 2.8039544847270008 0 2.8039544847270008 40.336679052503314 0 0 0 0 -82.477434139864272 -2.1191993808315601 0 -2.1191993808315601 9.4239060796244303 0 0 0 0 -11.457692385328116 -3.8720965974927424 0 -3.8720965974927424 1.8676663213581151 0 0 0 0 478.09160412601341 864.41774510176037 0 864.41774510176037 808.40748456925212 0 0 0 0 66.944549629472021 331.20060069600731 0 331.20060069600731 491.93236728239572 0 0 0 0 16.911131300237685 107.49234752857592 0 107.49234752857592 13.169770882130251 0 0 0 0 8.2468340458108287 17.330536312314507 0 17.330536312314507 1928.7084092756049 0 0 0 0 -72.68934290262041 -4.7564485199109185 0 -4.7564485199109185 40.850869155081455 0 0 0 0 -5.2410083666379279 9.8503202316231011 0 9.8503202316231011 12.400999017058922 0 0 0 0 -64.875144029028306 -8.7880837008404882 0 -8.7880837008404882 26.573305485715565 0 0 0 0 -15.25235520113177 8.6953791145480892 0 8.6953791145480892 0.5335773507416377 0 0 0 0 -604.03380044669393 -165.96417194267997 0 -165.96417194267997 417.15225719841692 0 0 0 0 94.772732255223673 414.10710298006961 0 414.10710298006961 684.99174571872572 0 0 0 0 -378.79342269125118 12.542887426010566 0 12.542887426010566 835.41573839592093 0 0 0 0 -365.64106264056136 -311.85142316447309 0 -311.85142316447309 19.445860991880181 0 0 0 0 -570.3702741459656 303.79080709393384 0 303.79080709393384 397.12483907000569 0 0 0 0 -176.13033465161243 -60.613880098488153 0 -60.613880098488153 280.94598718252382 0 0 0 0 242.45030414587018 319.27509235109756 0 319.27509235109756 1452.2650707187277 0 0 0 0 240.49947817288194 -122.86173465089087 0 -122.86173465089087 786.1137783582235 0 0 0 0 -201.97382152784485 315.24972914250975 0 315.24972914250975 1352.0410327792633 0 0 0 0 293.23385192220303 -104.84428242310969 0 -104.84428242310969 691.13071988659067 0 0 0 0 -160.01223830609888 -186.02089018980769 0 -186.02089018980769 779.54646441942896 0 0 0 0 242.40728116401442 -260.3759746738142 0 -260.3759746738142 307.17899741932342 0 0 0 0 146.19058778889666 -108.72512702458516 0 -108.72512702458516 785.7689621840691 0 0 0 0 183.40665014205206 -184.41293464116825 0 -184.41293464116825 215.49984770656738 0 0 0 0 316.83283223121907 -330.84034002447152 0 -330.84034002447152 299.43503343302291 0 0 0 0 -15.948715507958696 -302.64853283752745 0 -302.64853283752745 344.70055855845567 0 0 0 0 219.29299681793782 -329.08962803748 0 -329.08962803748 68.451306564587867 0 0 0 0 38.991684414591873 -245.93829585477215 0 -245.93829585477215 30.729395710361132 0 0 0 0 212.13910218494493 -304.16189741870039 0 -304.16189741870039 33.109159983578138 0 0 0 0 -578.62256182443889 -98.590225549953175 0 -98.590225549953175 99.816212696678122 0 0 0 0 -42.543770082393166 -218.75974660706561 0 -218.75974660706561 94.63911268155789 0 0 0 0 -297.80073770649324 -424.81557023173082 0 -424.81557023173082 205.63160894326575 0 0 0 0 3.8267304266519204 -370.91429245427571 0 -370.91429245427571 14.177347775963426 0 0 0 0 -222.68146963141135 -278.42663723063833 0 -278.42663723063833 -1.6210391247441294 0 0 0 0 -207.11518667982455 -191.61952635983471 0 -191.61952635983471 -158.56892810919089 0 0 0 0 326.33483180305575 125.04172647837913 0 125.04172647837913 34.138009541464271 0 0 0 0 -882.02245650456462 -402.02836200360252 0 -402.02836200360252 265.36754092410774 0 0 0 0 98.254089492739695 -369.48271090246635 0 -369.48271090246635 -55.222547655022026 0 0 0 0 1.3524294616446682 -11.894702274150951 0 -11.894702274150951 44.599281874842148 0 0 0 0 -351.01946285890835 -127.77392147705066 0 -127.77392147705066 699.99885174243798 0 0 0 0 -309.2454194761433 -340.45925366384409 0 -340.45925366384409 428.54426856103441 0 0 0 0 51.634667262327113 -79.682288126033768 0 -79.682288126033768 119.17241536236982 0 0 0 0 -137.43538769230508 5.5086871455108053 0 5.5086871455108053 496.19707624574215 0 0 0 0 -288.48896389294168 -575.19467963310763 0 -575.19467963310763 311.94114312135935 0 0 0 0 -21.422564101116905 74.657475784561939 0 74.657475784561939 131.3964287984345 0 0 0 0 -103.123499497583 -20.474427636949258 0 -20.474427636949258 1451.2971823901607 0 0 0 0 49.67931169972195 -449.38328373985041 0 -449.38328373985041 1285.6534108339838 0 0 0 0 -82.547560562972194 -225.36673604248062 0 -225.36673604248062 35.743768461405125 0 0 0 0 -10.121312197622501 11.119161659684323 0 11.119161659684323 48.610555951090646 0 0 0 0 -3.9342816451295679 -1.982499527308903 0 -1.982499527308903 -1.2152473307210272 0 0 0 0 -17.920988565095129 -4.7539524665779567 0 -4.7539524665779567 -0.49584302968096949 0 0 0 0 -163.53064465072703 82.117209489762899 0 82.117209489762899 22.330402192543261 0 0 0 0 -34.672468544746849 -13.270228705314892 0 -13.270228705314892 -4.9315487680807308 0 0 0 0 -2.3965230218664146 -102.05599867324054 0 -102.05599867324054 554.78463741444284 0 0 0 0 -0.62448127682910126 8.0402281399292406 0 8.0402281399292406 1010.4919762593199 0 0 0 0 -113.87615548147915 -363.31495293917396 0 -363.31495293917396 1019.5139022496878 0 0 0 0 -106.6815382063869 -253.97225709784107 0 -253.97225709784107 821.83058784427703 0 0 0 0 -169.17743748964949 -411.577955083696 0 -411.577955083696 1392.0023789455445 0 0 0 0 -163.58969444034665 -370.48143336829526 0 -370.48143336829526 801.06071029560553 0 0 0 0 -29.860519210764778 -47.944859432165686 0 -47.944859432165686 -16.822270364245924 0 0 0 0 -8.0053103127894865 -4.3475644101682462 0 -4.3475644101682462 0.79809316390948482 0 0 0 0 0.91535117537523547 -47.100645603266457 0 -47.100645603266457 121.42974122440137 0 0 0 0 -47.690154697255593 -5.1537083656094183 0 -5.1537083656094183 -16.492598458964494 0 0 0 0 -75.637631041081477 -67.798116460035089 0 -67.798116460035089 -100.35113633129549 0 0 0 0 293.18557052153119 -262.55613942743366 0 -262.55613942743366 128.24341064478358 0 0 0 0 -58.549405498454064 -22.000559677443349 0 -22.000559677443349 -1.0870034575819147 0 0 0 0 -106.31757049463704 -62.566994606728258 0 -62.566994606728258 39.225343674479518 0 0 0 0 -1.2752589637878557 -10.110453483853831 0 -10.110453483853831 0.65661369351514054 0 0 0 0 110.57497057900036 -77.512173769951914 0 -77.512173769951914 1617.8478754458192 0 0 0 0 -132.21968210391424 -19.62766509363064 0 -19.62766509363064 2436.5441091368266 0 0 0 0 76.220984099636553 80.614698832103386 0 80.614698832103386 1559.7844628055173 0 0 0 0 396.07793614174807 -664.58149922973098 0 -664.58149922973098 1516.23825264482 0 0 0 0 265.43476602566079 -121.70219175929378 0 -121.70219175929378 940.90182554925559 0 0 0 0 160.14862484698824 -364.44961841884651 0 -364.44961841884651 734.7067280842748 0 0 0 0 202.57234222212355 -149.6999695438426 0 -149.6999695438426 700.77231590402153 0 0 0 0 326.68048803747888 -361.4341141428431 0 -361.4341141428431 787.14632651215652 0 0 0 0 265.25543993838255 -143.23477653798909 0 -143.23477653798909 -122.66012575266359 0 0 0 0 214.85678124766673 11.768221371992695 0 11.768221371992695 80.421345944778295 0 0 0 0 51.823536186189813 -219.18568923106068 0 -219.18568923106068 234.22001655734493 0 0 0 0 352.86379862745343 -147.35215070989216 0 -147.35215070989216 248.06472134099749 0 0 0 0 -254.72666179330918 -258.11333874916454 0 -258.11333874916454 -35.580272849474568 0 0 0 0 -7.254928052364221 -2.8080148113147487 0 -2.8080148113147487 11.826939555004316 0 0 0 0 -429.38245554476634 338.8595062317836 0 338.8595062317836 -148.64241840851901 0 0 0 0 0.80720771453932194 3.8863477995519418 0 3.8863477995519418 3.2923352038720566 0 0 0 0 -406.71778551401394 -252.08607704663336 0 -252.08607704663336 296.08310397295281 0 0 0 0 -359.34291253486663 -65.418974186010018 0 -65.418974186010018 1030.1735603976413 0 0 0 0 205.0948056015468 -286.44003984950359 0 -286.44003984950359 201.70472175831674 0 0 0 0 345.99782572376887 180.12901258452439 0 180.12901258452439 1050.4522802387364 0 0 0 0 46.496875205734796 170.04366560325798 0 170.04366560325798 394.99443639646051 0 0 0 0 12.491237741443911 161.93051714119429 0 161.93051714119429 839.88346199818443 0 0 0 0 -125.47520384729341 -222.80969580074088 0 -222.80969580074088 1048.0531151777323 0 0 0 0 64.329836292246 -295.09661062661326 0 -295.09661062661326 499.79424063897022 0 0 0 0 -3.8296155293296223 18.899148608279489 0 18.899148608279489 37.382937214693769 0 0 0 0 -223.1199670565602 58.61869141223724 0 58.61869141223724 48.112900041789544 0 0 0 0 -346.34700621000775 291.16939028693378 0 291.16939028693378 -89.680846144678071 0 0 0 0 51.867128740897897 -394.85179995182625 0 -394.85179995182625 695.44654951404664 0 0 0 0 -758.53695284792457 -91.573184401677281 0 -91.573184401677281 160.99683106828888 0 0 0 0 -724.95765368965567 -65.089878818289435 0 -65.089878818289435 132.68245108493284 0 0 0 0 -4.0256107966207306 -8.9843118270212017 0 -8.9843118270212017 54.345670788859138 0 0 0 0 -420.20161842309108 53.82404569281789 0 53.82404569281789 178.013117541057 0 0 0 0 -5.4466081321963564 -5.8079153811958406 0 -5.8079153811958406 55.208458998379626 0 0 0 0 -312.72493975966609 102.43052772253577 0 102.43052772253577 41.94176469501781 0 0 0 0 -89.974498124631282 -112.80854655574694 0 -112.80854655574694 -75.153066773658793 0 0 0 0 -190.29352003842178 -102.42516620216702 0 -102.42516620216702 35.824665289626864 0 0 0 0 -204.49541110388782 -118.08112924091984 0 -118.08112924091984 20.089074356350466 0 0 0 0 -229.150405193197 -98.821383713522664 0 -98.821383713522664 56.127244498973596 0 0 0 0 -243.70934669163239 47.022515798196764 0 47.022515798196764 -106.5052733572229 0 0 0 0 -285.53118772742346 -114.18172970839441 0 -114.18172970839441 20.495886266025991 0 0 0 0 125.27151708187012 -41.570388971915236 0 -41.570388971915236 -287.50856877890692 0 0 0 0 148.88581160016111 -205.39197370730835 0 -205.39197370730835 -120.71023418570985 0 0 0 0 55.439792452674737 -146.38008028583135 0 -146.38008028583135 -65.381504532444524 0 0 0 0 -39.029052730793467 -146.02813029352691 0 -146.02813029352691 -39.510269937542034 0 0 0 0 -39.498216096608303 -72.445506394913536 0 -72.445506394913536 -36.725320258941792 0 0 0 0 -162.07974158888828 -60.904236243033665 0 -60.904236243033665 -17.544164222581458 0 0 0 0 -79.529323736385777 -152.63543679414215 0 -152.63543679414215 -37.149071980602457 0 0 0 0 -86.210865489971184 -137.534666792606 0 -137.534666792606 39.634821687097428 0 0 0 0 -161.98163687857959 -111.12102990101994 0 -111.12102990101994 41.475528478574233 0 0 0 0 -122.17372772397539 -160.01641754176308 0 -160.01641754176308 92.717674100276781 0 0 0 0 -179.98499310619536 -120.55831653473433 0 -120.55831653473433 92.268204054460512 0 0 0 0 -160.00818611988689 -123.82545785533875 0 -123.82545785533875 90.183437514890102 0 0 0 0 -195.78218405323969 -135.2987610871678 0 -135.2987610871678 136.93307808489772 0 0 0 0 -219.64251301272543 -111.12553886641399 0 -111.12553886641399 123.18565771236899 0 0 0 0 -286.77823812774659 -135.87822253687045 0 -135.87822253687045 126.33507644250494 0 0 0 0 -226.71576106629436 -83.700605070283927 0 -83.700605070283927 84.963738983205985 0 0 0 0 -223.17538685116597 -64.589535841223551 0 -64.589535841223551 129.88033239289143 0 0 0 0 -227.93196828173859 -45.235714833250313 0 -45.235714833250313 51.147663977200864 0 0 0 0 -304.59199688595618 -52.920013409282546 0 -52.920013409282546 133.57098316589691 0 0 0 0 -211.05390754164273 -95.729568233880855 0 -95.729568233880855 59.763740028138272 0 0 0 0 -203.66592570818466 -89.431034506837022 0 -89.431034506837022 56.496552196650327 0 0 0 0 -191.92263658933098 -111.0902318360977 0 -111.0902318360977 -4.1263670212501893 0 0 0 0 -174.24451557002249 -34.742968180860771 0 -34.742968180860771 -8.1132299876990146 0 0 0 0 -170.9072797550034 3.742647250463051 0 3.742647250463051 91.301245021037175 0 0 0 0 -158.34906199401667 -55.197405154412991 0 -55.197405154412991 17.481215241452446 0 0 0 0 -3.3137373565058681 -10.530036677948594 0 -10.530036677948594 53.904005412527368 0 0 0 0 -248.46024387418311 -180.85579975842847 0 -180.85579975842847 -30.990067755927157 0 0 0 0 161.54948394020994 165.81397653394475 0 165.81397653394475 241.20755830606504 0 0 0 0 617.46967422515809 216.91705424132306 0 216.91705424132306 176.30205757311228 0 0 0 0 439.69648952900388 518.83854744922792 0 518.83854744922792 261.58422072155463 0 0 0 0 269.25148553240342 752.71974443967713 0 752.71974443967713 664.66955320957413 0 0 0 0 288.26105788204404 464.63422873059756 0 464.63422873059756 267.59551925875417 0 0 0 0 188.84226753022449 405.12053800563217 0 405.12053800563217 438.27814216894581 0 0 0 0 47.118949867057381 574.0675503335159 0 574.0675503335159 544.84538384185589 0 0 0 0 -6.1271261900101308 343.81743613177622 0 343.81743613177622 884.52864115529883 0 0 0 0 43.091297561909187 107.6877583059603 0 107.6877583059603 73.300864346412482 0 0 0 0 136.547344253755 -202.12154096772974 0 -202.12154096772974 -91.710643797935518 0 0 0 0 21.761793760741128 -37.288090206951168 0 -37.288090206951168 62.769934161664764 0 0 0 0 34.75500452852733 -56.162285204327922 0 -56.162285204327922 103.59802029914906 0 0 0 0 -308.07101560278352 -317.41781192118287 0 -317.41781192118287 10.384707824159705 0 0 0 0 -194.40487899049913 -312.73555348272203 0 -312.73555348272203 -127.91358291297729 0 0 0 0 -194.45020717492662 -299.60380824245658 0 -299.60380824245658 -31.152560771777644 0 0 0 0 -61.418651445033902 -343.7134388275008 0 -343.7134388275008 -68.687429539873847 0 0 0 0 -103.36449732106121 -303.19713473067532 0 -303.19713473067532 -57.412019163610239 0 0 0 0 128.24619428274309 -193.81277937387495 0 -193.81277937387495 -85.518482359388145 0 0 0 0 21.000439416744484 -265.7280539717176 0 -265.7280539717176 -83.910178314517907 0 0 0 0 123.78999094522248 -319.45325070101103 0 -319.45325070101103 -70.056888347389759 0 0 0 0 -82.363093503452546 -246.0668104205979 0 -246.0668104205979 -6.2284899634541944 0 0 0 0 6.9583463337148714 -272.21853355153871 0 -272.21853355153871 -84.432241385557973 0 0 0 0 36.835493094498815 -176.21135761315963 0 -176.21135761315963 -127.65021738834548 0 0 0 0 -94.402402999960032 -236.34377304921509 0 -236.34377304921509 -8.4297335083065263 0 0 0 0 -56.155036562457099 -181.67106175307708 0 -181.67106175307708 55.991746122977929 0 0 0 0 -61.59734627497528 -194.86568921079015 0 -194.86568921079015 40.429975775521598 0 0 0 0 -248.90211623423784 -226.55272090931248 0 -226.55272090931248 72.487163674930343 0 0 0 0 -114.29619308028168 -138.61788995710594 0 -138.61788995710594 129.45721891823632 0 0 0 0 -1358.1584764998245 -866.1037998649166 0 -866.1037998649166 1184.0226162665058 0 0 0 0 40.199889030351301 -80.073554651504907 0 -80.073554651504907 154.68548626276399 0 0 0 0 149.13161128856882 -616.02440514941645 0 -616.02440514941645 -528.43116172796181 0 0 0 0 -34.548064841794258 -113.34676717813272 0 -113.34676717813272 89.601536860071064 0 0 0 0 24.703755159344091 -28.705927537327863 0 -28.705927537327863 -8.704027666984878 0 0 0 0 -39.794805273177644 -184.5264178186726 0 -184.5264178186726 82.277384200249799 0 0 0 0 -553.65013453796928 -120.62802660262969 0 -120.62802660262969 331.65627975776533 0 0 0 0 -1103.6860892046907 1158.2414356123054 0 1158.2414356123054 1409.437189192955 0 0 0 0 818.77947310425225 -9.9143666428799406 0 -9.9143666428799406 -92.098813764343504 0 0 0 0 519.19116522216791 429.93571890706244 0 429.93571890706244 -711.47215313423112 0 0 0 0 -34.123920498870575 -114.20304024385769 0 -114.20304024385769 120.6339631908304 0 0 0 0 -98.009871799931716 -140.75831615716743 0 -140.75831615716743 50.166633397773694 0 0 0 0 -35.896555371538852 -177.82137628403143 0 -177.82137628403143 49.579042351644603 0 0 0 0 -61.667122861919779 -158.50958867556619 0 -158.50958867556619 93.523087165827747 0 0 0 0 -62.50899997728186 -179.37331158277948 0 -179.37331158277948 91.490603977217688 0 0 0 0 -63.177750597082195 -172.34961752319941 0 -172.34961752319941 131.79192765518383 0 0 0 0 -27.999565162195722 -134.1386950578526 0 -134.1386950578526 78.878979153423643 0 0 0 0 44.495190290436028 -82.072192147970696 0 -82.072192147970696 124.83120364467541 0 0 0 0 -82.71173344914132 -192.7130832299481 0 -192.7130832299481 112.39434334473481 0 0 0 0 -16.719023979484188 4.8819745740783693 0 4.8819745740783693 26.474812586823674 0 0 0 0 -451.68838241112826 652.04340193282042 0 652.04340193282042 211.22004912673128 0 0 0 0 -187.94916668739188 -178.45981083276092 0 -178.45981083276092 149.67001952961436 0 0 0 0 1842.8857668007895 61.486996476376135 0 61.486996476376135 -74.017429769703085 0 0 0 0 849.86648229501861 191.553911623766 0 191.553911623766 16.269981782204923 0 0 0 0 308.66435365123107 -51.865414700758265 0 -51.865414700758265 338.60567844326442 0 0 0 0 436.13702179571192 -711.86750341565084 0 -711.86750341565084 163.79340381045404 0 0 0 0 -592.93923682641616 -1303.6342767046008 0 -1303.6342767046008 -13.750051245959185 0 0 0 0 413.85886377591669 -784.64889788117944 0 -784.64889788117944 -795.11571105984149 0 0 0 0 827.08624037673144 -641.84936732459119 0 -641.84936732459119 1008.9206381821496 0 0 0 0 1835.1276830589304 586.64676066656193 0 586.64676066656193 11.898267841650522 0 0 0 0 1395.088284063313 498.48951463174762 0 498.48951463174762 721.78262418740417 0 0 0 0 896.6573428460506 622.62582089353327 0 622.62582089353327 11.604811930054893 0 0 0 0 1287.8415124828607 153.38412032584074 0 153.38412032584074 -191.545095925635 0 0 0 0 506.7122310366276 75.611752265196742 0 75.611752265196742 14.121091227688339 0 0 0 0 700.17279648199928 917.77257322130265 0 917.77257322130265 198.05954922626279 0 0 0 0 786.09469522733343 603.43796801699727 0 603.43796801699727 106.78400993885043 0 0 0 0 410.78826074981589 654.54115895942141 0 654.54115895942141 282.32589919189832 0 0 0 0 732.53079797739429 1195.3783115725312 0 1195.3783115725312 1037.8024592429465 0 0 0 0 94.196256526483921 590.54813596402892 0 590.54813596402892 38.125534065847205 0 0 0 0 -1036.5460178675166 -78.35997747766578 0 -78.35997747766578 107.34554424691726 0 0 0 0 -103.14192537755116 914.2930725221695 0 914.2930725221695 904.97768991895373 0 0 0 0 -64.944332914932829 -196.74288252381621 0 -196.74288252381621 150.11451191597371 0 0 0 0 0.78350631154463457 -5.2320480787051373 0 -5.2320480787051373 61.093036396035181 0 0 0 0 -411.17883332573183 516.26373190464949 0 516.26373190464949 355.14765968713027 0 0 0 0 -22.359686863836032 784.35945037520651 0 784.35945037520651 451.83660044267572 0 0 0 0 463.78192218145341 939.03072255474808 0 939.03072255474808 309.17061480711595 0 0 0 0 1349.1945863518922 989.28283000997362 0 989.28283000997362 420.27917987143871 0 0 0 0 302.14226463454133 415.50556470465108 0 415.50556470465108 135.9688652057439 0 0 0 0 1581.7216496176607 1178.4813701664798 0 1178.4813701664798 525.19386484526103 0 0 0 0 1835.717282773966 1703.6449890887666 0 1703.6449890887666 1235.79925716855 0 0 0 0 1290.016288084802 -275.81913512948131 0 -275.81913512948131 101.75188852796418 0 0 0 0 1465.3730754680955 -727.91617953369473 0 -727.91617953369473 306.10243282569354 0 0 0 0 2.281714019462167 -1.3838262613448755 0 -1.3838262613448755 21.998029351309089 0 0 0 0 590.07317518907075 1104.2130618503541 0 1104.2130618503541 2154.513698278769 0 0 0 0 528.02475273053278 1338.1881684783291 0 1338.1881684783291 3175.4015259255902 0 0 0 0 156.82850688472172 630.75053212842772 0 630.75053212842772 1842.4383987697938 0 0 0 0 283.42914771365758 644.93496056430217 0 644.93496056430217 1517.6347342964841 0 0 0 0 -0.33833791077631759 226.04442148262041 0 226.04442148262041 1005.3193648869006 0 0 0 0 99.088561043801747 764.77069550577016 0 764.77069550577016 1237.6853537124855 0 0 0 0 369.0016132419114 629.84846916766992 0 629.84846916766992 833.59189668449585 0 0 0 0 1004.7450490249121 1356.3768272747077 0 1356.3768272747077 1609.2068059040716 0 0 0 0 -2.6333321276076855 1.0712903211093376 0 1.0712903211093376 22.794461206764829 0 0 0 0 -1466.4189743933812 -41.156151795246387 0 -41.156151795246387 721.47862977817704 0 0 0 0 -550.33942040753118 -35.198107438024863 0 -35.198107438024863 33.910547779727494 0 0 0 0 -263.90730461284465 -886.0732018764329 0 -886.0732018764329 421.90066149297763 0 0 0 0 -803.62038752388162 -921.71949275057568 0 -921.71949275057568 954.05302293689692 0 0 0 0 -172.2893043165277 -493.86095413675139 0 -493.86095413675139 1600.0336349441986 0 0 0 0 697.61349169059031 -992.17138365025676 0 -992.17138365025676 2007.8239462204783 0 0 0 0 557.92943359207857 253.96427774207768 0 253.96427774207768 3271.5499225674394 0 0 0 0 421.3445603930013 -342.00807557267217 0 -342.00807557267217 1043.1529695948966 0 0 0 0 689.24534318025189 -889.60954446526739 0 -889.60954446526739 773.60967112017534 0 0 0 0 -99.88191288901362 -446.34510271494582 0 -446.34510271494582 540.0015095847175 0 0 0 0 425.45467475700934 -840.64973088556144 0 -840.64973088556144 269.46341687722997 0 0 0 0 309.88144019386345 -240.81990225837217 0 -240.81990225837217 -43.088351634669834 0 0 0 0 -136.02767492161547 -483.55388206262342 0 -483.55388206262342 189.6772050746913 0 0 0 0 895.46540557258231 -234.82553368282061 0 -234.82553368282061 -57.075333936756579 0 0 0 0 169.54627908482144 -546.41317283094759 0 -546.41317283094759 82.86387151904637 0 0 0 0 308.95209365108531 -433.01566332420771 0 -433.01566332420771 -106.69855239597291 0 0 0 0 -10.044102762439479 -173.68238535064302 0 -173.68238535064302 -155.18859781778701 0 0 0 0 426.36560418542831 -691.89071456140982 0 -691.89071456140982 187.91373212660255 0 0 0 0 -55.413129191365442 -359.73243829860985 0 -359.73243829860985 459.32501916271394 0 0 0 0 366.97431031366068 -517.37579741261106 0 -517.37579741261106 -2.6319886776036583 0 0 0 0 196.74995469116948 -613.45747091865451 0 -613.45747091865451 239.28440652185964 0 0 0 0 34.422017900140418 -476.51986515886438 0 -476.51986515886438 171.61514263564641 0 0 0 0 -26.621670323238504 -212.76324301634213 0 -212.76324301634213 151.54682882129782 0 0 0 0 -165.27107490646267 -170.02170283212763 0 -170.02170283212763 532.93601721537561 0 0 0 0 -239.31865626907893 28.553627795361535 0 28.553627795361535 171.55760954790514 0 0 0 0 -78.610894784636912 -550.85830066788094 0 -550.85830066788094 1197.5123521238966 0 0 0 0 -117.55701974482599 -252.34710271429321 0 -252.34710271429321 331.81189577132864 0 0 0 0 -580.06134442408256 180.4687010193411 0 180.4687010193411 134.35792645226866 0 0 0 0 -85.020087860918466 -774.04524139161913 0 -774.04524139161913 442.2940893347677 0 0 0 0 308.54026621983576 -339.03351736239529 0 -339.03351736239529 553.34447618833292 0 0 0 0 -1061.2499608107209 127.65132791445103 0 127.65132791445103 275.23070213792835 0 0 0 0 -680.84003464182501 -92.322710182037355 0 -92.322710182037355 110.00022310784334 0 0 0 0 -1.9956716216196075 -1.9000989881644941 0 -1.9000989881644941 32.35998250995452 0 0 0 0 -1258.6597360360288 65.905763203332754 0 65.905763203332754 451.65635882636707 0 0 0 0 -681.36237226291814 122.90219138608154 0 122.90219138608154 347.29773044796093 0 0 0 0 -410.30818450391166 81.14712978257603 0 81.14712978257603 103.20833434813176 0 0 0 0 -341.04868314770465 385.35283801992227 0 385.35283801992227 379.54812843818218 0 0 0 0 -1.9256368998666229 -2.139601540246872 0 -2.139601540246872 10.722056789619757 0 0 0 0 64.719217720006327 735.00494308190719 0 735.00494308190719 203.42015309962517 0 0 0 0 294.01420254807726 1076.4618696456364 0 1076.4618696456364 593.43245028352612 0 0 0 0 150.73702426127602 767.96664300908924 0 767.96664300908924 163.62802186075794 0 0 0 0 52.44191165687289 697.99154719666876 0 697.99154719666876 587.63716443882367 0 0 0 0 -730.886115382762 -154.5351794961025 0 -154.5351794961025 227.93864964435261 0 0 0 0 39.290021579365657 127.60117887526485 0 127.60117887526485 -15.814932661374769 0 0 0 0 82.481637107881852 -150.74557094954253 0 -150.74557094954253 1772.1559803624787 0 0 0 0 -639.31854332720332 362.54109350673571 0 362.54109350673571 154.16425411642194 0 0 0 0 47.195258563330526 -652.94013877269526 0 -652.94013877269526 271.65040329128897 0 0 0 0 -908.94655399162275 -153.80183959799342 0 -153.80183959799342 412.23040189870153 0 0 0 0 408.24313702212157 -150.5919035629845 0 -150.5919035629845 186.71437484783746 0 0 0 0 -546.73923257525439 6.3459469621520839 0 6.3459469621520839 -296.05568531741301 0 0 0 0 -27.205085913218682 224.18827611561119 0 224.18827611561119 -79.844110867765266 0 0 0 0 -0.51897301237558768 -0.72550015418901914 0 -0.72550015418901914 3.6355151843627809 0 0 0 0 -359.47829262707091 326.76835088773623 0 326.76835088773623 203.38639359923036 0 0 0 0 -429.86300312339972 72.560551394317599 0 72.560551394317599 -110.31897791838855 0 0 0 0 -436.29055514091124 235.70245804956539 0 235.70245804956539 -36.801059046472801 0 0 0 0 -589.11963366064538 153.41879136118041 0 153.41879136118041 45.651231820993416 0 0 0 0 -1.2615057319867975 -3.1612275964587386 0 -3.1612275964587386 28.048892361133134 0 0 0 0 -469.31692074755711 104.81589952516424 0 104.81589952516424 18.674803187815996 0 0 0 0 -481.47175684649119 81.927122312859865 0 81.927122312859865 -1.6567167213413541 0 0 0 0 -320.91873451357969 47.48763890329792 0 47.48763890329792 -10.284559814284876 0 0 0 0 -1.0712777306725501 -0.36629547507319948 0 -0.36629547507319948 10.793094373244699 0 0 0 0 -645.6538614391493 135.4567873268843 0 135.4567873268843 180.89843751308945 0 0 0 0 -37.995014570620697 152.28005641801428 0 152.28005641801428 21.645320159269204 0 0 0 0 0.21247749849761211 -3.195372163406315 0 -3.195372163406315 10.747452917024745 0 0 0 0 -0.48732545131950372 -0.77498010703362574 0 -0.77498010703362574 7.1412707930245602 0 0 0 0 -382.05636579459588 340.21074910801781 0 340.21074910801781 211.63671166099994 0 0 0 0 -465.32777451490529 -676.7808855995836 0 -676.7808855995836 1097.5663614659761 0 0 0 0 240.22508601521213 -794.78209348228393 0 -794.78209348228393 798.33933578642245 0 0 0 0 217.03590472988162 -624.21547172800274 0 -624.21547172800274 113.02546744143092 0 0 0 0 400.14154973887963 -948.29378546632427 0 -948.29378546632427 581.34981119112308 0 0 0 0 -42.95291791223076 -25.727095126304448 0 -25.727095126304448 -88.102759545564368 0 0 0 0 545.19700987637873 -769.31888561967548 0 -769.31888561967548 456.62644415218347 0 0 0 0 174.30230225113792 -333.39369293271011 0 -333.39369293271011 179.01610631857693 0 0 0 0 154.02563188196109 -280.36082095202937 0 -280.36082095202937 1020.8699543941284 0 0 0 0 174.0359077580888 -27.063232462772703 0 -27.063232462772703 242.47031089366283 0 0 0 0 61.070784257099149 182.27414334041123 0 182.27414334041123 80.889573223546904 0 0 0 0 -204.11499997240207 16.916803000782238 0 16.916803000782238 437.77981061146602 0 0 0 0 -192.71226593553115 163.16612237830304 0 163.16612237830304 22.524750393660725 0 0 0 0 -200.00991476008812 -99.370987401444836 0 -99.370987401444836 -55.970745588236241 0 0 0 0 326.77544842599218 -399.06581063871181 0 -399.06581063871181 1140.0233783550775 0 0 0 0 466.44289411882119 -292.41911962903851 0 -292.41911962903851 413.49944067314027 0 0 0 0 297.02815529257987 141.03583547269864 0 141.03583547269864 459.10129180933291 0 0 0 0 487.16075748879712 -82.319082704110997 0 -82.319082704110997 177.84253911572341 0 0 0 0 662.54897736942075 84.4297257822343 0 84.4297257822343 280.16825206563772 0 0 0 0 539.65514442867425 246.97081877396886 0 246.97081877396886 741.79042416770835 0 0 0 0 428.16111716971409 126.63594226913028 0 126.63594226913028 275.05472460203964 0 0 0 0 488.50304065226555 579.99442606352113 0 579.99442606352113 1308.9044809627321 0 0 0 0 731.18591839687815 264.73055770490782 0 264.73055770490782 224.92551462517099 0 0 0 0 241.60253129599641 -138.82554293178055 0 -138.82554293178055 436.8960186248587 0 0 0 0 9.925807891140721 -14.083815127621619 0 -14.083815127621619 466.18650471214551 0 0 0 0 199.48006193581114 -146.32668374346804 0 -146.32668374346804 -152.44293217157065 0 0 0 0 -32.850566438135502 162.37753773419035 0 162.37753773419035 269.19426126442522 0 0 0 0 7.6252635252858454 10.144534168932296 0 10.144534168932296 125.63395998588385 0 0 0 0 4.2613350297187935 -19.485131852308768 0 -19.485131852308768 108.15620821425364 0 0 0 0 5.4130838296186994 -31.151329611268011 0 -31.151329611268011 84.801747970090787 0 0 0 0 -0.064652536464841148 -22.930752920039737 0 -22.930752920039737 91.317191330975987 0 0 0 0 -18.45597476845521 -4.6871850391546594 0 -4.6871850391546594 125.49106996943662 0 0 0 0 19.980979414917783 7.4212165250855833 0 7.4212165250855833 83.673883084797126 0 0 0 0 -263.28590990066277 -247.71055296237751 0 -247.71055296237751 173.07365493029192 0 0 0 0 151.09994387244296 63.841639694042215 0 63.841639694042215 -42.078156066941119 0 0 0 0 -148.05455304809766 289.99605249194656 0 289.99605249194656 335.87933355445409 0 0 0 0 18.184351037274219 -6.5489130662714672 0 -6.5489130662714672 42.957260690426359 0 0 0 0 84.733758882915936 -188.46325424548735 0 -188.46325424548735 -258.00569877904513 0 0 0 0 49.732183028645792 -86.348564044243048 0 -86.348564044243048 149.14052048590628 0 0 0 0 332.66387769074936 -413.88011576992619 0 -413.88011576992619 -246.34344859376412 0 0 0 0 -176.23589619149425 -38.420870797821408 0 -38.420870797821408 395.34141332310327 0 0 0 0 247.62193100494915 -990.57658626441162 0 -990.57658626441162 578.27339263822921 0 0 0 0 -4.0451733143490856 -270.64040352299304 0 -270.64040352299304 1275.2710732898456 0 0 0 0 8.8459058023618127 -82.337982458072034 0 -82.337982458072034 1017.5604679307614 0 0 0 0 -109.5490520032472 207.80710071593421 0 207.80710071593421 1162.3456690057228 0 0 0 0 -71.471317043581621 -306.00652407080116 0 -306.00652407080116 759.10465754125187 0 0 0 0 5.4541142667206621 8.8940810491131437 0 8.8940810491131437 7.6607249960542578 0 0 0 0 58.078841269067198 -670.96357200156172 0 -670.96357200156172 1790.7021046976133 0 0 0 0 1412.2673057126412 588.20837074452766 0 588.20837074452766 34.545559703343315 0 0 0 0 2688.035867702305 1304.2799627183178 0 1304.2799627183178 381.05603706988404 0 0 0 0 2012.0492798870546 1850.5000887166898 0 1850.5000887166898 3734.5581710314027 0 0 0 0 149.67722321268229 284.95974502379886 0 284.95974502379886 3075.1705481920808 0 0 0 0 -85.34127971473572 -91.483600030147329 0 -91.483600030147329 2505.0077001077425 0 0 0 0 1187.0477665430844 1718.2353150048393 0 1718.2353150048393 166.17429922063593 0 0 0 0 556.19045693619773 277.27797355475218 0 277.27797355475218 -402.20247073236897 0 0 0 0 917.22279329996672 1576.0537879423491 0 1576.0537879423491 2750.1853467202181 0 0 0 0 914.24238740338114 1248.430890069767 0 1248.430890069767 1680.3928170197287 0 0 0 0 0.17036057418508044 2.873946780866774 0 2.873946780866774 12.18986642205261 0 0 0 0 -546.64593592653603 47.008811418499221 0 47.008811418499221 160.43688597359505 0 0 0 0 -61.895632566990813 818.95377134526575 0 818.95377134526575 1230.290375126875 0 0 0 0 -53.187347282256269 -190.36959893444282 0 -190.36959893444282 8.1682180700527169 0 0 0 0 298.00590568447569 1373.4956551406212 0 1373.4956551406212 276.66151177192114 0 0 0 0 666.39495544516649 846.91592487536354 0 846.91592487536354 1029.2069336235686 0 0 0 0 -3.9496657103030799 14.971543276893499 0 14.971543276893499 13.83755466119328 0 0 0 0 -0.6333017024034413 1.949479466945931 0 1.949479466945931 15.376808391837585 0 0 0 0 -4.4360165453669964 3.9506175082788104 0 3.9506175082788104 17.127608681796119 0 0 0 0 -4.494194539287184 -3.5876633009060868 0 -3.5876633009060868 25.021187855215658 0 0 0 0 -0.55202926047848988 2.6601743310490633 0 2.6601743310490633 29.817954331595445 0 0 0 0 5.6799310940086798 0.97883756764349528 0 0.97883756764349528 13.499803246741067 0 0 0 0 -0.0014905817012548269 -2.0639553424771293 0 -2.0639553424771293 6.5435505752539029 0 0 0 0 -0.24609204801013573 0.16451221446055797 0 0.16451221446055797 1.9070506104512219 0 0 0 0 -15.953122361397046 7.4663776180677814 0 7.4663776180677814 90.08413419273711 0 0 0 0 -0.096518155666662775 20.204437388078077 0 20.204437388078077 38.599021463414829 0 0 0 0 -5.3019051344327437 -7.0341770022932906 0 -7.0341770022932906 35.338259046249732 0 0 0 0 -0.010335844283038038 4.2615101694038557 0 4.2615101694038557 1.6432439824543508 0 0 0 0 0.61537760751427339 10.389942558490702 0 10.389942558490702 39.800283192180473 0 0 0 0 -0.66490775906027011 9.6361822038124956 0 9.6361822038124956 46.171994890763017 0 0 0 0 1.4934393199301681 59.096112897954299 0 59.096112897954299 84.322157447240897 0 0 0 0 -38.997772302368048 -31.124051279497507 0 -31.124051279497507 100.08186528002261 0 0 0 0 -0.37295029300861415 11.936842982468079 0 11.936842982468079 51.122730889799641 0 0 0 0 -8.8763406564326672 0.5046005565136511 0 0.5046005565136511 39.781672467075509 0 0 0 0 5.9487270016883258 9.8752116090254276 0 9.8752116090254276 49.51850527174247 0 0 0 0 -7.5357709866748053 10.545735644582237 0 10.545735644582237 56.786498706103885 0 0 0 0 -2.2007338323194858 3.2159780521906214 0 3.2159780521906214 48.756658907324891 0 0 0 0 -9.533006366623372 -0.62226546677993611 0 -0.62226546677993611 46.977242972308886 0 0 0 0 -15.510959291243395 5.6540638870937983 0 5.6540638870937983 50.386058405507356 0 0 0 0 -0.10840722573751926 1.7765468395803623 0 1.7765468395803623 10.521703550521408 0 0 0 0 -1.9269911433601876 0.51257886494274452 0 0.51257886494274452 40.829402181337741 0 0 0 0 -11.023206110300862 6.3194114050929784 0 6.3194114050929784 56.792820105401915 0 0 0 0 1.1401039342576951 5.8730392689758446 0 5.8730392689758446 52.816967215301702 0 0 0 0 -0.49832456199692388 -4.1530450011123321 0 -4.1530450011123321 47.165468974992109 0 0 0 0 -3.923290812326627 1.1301367135056353 0 1.1301367135056353 39.43373933051771 0 0 0 0 -11.29595011803876 8.3419735716706782 0 8.3419735716706782 44.605842179633328 0 0 0 0 -7.5469437209920898 -4.1718589541924302 0 -4.1718589541924302 33.409465740434825 0 0 0 0 472.98180792019235 173.91610074765049 0 173.91610074765049 103.85636446633362 0 0 0 0 229.71492269686362 -62.284285018438823 0 -62.284285018438823 11.630782364518382 0 0 0 0 -47.329222512478509 -167.29905619236524 0 -167.29905619236524 258.00654745868087 0 0 0 0 -115.54268259586797 -82.336177212229813 0 -82.336177212229813 152.89007762134133 0 0 0 0 5.4636012539307259 41.937048464303189 0 41.937048464303189 -25.440504151760251 0 0 0 0 -1.352678342317412 -2.5946455020528134 0 -2.5946455020528134 0.57412726002127101 0 0 0 0 -17.214028083913604 22.656241403950844 0 22.656241403950844 -37.383836051652906 0 0 0 0 12.643130941698701 10.178757103611133 0 10.178757103611133 -58.526693126361351 0 0 0 0 0.89463778922799975 -5.3222652594122337 0 -5.3222652594122337 -74.589664288010681 0 0 0 0 0.97240417115100719 -4.0974133565759985 0 -4.0974133565759985 4.4387612444406841 0 0 0 0 0.0039620231218264875 -1.667805017066712 0 -1.667805017066712 2.8237492939442745 0 0 0 0 276.49392076744806 634.04474818683229 0 634.04474818683229 803.9619807713525 0 0 0 0 0.16221990580510931 -0.20492119236959638 0 -0.20492119236959638 -0.31773653409641156 0 0 0 0 -86.828127395961019 -1.6668333406305464 0 -1.6668333406305464 715.5018803558778 0 0 0 0 -0.4377636850497994 -144.03109682540708 0 -144.03109682540708 3306.3985059832848 0 0 0 0 66.185645460037932 264.72515216813918 0 264.72515216813918 1478.4514854590161 0 0 0 0 -162.80871420668473 201.6513557847793 0 201.6513557847793 1003.7240405931225 0 0 0 0 1414.3442095255996 1772.8341095522774 0 1772.8341095522774 937.42453071808268 0 0 0 0 -22.596598552520675 -11.183158392183941 0 -11.183158392183941 4534.9949229728372 0 0 0 0 42.539134658297996 -6.1763106520047586 0 -6.1763106520047586 3654.4319504932209 0 0 0 0 481.56936014297486 -61.894828367141599 0 -61.894828367141599 3496.6981182332611 0 0 0 0 278.65664288430941 -64.405636330426205 0 -64.405636330426205 3725.1333584818494 0 0 0 0 10.22181123507039 -339.68240816853358 0 -339.68240816853358 3590.6798066495394 0 0 0 0 1004.660784269172 -414.97275995244854 0 -414.97275995244854 3814.8189378341631 0 0 0 0 536.95673049435231 381.12462420290831 0 381.12462420290831 4513.2393690467288 0 0 0 0 -653.96033137347536 -1064.0531866228121 0 -1064.0531866228121 4670.3925240543358 0 0 0 0 -5.9809441400396377 0.58776755510905332 0 0.58776755510905332 6.6317502499934449 0 0 0 0 -12.78247337417622 -4.5876965912684682 0 -4.5876965912684682 44.345009861004655 0 0 0 0 734.8349458186749 -281.72983356006444 0 -281.72983356006444 710.87710477172368 0 0 0 0 -1.8890773018041833 -3.0758707441955 0 -3.0758707441955 13.448136580260439 0 0 0 0 1032.6638448645233 -2143.6803019451472 0 -2143.6803019451472 2373.412508259149 0 0 0 0 -0.82768491420379187 5.6056375303503501 0 5.6056375303503501 32.851654234025489 0 0 0 0 -17.681154361325127 -9.418241058352578 0 -9.418241058352578 40.042262283597665 0 0 0 0 -518.84283621529937 -66.305133152287453 0 -66.305133152287453 2812.7890587337752 0 0 0 0 -639.39868251583277 -938.88909329593753 0 -938.88909329593753 3637.2641328429454 0 0 0 0 -6.307009454460375 1.0341617391986517 0 1.0341617391986517 11.78181386278662 0 0 0 0 406.94509992883332 611.58112270035781 0 611.58112270035781 923.07030839692015 0 0 0 0 -4.1397781714759576 -0.36958699287720975 0 -0.36958699287720975 14.250979099123242 0 0 0 0 725.23493147928673 -1660.8804758608749 0 -1660.8804758608749 2927.473310643345 0 0 0 0 77.646277421540731 39.269396423856961 0 39.269396423856961 3335.8089547206264 0 0 0 0 351.94093030675464 -648.3299919926576 0 -648.3299919926576 3708.430915972931 0 0 0 0 611.16522831694874 -367.2861669086742 0 -367.2861669086742 3305.3109410638717 0 0 0 0 -122.80298748573142 -10.596946174940967 0 -10.596946174940967 3502.049376746756 0 0 0 0 288.55142489666929 -11.551740822759484 0 -11.551740822759484 3198.6233885976253 0 0 0 0 -428.02296170880061 245.72688666872818 0 245.72688666872818 3305.8099557094247 0 0 0 0 -416.48162926205026 256.42575949282332 0 256.42575949282332 2070.1840091480044 0 0 0 0 -3.0904184638097547 -292.2359748337758 0 -292.2359748337758 2393.9430783841817 0 0 0 0 -308.63151536579335 -418.42892019176725 0 -418.42892019176725 2663.2364734864095 0 0 0 0 127.95889602071827 -820.95126658288063 0 -820.95126658288063 2112.3004297799416 0 0 0 0 -322.67248318274983 -305.79848012256844 0 -305.79848012256844 2072.0177742453234 0 0 0 0 -113.76300956208922 -446.29361090242128 0 -446.29361090242128 2050.8157417052134 0 0 0 0 -14.064468185516034 -18.951236156244704 0 -18.951236156244704 98.073580628682976 0 0 0 0 -23.961224029421828 -76.352801685126906 0 -76.352801685126906 162.99846401160175 0 0 0 0 -4.3757024798060229 91.872445927935587 0 91.872445927935587 84.438097180071054 0 0 0 0 -36.980118391175466 -452.21776360481272 0 -452.21776360481272 1598.6836325530021 0 0 0 0 -13.982023537849948 -8.8305734469931849 0 -8.8305734469931849 -2.862470293170631 0 0 0 0 -165.09764164160879 -18.602065207567648 0 -18.602065207567648 142.59066480720139 0 0 0 0 248.81728658030318 -596.41903972828641 0 -596.41903972828641 1430.1270946303266 0 0 0 0 -23.836126104385205 -13.895401586716119 0 -13.895401586716119 6.5049023583401464 0 0 0 0 -5.1430230971327546 19.482591851792677 0 19.482591851792677 141.53376685775584 0 0 0 0 7.1626455025967743 -0.26726134147975245 0 -0.26726134147975245 58.207301110720437 0 0 0 0 -3.7250416057897064 12.649521536647718 0 12.649521536647718 58.430943172387657 0 0 0 0 1.3220942741265276 1.0262367399682262 0 1.0262367399682262 60.723704283504048 0 0 0 0 0.0016694300366424386 9.7652676609550326 0 9.7652676609550326 68.399828491586959 0 0 0 0 -134.88819513534554 -78.51585240613349 0 -78.51585240613349 33.589877980164601 0 0 0 0 -1.1670983250207527 5.3812690290720298 0 5.3812690290720298 7.9102808411271326 0 0 0 0 -124.21356605373057 35.182094364696241 0 35.182094364696241 58.904390848570984 0 0 0 0 -0.74389457923164493 -0.8451900533592891 0 -0.8451900533592891 9.9704650936430994 0 0 0 0 -0.88075827976308574 -30.120044777573639 0 -30.120044777573639 21.677005883691891 0 0 0 0 12.171139970479317 21.380433140519017 0 21.380433140519017 60.555425211157853 0 0 0 0 -9.0733784870432235 -3.0099230484245254 0 -3.0099230484245254 38.086576900173213 0 0 0 0 -17.89006246941608 -7.0859602146156249 0 -7.0859602146156249 30.570521768237086 0 0 0 0 72.450121957329429 166.44074454126167 0 166.44074454126167 47.286594536064513 0 0 0 0 -5.727092795340468 90.483393511058239 0 90.483393511058239 -5.224091834439605 0 0 0 0 14.728297512614517 186.1011495226885 0 186.1011495226885 64.895712757519505 0 0 0 0 10.857023778804432 143.71361017183517 0 143.71361017183517 155.01410881493939 0 0 0 0 -72.200904894219548 -20.770034857923747 0 -20.770034857923747 68.252698676689761 0 0 0 0 -56.333925149250717 20.924068141706812 0 20.924068141706812 172.33330722046958 0 0 0 0 -481.89098694630002 226.77119517988103 0 226.77119517988103 755.35158811948349 0 0 0 0 -506.13851964158948 120.54677589830317 0 120.54677589830317 315.18957157791556 0 0 0 0 -325.43003959138014 55.692348890985159 0 55.692348890985159 277.92855682956178 0 0 0 0 0.43314091241445674 1.5719141884370202 0 1.5719141884370202 1.5687965609294281 0 0 0 0 -162.96941000787547 165.02908024552016 0 165.02908024552016 -70.768710410826316 0 0 0 0 -325.30758307358883 116.32518390654513 0 116.32518390654513 -255.23510636335959 0 0 0 0 -43.076267227120297 -280.97274449365796 0 -280.97274449365796 1571.6393186835085 0 0 0 0 -1.6314813979187388 2.0398746058963155 0 2.0398746058963155 3.3897919689627543 0 0 0 0 -276.91655730900754 643.06821384792875 0 643.06821384792875 -506.2241086770955 0 0 0 0 -364.36386313680987 533.68593288186821 0 533.68593288186821 87.417228637281369 0 0 0 0 -152.63736436660565 -28.52476938808104 0 -28.52476938808104 1335.7975456234526 0 0 0 0 -192.3370820147436 71.047008507746796 0 71.047008507746796 1420.400611527366 0 0 0 0 -373.09339368707117 -455.81976037566528 0 -455.81976037566528 2162.2627519862726 0 0 0 0 -120.07171508340662 178.80035834732553 0 178.80035834732553 2030.5177905630917 0 0 0 0 -688.5396328860586 -524.29767076050484 0 -524.29767076050484 1384.0228145809524 0 0 0 0 71.240314995383983 233.2607704580314 0 233.2607704580314 636.65260948423384 0 0 0 0 -5.2051016197200202 -2.5688582479909741 0 -2.5688582479909741 0.18343339633919697 0 0 0 0 -44.464774531212129 -106.52992441274455 0 -106.52992441274455 113.27250823257054 0 0 0 0 -391.7397245764264 19.353770384925156 0 19.353770384925156 1363.8461557058217 0 0 0 0 -895.63591011421602 754.08921972233475 0 754.08921972233475 3494.9150253682637 0 0 0 0 -758.27635873065071 -269.13281491101588 0 -269.13281491101588 2258.5683988724049 0 0 0 0 -1501.3221401024252 -1164.6275881804359 0 -1164.6275881804359 1528.865006174783 0 0 0 0 -721.85487888223679 -365.32583088542742 0 -365.32583088542742 2423.4544394801196 0 0 0 0 -916.16538234507073 159.33809103661042 0 159.33809103661042 3491.1320632823481 0 0 0 0 -2.6201687445676134 0.71878389166136714 0 0.71878389166136714 15.550767017790491 0 0 0 0 -25.781778493956551 1625.8916084640987 0 1625.8916084640987 905.45394853078324 0 0 0 0 -1249.1072815201385 -878.26252454183305 0 -878.26252454183305 869.26225973646069 0 0 0 0 -61.072644586890874 967.99253392981336 0 967.99253392981336 325.86499797731813 0 0 0 0 -291.63354306322026 752.38159774152518 0 752.38159774152518 1505.5629662029387 0 0 0 0 -2.6267587034634445 0.23196242611063411 0 0.23196242611063411 15.209306231991036 0 0 0 0 -253.91327335383062 1278.5645359329337 0 1278.5645359329337 1779.3703137790872 0 0 0 0 -657.96448635098091 745.71173531434033 0 745.71173531434033 2650.7732843994745 0 0 0 0 -496.03950312661038 669.80913193385641 0 669.80913193385641 1489.575634717723 0 0 0 0 -388.10757102368962 563.1049267178314 0 563.1049267178314 1450.6387206589516 0 0 0 0 -272.39448836994262 598.19962695731147 0 598.19962695731147 1423.818017913014 0 0 0 0 -267.44197544861686 577.74516081055117 0 577.74516081055117 1293.4421842553566 0 0 0 0 -272.72145367642531 583.57760848559701 0 583.57760848559701 1287.5457377174462 0 0 0 0 -286.28451536457658 591.67875317153084 0 591.67875317153084 1329.2532157904134 0 0 0 0 -308.24695986404686 674.93207977048223 0 674.93207977048223 1362.5784674090537 0 0 0 0 -223.55011560300784 714.70612884477669 0 714.70612884477669 1371.8383520742682 0 0 0 0 -153.5625058639838 626.58404934316059 0 626.58404934316059 1276.6862972058589 0 0 0 0 -143.55532331161839 1279.4948410551133 0 1279.4948410551133 588.07950755216007 0 0 0 0 -532.67834397321997 1286.502990076533 0 1286.502990076533 3493.913154589638 0 0 0 0 -807.05365371566268 318.28308738429405 0 318.28308738429405 1623.1644226065182 0 0 0 0 52.697417429430992 -405.59347910979704 0 -405.59347910979704 2627.6401617532392 0 0 0 0 -350.75222938433848 -8.5031914261026031 0 -8.5031914261026031 267.47817041230155 0 0 0 0 -448.72334819308958 185.16055531810707 0 185.16055531810707 1208.7687181463043 0 0 0 0 -281.5202991105059 309.20919570984552 0 309.20919570984552 1068.9615344816339 0 0 0 0 -389.79016105088749 254.74221160498564 0 254.74221160498564 1271.9567803277209 0 0 0 0 -166.88264537553346 459.6875761676929 0 459.6875761676929 1262.8310374718094 0 0 0 0 172.0288485574514 903.38270470608404 0 903.38270470608404 -776.30815443092069 0 0 0 0 1.5982497392581672 5.4350888970453468 0 5.4350888970453468 4.9307481200789738 0 0 0 0 116.64968313451476 -643.40879137789307 0 -643.40879137789307 3498.9692882237105 0 0 0 0 -465.70903897120223 583.05402438407327 0 583.05402438407327 1292.2400957754871 0 0 0 0 -428.63060434812184 798.23126774585398 0 798.23126774585398 798.62707755435258 0 0 0 0 -264.67342178955391 521.28831605915911 0 521.28831605915911 1254.4778311422124 0 0 0 0 -476.69075312465776 605.53712738437025 0 605.53712738437025 1357.3762735408382 0 0 0 0 -356.84100014767449 714.68438698188402 0 714.68438698188402 1327.6715476705431 0 0 0 0 -372.47265508829935 693.56272064158838 0 693.56272064158838 1390.1672340748191 0 0 0 0 -484.45699740944849 500.28277765416715 0 500.28277765416715 1252.5777642502653 0 0 0 0 -361.89708893708848 730.14786924781401 0 730.14786924781401 1309.5442380116292 0 0 0 0 -243.92288938659954 584.09505713403632 0 584.09505713403632 1484.8766021223346 0 0 0 0 -213.39197216209629 892.61510929637734 0 892.61510929637734 1589.130248565878 0 0 0 0 -219.52321978477798 798.03509915870018 0 798.03509915870018 1398.7331552530959 0 0 0 0 -63.551845129266439 813.81346838992613 0 813.81346838992613 1263.7328180554546 0 0 0 0 -102.20237663189846 777.3771076482808 0 777.3771076482808 1264.2451098741003 0 0 0 0 -302.52229590846161 623.45922544541099 0 623.45922544541099 1357.442014085733 0 0 0 0 -189.42721307872344 681.85877545080439 0 681.85877545080439 1294.862096150955 0 0 0 0 -344.25427309203326 674.75154922943693 0 674.75154922943693 1305.7201414243318 0 0 0 0 -291.44227575192463 607.26229722409516 0 607.26229722409516 1282.9825470046926 0 0 0 0 -276.52285701214203 582.88051870323397 0 582.88051870323397 1295.6597988537651 0 0 0 0 -263.09511013278421 579.46747723758745 0 579.46747723758745 1165.6462955949974 0 0 0 0 -139.56762222685404 604.61015093633614 0 604.61015093633614 1077.7701280089168 0 0 0 0 -159.06728973365261 692.82496703211655 0 692.82496703211655 1112.2077135274303 0 0 0 0 -99.732492183147201 655.09695314671262 0 655.09695314671262 1126.9106668080167 0 0 0 0 10.651589778905091 567.84659531231955 0 567.84659531231955 847.53287777917285 0 0 0 0 -66.456219626615507 433.72396114950971 0 433.72396114950971 856.3168205269335 0 0 0 0 -59.770933239930059 434.13377047130052 0 434.13377047130052 801.1144116310752 0 0 0 0 -59.157835084473788 199.82153232740893 0 199.82153232740893 530.30480661208276 0 0 0 0 -198.75583424043356 283.59502535564025 0 283.59502535564025 823.19583677622722 0 0 0 0 -164.54448108499537 298.56494857511279 0 298.56494857511279 756.49032603943488 0 0 0 0 -209.50414059782349 424.09140834816208 0 424.09140834816208 1037.8681359600632 0 0 0 0 -284.89061989160973 389.19203064655085 0 389.19203064655085 1236.0996260316406 0 0 0 0 -193.55154565646262 437.60079114434302 0 437.60079114434302 1012.924490748519 0 0 0 0 -299.67673387649597 385.73446553328904 0 385.73446553328904 1518.3766847324878 0 0 0 0 -177.01329513850487 190.07678531675037 0 190.07678531675037 1224.9302365418189 0 0 0 0 -152.65526150688652 106.4535915608285 0 106.4535915608285 1280.1636274384255 0 0 0 0 -147.78934178770396 173.26867521954773 0 173.26867521954773 828.50952900948323 0 0 0 0 -244.70788613707657 293.96493967786228 0 293.96493967786228 1037.0604258346721 0 0 0 0 -144.08828227741549 183.36689102292257 0 183.36689102292257 855.34164297353709 0 0 0 0 65.197373368491299 -23.980081689478538 0 -23.980081689478538 692.05132909712847 0 0 0 0 -58.701389568052946 154.96898411643633 0 154.96898411643633 442.43758991183859 0 0 0 0 84.715200462840357 -55.324763890839677 0 -55.324763890839677 526.61355675247614 0 0 0 0 54.326442928287179 -158.06941881256716 0 -158.06941881256716 880.0817998185521 0 0 0 0 148.54569284128365 -133.88793248998263 0 -133.88793248998263 539.11626401433477 0 0 0 0 -5.9383610173731114 4.3128196123646063 0 4.3128196123646063 8.2653502488978177 0 0 0 0 -184.1979360559626 370.29500970004301 0 370.29500970004301 -245.47467823742045 0 0 0 0 240.42138354729059 -76.705118696707359 0 -76.705118696707359 190.62685305210471 0 0 0 0 -36.670569331449769 96.811114213927794 0 96.811114213927794 200.87536029602052 0 0 0 0 -392.6517044462687 324.19551500322268 0 324.19551500322268 200.45252131900634 0 0 0 0 -368.86136998508664 -294.71465811310918 0 -294.71465811310918 -243.09635185606749 0 0 0 0 -62.940787771915438 -111.59048727992194 0 -111.59048727992194 -5.8160510222041921 0 0 0 0 -5.4109116155488612 -1.76088123769361 0 -1.76088123769361 -0.88029039907958406 0 0 0 0 -528.34770083735157 -97.860656829165237 0 -97.860656829165237 397.65835462663381 0 0 0 0 -127.26176039385609 130.3054338828515 0 130.3054338828515 566.11867790373435 0 0 0 0 -179.89539478490667 31.649711160142033 0 31.649711160142033 409.62388246279443 0 0 0 0 -166.39656085985666 61.542561701840896 0 61.542561701840896 497.64149849521345 0 0 0 0 -313.07502217391971 170.04372242849786 0 170.04372242849786 710.40845802301192 0 0 0 0 -157.45525872317495 259.05836524678307 0 259.05836524678307 580.52926489332458 0 0 0 0 -792.520539495702 1250.6954929657295 0 1250.6954929657295 -679.29421577689664 0 0 0 0 698.12574976442602 -2321.7736563722974 0 -2321.7736563722974 2722.9265253134945 0 0 0 0 -4.83365654335147 2.9963240778094047 0 2.9963240778094047 10.461945521157872 0 0 0 0 -1030.0003506532435 1035.2039630968466 0 1035.2039630968466 123.57617801612651 0 0 0 0 -570.17120647369484 349.22431088467056 0 349.22431088467056 112.08358203533862 0 0 0 0 -780.82762074588391 655.67071736911748 0 655.67071736911748 -251.38428050387301 0 0 0 0 -504.88759973284596 529.16376148451673 0 529.16376148451673 -810.41489981178893 0 0 0 0 -666.45437283964384 260.83129126744825 0 260.83129126744825 -289.0385462573613 0 0 0 0 90.769632143705167 -398.38579391596431 0 -398.38579391596431 1348.5904104591464 0 0 0 0 -602.45427868779552 249.58502879388107 0 249.58502879388107 -526.49274715354841 0 0 0 0 -78.697224999671107 -690.77245867828606 0 -690.77245867828606 1872.851970791482 0 0 0 0 2053.7724573116029 -885.61788531015191 0 -885.61788531015191 1146.0535251052061 0 0 0 0 -235.28988711100101 370.30091674934374 0 370.30091674934374 -294.71547565133369 0 0 0 0 -310.03908441786689 270.04649218940176 0 270.04649218940176 549.64212895368109 0 0 0 0 -215.21974383756083 -47.484269632289397 0 -47.484269632289397 215.46181562093261 0 0 0 0 193.64294960939378 -36.081251787218207 0 -36.081251787218207 -144.98936457517266 0 0 0 0 -702.97567100112065 -394.02538649275084 0 -394.02538649275084 4922.8872419834079 0 0 0 0 -859.34578279633547 -196.69288656031858 0 -196.69288656031858 190.26182528646314 0 0 0 0 -415.24103922461768 -230.17405727691585 0 -230.17405727691585 176.73136365901155 0 0 0 0 -3.8101061973393282 1.2535394232577488 0 1.2535394232577488 6.8755738021014423 0 0 0 0 -154.10495653145722 -28.89625254317798 0 -28.89625254317798 -90.192126476453268 0 0 0 0 -751.64539326234717 490.46404692355281 0 490.46404692355281 1174.5686209565247 0 0 0 0 365.31063028588596 -1266.1818690221407 0 -1266.1818690221407 2529.6156964565307 0 0 0 0 -340.20107371799622 462.89163884807203 0 462.89163884807203 527.21539739209402 0 0 0 0 -380.15576231517866 348.90115233187134 0 348.90115233187134 202.2423030065911 0 0 0 0 -202.21461589783735 407.87839574386089 0 407.87839574386089 195.52693693573383 0 0 0 0 -200.8764197411183 588.41352853701392 0 588.41352853701392 68.201935981705901 0 0 0 0 -322.25996471244525 397.84988395869004 0 397.84988395869004 95.681955926353112 0 0 0 0 -324.20000305691929 427.01386070611625 0 427.01386070611625 -37.428469158476219 0 0 0 0 -528.15082179998353 276.83552729352232 0 276.83552729352232 112.76717186496535 0 0 0 0 -364.09230611311727 360.87587005590103 0 360.87587005590103 142.83130694077408 0 0 0 0 -243.9047507748005 465.70210398688505 0 465.70210398688505 130.62349094571255 0 0 0 0 -347.71446808260225 314.42847143446124 0 314.42847143446124 221.02757489796932 0 0 0 0 -190.29018450224248 432.36903074848669 0 432.36903074848669 305.95340788253816 0 0 0 0 -570.90355653200731 243.28695375192183 0 243.28695375192183 323.64411335320619 0 0 0 0 -660.20234971580066 211.90161056540092 0 211.90161056540092 345.22073021554388 0 0 0 0 -564.94630676804354 254.90156874020613 0 254.90156874020613 169.19598645388032 0 0 0 0 -662.91795038367673 229.73385950073134 0 229.73385950073134 171.63436848376296 0 0 0 0 -647.57186588007471 429.11172630596411 0 429.11172630596411 -339.26251220880658 0 0 0 0 -718.59551097576696 296.52368767639564 0 296.52368767639564 -52.135592842350889 0 0 0 0 -541.32193782855052 359.71852637503252 0 359.71852637503252 -36.31086285544734 0 0 0 0 -513.31947162205324 425.83120260204305 0 425.83120260204305 -163.51749481842853 0 0 0 0 -603.85572400273304 396.84395883919206 0 396.84395883919206 -172.53172269176866 0 0 0 0 -9.0177432115992531 12.016285164222225 0 12.016285164222225 25.590719572700351 0 0 0 0 -724.37993262026066 407.70499235627358 0 407.70499235627358 -81.819479754856729 0 0 0 0 -608.74656045863594 281.42088439773943 0 281.42088439773943 -33.558663677918958 0 0 0 0 -654.95709026982126 340.09593802491599 0 340.09593802491599 45.546329849166796 0 0 0 0 -652.69117029064182 181.2406927106058 0 181.2406927106058 166.13112558336798 0 0 0 0 -585.09137307647325 215.63892523316463 0 215.63892523316463 177.77788805395539 0 0 0 0 -665.14584331081824 145.52285200750339 0 145.52285200750339 290.83258377339735 0 0 0 0 -640.21454805396843 215.88624855282251 0 215.88624855282251 471.92378509991977 0 0 0 0 -830.16931384878262 -71.338548509294924 0 -71.338548509294924 221.74904292344945 0 0 0 0 -632.31456498411899 113.06113466444731 0 113.06113466444731 322.31309573136969 0 0 0 0 -725.16416503476012 -101.71923321503709 0 -101.71923321503709 53.400015676772455 0 0 0 0 -705.89729740037274 110.62838125186863 0 110.62838125186863 363.42453758518968 0 0 0 0 -702.72976303572432 -168.59119375578302 0 -168.59119375578302 172.6077604690654 0 0 0 0 -960.20999387095344 -89.15331564500957 0 -89.15331564500957 168.80205066353665 0 0 0 0 -1199.2418243038364 -418.65332486116313 0 -418.65332486116313 64.396525902631765 0 0 0 0 -410.25381627215666 -107.9662319250674 0 -107.9662319250674 286.46568539229338 0 0 0 0 -267.77285115906579 -300.1990624848695 0 -300.1990624848695 481.92584483133942 0 0 0 0 -525.89930174820802 -218.21916264663741 0 -218.21916264663741 264.69601716523903 0 0 0 0 -453.20385733252215 -107.04471156731961 0 -107.04471156731961 439.68020196805446 0 0 0 0 -599.45724044280723 34.942258918374137 0 34.942258918374137 316.32072822365626 0 0 0 0 -411.34010345956108 -43.066256593825528 0 -43.066256593825528 423.20215665693831 0 0 0 0 -528.78666077694288 241.51193498199427 0 241.51193498199427 642.65012874067543 0 0 0 0 -605.76220423174027 65.4078245317869 0 65.4078245317869 344.81572479317401 0 0 0 0 -438.90220186915667 256.11820701925171 0 256.11820701925171 296.04344214629236 0 0 0 0 -263.75461516557539 143.65431915234149 0 143.65431915234149 435.29070778733148 0 0 0 0 -436.23798232796469 283.02877866272183 0 283.02877866272183 552.48989297744265 0 0 0 0 25.986667204358127 186.45197547576026 0 186.45197547576026 715.25927167628106 0 0 0 0 -203.34331619932914 369.57192266875063 0 369.57192266875063 1128.1607535783696 0 0 0 0 21.780114314361526 401.79015304110362 0 401.79015304110362 545.8473793788653 0 0 0 0 -80.298209751065087 157.13973575620366 0 157.13973575620366 1142.6276171782592 0 0 0 0 -165.76965300837674 -197.4468915633588 0 -197.4468915633588 263.61714985461913 0 0 0 0 0.24997494684759758 -0.72648672393307834 0 -0.72648672393307834 1.5603669316560058 0 0 0 0 2.2104143450711948 -3.2307985680051559 0 -3.2307985680051559 3.6014111075148634 0 0 0 0 35.672607231736492 -105.2864631965731 0 -105.2864631965731 823.61347340578504 0 0 0 0 -100.58471629544601 -426.11624856624985 0 -426.11624856624985 857.9166402646988 0 0 0 0 -40.014552652263774 18.32333709188606 0 18.32333709188606 632.53533876238362 0 0 0 0 1184.221110394792 -664.17151613760325 0 -664.17151613760325 1379.7132591559057 0 0 0 0 224.53961127787852 -483.86384808169532 0 -483.86384808169532 2303.6380409462326 0 0 0 0 18.944067534429905 13.757215290243039 0 13.757215290243039 1130.2580206437779 0 0 0 0 1343.929930552119 -818.57288277263433 0 -818.57288277263433 802.49141222463732 0 0 0 0 2.313365843565272 -1.7323718432102737 0 -1.7323718432102737 2.6988282856699612 0 0 0 0 -102.46931723299883 463.52127660114093 0 463.52127660114093 1906.955296352091 0 0 0 0 -136.22781944332746 264.54709165402892 0 264.54709165402892 936.42454579197511 0 0 0 0 185.01093809166241 426.03443462823998 0 426.03443462823998 842.35365454394559 0 0 0 0 266.02099382325241 367.14835686540573 0 367.14835686540573 346.90973740375193 0 0 0 0 237.53418625576251 452.6693948732609 0 452.6693948732609 630.07018364152464 0 0 0 0 -175.35631710727603 141.43518414194114 0 141.43518414194114 466.54988191436132 0 0 0 0 0.65181687013581424 1.5978187015446501 0 1.5978187015446501 1.7223290122642538 0 0 0 0 291.2703595926705 320.44457252598659 0 320.44457252598659 44.391209606073971 0 0 0 0 74.966535521917194 228.1917866867152 0 228.1917866867152 523.40963227575412 0 0 0 0 4.627815099471718 377.03439576839446 0 377.03439576839446 523.15607590257468 0 0 0 0 -110.95352241396108 324.25743404084096 0 324.25743404084096 255.81714372066199 0 0 0 0 -130.63589131322897 360.56940523089725 0 360.56940523089725 539.76232403545873 0 0 0 0 -185.15792841335315 440.06658626222634 0 440.06658626222634 249.45929392297967 0 0 0 0 -78.961386418433904 309.06237041444547 0 309.06237041444547 140.20060697004737 0 0 0 0 18.277465907320675 383.36373100310084 0 383.36373100310084 187.83638087575673 0 0 0 0 -323.27200138204034 320.55906919877816 0 320.55906919877816 -23.529875333431846 0 0 0 0 -102.02721828265567 365.00298100510554 0 365.00298100510554 91.536569367821357 0 0 0 0 -147.40670482740848 275.08434914804639 0 275.08434914804639 -13.511568670357519 0 0 0 0 -212.96916670592896 126.46722951041374 0 126.46722951041374 -23.620803583158704 0 0 0 0 0.78114589485563624 2.6486323997668499 0 2.6486323997668499 3.6183622802841739 0 0 0 0 -183.56973119272175 41.685888684136444 0 41.685888684136444 80.959030044818064 0 0 0 0 -194.29453259901175 148.45560531808223 0 148.45560531808223 -17.291312014514915 0 0 0 0 -88.060253128280081 99.451856533287014 0 99.451856533287014 -17.451363473031961 0 0 0 0 17.595344598064912 -79.565290254100546 0 -79.565290254100546 128.90665389085007 0 0 0 0 -14.431090851385761 7.203300005683559 0 7.203300005683559 -14.030658020095871 0 0 0 0 -17.137396233025356 66.881979899764701 0 66.881979899764701 -23.281336941567133 0 0 0 0 1.3630865990994607 131.91723272422678 0 131.91723272422678 204.77363070946012 0 0 0 0 85.859156240690481 -110.48370213684939 0 -110.48370213684939 132.52776151437138 0 0 0 0 -23.035911186610065 180.6485850941317 0 180.6485850941317 43.00792569987243 0 0 0 0 0.72357708681358446 1.7917946604346824 0 1.7917946604346824 2.7258753289380593 0 0 0 0 -88.495981194156229 1.9429782042097941 0 1.9429782042097941 246.5855560803102 0 0 0 0 -202.50078244005221 586.72509169304976 0 586.72509169304976 31.179831640096381 0 0 0 0 19.634993770964069 33.667356522545859 0 33.667356522545859 51.533489403991553 0 0 0 0 473.13560319498038 246.54405938096897 0 246.54405938096897 -106.10169296647837 0 0 0 0 12.552045903228276 25.096489137885754 0 25.096489137885754 44.356536794243709 0 0 0 0 -141.39840950257576 98.299383316454623 0 98.299383316454623 -25.249890299317485 0 0 0 0 -47.722875132245463 -99.151001261932834 0 -99.151001261932834 150.8103467361434 0 0 0 0 98.590520605988559 -41.335064117583897 0 -41.335064117583897 49.751057863504684 0 0 0 0 105.75470293901253 -35.450142819296161 0 -35.450142819296161 0.17740010598572553 0 0 0 0 463.03500794983461 88.94254828245812 0 88.94254828245812 -146.60015551963443 0 0 0 0 4.4576901550474961 8.8290713492138906 0 8.8290713492138906 19.661933319920848 0 0 0 0 359.57079580624395 -1177.5498561764489 0 -1177.5498561764489 2828.0068973531306 0 0 0 0 544.66789432915675 1030.0125607812297 0 1030.0125607812297 828.1030744835989 0 0 0 0 675.78741409832583 620.75928495917469 0 620.75928495917469 95.962688125215209 0 0 0 0 1549.5484119874886 40.176384756210609 0 40.176384756210609 1931.629875566141 0 0 0 0 689.62118395851212 -129.579319863813 0 -129.579319863813 3264.6237249938531 0 0 0 0 349.85845606612833 -778.84308565326137 0 -778.84308565326137 2031.5654496021889 0 0 0 0 1074.8700367562899 -116.54848087920547 0 -116.54848087920547 1896.4070393486327 0 0 0 0 887.69252831483936 -437.76942511536618 0 -437.76942511536618 1496.7607467498456 0 0 0 0 1316.1758564728466 -212.86030025155924 0 -212.86030025155924 1332.6425370039142 0 0 0 0 1073.4747462877999 -368.6951658028064 0 -368.6951658028064 1628.3804083192954 0 0 0 0 704.83684732442725 -1090.5710493543957 0 -1090.5710493543957 1146.7905988081147 0 0 0 0 222.51782218085827 -619.62942733993987 0 -619.62942733993987 1013.7391459548126 0 0 0 0 492.67100577839074 -1215.3128321015902 0 -1215.3128321015902 673.49893684263225 0 0 0 0 816.62849575951327 -709.77287417751359 0 -709.77287417751359 1079.9514816072478 0 0 0 0 250.54093114346233 -924.76380732925099 0 -924.76380732925099 2027.7681806808687 0 0 0 0 -48.191188324667792 -1033.0494336486445 0 -1033.0494336486445 2022.4651904401599 0 0 0 0 120.67087460356947 -1462.4568622187289 0 -1462.4568622187289 3114.0752387106186 0 0 0 0 -72.473269374867186 52.733345907407056 0 52.733345907407056 686.08297821300221 0 0 0 0 61.115032522929312 -635.87019244266685 0 -635.87019244266685 1233.8811195547314 0 0 0 0 361.75446602455554 -1256.5290247573457 0 -1256.5290247573457 1902.4958263269218 0 0 0 0 211.74843070459758 -706.4188932434754 0 -706.4188932434754 2361.6522388309895 0 0 0 0 196.43286055300223 70.033748644764273 0 70.033748644764273 2590.4226842257776 0 0 0 0 1480.3632623082667 -752.55666348385421 0 -752.55666348385421 1345.9228912674971 0 0 0 0 325.29562535634614 -1588.5094279616897 0 -1588.5094279616897 2873.6173714724573 0 0 0 0 -395.88801466359314 -1091.1853383653288 0 -1091.1853383653288 3446.73653951491 0 0 0 0 1.6813833184257989 -5.2024477867914971 0 -5.2024477867914971 27.522485365666796 0 0 0 0 2120.0523648120143 -1875.7318095259216 0 -1875.7318095259216 1136.5211723903267 0 0 0 0 -778.78652130663124 717.67753728339483 0 717.67753728339483 1998.2086277530034 0 0 0 0 -526.2330948609092 -287.05957695993129 0 -287.05957695993129 140.11397227728594 0 0 0 0 -34.205786304030198 -465.75458954211354 0 -465.75458954211354 201.25568972688052 0 0 0 0 -37.983043369839834 -179.50815477051947 0 -179.50815477051947 810.56751760961924 0 0 0 0 -7.4726766650552374 -9.2043665253209106 0 -9.2043665253209106 69.728634502805846 0 0 0 0 538.47924995755648 -478.97267084023588 0 -478.97267084023588 497.36022856913041 0 0 0 0 -243.2086376189136 -234.95161170334904 0 -234.95161170334904 241.51710434508277 0 0 0 0 134.31647995108278 84.783803920276114 0 84.783803920276114 315.47107903754477 0 0 0 0 -0.83800171344290364 -617.16011471388629 0 -617.16011471388629 1454.8497243789752 0 0 0 0 -202.51091031027136 -339.61076593093458 0 -339.61076593093458 1663.2072309046162 0 0 0 0 -625.00759414157869 -681.63017337731071 0 -681.63017337731071 2890.9862353327044 0 0 0 0 132.2035769682405 -1170.855091055495 0 -1170.855091055495 2258.2387137283658 0 0 0 0 -230.66561626200382 -735.2404327074255 0 -735.2404327074255 1924.807328178118 0 0 0 0 0.040004696693351605 -746.10907810796198 0 -746.10907810796198 2249.5349946747374 0 0 0 0 507.45121655023951 -494.48692733850112 0 -494.48692733850112 2344.4114594043931 0 0 0 0 254.39375380452003 -1058.9142282029061 0 -1058.9142282029061 3115.3561479170021 0 0 0 0 1.630935456523076 -3.8334828005247914 0 -3.8334828005247914 7.926438745578082 0 0 0 0 325.65284357020619 -332.67331572151306 0 -332.67331572151306 372.22596533634351 0 0 0 0 245.22684510527219 -315.17580367132928 0 -315.17580367132928 120.59850557681057 0 0 0 0 0.47978423560333605 -235.10647362006785 0 -235.10647362006785 856.38734480165294 0 0 0 0 87.441434711395459 105.45139038931666 0 105.45139038931666 -128.43727003067761 0 0 0 0 -49.567598642167411 384.36805722136887 0 384.36805722136887 470.99362344120163 0 0 0 0 -12.320271272503078 -1116.1081863936706 0 -1116.1081863936706 2505.6584432772215 0 0 0 0 -258.85493377382863 -126.59290163983678 0 -126.59290163983678 2298.3874961099937 0 0 0 0 470.6547437799095 -746.64966929118236 0 -746.64966929118236 1436.6905718561247 0 0 0 0 79.102676570600124 -215.64379295411345 0 -215.64379295411345 1332.8156252031038 0 0 0 0 611.5858897480955 -439.98010288890237 0 -439.98010288890237 264.18298809649423 0 0 0 0 326.18382108799733 73.837288103990431 0 73.837288103990431 -172.8498209304671 0 0 0 0 -74.191730326820789 -62.90603017801277 0 -62.90603017801277 324.54514609924809 0 0 0 0 -37.222565607877186 -358.77492571643961 0 -358.77492571643961 49.806625236764376 0 0 0 0 19.382548598806352 82.136727265198715 0 82.136727265198715 -159.85657257107414 0 0 0 0 20.216784399457644 33.415356105044083 0 33.415356105044083 56.454009708929618 0 0 0 0 -117.07453467204346 77.703667878209671 0 77.703667878209671 96.694574250446749 0 0 0 0 -51.575086396059071 -33.797499571326625 0 -33.797499571326625 65.223357987211784 0 0 0 0 9.1882136754882477 -2.8148156354480847 0 -2.8148156354480847 25.032885519195418 0 0 0 0 13.14576369142193 35.447412624846038 0 35.447412624846038 82.453912415432569 0 0 0 0 0.25985098374039972 20.303257835418286 0 20.303257835418286 64.659126522979932 0 0 0 0 -132.50574024743571 -95.160163466287486 0 -95.160163466287486 65.117300545884063 0 0 0 0 19.214857998978438 44.481523214759363 0 44.481523214759363 26.858616910350975 0 0 0 0 6.3410415550462558 -10.139886440008539 0 -10.139886440008539 12.858608366623685 0 0 0 0 6.4059546415750219 175.17110392395261 0 175.17110392395261 31.926973633548187 0 0 0 0 0.83392102415876779 1.4139665157449031 0 1.4139665157449031 2.3231241051451548 0 0 0 0 -128.07313439844643 209.06373923490537 0 209.06373923490537 1112.8812311955335 0 0 0 0 0.014632514364198932 -2.5705818197227606 0 -2.5705818197227606 6.1225981428142404 0 0 0 0 6.3318704001307031 -8.6787179539751378 0 -8.6787179539751378 11.905473274702672 0 0 0 0 8.9329338114941574 3.2983350450958824 0 3.2983350450958824 -14.778765321243554 0 0 0 0 2.531463044375899 3.2398255996551484 0 3.2398255996551484 3.7770809583167875 0 0 0 0 34.717922105212438 109.76701915368176 0 109.76701915368176 75.322616609046236 0 0 0 0 51.911722525246432 -56.163141261597048 0 -56.163141261597048 -1.7952727316514938 0 0 0 0 -221.21867925658773 167.8743820937525 0 167.8743820937525 -29.043456822735607 0 0 0 0 0.063003325248355502 -0.76964504349354002 0 -0.76964504349354002 -4.2608974767855443 0 0 0 0 129.17542223914984 -30.480618444998981 0 -30.480618444998981 -89.562922238033934 0 0 0 0 170.54152004953971 9.3079557968667359 0 9.3079557968667359 -129.28333846031455 0 0 0 0 426.09420562172284 -158.76224705454297 0 -158.76224705454297 -129.65411704126745 0 0 0 0 145.58673351444276 207.43064199826404 0 207.43064199826404 -151.44925859007344 0 0 0 0 286.31913094053914 -123.31648266598495 0 -123.31648266598495 493.04752256558277 0 0 0 0 877.99915961484226 -112.48064297447854 0 -112.48064297447854 -151.12945611828755 0 0 0 0 -311.8594330112096 245.01622258678981 0 245.01622258678981 766.71796855576395 0 0 0 0 981.86112836287748 747.86245941305458 0 747.86245941305458 925.44445607498346 0 0 0 0 934.65550138280992 -545.61513915083196 0 -545.61513915083196 697.01603216772492 0 0 0 0 163.05869531258895 109.99180784448254 0 109.99180784448254 1998.5060149093551 0 0 0 0 1558.0985361730266 1142.6243579115649 0 1142.6243579115649 722.47113529624767 0 0 0 0 -254.12802344325036 280.54075258148805 0 280.54075258148805 1781.3574907392758 0 0 0 0 -108.09281622018329 -508.15218517533503 0 -508.15218517533503 679.90673351601436 0 0 0 0 0.76100691714557178 3.3667385510805925 0 3.3667385510805925 17.421309787802102 0 0 0 0 -267.50844480491696 91.927969828167988 0 91.927969828167988 765.20238970093487 0 0 0 0 -0.54465988385299979 356.8517241353693 0 356.8517241353693 1003.2842695026957 0 0 0 0 -0.078588851957350228 223.53961101835739 0 223.53961101835739 653.05449826181211 0 0 0 0 50.40744876829099 -49.318863628867803 0 -49.318863628867803 225.8437626734958 0 0 0 0 -76.357231046918685 148.91705874002218 0 148.91705874002218 177.04393504730433 0 0 0 0 51.502245927857189 73.176216452724475 0 73.176216452724475 -237.92561896435654 0 0 0 0 -3.770070713471573 -0.42951246790391906 0 -0.42951246790391906 -2.2362625358145038 0 0 0 0 0.19683921624716913 209.51984899046448 0 209.51984899046448 -33.089763130410574 0 0 0 0 -9.7153862054689171 74.403268160807784 0 74.403268160807784 -7.2735912839052617 0 0 0 0 -10.283187224630069 53.342502364004758 0 53.342502364004758 7.7767437268776121 0 0 0 0 0.91736276542737027 -571.55737934743843 0 -571.55737934743843 -652.04845564327843 0 0 0 0 208.75893420784865 -207.46753203334345 0 -207.46753203334345 262.03029470593901 0 0 0 0 -32.209425803612348 4.065432115612623 0 4.065432115612623 26.916615049380866 0 0 0 0 -89.202879379075057 -308.65175847533101 0 -308.65175847533101 -410.09174466801414 0 0 0 0 -117.90471017655261 -401.1973736150012 0 -401.1973736150012 -321.68939186690841 0 0 0 0 -13.458689146237573 0.60381894441795225 0 0.60381894441795225 17.432271931679658 0 0 0 0 -62.230425883780526 58.199966131040128 0 58.199966131040128 25.282039012672612 0 0 0 0 -8.0646731380959302 4.8333994040806063 0 4.8333994040806063 70.772282767427271 0 0 0 0 -43.993701801946145 105.38228029950915 0 105.38228029950915 41.311333391582593 0 0 0 0 -101.22113939568248 72.267637334793108 0 72.267637334793108 40.488574961942504 0 0 0 0 -351.68294136761006 15.116257033601869 0 15.116257033601869 348.28206023341045 0 0 0 0 -150.07730495162332 -461.94265317128884 0 -461.94265317128884 331.25966168328887 0 0 0 0 -470.73279592232223 -54.335095790436753 0 -54.335095790436753 816.31978652309044 0 0 0 0 59.705137663077835 537.50343987891392 0 537.50343987891392 226.93923028518475 0 0 0 0 302.6023114858923 504.30458051250213 0 504.30458051250213 175.82048260496231 0 0 0 0 0.56704441982776277 6.1772009481435868 0 6.1772009481435868 47.645265391431167 0 0 0 0 -281.73028317534499 66.3016972535479 0 66.3016972535479 131.72368792158522 0 0 0 0 -38.628331010945999 184.5059069697927 0 184.5059069697927 169.9629018092528 0 0 0 0 533.96182165604876 413.43951571590878 0 413.43951571590878 203.34276688330283 0 0 0 0 397.71819357093909 743.28215657525652 0 743.28215657525652 351.61753643334669 0 0 0 0 -137.68265416288978 196.52112548991863 0 196.52112548991863 -103.57410562371751 0 0 0 0 886.24929527819813 931.72680983988539 0 931.72680983988539 20.572396717223455 0 0 0 0 246.65415110021058 1111.650373352144 0 1111.650373352144 1106.3148715976131 0 0 0 0 5.2784539745350711 9.8738873895364563 0 9.8738873895364563 24.4847115795516 0 0 0 0 836.09237074285465 -924.0449657005156 0 -924.0449657005156 2229.9305377885976 0 0 0 0 834.35004969427132 462.06266571269225 0 462.06266571269225 2739.9284963967948 0 0 0 0 1951.1890783702165 995.70480772277369 0 995.70480772277369 874.30453927967756 0 0 0 0 1492.0573716070239 -194.78799257741866 0 -194.78799257741866 -112.48499266715953 0 0 0 0 -78.706612884936931 -1082.7758764815444 0 -1082.7758764815444 2361.4691475470136 0 0 0 0 10.51212047923093 -353.25568769570418 0 -353.25568769570418 -667.35647468363459 0 0 0 0 -9.408819059817354 1.3959719393283763 0 1.3959719393283763 0.71736765733708552 0 0 0 0 267.89862123929993 -608.44585656112758 0 -608.44585656112758 990.96667101912317 0 0 0 0 819.30534962522165 -287.24149676218804 0 -287.24149676218804 1364.1774066060534 0 0 0 0 1087.3131718129239 -323.33743151370436 0 -323.33743151370436 1288.2032861638654 0 0 0 0 1127.4656888785346 -51.926469429417921 0 -51.926469429417921 1112.9210589719223 0 0 0 0 1337.1799605632611 221.13730274707632 0 221.13730274707632 1440.6354293730255 0 0 0 0 728.75614124055483 -14.016013573578675 0 -14.016013573578675 1422.047234805983 0 0 0 0 757.16544070686166 -213.32638475584463 0 -213.32638475584463 1810.7127396866199 0 0 0 0 858.23914529321019 -909.43546458409764 0 -909.43546458409764 978.12031829615808 0 0 0 0 625.20602615179826 -600.52511355018123 0 -600.52511355018123 1081.2605890608247 0 0 0 0 487.85741661388374 -686.01623604826455 0 -686.01623604826455 1161.0232402630645 0 0 0 0 793.62421380010153 -521.39125206468634 0 -521.39125206468634 377.89393971856771 0 0 0 0 -522.6682333331396 685.4405826326838 0 685.4405826326838 130.020155178805 0 0 0 0 364.3608046197935 -305.43823035501191 0 -305.43823035501191 424.48329566786197 0 0 0 0 9.746472980113726 26.444466063654588 0 26.444466063654588 66.129713357668351 0 0 0 0 522.00975020719238 -440.12876729742493 0 -440.12876729742493 373.26851616173371 0 0 0 0 58.083507335329585 -67.510871497601329 0 -67.510871497601329 260.99669258464564 0 0 0 0 14.389652555076337 37.97575684978424 0 37.97575684978424 94.23688795607012 0 0 0 0 -688.99810673515913 234.09411560493027 0 234.09411560493027 240.67863944017699 0 0 0 0 -362.35882291462394 -4.2694032045255881 0 -4.2694032045255881 46.965345083925058 0 0 0 0 -285.93454060958061 162.27040703062812 0 162.27040703062812 409.8327333178313 0 0 0 0 -106.62089359801212 -66.074098919154494 0 -66.074098919154494 539.34635406330381 0 0 0 0 212.94584280665765 111.43151239944382 0 111.43151239944382 531.57951041430351 0 0 0 0 46.613462883465672 -357.44794056571845 0 -357.44794056571845 743.92473392371176 0 0 0 0 -145.42548565049856 -234.8568272340417 0 -234.8568272340417 328.71911820723653 0 0 0 0 -70.978511194657585 -179.94661661441933 0 -179.94661661441933 167.03659093464375 0 0 0 0 12.145198148710733 -300.55826302307833 0 -300.55826302307833 300.83301838514126 0 0 0 0 -50.034250071268389 -145.05336905568038 0 -145.05336905568038 277.48506349582749 0 0 0 0 424.73640629659076 -309.53182097412355 0 -309.53182097412355 172.8788808794634 0 0 0 0 195.05213945087007 -229.36738206019072 0 -229.36738206019072 153.34541985865872 0 0 0 0 190.03007998708699 -196.07248239782712 0 -196.07248239782712 23.786673651629826 0 0 0 0 120.41652598457813 -163.1710349295754 0 -163.1710349295754 26.639983745835707 0 0 0 0 55.457345498397771 -115.38674255972421 0 -115.38674255972421 -0.76166368278791197 0 0 0 0 186.69206102183631 -78.446556964030606 0 -78.446556964030606 -72.950893917499343 0 0 0 0 -127.17257686747325 -144.31449756577786 0 -144.31449756577786 146.93331789536023 0 0 0 0 55.913864574157742 -172.94382975898043 0 -172.94382975898043 61.931458856299287 0 0 0 0 -141.32971738860397 -57.098084393932368 0 -57.098084393932368 93.698877291506506 0 0 0 0 -162.17738950353669 -87.410541180812288 0 -87.410541180812288 131.02337050683127 0 0 0 0 -121.37438606933574 13.829687066521728 0 13.829687066521728 150.37541265164873 0 0 0 0 -23.72420468233744 5.9247365312596685 0 5.9247365312596685 71.239819347333537 0 0 0 0 -245.51322753642421 -49.677814758944805 0 -49.677814758944805 193.33855933927407 0 0 0 0 -275.53932620673413 41.099844672984545 0 41.099844672984545 148.05530342955899 0 0 0 0 -273.73427698334854 0.40906008609454148 0 0.40906008609454148 124.76387847249862 0 0 0 0 -318.56927436803744 -103.61684883014459 0 -103.61684883014459 311.3581350750319 0 0 0 0 366.01297875009436 144.3117965667152 0 144.3117965667152 -36.79959071691701 0 0 0 0 -36.03889461092615 130.49946799743702 0 130.49946799743702 71.562412410788966 0 0 0 0 10.722529743999875 45.817745737020303 0 45.817745737020303 117.80390729989847 0 0 0 0 -1.0456117883785341 15.4892301613732 0 15.4892301613732 21.919809989111968 0 0 0 0 -8.8860472098901937 71.732024726748932 0 71.732024726748932 30.868142587438342 0 0 0 0 -37.986470971505696 42.387130354789406 0 42.387130354789406 97.763752450526226 0 0 0 0 21.184058521509087 14.038377877834137 0 14.038377877834137 68.694926003499859 0 0 0 0 0.97794132077687124 5.389508142404253 0 5.389508142404253 20.202534915689313 0 0 0 0 33.985229208319197 40.533415963207517 0 40.533415963207517 53.3105052120045 0 0 0 0 107.79530033875108 -98.703866524985642 0 -98.703866524985642 126.18992008466921 0 0 0 0 315.59567416750542 -149.81516088113676 0 -149.81516088113676 64.349299493045692 0 0 0 0 154.85227723572876 -250.43581654073526 0 -250.43581654073526 484.96636051243695 0 0 0 0 131.42769068206781 -151.52761040369296 0 -151.52761040369296 437.1928635360473 0 0 0 0 390.36701728098956 -443.13761726498706 0 -443.13761726498706 529.61861186955502 0 0 0 0 -0.012124475642470767 0.13851867235723248 0 0.13851867235723248 8.4682039030397505 0 0 0 0 43.346488187335666 -196.04759220475148 0 -196.04759220475148 896.97443853160075 0 0 0 0 154.86805300684765 -223.95694104536963 0 -223.95694104536963 903.79739618179883 0 0 0 0 296.55011243876379 -103.53105639928617 0 -103.53105639928617 879.63331080844364 0 0 0 0 44.906165993096693 -166.6493119259103 0 -166.6493119259103 921.22169705583656 0 0 0 0 11.164652102314903 -45.727577986668621 0 -45.727577986668621 799.50646840698028 0 0 0 0 -14.082730016413734 -337.26640643725841 0 -337.26640643725841 1151.4960071319074 0 0 0 0 -145.05613572706352 -164.15617413252767 0 -164.15617413252767 995.50329870483984 0 0 0 0 -15.847241124140965 -405.09127079691098 0 -405.09127079691098 889.13870953093283 0 0 0 0 228.99536601222326 -388.67573592807094 0 -388.67573592807094 692.72564062156016 0 0 0 0 254.52941284218105 -290.46938723439962 0 -290.46938723439962 935.02213873131404 0 0 0 0 281.17949764648642 -532.76830545889607 0 -532.76830545889607 675.64459482099403 0 0 0 0 312.14574766624492 -467.12027639836015 0 -467.12027639836015 763.83559067377064 0 0 0 0 610.51831444822756 -255.61188514253445 0 -255.61188514253445 728.62491242562828 0 0 0 0 419.1282346734065 -595.69909917940095 0 -595.69909917940095 817.64431133864855 0 0 0 0 59.057506585345436 -315.46427935980319 0 -315.46427935980319 669.19603720027953 0 0 0 0 -160.39631572422689 -117.93891984847687 0 -117.93891984847687 990.23153698614624 0 0 0 0 -60.261681742450037 260.24937092272739 0 260.24937092272739 192.27052700856439 0 0 0 0 173.911204952243 -242.52566161118011 0 -242.52566161118011 329.12030008874717 0 0 0 0 179.50059933130728 -384.63739984055428 0 -384.63739984055428 506.90332507167477 0 0 0 0 208.68464888551642 -364.13818280882879 0 -364.13818280882879 507.31598973812652 0 0 0 0 373.20957461775288 -622.11989212170738 0 -622.11989212170738 632.16901566457454 0 0 0 0 326.58299551469588 -580.01152239843759 0 -580.01152239843759 703.00814550169162 0 0 0 0 163.72126857841158 -553.71945341207174 0 -553.71945341207174 716.12415041229542 0 0 0 0 251.09096629982901 -653.56546692083884 0 -653.56546692083884 785.43018764695444 0 0 0 0 252.497849482167 -660.94179379074558 0 -660.94179379074558 821.73138557901257 0 0 0 0 421.77252823137951 -796.36752979103403 0 -796.36752979103403 898.7150005834992 0 0 0 0 534.15305094448024 -633.37754739322554 0 -633.37754739322554 709.1432347693094 0 0 0 0 198.19010499588057 -702.62421404897032 0 -702.62421404897032 1106.0134313214076 0 0 0 0 189.58147717301631 -659.23084794537954 0 -659.23084794537954 887.28463467690744 0 0 0 0 88.393097944890769 -626.11242874197887 0 -626.11242874197887 1395.5882886513646 0 0 0 0 490.06425235726124 -693.92583709768951 0 -693.92583709768951 1405.5279400022118 0 0 0 0 461.45940586766073 -588.58841622727414 0 -588.58841622727414 1032.9325804666369 0 0 0 0 -195.69228447298019 -236.98678422186276 0 -236.98678422186276 529.91448716167361 0 0 0 0 -153.82640835411348 -600.8233645339169 0 -600.8233645339169 714.76606605714187 0 0 0 0 -0.019669950892421184 -391.90891170249779 0 -391.90891170249779 826.63837072798196 0 0 0 0 -16.492654409375518 -700.59570286966482 0 -700.59570286966482 1016.4566053001072 0 0 0 0 -74.745406122758141 -556.67647875703551 0 -556.67647875703551 732.52922511421639 0 0 0 0 -36.059626355653563 -666.69850201735244 0 -666.69850201735244 977.74569056198015 0 0 0 0 -187.33780133322648 -747.6802448630151 0 -747.6802448630151 935.73766736368998 0 0 0 0 -4.6967381136028052 -621.58674646854706 0 -621.58674646854706 925.32590188168979 0 0 0 0 112.38821758498398 -723.04683584679879 0 -723.04683584679879 906.80827759975182 0 0 0 0 166.09593858229425 -528.8031198638073 0 -528.8031198638073 967.75459109662916 0 0 0 0 -210.99405034450683 -616.50053838850727 0 -616.50053838850727 1173.3000324199093 0 0 0 0 -193.01424476079683 -438.62465838700155 0 -438.62465838700155 1157.7305577140942 0 0 0 0 -534.69995963869042 -719.10128310873552 0 -719.10128310873552 1404.1730709968506 0 0 0 0 -303.61250343997835 -305.94883918576124 0 -305.94883918576124 1279.2839274497528 0 0 0 0 -330.23479415780093 -240.01405202842579 0 -240.01405202842579 1662.8176696334122 0 0 0 0 -515.04535810450125 -588.39228722902044 0 -588.39228722902044 2114.1586915572807 0 0 0 0 -339.11711368992837 -75.079273943236331 0 -75.079273943236331 1764.597010468191 0 0 0 0 -785.84793841692908 -775.308676891098 0 -775.308676891098 2670.986258599296 0 0 0 0 -451.53120613859937 -753.29547038248711 0 -753.29547038248711 922.1231284665264 0 0 0 0 -581.09969716556725 -1148.3623631883756 0 -1148.3623631883756 1064.6281536651804 0 0 0 0 -238.42194344377049 -662.88070857379535 0 -662.88070857379535 1026.8003363978205 0 0 0 0 -256.64406337677701 -703.7654066311934 0 -703.7654066311934 1024.0361723649839 0 0 0 0 -222.03607895944378 -826.01198813527299 0 -826.01198813527299 522.69903426641395 0 0 0 0 -270.00994839960458 -379.34309350971307 0 -379.34309350971307 419.50329257372869 0 0 0 0 -426.16356363462864 -447.11872635246573 0 -447.11872635246573 413.23707638916676 0 0 0 0 -410.75296685362036 -330.33774350154954 0 -330.33774350154954 -97.901923910190817 0 0 0 0 -762.22967921238887 -45.833882815051766 0 -45.833882815051766 227.80025413578551 0 0 0 0 -1622.4862159739087 -621.48130493172357 0 -621.48130493172357 80.06834224434715 0 0 0 0 -1.8891427019663318 -10.776924264423556 0 -10.776924264423556 46.353526944943553 0 0 0 0 -888.18589305627029 -338.82913911726791 0 -338.82913911726791 -108.15828387903457 0 0 0 0 -1038.5007575636764 -133.30500208275771 0 -133.30500208275771 22.201448047308077 0 0 0 0 -341.20091498629608 -637.58106052759831 0 -637.58106052759831 -359.39225123444339 0 0 0 0 -271.97293672126307 -223.96938761533238 0 -223.96938761533238 431.32042298666784 0 0 0 0 178.09600097450675 476.55029653474776 0 476.55029653474776 341.38486755049234 0 0 0 0 402.51863448875383 1215.1310505658748 0 1215.1310505658748 2626.9953979728889 0 0 0 0 0.22571354550949074 -5.1810842127284502 0 -5.1810842127284502 19.813130158100364 0 0 0 0 -967.14838141286054 -1572.8044188396598 0 -1572.8044188396598 654.44815579674832 0 0 0 0 -125.30722227438491 21.0727168249432 0 21.0727168249432 3358.4530270188916 0 0 0 0 1010.1425810245946 -282.35832877676512 0 -282.35832877676512 2103.9446528856279 0 0 0 0 685.37110897166713 630.50664546362532 0 630.50664546362532 2541.2729595185447 0 0 0 0 -326.59636172644514 502.72317939126151 0 502.72317939126151 2211.9289564271894 0 0 0 0 -9.6379731371634989 -193.88375307739989 0 -193.88375307739989 2057.325696156091 0 0 0 0 444.83428593008784 -191.47378230350114 0 -191.47378230350114 -180.87609099640395 0 0 0 0 351.92719036251219 47.323965313931694 0 47.323965313931694 31.673146290821023 0 0 0 0 489.22449206992314 -541.62785018206705 0 -541.62785018206705 866.58773962069972 0 0 0 0 -2.0040136377290363 2.7940343617031775 0 2.7940343617031775 4.4067851125251707 0 0 0 0 -123.64492814848882 684.45359662006558 0 684.45359662006558 1469.3815708333277 0 0 0 0 229.75743288320564 151.83002917772865 0 151.83002917772865 1885.528194297498 0 0 0 0 -291.49049724185807 -302.80941828021969 0 -302.80941828021969 1895.2890884499066 0 0 0 0 -150.47555476425896 86.792269606223272 0 86.792269606223272 907.89869864772481 0 0 0 0 -353.56827435937521 -175.9209345670788 0 -175.9209345670788 1495.8512092915335 0 0 0 0 -173.59547473276689 241.42915643365268 0 241.42915643365268 1609.7674731409115 0 0 0 0 -129.41732781756855 -86.709027183036596 0 -86.709027183036596 1361.799359100929 0 0 0 0 9.4384228343515133 -46.669434599483793 0 -46.669434599483793 844.55913476987189 0 0 0 0 146.01562400422927 70.917737523821415 0 70.917737523821415 414.03302281018114 0 0 0 0 -3.9325824624602319 367.7624608817714 0 367.7624608817714 478.88778473698767 0 0 0 0 72.135107413765581 -89.43658958395099 0 -89.43658958395099 129.49858281108754 0 0 0 0 -120.72942469964619 -222.485524414049 0 -222.485524414049 231.48505053262124 0 0 0 0 60.024480634135216 -159.05310973854648 0 -159.05310973854648 209.53600685423589 0 0 0 0 52.544549204003488 -211.82586329070909 0 -211.82586329070909 387.91780895101147 0 0 0 0 112.00269158670926 -174.29019909918134 0 -174.29019909918134 183.10544358503103 0 0 0 0 144.1484876193872 -208.66686979512815 0 -208.66686979512815 219.2994978895731 0 0 0 0 -55.626551916060635 -223.47865664626806 0 -223.47865664626806 231.37371676745533 0 0 0 0 27.134812268530368 -162.42872931372403 0 -162.42872931372403 166.89792174707509 0 0 0 0 -66.045303633480216 -200.6197601642707 0 -200.6197601642707 183.03295944722049 0 0 0 0 17.79126770286166 -162.79587360539881 0 -162.79587360539881 90.394503275223542 0 0 0 0 62.067653693400644 -128.74027050572113 0 -128.74027050572113 298.68547123559256 0 0 0 0 119.07952318153548 -98.208555773104308 0 -98.208555773104308 200.13744834610634 0 0 0 0 -38.80684994991779 -1.4040174737912707 0 -1.4040174737912707 47.225272047981008 0 0 0 0 197.12161980805104 -361.85816220624838 0 -361.85816220624838 190.05261564196553 0 0 0 0 20.926594958687929 -209.91474674099709 0 -209.91474674099709 220.56778081543496 0 0 0 0 -22.626493872201785 -57.606830079060508 0 -57.606830079060508 224.71540104331945 0 0 0 0 57.160536999144824 -104.89108968939854 0 -104.89108968939854 244.23894935994645 0 0 0 0 -5.1858988509848132 -144.88781982019827 0 -144.88781982019827 417.34216173990899 0 0 0 0 92.469209515871157 -123.79793193277385 0 -123.79793193277385 155.66413861718485 0 0 0 0 195.46103192690589 -263.01849971337469 0 -263.01849971337469 -167.49154313071631 0 0 0 0 16.307568901266151 -21.55859736039919 0 -21.55859736039919 18.703936946230868 0 0 0 0 -211.39140063340892 -133.90105298765047 0 -133.90105298765047 224.53759425056342 0 0 0 0 98.812301317951096 -127.06211023861033 0 -127.06211023861033 -86.403639792726608 0 0 0 0 51.615974910564546 -48.379758800754644 0 -48.379758800754644 170.73740300657664 0 0 0 0 28.105737694282297 -46.980377329241406 0 -46.980377329241406 24.105204242089616 0 0 0 0 38.859807921528045 -42.690955468311586 0 -42.690955468311586 105.34847843183525 0 0 0 0 40.235308101051487 -93.634874194460281 0 -93.634874194460281 304.20954666011676 0 0 0 0 2.2223777812134173 -9.1968152873460127 0 -9.1968152873460127 38.336314914825024 0 0 0 0 49.445695297335988 -101.14214830825586 0 -101.14214830825586 267.55522657482652 0 0 0 0 31.320227484371571 -73.992594889743486 0 -73.992594889743486 284.16621909434616 0 0 0 0 43.470899481839297 -76.41217441426852 0 -76.41217441426852 290.89003561716527 0 0 0 0 31.898506792365197 -33.7680625935227 0 -33.7680625935227 94.043925749188929 0 0 0 0 8.5941527235997253 -23.253928039852141 0 -23.253928039852141 73.797668072283514 0 0 0 0 39.552856299045288 -10.291968395998992 0 -10.291968395998992 56.505653609920046 0 0 0 0 17.141951063247689 -165.67328510564766 0 -165.67328510564766 184.6483447424589 0 0 0 0 -8.1081335399241254 -12.697855754844788 0 -12.697855754844788 55.573711129124682 0 0 0 0 -65.127659555364517 -122.27386775407649 0 -122.27386775407649 364.55774026149084 0 0 0 0 22.562564819425461 65.650702494891448 0 65.650702494891448 255.61317156546829 0 0 0 0 -11.011540713717295 -26.541699731023982 0 -26.541699731023982 109.34145518972582 0 0 0 0 25.660194655273195 -65.427594406887323 0 -65.427594406887323 104.2126846086334 0 0 0 0 45.767700214937577 -88.99016846293307 0 -88.99016846293307 227.4536711863766 0 0 0 0 -35.014285930777739 -12.319533887785516 0 -12.319533887785516 120.73643862129475 0 0 0 0 30.078333541576285 -66.55231003073277 0 -66.55231003073277 249.47814382627257 0 0 0 0 -25.83054538900587 -27.290980240727727 0 -27.290980240727727 222.65123594014835 0 0 0 0 -16.103129772549437 -213.01160483252897 0 -213.01160483252897 441.15945237046935 0 0 0 0 22.13871423663295 -62.419929496427358 0 -62.419929496427358 277.39518543351733 0 0 0 0 -26.822356971770446 -28.527671874443836 0 -28.527671874443836 42.550475132444802 0 0 0 0 -19.041755547962111 -91.185074048881461 0 -91.185074048881461 470.77850851678704 0 0 0 0 7.6781591480321367 -115.86946743336011 0 -115.86946743336011 340.38552975599669 0 0 0 0 7.3762874152442848 -21.000583102629534 0 -21.000583102629534 51.751524178660105 0 0 0 0 44.009346095124783 -78.346200437081279 0 -78.346200437081279 284.7466722275858 0 0 0 0 24.14926732527465 -70.005616821576041 0 -70.005616821576041 291.1311817264359 0 0 0 0 -6.1041828051475022 -156.95831931729845 0 -156.95831931729845 264.58686698749079 0 0 0 0 46.110853841357766 -81.676163457698749 0 -81.676163457698749 252.51345197020419 0 0 0 0 110.68525284456427 -158.76241660533924 0 -158.76241660533924 163.88656431761046 0 0 0 0 2.7854448271355068 -181.41870925598414 0 -181.41870925598414 183.37911810352307 0 0 0 0 -9.9397170216234372 -48.09467158766347 0 -48.09467158766347 107.83325511486692 0 0 0 0 78.115981621730043 -66.839720250001847 0 -66.839720250001847 50.804097936572362 0 0 0 0 10.581899301728299 -103.65026712649342 0 -103.65026712649342 238.92397948628422 0 0 0 0 18.254994507468837 -57.850655311884111 0 -57.850655311884111 113.74961740343133 0 0 0 0 42.795238826151262 -49.906975645608327 0 -49.906975645608327 101.34042354592384 0 0 0 0 15.393927609171055 -41.847666609194093 0 -41.847666609194093 30.597788337452194 0 0 0 0 12.775939184291701 -26.747081610168607 0 -26.747081610168607 142.6022022519428 0 0 0 0 -15.113066849381539 -29.037372438417151 0 -29.037372438417151 167.00854377802898 0 0 0 0 -37.054154982865839 -28.573135354410624 0 -28.573135354410624 158.98757427679811 0 0 0 0 -4.8131131438076409 -44.879390518751279 0 -44.879390518751279 126.66457314488071 0 0 0 0 -33.967692904334399 -25.847616977909638 0 -25.847616977909638 154.56788383660023 0 0 0 0 -68.324937390967989 -41.523462214594474 0 -41.523462214594474 131.81595531894254 0 0 0 0 43.711759653799845 -73.516902380892134 0 -73.516902380892134 123.20939249267394 0 0 0 0 -3.4115813379594329 -46.097283594408509 0 -46.097283594408509 136.4283852432618 0 0 0 0 -19.426775284204723 -48.483878552644455 0 -48.483878552644455 170.525995910044 0 0 0 0 53.947184154213915 -47.580200033102301 0 -47.580200033102301 82.987594414978958 0 0 0 0 109.10664499082645 -81.039338174015938 0 -81.039338174015938 97.799111744128822 0 0 0 0 60.680552198530904 -57.434019037422331 0 -57.434019037422331 95.474972883988812 0 0 0 0 49.510222087432567 -43.721415063759196 0 -43.721415063759196 93.726713543263031 0 0 0 0 43.825224614601211 -47.581080959560495 0 -47.581080959560495 94.715805191737672 0 0 0 0 18.818500495114677 -43.41909417508532 0 -43.41909417508532 140.19633150488153 0 0 0 0 47.800352831635564 -40.740870211890979 0 -40.740870211890979 88.99489752727095 0 0 0 0 -2.3875515239607989 12.268415521738451 0 12.268415521738451 41.002459691707706 0 0 0 0 62.891563783575862 -35.119587779740868 0 -35.119587779740868 80.743954828343703 0 0 0 0 -29.68588567293591 -38.681362408799032 0 -38.681362408799032 222.29803974403694 0 0 0 0 2.2180308832501412 6.1153971835451317 0 6.1153971835451317 26.284363803234783 0 0 0 0 95.725881577025575 -115.71020403679904 0 -115.71020403679904 136.15828649605828 0 0 0 0 148.41821824626277 -123.40356254752987 0 -123.40356254752987 134.53439109654209 0 0 0 0 16.391405099946041 -103.81793475347422 0 -103.81793475347422 190.30117723475996 0 0 0 0 82.012367434840428 -144.76674135090116 0 -144.76674135090116 208.65452603822632 0 0 0 0 -217.52366219845635 -49.63623424713478 0 -49.63623424713478 361.67736757698003 0 0 0 0 -50.255806792650304 12.856762557814136 0 12.856762557814136 172.03428322086984 0 0 0 0 -40.440450944932614 -107.20209967005894 0 -107.20209967005894 770.69083078271069 0 0 0 0 484.3059127371601 -419.59561406026114 0 -419.59561406026114 373.73856060402431 0 0 0 0 68.303039162441081 346.83786962051272 0 346.83786962051272 503.81123829369062 0 0 0 0 -50.681174146603553 128.13070432392124 0 128.13070432392124 267.71207976471487 0 0 0 0 -146.27732826587703 82.227695562523877 0 82.227695562523877 120.13000256584928 0 0 0 0 -10.438280817695272 178.08072187119978 0 178.08072187119978 69.099138541481807 0 0 0 0 -128.65026241123701 141.1085926258711 0 141.1085926258711 304.10086115324702 0 0 0 0 -32.574836587352593 112.52041044319958 0 112.52041044319958 14.056949894424179 0 0 0 0 -108.01944018510312 119.78384776096573 0 119.78384776096573 133.84036026791364 0 0 0 0 -41.867539992756974 104.7941916686832 0 104.7941916686832 29.043054071065853 0 0 0 0 61.334432411736657 118.19325309111264 0 118.19325309111264 -121.54002277417385 0 0 0 0 260.29520383093939 104.12671820657124 0 104.12671820657124 -223.07048190831483 0 0 0 0 -212.83882316850509 -152.35078818639158 0 -152.35078818639158 -243.47102929455173 0 0 0 0 -19.159697947140707 10.597490048126197 0 10.597490048126197 69.554744027387443 0 0 0 0 -51.523334018621426 29.519437065449893 0 29.519437065449893 22.181973241786181 0 0 0 0 -10.71360482545245 -5.2503309863770848 0 -5.2503309863770848 63.77824198434908 0 0 0 0 172.54946814992309 -557.01323588422019 0 -557.01323588422019 208.29850705000672 0 0 0 0 -111.13978157842917 103.30424668786691 0 103.30424668786691 75.966197361783998 0 0 0 0 -77.249079626807998 55.201108812978418 0 55.201108812978418 105.32869881466104 0 0 0 0 -239.45208923607834 -8.196203777082701 0 -8.196203777082701 88.109732751372576 0 0 0 0 -183.89183149875271 91.768612009424032 0 91.768612009424032 179.97835204553485 0 0 0 0 -5.9941780870795753 15.241583951216892 0 15.241583951216892 19.016636333594093 0 0 0 0 -52.757227517975934 720.83761584609965 0 720.83761584609965 12.832700430860314 0 0 0 0 -0.98000397513776072 27.290067067118098 0 27.290067067118098 111.98204070894008 0 0 0 0 -68.42263514924332 162.60228902838571 0 162.60228902838571 139.8987570762838 0 0 0 0 4.0880075429045064 3.6928014372733742 0 3.6928014372733742 33.915243924071547 0 0 0 0 -285.3837711032777 -210.61686757385905 0 -210.61686757385905 11.500300250562759 0 0 0 0 133.8596826422081 241.39142004874248 0 241.39142004874248 316.84654918530214 0 0 0 0 1.7006697664196451 -1.3063539424785375 0 -1.3063539424785375 -1.3805155627477745 0 0 0 0 -7.1596700956201857 -63.707463479475336 0 -63.707463479475336 161.0988641185977 0 0 0 0 -20.02276213388518 -67.020658031311541 0 -67.020658031311541 206.70060885882413 0 0 0 0 -191.19827351507843 106.51125302221772 0 106.51125302221772 214.33245471527334 0 0 0 0 -23.385700827703033 -23.345117182730064 0 -23.345117182730064 70.517765841803339 0 0 0 0 6.599212877895738 25.61818827228133 0 25.61818827228133 92.946654301511927 0 0 0 0 7.4061061014641361 11.01586836233561 0 11.01586836233561 13.823758605726965 0 0 0 0 14.955641424239161 69.38831047570784 0 69.38831047570784 21.760020591967987 0 0 0 0 -24.933835142910539 -25.014299851318356 0 -25.014299851318356 64.790109713716447 0 0 0 0 27.01372434806899 -4.7853438764614111 0 -4.7853438764614111 41.374765330241644 0 0 0 0 58.047684643608193 -10.401487244562304 0 -10.401487244562304 16.831616483003017 0 0 0 0 42.29706466811399 4.1039039211682393 0 4.1039039211682393 27.177091990735789 0 0 0 0 43.711123056052088 -28.790849221819371 0 -28.790849221819371 73.158035382533853 0 0 0 0 21.497452783109566 -9.8237698160519358 0 -9.8237698160519358 60.531519292431767 0 0 0 0 142.92510442912177 -42.265881065663962 0 -42.265881065663962 -9.7073575853137299 0 0 0 0 58.668084548633431 -15.218676962407244 0 -15.218676962407244 29.956343242170988 0 0 0 0 15.331633325640098 77.256434324022848 0 77.256434324022848 -45.643772511321004 0 0 0 0 46.671984814171765 -5.5051239116000943 0 -5.5051239116000943 47.38731392128102 0 0 0 0 49.175525218456187 -9.4562161915819161 0 -9.4562161915819161 48.244512307874174 0 0 0 0 99.514617795948823 -167.63145615935355 0 -167.63145615935355 333.00208244017267 0 0 0 0 3.6808271132357926 4.2937219088928344 0 4.2937219088928344 3.7673772009506195 0 0 0 0 -49.755960995881424 -23.698653534505866 0 -23.698653534505866 477.72074205039826 0 0 0 0 -48.24738539855025 52.849562846684421 0 52.849562846684421 261.14371156759444 0 0 0 0 -18.191233670484735 13.799703893935657 0 13.799703893935657 311.660976075279 0 0 0 0 76.138975234813557 -88.962646431536996 0 -88.962646431536996 173.09793779357278 0 0 0 0 4.323152496329385 67.705908639331028 0 67.705908639331028 135.4997676963103 0 0 0 0 -11.783648701386255 56.859006779181072 0 56.859006779181072 159.39074320854706 0 0 0 0 -33.671894452172296 60.135007185013819 0 60.135007185013819 219.60908461867075 0 0 0 0 -44.372579821462523 130.9112464611535 0 130.9112464611535 226.94827347897353 0 0 0 0 -18.627592819121219 146.8775860566202 0 146.8775860566202 179.37422410643194 0 0 0 0 21.929045381804144 137.58721634232643 0 137.58721634232643 108.63374554792244 0 0 0 0 -58.575771106414095 158.09158751174255 0 158.09158751174255 176.49435918658492 0 0 0 0 -0.85446095090804874 189.63966783816613 0 189.63966783816613 160.0592959546193 0 0 0 0 -47.720151685280825 129.01957898725232 0 129.01957898725232 174.48836314256005 0 0 0 0 -1.1168792995886747 196.77627841745198 0 196.77627841745198 18.597368852904765 0 0 0 0 -81.299656296073181 197.09576364074019 0 197.09576364074019 256.51664739131957 0 0 0 0 -70.683888027360808 86.476934164791601 0 86.476934164791601 439.56128432568948 0 0 0 0 -47.025993905123414 149.28127986493928 0 149.28127986493928 178.3969204791938 0 0 0 0 -94.185240217407227 156.18038185196929 0 156.18038185196929 316.52345834880225 0 0 0 0 0.63239388814505304 -0.41077941234360082 0 -0.41077941234360082 3.2198539282381233 0 0 0 0 23.80525653350287 142.89469192051911 0 142.89469192051911 201.28280842634558 0 0 0 0 75.668993434180265 189.52220039683743 0 189.52220039683743 158.28864008173696 0 0 0 0 190.96403615624922 40.792495772635448 0 40.792495772635448 -48.00923142049578 0 0 0 0 -7.6734396474039386 26.689319377066568 0 26.689319377066568 72.337118827548693 0 0 0 0 46.183370588100161 55.105877704645536 0 55.105877704645536 10.780496821826091 0 0 0 0 -4.3098069368556935 -3.9199885485286359 0 -3.9199885485286359 16.837449490041763 0 0 0 0 -12.296881787965162 -9.4618511528969975 0 -9.4618511528969975 19.17274339706637 0 0 0 0 -1.7489653190486161 0.23244424495882043 0 0.23244424495882043 16.801758480641155 0 0 0 0 -11.859936540410217 2.3832348650612403 0 2.3832348650612403 28.818694972200319 0 0 0 0 -1.3361950165581491 -0.67273777142460034 0 -0.67273777142460034 23.25298568307548 0 0 0 0 -19.833895827481115 -9.2950258141845552 0 -9.2950258141845552 25.542162331752479 0 0 0 0 9.2508101276158641 13.804158224696948 0 13.804158224696948 26.462639775782009 0 0 0 0 -39.493139617341967 -29.220955288295954 0 -29.220955288295954 58.200101444197571 0 0 0 0 -1.303941051507409 -6.0313156719118055 0 -6.0313156719118055 26.13394676392619 0 0 0 0 17.657854266305776 -31.102143306750804 0 -31.102143306750804 3.5452094384709198 0 0 0 0 -13.039652680922472 -28.027140775117005 0 -28.027140775117005 36.456493586418219 0 0 0 0 -4.2865710292876997 7.4258301628215122 0 7.4258301628215122 35.77089677672484 0 0 0 0 -2.7157011331190919 -4.7681893639952762 0 -4.7681893639952762 4.3304964064947171 0 0 0 0 -2.5046100934218885 1.4113193981684162 0 1.4113193981684162 24.338481030956245 0 0 0 0 8.651241724709962 16.211009466847827 0 16.211009466847827 41.835822581822868 0 0 0 0 2.4757858425964514 16.511030205843781 0 16.511030205843781 89.120831774518592 0 0 0 0 8.0571661416256575 -8.1452909173349326 0 -8.1452909173349326 63.231243409929448 0 0 0 0 9.2380503468580173 35.042320284002926 0 35.042320284002926 122.52981834130333 0 0 0 0 -12.809293604510003 -51.611386256743572 0 -51.611386256743572 119.14910872154724 0 0 0 0 -4.9004840097229589 1.6551238350075437 0 1.6551238350075437 82.570687687450118 0 0 0 0 0.81291607224519602 -15.023146207111168 0 -15.023146207111168 19.566375071196596 0 0 0 0 0.57503937637234781 -2.2552698363761863 0 -2.2552698363761863 9.4841600133039705 0 0 0 0 3.1557415258291996 16.832106713547546 0 16.832106713547546 87.576462812416139 0 0 0 0 -4.1838828082312478 -3.3998295392256779 0 -3.3998295392256779 8.4560885275994906 0 0 0 0 1.8153036969212621 10.065865567580886 0 10.065865567580886 104.34516660235386 0 0 0 0 35.863006564376064 -10.221080853429157 0 -10.221080853429157 -41.555828461685451 0 0 0 0 -11.385815875154094 -3.6976145232329145 0 -3.6976145232329145 24.156073955033207 0 0 0 0 1.9219325568876884 -9.2730545071276325 0 -9.2730545071276325 -4.9898556824954881 0 0 0 0 0.19043699757383514 -9.777138592280437 0 -9.777138592280437 52.106336316464137 0 0 0 0 13.905758615052036 0.96737002812733408 0 0.96737002812733408 27.568982752680313 0 0 0 0 -3.8371633301780044 -9.6022354868866415 0 -9.6022354868866415 35.566610457234255 0 0 0 0 -37.471824090403061 19.034517120300734 0 19.034517120300734 79.730272215179866 0 0 0 0 -11.104035425809798 18.659757562782033 0 18.659757562782033 69.593731944769388 0 0 0 0 7.6669349386622487 11.779666189598977 0 11.779666189598977 30.396651578740631 0 0 0 0 -3.5060586519030039 3.5255075473396573 0 3.5255075473396573 97.674903389226529 0 0 0 0 25.553664756327635 -23.52886076815048 0 -23.52886076815048 22.611040737145231 0 0 0 0 14.770009221145983 4.0350986088669742 0 4.0350986088669742 35.541413540253416 0 0 0 0 -1.8058596923345291 -0.64605791750481956 0 -0.64605791750481956 5.8213086563945495 0 0 0 0 33.117762223897898 -66.638536261991248 0 -66.638536261991248 -61.132514089258621 0 0 0 0 1.6642885676800434 -8.3152423076756179 0 -8.3152423076756179 57.795694551720032 0 0 0 0 31.351572663877732 -10.618380813022668 0 -10.618380813022668 57.142675388975476 0 0 0 0 5.8395634663607119 12.327639612721917 0 12.327639612721917 79.93165635625607 0 0 0 0 -82.660061509356979 10.775582556885638 0 10.775582556885638 127.28717007886007 0 0 0 0 -5.4651419834426633 -41.26794201159646 0 -41.26794201159646 161.86255137239641 0 0 0 0 -19.101220004630477 -4.1090450001593126 0 -4.1090450001593126 112.40542703976098 0 0 0 0 21.256108062595558 -33.382286832696991 0 -33.382286832696991 129.19746901355393 0 0 0 0 -2.6818360314616712 -1.4686838289999287 0 -1.4686838289999287 98.896349663031287 0 0 0 0 -4.3595551047662475 6.5438496545819493 0 6.5438496545819493 102.33307085319942 0 0 0 0 29.984340683718074 -43.57642721521006 0 -43.57642721521006 138.54571874062822 0 0 0 0 0.29314087064221894 2.1423047955468064 0 2.1423047955468064 84.222419129222544 0 0 0 0 -2.1342760441787867 -7.4883864041562589 0 -7.4883864041562589 40.152129731987344 0 0 0 0 -6.6406612731407222 -0.18396168584877159 0 -0.18396168584877159 100.14742630574619 0 0 0 0 -8.8209548678605643 0.029758011769445147 0 0.029758011769445147 100.30123082148202 0 0 0 0 -1.7876379464960337 -6.6696014504123013 0 -6.6696014504123013 83.503323243021441 0 0 0 0 -0.50782769454818388 1.8813085136890209 0 1.8813085136890209 68.337636391570157 0 0 0 0 -4.289866502280347 92.596014012160595 0 92.596014012160595 271.96825840935344 0 0 0 0 -5.5674133665670524 -1.7630893781315535 0 -1.7630893781315535 99.057268992928584 0 0 0 0 6.5056384979425843 -17.814883563168223 0 -17.814883563168223 52.180265307528316 0 0 0 0 -4.2828116992623109 -5.3102291995892301 0 -5.3102291995892301 75.729180235277454 0 0 0 0 15.387124658625908 -29.665480545207174 0 -29.665480545207174 77.942630728924996 0 0 0 0 3.3468211988452516 0.43422710828729194 0 0.43422710828729194 35.656992638725313 0 0 0 0 108.82737053023385 -48.874724087447277 0 -48.874724087447277 50.506223575001059 0 0 0 0 15.819949974301608 26.75246038471596 0 26.75246038471596 42.94223649930791 0 0 0 0 -10.10202999081514 1.623158659944238 0 1.623158659944238 55.400816623354331 0 0 0 0 -2.7148797515017002 13.280499296031998 0 13.280499296031998 65.454736108527669 0 0 0 0 -17.225871644704853 31.642998023758992 0 31.642998023758992 55.551008069276577 0 0 0 0 0.38374816248387056 -0.39336339421936373 0 -0.39336339421936373 -1.2544726593960149 0 0 0 0 -22.03647577934953 23.861650299619214 0 23.861650299619214 176.718599237538 0 0 0 0 4.1020178600497275 -47.100376722351939 0 -47.100376722351939 81.06411805604148 0 0 0 0 0.81620116896832817 14.667092657500625 0 14.667092657500625 63.566627005727355 0 0 0 0 17.158362238044674 -6.4513722305255214 0 -6.4513722305255214 61.919632455406827 0 0 0 0 -15.701871149156432 20.983518171044125 0 20.983518171044125 130.90104350229376 0 0 0 0 -9.7191239319358829 12.751128986456024 0 12.751128986456024 118.00485604222195 0 0 0 0 -72.602970351284966 -118.28752804231772 0 -118.28752804231772 -5.5097164664330194 0 0 0 0 -22.467135229114401 -20.905975602325327 0 -20.905975602325327 60.513488582388902 0 0 0 0 24.127957694721772 -3.1728182596998522 0 -3.1728182596998522 68.831702200739528 0 0 0 0 23.338560889741075 30.319219858771248 0 30.319219858771248 87.077366066310788 0 0 0 0 -13.201933695841262 -18.641314773100021 0 -18.641314773100021 77.186093439071556 0 0 0 0 -23.770489723497768 -11.866647072046092 0 -11.866647072046092 59.731774340789968 0 0 0 0 -18.835078603723559 13.818756690794544 0 13.818756690794544 93.881495200894278 0 0 0 0 -120.82086652904627 -115.39610143432947 0 -115.39610143432947 65.54421273994376 0 0 0 0 -85.206955356101162 -79.510684715118259 0 -79.510684715118259 19.676322562605492 0 0 0 0 -10.676623574849145 -134.66193850350101 0 -134.66193850350101 50.899465029720886 0 0 0 0 84.942174750163986 -31.359726924791175 0 -31.359726924791175 -65.451361310406355 0 0 0 0 67.006348130139486 -98.734327496582409 0 -98.734327496582409 0.43296222003118601 0 0 0 0 44.334426402354893 -74.98080856744491 0 -74.98080856744491 -13.096279462100938 0 0 0 0 78.630114112339925 -42.550749339236063 0 -42.550749339236063 -28.799508728669025 0 0 0 0 93.922591314293641 -47.617928179806768 0 -47.617928179806768 -37.544658556755167 0 0 0 0 39.119646697593225 -45.72374165985093 0 -45.72374165985093 -15.243628525029635 0 0 0 0 45.238435166866111 -55.185493570370454 0 -55.185493570370454 -17.497168656409485 0 0 0 0 6.9153412180976375 -81.708509207863244 0 -81.708509207863244 -9.6864339697276591 0 0 0 0 10.889581257908503 -72.443111750151729 0 -72.443111750151729 -19.972867829190363 0 0 0 0 61.225844392718955 -40.51676719088573 0 -40.51676719088573 -16.405047134860069 0 0 0 0 29.676238177304185 -43.611871177679859 0 -43.611871177679859 -3.8486956765409559 0 0 0 0 -38.725303775823704 -108.50333228889212 0 -108.50333228889212 -11.728035804480896 0 0 0 0 -14.634933458434716 -59.355270185049449 0 -59.355270185049449 -16.131962202256545 0 0 0 0 -3.35611718635937 -69.210522285982734 0 -69.210522285982734 -5.9027534015476704 0 0 0 0 -65.93422250552976 -84.392342037361232 0 -84.392342037361232 -6.0500263526411118 0 0 0 0 -12.814982500264705 12.059840799694939 0 12.059840799694939 115.69793980865506 0 0 0 0 -16.098228649184911 -39.597027528811367 0 -39.597027528811367 29.878453555125375 0 0 0 0 16.975141629446625 6.2620684191933833 0 6.2620684191933833 95.128366973309312 0 0 0 0 8.6389601455024376 -13.015689027048211 0 -13.015689027048211 90.845227547950344 0 0 0 0 -17.41496966934983 3.2104458736430388 0 3.2104458736430388 95.040055118804048 0 0 0 0 4.4648579734571285 -63.924412151623983 0 -63.924412151623983 -20.943698282142577 0 0 0 0 -2.8913577239644681 -17.512599085845338 0 -17.512599085845338 -11.395767132783874 0 0 0 0 1.9953282311921612 -62.023696567332081 0 -62.023696567332081 -13.306251411762787 0 0 0 0 -14.029740010799742 -1.7608359193836804 0 -1.7608359193836804 111.1386510307857 0 0 0 0 1.8472253937225167 -13.995976102901636 0 -13.995976102901636 11.375255547571129 0 0 0 0 -5.6608366886048316 -16.004246838099789 0 -16.004246838099789 19.737226912169717 0 0 0 0 -9.3135623622620187 -13.932114971757983 0 -13.932114971757983 29.81448628626822 0 0 0 0 -8.1004748499735513 -2.1942721276676806 0 -2.1942721276676806 43.874304245120129 0 0 0 0 -8.5589947560627024 -9.5824506959179416 0 -9.5824506959179416 99.039866534498287 0 0 0 0 -2.5732624816286025 0.0078162779521449011 0 0.0078162779521449011 22.313272647159636 0 0 0 0 -1.5453233399593955 -0.015452924562850967 0 -0.015452924562850967 29.271445161226438 0 0 0 0 -2.5769583544229135 -0.59711840744421352 0 -0.59711840744421352 31.621213663878734 0 0 0 0 -8.4859609032591834 -9.6758137218421325 0 -9.6758137218421325 33.943167354198522 0 0 0 0 -3.6774983898445845 -3.3500358646085715 0 -3.3500358646085715 18.655362858968935 0 0 0 0 -0.64757244797533531 -12.888833956953022 0 -12.888833956953022 90.843571689387318 0 0 0 0 -15.73378013975389 4.9280014070682228 0 4.9280014070682228 89.842515620577615 0 0 0 0 -3.1431154316590022 -4.3021404540945696 0 -4.3021404540945696 4.1956774708051512 0 0 0 0 2.5664193983739096 12.41546235664282 0 12.41546235664282 47.3264853094297 0 0 0 0 -3.3894168014065826 -11.287314670538763 0 -11.287314670538763 75.02991342250607 0 0 0 0 -2.6342089006652714 10.434676735661924 0 10.434676735661924 83.395489898248343 0 0 0 0 -4.75582175755242 -1.1191899396029044 0 -1.1191899396029044 15.908847028504269 0 0 0 0 -4.517765205437172 -2.497469827911118 0 -2.497469827911118 27.983981284778565 0 0 0 0 -4.9362449863670008 -1.949222171871952 0 -1.949222171871952 27.26663191751868 0 0 0 0 -4.0807521978863006 3.3032335219747324 0 3.3032335219747324 28.059959318052904 0 0 0 0 -5.5746070314381404 -14.277873509518272 0 -14.277873509518272 9.3658551965481962 0 0 0 0 9.2203913423470567 -10.505682987262844 0 -10.505682987262844 80.883345755340997 0 0 0 0 0.2163397669578444 4.0315961630221864 0 4.0315961630221864 66.31906923702627 0 0 0 0 4.1114608247098658 4.8690954984776909 0 4.8690954984776909 35.061055948324793 0 0 0 0 -0.27318176503067804 0.59566378166567802 0 0.59566378166567802 7.6112703797402901 0 0 0 0 -7.3484020512005372 12.940080404710898 0 12.940080404710898 72.147926243163965 0 0 0 0 -7.1353716961639293 1.5951618640465313 0 1.5951618640465313 49.184761800352135 0 0 0 0 8.28697539987661 10.01473304668616 0 10.01473304668616 53.142854302146588 0 0 0 0 -6.8055761738455658 -1.98243621068832 0 -1.98243621068832 119.29108440628625 0 0 0 0 -6.3516041126545133 11.264503950500512 0 11.264503950500512 97.710625670544687 0 0 0 0 1.8913154328859827 1.4048572246328206 0 1.4048572246328206 11.245461671808485 0 0 0 0 -2.5296828783014007 6.1665205390563642 0 6.1665205390563642 89.655965214886237 0 0 0 0 -2.6656312614892688 -16.003483655981569 0 -16.003483655981569 5.7544390310909606 0 0 0 0 -2.5674492533462399 11.263566117238952 0 11.263566117238952 101.57356078886369 0 0 0 0 5.722286759927556 4.8538501834264025 0 4.8538501834264025 80.681984740673215 0 0 0 0 -0.8720341239601197 -3.3398120760251402 0 -3.3398120760251402 1.1539933761928154 0 0 0 0 1.2381923875864231 0.16571570952510228 0 0.16571570952510228 94.039219445076014 0 0 0 0 1.9549633319402346 6.4906698853410489 0 6.4906698853410489 31.352927141953842 0 0 0 0 3.1306492056510251 11.895221942235366 0 11.895221942235366 50.860265597199032 0 0 0 0 -3.4383211185049731 -2.1600958621929749 0 -2.1600958621929749 28.620930237368157 0 0 0 0 -2.0284275156633154 -2.2081927718914187 0 -2.2081927718914187 5.765815260559279 0 0 0 0 -1.5760136529127671 -3.8544495061436521 0 -3.8544495061436521 11.775494455659739 0 0 0 0 1.203417376188554 6.3414836339579779 0 6.3414836339579779 41.613719571229012 0 0 0 0 0.27675372092653561 6.8401950389088597 0 6.8401950389088597 32.337272200064035 0 0 0 0 -0.69389136884364522 4.7714068239266112 0 4.7714068239266112 24.233424111485562 0 0 0 0 -16.113618059827786 2.4285112100624247 0 2.4285112100624247 41.330210181331495 0 0 0 0 2.5743251314670488 -1.0911387069936609 0 -1.0911387069936609 38.744374902918935 0 0 0 0 -2.2347010100214728 5.2454175512476127 0 5.2454175512476127 31.501075289679164 0 0 0 0 -4.2383814525503567 6.6113889370535617 0 6.6113889370535617 49.45391040139657 0 0 0 0 4.3743221622039528 0.21633476606075419 0 0.21633476606075419 38.535198041339754 0 0 0 0 -3.5758659574657692 -0.769632075786987 0 -0.769632075786987 6.5669736574224942 0 0 0 0 3.2255767921478764 6.1940624134040263 0 6.1940624134040263 33.623862078704406 0 0 0 0 1.160873341417755 -2.0207636836130405 0 -2.0207636836130405 28.03447677045915 0 0 0 0 4.3660518221136044 1.5467731980388635 0 1.5467731980388635 30.612151915760478 0 0 0 0 -4.8007560649416519 -4.9011939674091991 0 -4.9011939674091991 31.698121558169078 0 0 0 0 0.10409273290497367 -9.3249280540985637 0 -9.3249280540985637 20.767134703077318 0 0 0 0 9.9256161385346786 -6.229469534184318 0 -6.229469534184318 21.516568051534705 0 0 0 0 -2.7388196263614191 -1.8207997156641795 0 -1.8207997156641795 33.627623350581416 0 0 0 0 -0.029025730148759976 -5.4697370344983938 0 -5.4697370344983938 15.363310138025554 0 0 0 0 0.13622448328305836 -5.4209864786807884 0 -5.4209864786807884 14.089279178238939 0 0 0 0 -1.2419284747697468 -2.3978362679901579 0 -2.3978362679901579 10.91589208173491 0 0 0 0 7.4229709326727971 2.0521771049825475 0 2.0521771049825475 24.089979252963531 0 0 0 0 -16.88741761062829 -5.1780695407651365 0 -5.1780695407651365 126.97517087633605 0 0 0 0 1.7138509808876261 -5.7822153145679351 0 -5.7822153145679351 -1.0681114068898694 0 0 0 0 -0.18657635308265608 -1.4549138747292645 0 -1.4549138747292645 0.79763961770953529 0 0 0 0 -1.5458526132028965 -5.4973626020509982 0 -5.4973626020509982 11.903874017370981 0 0 0 0 0.48829358630246134 1.0168819539539982 0 1.0168819539539982 10.475386404723395 0 0 0 0 -5.4130621085907933 -34.601459627388977 0 -34.601459627388977 117.93941114669724 0 0 0 0 -3.0657198019157015 -2.4985347095458508 0 -2.4985347095458508 2.8761352467833063 0 0 0 0 59.394098704204225 -88.679371847669245 0 -88.679371847669245 -8.0120218314623344 0 0 0 0 -8.4089315876653927 -11.002131733883289 0 -11.002131733883289 23.303041522434796 0 0 0 0 -3.0560873643460802 -12.330593464135916 0 -12.330593464135916 16.041385953756816 0 0 0 0 -7.6498919591624581 -8.5900840935845579 0 -8.5900840935845579 38.53629730946389 0 0 0 0 7.4277909621768003 -8.6447923681134853 0 -8.6447923681134853 67.412389316086774 0 0 0 0 18.561798363352864 -1.0956602615478914 0 -1.0956602615478914 15.001864598765678 0 0 0 0 -1.7405659690028745 -6.0689254101035885 0 -6.0689254101035885 6.2362767034683912 0 0 0 0 13.710760025304808 3.8437984540942125 0 3.8437984540942125 11.070072930669994 0 0 0 0 2.5984296506621831 -43.622650612436701 0 -43.622650612436701 -8.1992708082034369 0 0 0 0 -0.15620836900370705 -1.3520799915495445 0 -1.3520799915495445 33.359142029439681 0 0 0 0 -1.4645004050773789 -6.4345540072337144 0 -6.4345540072337144 11.294651375371302 0 0 0 0 -7.4437280425157724 -4.9432714625727385 0 -4.9432714625727385 46.468712761357892 0 0 0 0 -7.4014326193757825 6.183520341237454 0 6.183520341237454 35.777819533162983 0 0 0 0 -0.9316888702832502 2.6126131929313061 0 2.6126131929313061 32.852626486791735 0 0 0 0 0.3429970499885826 3.8850287122231748 0 3.8850287122231748 29.262729586058413 0 0 0 0 -6.1903990129328541 -1.2339593143929903 0 -1.2339593143929903 22.975484336918356 0 0 0 0 -8.7261014281671123 -3.0236916445101087 0 -3.0236916445101087 50.292629786083126 0 0 0 0 -1.5033958606534996 0.32975008658202398 0 0.32975008658202398 34.161395831911989 0 0 0 0 2.6152423819007709 2.43173157194542 0 2.43173157194542 31.042980106751202 0 0 0 0 8.0656371615705211 -2.4819515179187874 0 -2.4819515179187874 33.359205410098866 0 0 0 0 0.23202826805390941 -1.5033625032938289 0 -1.5033625032938289 50.733538064610912 0 0 0 0 9.8819045592263137 -9.6316314013965894 0 -9.6316314013965894 41.23986132000573 0 0 0 0 -0.94502590365203076 1.1102679902496533 0 1.1102679902496533 9.6712013769784164 0 0 0 0 0.30261973404594755 -11.014756188378669 0 -11.014756188378669 29.827735472514178 0 0 0 0 1.9364587911959461 -16.396831780744833 0 -16.396831780744833 43.52954067272367 0 0 0 0 -12.715024970625564 2.5725425159762381 0 2.5725425159762381 37.874626893608365 0 0 0 0 -8.8843815542240918 -6.4568324445863254 0 -6.4568324445863254 56.751849949534517 0 0 0 0 -6.3815466367141198 -4.614874132006662 0 -4.614874132006662 45.346982313407352 0 0 0 0 0.83397538332792465 -4.6757378406473435 0 -4.6757378406473435 73.254223791271215 0 0 0 0 -2.5561644795034226 -16.173276135115884 0 -16.173276135115884 69.03828407873516 0 0 0 0 13.876765537765095 -22.052233490074286 0 -22.052233490074286 53.304250986198895 0 0 0 0 7.6420340490985836 -12.573657234985149 0 -12.573657234985149 41.455546211480396 0 0 0 0 22.134516528711174 -10.847411431677756 0 -10.847411431677756 41.01138350203837 0 0 0 0 7.21278499440632 7.3187567404675065 0 7.3187567404675065 26.596965530960006 0 0 0 0 -2.7409906452184689 1.1120749696992789 0 1.1120749696992789 14.378713830944193 0 0 0 0 -1.7081345460020794 -3.0213142308098355 0 -3.0213142308098355 3.3988400115443369 0 0 0 0 15.350541931989937 28.105083531983837 0 28.105083531983837 49.353439518774394 0 0 0 0 -4.3132523018030042 7.7382277523865923 0 7.7382277523865923 26.597758975825855 0 0 0 0 -8.5908138257454993 15.429453624790767 0 15.429453624790767 41.599490996915847 0 0 0 0 -14.884060061871423 5.0369938529911451 0 5.0369938529911451 50.831060725351563 0 0 0 0 -1.8955556812203165 -0.44226152605727975 0 -0.44226152605727975 25.598490133724397 0 0 0 0 -15.814274363303412 19.482755170203745 0 19.482755170203745 28.459657526109368 0 0 0 0 -13.416079007520239 1.437503715584171 0 1.437503715584171 34.517774200357962 0 0 0 0 -8.2832573468440387 15.896370361355366 0 15.896370361355366 22.315146125300089 0 0 0 0 -0.39192723554796238 -7.2284012379212186 0 -7.2284012379212186 14.817949924633211 0 0 0 0 1.7278086401140058 -5.4150586066298274 0 -5.4150586066298274 43.80100862258405 0 0 0 0 -1.4156829714770538 -1.670828668953618 0 -1.670828668953618 28.49675559415482 0 0 0 0 -2.4990810940194024 -2.1693802285808488 0 -2.1693802285808488 30.557064385458943 0 0 0 0 2.151032974260545 -4.8551002121130296 0 -4.8551002121130296 -2.7800204141603899 0 0 0 0 -10.025174525527177 19.84310713695595 0 19.84310713695595 106.99881608632859 0 0 0 0 -4.3507360367975707 -15.190846621233504 0 -15.190846621233504 56.070181891801013 0 0 0 0 -2.0360552619020185 -3.2735142026664334 0 -3.2735142026664334 9.0640852454443319 0 0 0 0 -2.696548870317903 -3.7342802184463402 0 -3.7342802184463402 24.512899588443076 0 0 0 0 -0.41485298600036913 9.0104087024956243 0 9.0104087024956243 56.033582321608122 0 0 0 0 -1.5630987389686766 -5.8480642013764452 0 -5.8480642013764452 9.7393846468198149 0 0 0 0 -1.9552574833469407 -6.5882514012337197 0 -6.5882514012337197 -0.44708663789788261 0 0 0 0 0.32512904349791982 0.41298282968080002 0 0.41298282968080002 3.183427375723042 0 0 0 0 -0.83860466024718272 -4.6959647700498781 0 -4.6959647700498781 18.064445909757978 0 0 0 0 -0.027454427675847534 -5.625649715105757 0 -5.625649715105757 11.525820258122508 0 0 0 0 17.984983259838387 15.446843196220811 0 15.446843196220811 32.360867182273068 0 0 0 0 -0.13805021075589213 -4.4659676382323088 0 -4.4659676382323088 5.8985196165195362 0 0 0 0 -5.5112128134203431 7.0520864606078248 0 7.0520864606078248 30.75628319986572 0 0 0 0 -7.4942433408808711 8.0087046565822675 0 8.0087046565822675 33.097912528392044 0 0 0 0 -7.9850151872537936 0.74686511297477409 0 0.74686511297477409 33.22321692232299 0 0 0 0 -31.314201951094674 11.469596806186019 0 11.469596806186019 57.066133191678091 0 0 0 0 -15.257044477391673 -3.1309467090250109 0 -3.1309467090250109 57.313708559755469 0 0 0 0 -1.0219767499986023 0.37348080564476049 0 0.37348080564476049 9.3638374960879247 0 0 0 0 -15.864838767519814 4.0674462556053186 0 4.0674462556053186 47.559433868009364 0 0 0 0 -17.315936585002873 18.340997049155703 0 18.340997049155703 33.244474454026204 0 0 0 0 -39.043020267505199 -45.150485368765658 0 -45.150485368765658 170.97431860197685 0 0 0 0 78.221292384842258 81.312859158759238 0 81.312859158759238 74.235235328727867 0 0 0 0 0.071996392860379024 -0.87131649395364796 0 -0.87131649395364796 1.912453653359421 0 0 0 0 0.37038996407363811 -23.562150941317668 0 -23.562150941317668 29.319114636920858 0 0 0 0 78.798815875265518 -97.708272881660378 0 -97.708272881660378 96.120712384712533 0 0 0 0 -31.141437884731204 -12.587973649388005 0 -12.587973649388005 67.012666500982959 0 0 0 0 -24.589053298868521 -26.519291671211249 0 -26.519291671211249 95.182100674439425 0 0 0 0 -6.9391643772271685 -19.142424037244112 0 -19.142424037244112 33.022874493633125 0 0 0 0 -62.14519831541179 4.16775101586245 0 4.16775101586245 89.884029792126967 0 0 0 0 10.867928688728867 -16.309502488540602 0 -16.309502488540602 30.090838619142254 0 0 0 0 15.184590944331562 1.7205737154581584 0 1.7205737154581584 -37.643686250201426 0 0 0 0 173.02950135197614 49.40960897685909 0 49.40960897685909 -19.512968409777386 0 0 0 0 -182.98724502844982 -12.323484758933773 0 -12.323484758933773 263.70805311547156 0 0 0 0 -1.0473739953735361 2.6625383267529301 0 2.6625383267529301 47.34407948689875 0 0 0 0 -14.176506609410435 -77.640835510989746 0 -77.640835510989746 85.001973906473722 0 0 0 0 -0.23248271513194876 -2.9377120042378522 0 -2.9377120042378522 4.7767909658043664 0 0 0 0 149.93104602120994 -50.618123299181434 0 -50.618123299181434 -19.113145168215851 0 0 0 0 -1.2239778697514438 89.055280891232542 0 89.055280891232542 88.532869545918402 0 0 0 0 -4.738868406091024 -10.38376762768894 0 -10.38376762768894 100.72512636161991 0 0 0 0 -19.835612076462844 44.033842293167254 0 44.033842293167254 20.347126467604539 0 0 0 0 0.0060057068272932656 -8.0541663477670227 0 -8.0541663477670227 62.047397360875038 0 0 0 0 -19.98550616168265 32.369282381943776 0 32.369282381943776 30.141144077075637 0 0 0 0 -35.845486937791513 12.107177002122626 0 12.107177002122626 68.63163396040909 0 0 0 0 -17.278106427889409 -34.372000849642063 0 -34.372000849642063 22.024052078195382 0 0 0 0 -0.034420731125907808 0.29911361724830954 0 0.29911361724830954 4.216666250533109 0 0 0 0 53.345220069640746 3.4695725025376305 0 3.4695725025376305 33.323345149110537 0 0 0 0 -4.1315307074744325 31.803678539246903 0 31.803678539246903 21.332236056841793 0 0 0 0 -0.91344463285519106 0.093333003177434648 0 0.093333003177434648 9.3567220775407094 0 0 0 0 -4.6363571536580821 12.478885414217075 0 12.478885414217075 -7.9515959257114446 0 0 0 0 -67.551812546892165 38.288352895571734 0 38.288352895571734 58.271997919189744 0 0 0 0 -0.28304225038096598 -4.3472246571822808 0 -4.3472246571822808 41.591091035306647 0 0 0 0 -46.191108694344393 -52.990843355022662 0 -52.990843355022662 30.30359701627458 0 0 0 0 11.306370905523096 9.5323829117114656 0 9.5323829117114656 53.716662818900659 0 0 0 0 2.4063851704696466 -5.4238874926652674 0 -5.4238874926652674 20.165040969274912 0 0 0 0 24.791697688436095 -27.614160084954619 0 -27.614160084954619 13.400604299022234 0 0 0 0 1.9422406264894785 -5.9149964429159922 0 -5.9149964429159922 17.268625807559715 0 0 0 0 0.88362649972643226 -0.96498797003869186 0 -0.96498797003869186 22.326621688785963 0 0 0 0 1.2093746198861481 -0.75790335642523132 0 -0.75790335642523132 22.369132185340277 0 0 0 0 -0.22366139190639189 -1.7550603429625085 0 -1.7550603429625085 13.972865510121352 0 0 0 0 -1.0015986705004707 -1.4690873045765329 0 -1.4690873045765329 16.958376632414002 0 0 0 0 -4.3608614382972464 1.9444903569683447 0 1.9444903569683447 25.002415938768536 0 0 0 0 -0.65686189827556185 -1.9033223331206113 0 -1.9033223331206113 13.769729166981165 0 0 0 0 -5.6039164705940934 -6.4523355344826996 0 -6.4523355344826996 30.21518132876372 0 0 0 0 -3.5077477946308306 -0.88623813484446146 0 -0.88623813484446146 27.800544295838336 0 0 0 0 -1.5188821382153606 -7.9330718953278847 0 -7.9330718953278847 22.405038077442441 0 0 0 0 -0.13412528873861795 -3.155785463725806 0 -3.155785463725806 15.705429065419594 0 0 0 0 0.77472843771675348 -5.9170114777711547 0 -5.9170114777711547 10.37060606711762 0 0 0 0 -0.13440939058220991 -12.565487524043419 0 -12.565487524043419 14.08472438879835 0 0 0 0 0.02308474078590933 -15.092890369385714 0 -15.092890369385714 21.319987921699067 0 0 0 0 -0.35601078422001248 -0.32346152313550647 0 -0.32346152313550647 3.5268676764792986 0 0 0 0 9.0388720816020509 -13.22802533194772 0 -13.22802533194772 2.9414871447661426 0 0 0 0 -13.27373086730703 -20.225077693074127 0 -20.225077693074127 47.679233159913565 0 0 0 0 -8.0833993712081451 10.937164977818611 0 10.937164977818611 70.202106129712774 0 0 0 0 0.0064229459139925598 -4.8320916712254984 0 -4.8320916712254984 0.24034084285813151 0 0 0 0 0.094138086920362768 -0.020666935818780985 0 -0.020666935818780985 0.10259619444134671 0 0 0 0 -1.3879446768984613 -3.840338246212923 0 -3.840338246212923 6.8033436289115343 0 0 0 0 -3.1915808118343243 -5.4141917991582886 0 -5.4141917991582886 4.889447576875682 0 0 0 0 -0.83416966295226835 -4.8755414724582806 0 -4.8755414724582806 3.5672591897455277 0 0 0 0 0.10037459937015247 -0.31458258862230082 0 -0.31458258862230082 2.582196572817864 0 0 0 0 -3.4429015532434164 -4.5005769578419859 0 -4.5005769578419859 33.414419537541107 0 0 0 0 4.0490876919605654 -2.5770113323596888 0 -2.5770113323596888 27.784414968802594 0 0 0 0 0.12272434017728528 -7.1763281800886034 0 -7.1763281800886034 30.052895362809068 0 0 0 0 -0.75934007056955011 -3.9649739498345298 0 -3.9649739498345298 28.80612198014569 0 0 0 0 -0.23306723856899225 -7.6437194679601816 0 -7.6437194679601816 17.786917758458003 0 0 0 0 -2.5177654599351342 -5.8816721927578328 0 -5.8816721927578328 23.4629426360043 0 0 0 0 0.75511508283768558 -6.9654088141099351 0 -6.9654088141099351 6.74015418032198 0 0 0 0 -0.92410001735947844 -4.3774127147553372 0 -4.3774127147553372 20.058090136793908 0 0 0 0 -0.52911081791878878 -4.1208741442609664 0 -4.1208741442609664 17.337874836331764 0 0 0 0 -1.6858747826240972 -9.0712140314135468 0 -9.0712140314135468 21.459783840655291 0 0 0 0 -4.5374495301145998 -11.72668591101683 0 -11.72668591101683 26.187866523890989 0 0 0 0 -2.2396941993837638 -8.1035685403353312 0 -8.1035685403353312 18.576851071195676 0 0 0 0 21.307060951145019 -32.77490171280806 0 -32.77490171280806 13.581471237455844 0 0 0 0 -0.32094202550939566 -5.9795271829100827 0 -5.9795271829100827 2.6305809944606722 0 0 0 0 -11.821747749770649 -9.1006504424422019 0 -9.1006504424422019 17.951842524285894 0 0 0 0 13.888925837826541 -29.23583201225847 0 -29.23583201225847 26.83747987994866 0 0 0 0 -16.870410967786995 -23.041820070124231 0 -23.041820070124231 36.925945600611158 0 0 0 0 0.55669801488878035 -1.3802256586439188 0 -1.3802256586439188 1.3464238807942479 0 0 0 0 9.0265324018747322 -12.415250741978525 0 -12.415250741978525 8.0197916033939691 0 0 0 0 8.4713882024105231 -13.281560797127895 0 -13.281560797127895 10.564715050539235 0 0 0 0 13.403364203975968 -18.555624447122682 0 -18.555624447122682 5.5462141271709697 0 0 0 0 59.237639359535223 -26.43948178919527 0 -26.43948178919527 -0.9442627594617079 0 0 0 0 0.028430974783567008 0.11565796279581253 0 0.11565796279581253 0.44475557176946268 0 0 0 0 12.642200955915889 -33.573921912990045 0 -33.573921912990045 18.320060595593532 0 0 0 0 23.740178688886289 -22.088146035050158 0 -22.088146035050158 -19.689019236160675 0 0 0 0 9.6111563000533806 -42.553948481130647 0 -42.553948481130647 6.6702333255962003 0 0 0 0 -16.624591522787711 -13.797434929474548 0 -13.797434929474548 14.718699432862195 0 0 0 0 0.94638364367613215 -3.2724144171275356 0 -3.2724144171275356 -15.786699371848613 0 0 0 0 54.853882567848956 -8.2524459616324748 0 -8.2524459616324748 -34.261561410938157 0 0 0 0 -22.043365960434244 10.523463656347303 0 10.523463656347303 -9.8086187370645348 0 0 0 0 4.2087269653379185 0.12628069013044296 0 0.12628069013044296 -6.8318139258047381 0 0 0 0 20.828827837414678 46.42208237581508 0 46.42208237581508 -68.070934736839263 0 0 0 0 -0.43488658649923151 -3.5673042616288768 0 -3.5673042616288768 -12.004369075327475 0 0 0 0 80.571864470502391 -52.500978892534476 0 -52.500978892534476 -19.166511065704981 0 0 0 0 65.968881943526412 -37.560961166411289 0 -37.560961166411289 -28.526194205951469 0 0 0 0 3.6976192190451274 3.8488406625211553 0 3.8488406625211553 0.90061460883015343 0 0 0 0 41.100864423907979 29.317069999873638 0 29.317069999873638 -61.901419162564707 0 0 0 0 2.227783671996697 33.250896502519026 0 33.250896502519026 8.0379850744939176 0 0 0 0 0.33103703365209824 -16.567595020285808 0 -16.567595020285808 44.366231613777927 0 0 0 0 34.99317104091503 -23.926249135132821 0 -23.926249135132821 -0.42809121850586962 0 0 0 0 -1.5364882667290072 -7.9415315450241906 0 -7.9415315450241906 12.59894695341427 0 0 0 0 1.2756626191800713 1.7861121763417032 0 1.7861121763417032 11.282263932218484 0 0 0 0 -0.010572168308516421 -5.0771707567068161 0 -5.0771707567068161 17.389446897534071 0 0 0 0 0.22128430439675917 -2.6506237628709641 0 -2.6506237628709641 2.2307951582915848 0 0 0 0 -4.8545594124951341 8.6396423960150059 0 8.6396423960150059 22.687676411791472 0 0 0 0 -146.23347353361896 300.34147585482788 0 300.34147585482788 504.65798843623725 0 0 0 0 -67.291739621379747 -151.13658067277356 0 -151.13658067277356 139.17547203045615 0 0 0 0 4.7026326908961735 -11.566951198658536 0 -11.566951198658536 21.11684682291915 0 0 0 0 -658.61582976775935 -194.52660743708748 0 -194.52660743708748 279.04995999183029 0 0 0 0 -870.79247510851383 -549.02104823546938 0 -549.02104823546938 501.96423600978551 0 0 0 0 760.50708280020262 -259.85277378567207 0 -259.85277378567207 127.59053869530635 0 0 0 0 639.62225089032472 -128.74975746347309 0 -128.74975746347309 45.320273684950962 0 0 0 0 524.56876298281531 -310.85285370029897 0 -310.85285370029897 284.70894493838023 0 0 0 0 672.67333564742421 -9.4490136502954556 0 -9.4490136502954556 -541.38862177434748 0 0 0 0 3.8753292220109259 -6.301821276030644 0 -6.301821276030644 9.5418562028594422 0 0 0 0 679.04918943762823 -825.37969371442887 0 -825.37969371442887 -19.767816783353737 0 0 0 0 -322.64199635547902 245.58660918152054 0 245.58660918152054 1469.1888248093674 0 0 0 0 479.48262297745623 -776.84577065770782 0 -776.84577065770782 1318.4853503878967 0 0 0 0 447.81981890579664 -475.44712984655098 0 -475.44712984655098 374.432026977649 0 0 0 0 689.5048081677669 -5.7165977987133374 0 -5.7165977987133374 1148.0279796703162 0 0 0 0 240.42948735189566 -33.365351464119158 0 -33.365351464119158 1483.039616154495 0 0 0 0 781.88667074875775 -231.77140254895221 0 -231.77140254895221 1031.8232257514883 0 0 0 0 -116.27262849712679 -491.85994097992534 0 -491.85994097992534 1528.4976806285486 0 0 0 0 -178.74570237979424 -102.01662911279891 0 -102.01662911279891 1096.5736973616849 0 0 0 0 -159.67494745180375 -289.1995869888533 0 -289.1995869888533 1086.8041619293581 0 0 0 0 -159.69581394130546 -214.44908563929857 0 -214.44908563929857 1003.2070828298165 0 0 0 0 56.182742330171095 -199.73612881966983 0 -199.73612881966983 854.6303485937342 0 0 0 0 -44.395700198710983 -264.84786176406305 0 -264.84786176406305 841.33115713091956 0 0 0 0 175.00030553901343 -344.21519507298763 0 -344.21519507298763 739.11243982598899 0 0 0 0 0.21567985265573952 -349.5154183754421 0 -349.5154183754421 906.63049775142281 0 0 0 0 286.70848211998782 -176.74484736947852 0 -176.74484736947852 543.32918797393359 0 0 0 0 67.211511950088152 -182.61923067961084 0 -182.61923067961084 596.870211519039 0 0 0 0 -124.11832058102345 -12.398077085240629 0 -12.398077085240629 663.07948530028807 0 0 0 0 420.27816133670603 -278.12299420669297 0 -278.12299420669297 393.42925561819402 0 0 0 0 367.60850114179539 -478.78599312537881 0 -478.78599312537881 634.77295427076024 0 0 0 0 177.13259767291129 -344.39255120659072 0 -344.39255120659072 674.37375087232067 0 0 0 0 289.25576738371274 -218.60831316725307 0 -218.60831316725307 351.21997064514107 0 0 0 0 281.22455357040963 -353.29387604771091 0 -353.29387604771091 559.1373576150072 0 0 0 0 275.44337498582718 -295.36272785849906 0 -295.36272785849906 426.2001610986008 0 0 0 0 246.33151395456116 -190.33206804781912 0 -190.33206804781912 252.01714162445933 0 0 0 0 277.19960375564369 -350.4631075206853 0 -350.4631075206853 322.08946665335316 0 0 0 0 150.2004024081707 -191.02869445415854 0 -191.02869445415854 405.2604478717069 0 0 0 0 -2.0559542225710175 -183.51742139413 0 -183.51742139413 185.44501864136691 0 0 0 0 -14.63500957621909 -31.267013352700815 0 -31.267013352700815 -117.9902764059334 0 0 0 0 72.573092656787821 -295.92606317412492 0 -295.92606317412492 206.09030446788529 0 0 0 0 85.76986720034256 -149.86459341697446 0 -149.86459341697446 87.453009476579609 0 0 0 0 302.87384311564529 -198.96179870517153 0 -198.96179870517153 53.729796731811803 0 0 0 0 311.85974780568858 -136.19839699397107 0 -136.19839699397107 272.72122905358265 0 0 0 0 427.43145344595359 -136.68024907848303 0 -136.68024907848303 227.97237756702452 0 0 0 0 349.44923242608274 -235.88217414711471 0 -235.88217414711471 165.832125247769 0 0 0 0 354.10440707367775 -183.47843123784207 0 -183.47843123784207 352.69761478045621 0 0 0 0 461.35917383294509 -64.614928181295909 0 -64.614928181295909 236.03617233667501 0 0 0 0 348.88150021243473 -53.374602074439281 0 -53.374602074439281 546.46342969389843 0 0 0 0 393.88970084372761 152.92030232913152 0 152.92030232913152 759.26022286305306 0 0 0 0 389.0519054638541 -35.117594705114954 0 -35.117594705114954 613.35540868504177 0 0 0 0 398.3138974011199 114.41952705300355 0 114.41952705300355 464.93910143158064 0 0 0 0 393.31474406349321 -74.880617306120797 0 -74.880617306120797 24.864333800091117 0 0 0 0 294.85694500916361 589.65916608398948 0 589.65916608398948 1297.3835538116564 0 0 0 0 672.37550475489843 431.2445523471979 0 431.2445523471979 38.093557394851814 0 0 0 0 -116.83409854117053 127.03944564065023 0 127.03944564065023 -64.074218056979589 0 0 0 0 -134.13190109662901 -10.08723337720221 0 -10.08723337720221 315.96451132671064 0 0 0 0 -53.465992649011469 105.7028871753356 0 105.7028871753356 464.52721727315475 0 0 0 0 152.1671946439219 -55.761241387379414 0 -55.761241387379414 588.70527785606555 0 0 0 0 362.92915236962472 -48.381004553071762 0 -48.381004553071762 412.39044469237433 0 0 0 0 153.03987107112152 -57.965745544187484 0 -57.965745544187484 443.21750924599655 0 0 0 0 195.60717751433913 -96.61584190211488 0 -96.61584190211488 701.83411848237847 0 0 0 0 193.60398233223168 -135.42174811934638 0 -135.42174811934638 169.75062248243921 0 0 0 0 143.9010630274588 -372.96195341204202 0 -372.96195341204202 472.63661034250163 0 0 0 0 57.579194741509752 -441.31936774785601 0 -441.31936774785601 418.81769800346046 0 0 0 0 323.09973714174157 -188.98212092507129 0 -188.98212092507129 613.09804394203002 0 0 0 0 64.691730536021851 -301.50130627686923 0 -301.50130627686923 868.63524806241003 0 0 0 0 15.075526789635525 24.154637109682735 0 24.154637109682735 18.589536908150599 0 0 0 0 297.96411013896159 1292.4776201173991 0 1292.4776201173991 -1773.7132850588205 0 0 0 0 -90.851291565404608 1487.8590820163063 0 1487.8590820163063 -780.00982758914324 0 0 0 0 43.756658776990662 489.68588450377138 0 489.68588450377138 -1157.4096556769091 0 0 0 0 -66.60009391395397 -613.47524067700033 0 -613.47524067700033 888.23311377932259 0 0 0 0 -523.33805070509698 7.6213441398540454 0 7.6213441398540454 -1136.7948832169041 0 0 0 0 -182.00730328700047 -825.34339179042036 0 -825.34339179042036 508.62972788163825 0 0 0 0 126.76263232589986 -422.51043862757388 0 -422.51043862757388 404.31312053920919 0 0 0 0 -27.53332393387609 1338.0456976148298 0 1338.0456976148298 -1299.0477541607006 0 0 0 0 -710.27813228440027 -309.77030469895089 0 -309.77030469895089 445.94368000146642 0 0 0 0 8.7977357409596948 15.515127134597105 0 15.515127134597105 20.336555989905762 0 0 0 0 105.88483387512497 -269.38678868223269 0 -269.38678868223269 1713.4495846442969 0 0 0 0 372.41003975986314 -345.08148499480103 0 -345.08148499480103 944.94510596563032 0 0 0 0 -171.18432035632031 1042.4294109092025 0 1042.4294109092025 -1840.7884112977481 0 0 0 0 7.6306858586667552 8.5082989098519946 0 8.5082989098519946 5.5632570543551481 0 0 0 0 -940.30408858952933 93.966772054348894 0 93.966772054348894 -832.66114721674239 0 0 0 0 483.31075469870757 348.14167538334732 0 348.14167538334732 -792.71486412689592 0 0 0 0 3.5148101654466881 4.3281920192751109 0 4.3281920192751109 5.4681405745147984 0 0 0 0 310.93575822108141 -237.31878074598171 0 -237.31878074598171 338.6328442722006 0 0 0 0 -45.259119363360696 -243.74254838713023 0 -243.74254838713023 470.44291736702235 0 0 0 0 95.856334801068442 350.01756406347886 0 350.01756406347886 227.19771019384825 0 0 0 0 -212.35644531340972 -146.67792835742421 0 -146.67792835742421 562.40346807269088 0 0 0 0 133.64099737233937 164.30563418551901 0 164.30563418551901 1106.5756302648806 0 0 0 0 328.8269665379388 -471.15614964613178 0 -471.15614964613178 1108.6736145948671 0 0 0 0 272.79813322149312 192.47912667257697 0 192.47912667257697 1009.7372208465313 0 0 0 0 833.41180518872352 -351.12022219868231 0 -351.12022219868231 1338.2460235932558 0 0 0 0 28.854175183685641 293.70649705426149 0 293.70649705426149 1509.5236446458184 0 0 0 0 86.5820097707728 688.68309575446528 0 688.68309575446528 569.1076928719267 0 0 0 0 15.694543993486377 625.80977811089451 0 625.80977811089451 530.40271276833664 0 0 0 0 -229.49994671886361 121.39059426368294 0 121.39059426368294 208.99348988708516 0 0 0 0 -452.80136945331833 312.95566051023707 0 312.95566051023707 -13.837237228937738 0 0 0 0 -698.15611952692961 344.21497369320059 0 344.21497369320059 849.69499460841689 0 0 0 0 -826.61967552584611 689.30199385064725 0 689.30199385064725 124.61328680799488 0 0 0 0 -87.438096945074903 924.25188740642261 0 924.25188740642261 232.05310883057973 0 0 0 0 -443.3166161198028 773.24752484653436 0 773.24752484653436 815.47647999971377 0 0 0 0 1053.6778755763698 -290.04656436107325 0 -290.04656436107325 687.24078842416247 0 0 0 0 -11.19979786898466 599.33247215063784 0 599.33247215063784 1165.2262978276231 0 0 0 0 -289.17800633921388 -855.69384922048243 0 -855.69384922048243 901.11254531099257 0 0 0 0 -219.76505984476398 792.69489988019632 0 792.69489988019632 810.63022124752024 0 0 0 0 -407.30065454079431 -357.93828614764061 0 -357.93828614764061 1668.4028133190041 0 0 0 0 -0.5702846097172346 -1.1983722545104269 0 -1.1983722545104269 15.095771488210829 0 0 0 0 -457.0211124437119 -137.8629466082084 0 -137.8629466082084 628.06147693135063 0 0 0 0 -353.533929024386 -200.59355585451067 0 -200.59355585451067 640.88550507541368 0 0 0 0 -317.76559015590919 232.7363558540751 0 232.7363558540751 333.6285926096607 0 0 0 0 -163.7431634807599 -20.141045412385211 0 -20.141045412385211 293.69482719133157 0 0 0 0 -259.89748201805742 101.86491139982718 0 101.86491139982718 112.89534801004265 0 0 0 0 -211.65072783012602 200.674444019666 0 200.674444019666 -3.2912157186219702 0 0 0 0 -7.4009306360412239 21.756857245611812 0 21.756857245611812 36.742505126874164 0 0 0 0 -389.57964040712977 826.10740519750834 0 826.10740519750834 -623.49296932129437 0 0 0 0 -172.9030712552385 222.49142700291304 0 222.49142700291304 -442.7622868245453 0 0 0 0 -549.80863454164319 327.72189586197783 0 327.72189586197783 306.17334195773992 0 0 0 0 2.6245205818777464 -5.439287968598272 0 -5.439287968598272 10.850515074331671 0 0 0 0 223.98840261408077 -1256.4602648027821 0 -1256.4602648027821 708.87554555630595 0 0 0 0 -452.43060462372523 625.21767678972401 0 625.21767678972401 1596.1631272023833 0 0 0 0 1594.9580795392103 253.90167624277819 0 253.90167624277819 1642.4332429655333 0 0 0 0 9.1333303079877126 30.515254813194797 0 30.515254813194797 25.377856459848161 0 0 0 0 -653.22906518060336 47.718552079380061 0 47.718552079380061 2103.4571429072075 0 0 0 0 -452.35483898287566 591.03089833435206 0 591.03089833435206 1245.6901163092882 0 0 0 0 -665.93639793553302 -64.649296070553191 0 -64.649296070553191 1236.791624077192 0 0 0 0 -54.154706693458138 5.0391642895215227 0 5.0391642895215227 172.97201757682524 0 0 0 0 -305.61634955102636 688.92494715338785 0 688.92494715338785 1191.4279543784469 0 0 0 0 88.368269371332644 -128.47264283634013 0 -128.47264283634013 -371.08707828859042 0 0 0 0 388.00358675318603 -790.6225580095479 0 -790.6225580095479 123.63169857074536 0 0 0 0 110.52797124384233 -518.50520506577982 0 -518.50520506577982 1648.6664877094336 0 0 0 0 1089.2633277182031 476.11179090379665 0 476.11179090379665 537.84347004334177 0 0 0 0 354.95611317876137 -794.41789165412592 0 -794.41789165412592 487.47696785690869 0 0 0 0 607.06998731637759 734.24388608401387 0 734.24388608401387 662.99582177786306 0 0 0 0 0.76824830037778824 -3.5964201966279354 0 -3.5964201966279354 13.360672822843139 0 0 0 0 -31.722879403547267 39.250628071763458 0 39.250628071763458 199.16912608501934 0 0 0 0 223.96716609093301 -1147.6230890543527 0 -1147.6230890543527 452.08787957492552 0 0 0 0 -977.95254350685718 -274.82909552049659 0 -274.82909552049659 38.643458270073097 0 0 0 0 178.72158306162237 -1128.1268119553417 0 -1128.1268119553417 456.16622585296773 0 0 0 0 -743.00607597236376 -230.00460027640474 0 -230.00460027640474 616.12196123722697 0 0 0 0 -1381.6389265263297 -883.87268212711706 0 -883.87268212711706 -40.539565955039507 0 0 0 0 -1273.1218387642803 -478.28370718792303 0 -478.28370718792303 629.04187406401434 0 0 0 0 24.956774768175819 65.107395735195951 0 65.107395735195951 174.06521834496698 0 0 0 0 -6.4413414594746428 36.319280555238947 0 36.319280555238947 159.07549572262565 0 0 0 0 -2.3957225619878413 4.1332100051256049 0 4.1332100051256049 37.783735233918158 0 0 0 0 -2107.3262195878342 388.70612439822435 0 388.70612439822435 -145.17296646783871 0 0 0 0 -4.4239829848419188 -9.5516937190555709 0 -9.5516937190555709 88.689924920181028 0 0 0 0 -235.15968930519557 25.318327158734974 0 25.318327158734974 161.24942138156621 0 0 0 0 -1653.2408362319075 13.050378840746248 0 13.050378840746248 669.96608291303346 0 0 0 0 -2076.2671444284315 -599.32539438226377 0 -599.32539438226377 -200.49126456722297 0 0 0 0 -7.5751861595037795 1.4040877800618041 0 1.4040877800618041 18.717751439339274 0 0 0 0 -452.414107333223 -354.83684570044852 0 -354.83684570044852 566.92052038681686 0 0 0 0 -660.26802967004915 88.071191662633282 0 88.071191662633282 -375.46500053609498 0 0 0 0 -1233.9770683889255 497.42243844988479 0 497.42243844988479 317.41670866426921 0 0 0 0 -1055.1849374403446 116.79068302396718 0 116.79068302396718 1125.2642989958676 0 0 0 0 2245.4255831656756 1545.9304052021353 0 1545.9304052021353 1087.4021992883931 0 0 0 0 -79.693497075710184 -186.02511610316469 0 -186.02511610316469 154.7234781419902 0 0 0 0 -107.26071885937347 23.014957149286062 0 23.014957149286062 3033.187052053654 0 0 0 0 301.16876962005881 -984.58821815958981 0 -984.58821815958981 183.73296832882579 0 0 0 0 662.56990356877213 -1375.5993429858099 0 -1375.5993429858099 -673.75920847608586 0 0 0 0 482.88919945393354 -1778.6283969004498 0 -1778.6283969004498 1107.5816281902489 0 0 0 0 3068.7953933423305 8.0262409682754878 0 8.0262409682754878 774.40915417400595 0 0 0 0 1060.8572841312734 -583.86394499767857 0 -583.86394499767857 4234.8325992212067 0 0 0 0 835.05563267281264 -278.46481602197554 0 -278.46481602197554 855.82743726159242 0 0 0 0 832.55633774151465 908.87677849475403 0 908.87677849475403 1229.7229480237165 0 0 0 0 18.478955045839584 -58.173670280646874 0 -58.173670280646874 133.30716269318179 0 0 0 0 412.52866208959676 167.78146614889556 0 167.78146614889556 953.7354015246965 0 0 0 0 -1119.0108307055234 -1008.1283414600393 0 -1008.1283414600393 595.15530366416715 0 0 0 0 302.06096975878791 270.77457100625543 0 270.77457100625543 -188.4856586141741 0 0 0 0 4.6900500237995164 -7.3135107730511937 0 -7.3135107730511937 -11.048556552281322 0 0 0 0 162.30095071999858 1729.3940494737544 0 1729.3940494737544 2485.6549657757332 0 0 0 0 -481.10176953638802 351.45497322640404 0 351.45497322640404 2724.9457247152022 0 0 0 0 305.44682108757843 748.84061907053183 0 748.84061907053183 1911.3250259747219 0 0 0 0 -73.194464835221879 1318.5939476074091 0 1318.5939476074091 1394.5853855753558 0 0 0 0 1365.4173690927 1250.240435025873 0 1250.240435025873 2469.4636488114011 0 0 0 0 167.76606077176885 1264.7704137119381 0 1264.7704137119381 3110.9557242700503 0 0 0 0 11.814469373947055 -19.916449550416893 0 -19.916449550416893 32.969853525358559 0 0 0 0 1521.3970012225673 3428.7017714772664 0 3428.7017714772664 5028.4529064954077 0 0 0 0 -332.22158932184175 -222.20552247694593 0 -222.20552247694593 -455.26786236611611 0 0 0 0 37.16960892873459 -64.403062767667933 0 -64.403062767667933 88.481390201271765 0 0 0 0 395.16261988778319 1708.5278077540643 0 1708.5278077540643 3033.1342519134678 0 0 0 0 -799.10413693759165 -979.62109265933623 0 -979.62109265933623 -412.84563173687411 0 0 0 0 -550.35623469819257 -376.79880003240532 0 -376.79880003240532 7.3298106869224284 0 0 0 0 -294.61323678371446 -413.67348241318746 0 -413.67348241318746 -432.0160791137065 0 0 0 0 -364.84248968887732 -589.33366849947083 0 -589.33366849947083 47.396449114018651 0 0 0 0 -154.5398425125677 -188.87566721238909 0 -188.87566721238909 -70.948626227881562 0 0 0 0 172.23268423844047 -464.5210066459162 0 -464.5210066459162 160.53621908255991 0 0 0 0 108.07384625584638 -722.62355246269942 0 -722.62355246269942 257.12924885674397 0 0 0 0 198.91989808731887 -331.92207500384939 0 -331.92207500384939 674.58690602512888 0 0 0 0 303.92639357400913 -805.68409677577915 0 -805.68409677577915 287.46228007175205 0 0 0 0 375.98915721962476 -707.58171070600508 0 -707.58171070600508 -139.06244439084554 0 0 0 0 -111.17798951375335 -32.993713595882582 0 -32.993713595882582 690.56089975118084 0 0 0 0 -12.472492966733626 -138.55424758540903 0 -138.55424758540903 -101.16252532295402 0 0 0 0 -56.042502991195761 79.057960587661 0 79.057960587661 119.3497568590974 0 0 0 0 42.076081689303464 -23.650613611291192 0 -23.650613611291192 117.14344780451211 0 0 0 0 -61.718839784296279 61.079024077362192 0 61.079024077362192 70.215808562927123 0 0 0 0 -186.35432473639867 221.81059589511096 0 221.81059589511096 362.13087327915127 0 0 0 0 -557.78401277072226 43.766875038818398 0 43.766875038818398 388.56523132364964 0 0 0 0 -678.5074103471934 -246.84302366750126 0 -246.84302366750126 109.72379608423216 0 0 0 0 -319.12070293452507 -44.802823625768724 0 -44.802823625768724 88.876215813521412 0 0 0 0 -306.36810681975476 22.361120396828483 0 22.361120396828483 145.60365563450614 0 0 0 0 -321.07356356672403 -60.45676678523705 0 -60.45676678523705 131.06361570302397 0 0 0 0 -420.81532142238939 -53.646255102801661 0 -53.646255102801661 204.54561107966219 0 0 0 0 -374.36738551798771 -254.2737169646789 0 -254.2737169646789 -47.110154808848165 0 0 0 0 -222.43899031922956 -128.80336848460865 0 -128.80336848460865 123.69028525846443 0 0 0 0 -222.24645344027886 -117.44349936996878 0 -117.44349936996878 75.931899308561697 0 0 0 0 -11.250960647646606 4.8660142670948439 0 4.8660142670948439 14.40341597000846 0 0 0 0 -186.50541524724827 989.44443100490707 0 989.44443100490707 2193.5901604075261 0 0 0 0 1406.0479171337483 923.80964892862539 0 923.80964892862539 -1318.2140126052691 0 0 0 0 -186.93623964777726 717.19842493307806 0 717.19842493307806 2485.3664756565267 0 0 0 0 -611.58562546825942 -383.42772200564468 0 -383.42772200564468 28.903439228524803 0 0 0 0 11.348360931347543 -37.276277414444777 0 -37.276277414444777 82.927126800130949 0 0 0 0 764.29028806039787 744.77995025915152 0 744.77995025915152 2905.2507623618585 0 0 0 0 877.78139946471742 1194.0960623381325 0 1194.0960623381325 1969.2374234804265 0 0 0 0 727.30909505898853 1161.7264924101837 0 1161.7264924101837 2522.5698206819461 0 0 0 0 525.57379801011234 2073.5947604832372 0 2073.5947604832372 2579.902132016934 0 0 0 0 1583.2182307740713 1782.230501365586 0 1782.230501365586 2167.7914430169021 0 0 0 0 152.52266903260079 -889.37881998489684 0 -889.37881998489684 1503.066958741163 0 0 0 0 -463.04298133701377 -677.27380179826491 0 -677.27380179826491 -321.7176966199313 0 0 0 0 69.150282485670004 -102.08119947895646 0 -102.08119947895646 124.69904773685244 0 0 0 0 1917.3754501004414 1042.5011318248125 0 1042.5011318248125 590.92582070517528 0 0 0 0 -566.35424681326549 515.35510998971949 0 515.35510998971949 5226.855040017168 0 0 0 0 0.87495540599985588 -10.037838380902912 0 -10.037838380902912 34.845076036554815 0 0 0 0 -364.58413608020055 -761.50074199969094 0 -761.50074199969094 -357.2928735705209 0 0 0 0 2150.2531183066744 3999.3930614704113 0 3999.3930614704113 4262.5000021941451 0 0 0 0 -577.73765451445979 -288.82272088546779 0 -288.82272088546779 3081.8334343305978 0 0 0 0 -366.30592908513609 -780.51765180559596 0 -780.51765180559596 698.90513735310287 0 0 0 0 -57.911417547854398 1485.1948124408864 0 1485.1948124408864 3420.4191019380378 0 0 0 0 -447.10728263967667 574.42348635859344 0 574.42348635859344 1667.9939337823307 0 0 0 0 -453.2272622766468 425.38869214226725 0 425.38869214226725 2376.6261164856651 0 0 0 0 -302.11881510432977 50.733904767097556 0 50.733904767097556 683.29906617996176 0 0 0 0 -281.15297982716856 398.16664297269017 0 398.16664297269017 2380.8455934207232 0 0 0 0 101.18854407043031 -125.48211913377736 0 -125.48211913377736 140.14673679255159 0 0 0 0 -61.724626102213733 -480.11704206315699 0 -480.11704206315699 335.8793246121063 0 0 0 0 153.70282349005902 755.09664856366726 0 755.09664856366726 1595.41677660612 0 0 0 0 185.5486054082071 84.051037166902461 0 84.051037166902461 388.9907992268345 0 0 0 0 8.8442954074993736 -606.49252111769943 0 -606.49252111769943 -27.20878968975012 0 0 0 0 -162.87227647690816 -216.05550069368019 0 -216.05550069368019 137.74294449735225 0 0 0 0 -315.5638567812457 -440.31562941733227 0 -440.31562941733227 -22.188323237283839 0 0 0 0 91.630880565285707 -120.79393601588944 0 -120.79393601588944 139.73691555271594 0 0 0 0 -283.42030238859115 -323.46326555763596 0 -323.46326555763596 50.189772717585583 0 0 0 0 -428.53283506817206 -319.1169049266623 0 -319.1169049266623 329.53890137895087 0 0 0 0 -325.98446060837477 -131.21757461021321 0 -131.21757461021321 463.87137927611184 0 0 0 0 -280.00457818003633 -179.35461329518603 0 -179.35461329518603 344.44907247412164 0 0 0 0 -325.37097097762489 -3.0876153171211627 0 -3.0876153171211627 445.07717208514987 0 0 0 0 -357.93334817206778 -27.878934300218134 0 -27.878934300218134 577.11783433820892 0 0 0 0 -346.08938186387604 -128.42315991585019 0 -128.42315991585019 464.53179700640158 0 0 0 0 -209.85437098544935 -88.824330578189802 0 -88.824330578189802 359.59560531925399 0 0 0 0 -203.86439947101098 -78.711096269274094 0 -78.711096269274094 372.89305185983631 0 0 0 0 -210.12488221009335 -117.78587441274885 0 -117.78587441274885 379.91234993776357 0 0 0 0 -349.24890023148555 -250.76553870648763 0 -250.76553870648763 254.63213050867489 0 0 0 0 -150.96019269265889 -195.9294338112968 0 -195.9294338112968 171.74691682268713 0 0 0 0 -215.12263581808406 -216.11338178055368 0 -216.11338178055368 193.20838531786285 0 0 0 0 -108.03794484228092 -181.53092163179929 0 -181.53092163179929 287.84723117621979 0 0 0 0 -84.217361446764698 -91.627867227613024 0 -91.627867227613024 301.4379387970439 0 0 0 0 -14.897513422372867 -169.712077430107 0 -169.712077430107 257.24755433034954 0 0 0 0 4.7831237993159448 -126.92444086816795 0 -126.92444086816795 312.27062756655141 0 0 0 0 6.1235787157274899 -188.69335891684022 0 -188.69335891684022 260.47634749069744 0 0 0 0 -29.090711985656526 -194.2634034270759 0 -194.2634034270759 372.25801240309374 0 0 0 0 -1.2199871770826576 -156.43385895316987 0 -156.43385895316987 129.76023666402762 0 0 0 0 -122.33723753406275 -294.87927748460663 0 -294.87927748460663 53.927776493132114 0 0 0 0 137.69032639582656 -213.1030110497768 0 -213.1030110497768 370.88058822407584 0 0 0 0 137.6823249286972 -216.60396789185415 0 -216.60396789185415 574.04339126215018 0 0 0 0 478.42550461866631 -249.63941101538967 0 -249.63941101538967 299.878921129226 0 0 0 0 302.81769795664877 -228.87074403920951 0 -228.87074403920951 298.8037383306912 0 0 0 0 632.73504065064117 -77.950508795653661 0 -77.950508795653661 337.77520998010823 0 0 0 0 -175.20426541942288 -236.42598349901436 0 -236.42598349901436 417.18289561943493 0 0 0 0 179.60435519659131 -79.336851891935339 0 -79.336851891935339 218.65787826238466 0 0 0 0 -398.756201293716 -237.68313956576321 0 -237.68313956576321 151.2668101851541 0 0 0 0 -135.65636299952166 -348.4447412789109 0 -348.4447412789109 177.7814347474814 0 0 0 0 -352.39573123711671 -505.99631224158657 0 -505.99631224158657 83.782355579657633 0 0 0 0 -302.78440804175261 -306.66126148962758 0 -306.66126148962758 142.50302690634703 0 0 0 0 -306.8092231263667 -181.25007646315754 0 -181.25007646315754 419.93113720492693 0 0 0 0 -241.55996620398946 -96.144735618084269 0 -96.144735618084269 636.06217388672576 0 0 0 0 -106.99407327377776 -244.30791290376146 0 -244.30791290376146 432.683355243611 0 0 0 0 -293.85961611077255 -219.50654449349167 0 -219.50654449349167 510.02994105746802 0 0 0 0 -343.46182105520757 -105.10851139976967 0 -105.10851139976967 670.92300376646926 0 0 0 0 -248.12471971280684 -35.335982646081902 0 -35.335982646081902 581.47187566455614 0 0 0 0 -243.47427176912242 -66.539697376500044 0 -66.539697376500044 788.37822748870985 0 0 0 0 -13.561926564949317 -194.49384559299324 0 -194.49384559299324 615.20467392049613 0 0 0 0 40.90189145476279 16.156902188322078 0 16.156902188322078 817.29799693928544 0 0 0 0 103.70276411351006 17.691869481734102 0 17.691869481734102 769.80621816816347 0 0 0 0 104.32922443684947 -242.70030939441403 0 -242.70030939441403 657.10838063757092 0 0 0 0 -69.493639833675843 -118.7518181703914 0 -118.7518181703914 570.06029490858964 0 0 0 0 249.14092016417089 -335.17076564587296 0 -335.17076564587296 1081.2775652416658 0 0 0 0 207.7363074486675 -158.79973928021718 0 -158.79973928021718 550.53040970973871 0 0 0 0 258.87633877968005 -96.23192578606222 0 -96.23192578606222 920.01745880939779 0 0 0 0 109.03830826696867 81.375720144987099 0 81.375720144987099 1234.4636640420049 0 0 0 0 -123.01961813060007 281.87597435999578 0 281.87597435999578 1093.1117055290752 0 0 0 0 98.548884554595134 414.35191701695931 0 414.35191701695931 1003.8687306653974 0 0 0 0 -77.336901957170994 -124.03832811866596 0 -124.03832811866596 873.16611938372444 0 0 0 0 128.62091177441471 60.798217116158412 0 60.798217116158412 15.035430869589618 0 0 0 0 651.57949774391454 293.23310132729966 0 293.23310132729966 87.243516182386884 0 0 0 0 147.8250836971456 -0.36664605444275367 0 -0.36664605444275367 -1.4774980392035104 0 0 0 0 1.48812604630713 2.6917131806876 0 2.6917131806876 5.1943810792961997 0 0 0 0 155.76064391615 529.31863285595136 0 529.31863285595136 1010.6490659834781 0 0 0 0 88.01463835019058 -145.8219930901405 0 -145.8219930901405 1042.3770699970846 0 0 0 0 522.06134221790489 255.57569334144137 0 255.57569334144137 847.02656811156339 0 0 0 0 -220.22947215569002 145.16732593236793 0 145.16732593236793 812.38068269845462 0 0 0 0 -12.375219781815758 64.553052031230436 0 64.553052031230436 633.04534309485643 0 0 0 0 -225.14074368188085 97.16806577119678 0 97.16806577119678 383.23096761318811 0 0 0 0 -407.50528210392076 -22.006727620413585 0 -22.006727620413585 725.61403025354775 0 0 0 0 -473.24653167735232 -55.357093804098213 0 -55.357093804098213 300.12476129117567 0 0 0 0 -146.08134452038939 426.4857259881519 0 426.4857259881519 -55.313526751723657 0 0 0 0 41.493963535322109 206.03453351451844 0 206.03453351451844 294.7427596835787 0 0 0 0 111.20490280888771 382.58781524830192 0 382.58781524830192 284.91405869244488 0 0 0 0 -29.365651447988057 286.87858015977872 0 286.87858015977872 224.41610567561293 0 0 0 0 81.219791635587171 286.48371747903366 0 286.48371747903366 213.30393242283935 0 0 0 0 -29.396904723340413 263.54777985680812 0 263.54777985680812 256.84625148736814 0 0 0 0 7.0215937524699257 176.53463660260968 0 176.53463660260968 295.32948496494282 0 0 0 0 -3.6051144080702215 120.69683009669825 0 120.69683009669825 142.61550974559941 0 0 0 0 164.00612937383266 198.39042493222769 0 198.39042493222769 101.88068062659295 0 0 0 0 1.2353648853604682 114.83793765653536 0 114.83793765653536 129.37675305400262 0 0 0 0 -630.49989091710813 194.33212146980804 0 194.33212146980804 483.71029362327317 0 0 0 0 -37.0241557749805 253.28936932817942 0 253.28936932817942 216.82468011684614 0 0 0 0 -68.831881505102501 310.20361289940047 0 310.20361289940047 211.74973681126698 0 0 0 0 -227.26459448689275 297.97339301167813 0 297.97339301167813 447.461514744944 0 0 0 0 -10.884401478353539 213.80809581157519 0 213.80809581157519 360.72361286625164 0 0 0 0 -187.84714726992206 118.10033711934693 0 118.10033711934693 476.97274259950791 0 0 0 0 290.6544490281085 36.913950696947722 0 36.913950696947722 404.61169769274602 0 0 0 0 318.48795979632996 -204.04411384208288 0 -204.04411384208288 493.98496846210037 0 0 0 0 -25.506855044470285 2.8178989848129277 0 2.8178989848129277 531.79154366745206 0 0 0 0 -143.7674333336472 -85.574307864197181 0 -85.574307864197181 471.07712949629968 0 0 0 0 -81.340083884577325 166.80221273248753 0 166.80221273248753 376.3072810273602 0 0 0 0 -2.1550234787892748 10.219615313812309 0 10.219615313812309 4.6019044293257139 0 0 0 0 -484.70229019840554 -63.257475897181848 0 -63.257475897181848 1057.6543661667283 0 0 0 0 566.94776380651092 321.44162219943973 0 321.44162219943973 -285.75333706312449 0 0 0 0 -24.585784832152328 32.354758953745844 0 32.354758953745844 21.455778787705597 0 0 0 0 249.05539872245572 436.52951227247104 0 436.52951227247104 24.682944195701566 0 0 0 0 -526.22428595167003 31.349054365884513 0 31.349054365884513 241.88063778348442 0 0 0 0 420.51851194129267 238.24933803804925 0 238.24933803804925 743.14736100022128 0 0 0 0 871.99025236377565 529.72226909414167 0 529.72226909414167 25.98965653252526 0 0 0 0 -243.18497595176814 -101.2316905736152 0 -101.2316905736152 555.90487808699254 0 0 0 0 487.44982395065017 -9.6994085153210108 0 -9.6994085153210108 240.64088114610786 0 0 0 0 313.89189428824466 -362.23903079504089 0 -362.23903079504089 681.45375472473643 0 0 0 0 -69.02537304038924 -11.614291173535094 0 -11.614291173535094 91.056277800489624 0 0 0 0 -20.723919594780455 -75.04940754128711 0 -75.04940754128711 -47.70911370516842 0 0 0 0 -51.595542770795873 46.489083024799584 0 46.489083024799584 158.06644335904275 0 0 0 0 -18.05900057296094 78.209176337997633 0 78.209176337997633 248.90138765338634 0 0 0 0 42.768309084756766 -371.3125579188636 0 -371.3125579188636 -197.27556253195507 0 0 0 0 211.42741086762544 -280.44749977355241 0 -280.44749977355241 -163.09332094078673 0 0 0 0 -122.45775934740959 -191.37299692455417 0 -191.37299692455417 237.84197680822399 0 0 0 0 -471.4259093066139 -454.36843119468904 0 -454.36843119468904 43.062923662662797 0 0 0 0 -657.17012378973868 62.795156811790093 0 62.795156811790093 173.707262930875 0 0 0 0 -16.011621294662874 31.987523140219377 0 31.987523140219377 28.507592634597042 0 0 0 0 35.172039681099704 -96.757168366268161 0 -96.757168366268161 385.64609373088933 0 0 0 0 -2.176363323633268 42.308967185599613 0 42.308967185599613 -27.379272111553291 0 0 0 0 -108.8958913440365 203.68447982386715 0 203.68447982386715 -33.804861697135493 0 0 0 0 -197.82231095765746 35.840941851043226 0 35.840941851043226 540.75197335552821 0 0 0 0 -7.2020344918681189 7.9880372536185007 0 7.9880372536185007 28.443329345341006 0 0 0 0 44.035006148356842 35.736988999187361 0 35.736988999187361 -75.019352306466317 0 0 0 0 55.10948829332483 22.000001251557478 0 22.000001251557478 -92.072127450715016 0 0 0 0 16.920915334158053 20.131500278046587 0 20.131500278046587 29.165224891090475 0 0 0 0 3.6427084170118178 -11.378979276418249 0 -11.378979276418249 -16.106403377445531 0 0 0 0 -1.6862561445539264 11.081854025519839 0 11.081854025519839 4.1160775272237373 0 0 0 0 -40.310435600018536 5.1024417438975433 0 5.1024417438975433 6.1004876962942944 0 0 0 0 -7.8407592383227893 -3.9590556548973836 0 -3.9590556548973836 48.241924033683972 0 0 0 0 -3.9229771412865375 19.2488596987032 0 19.2488596987032 27.407838772312971 0 0 0 0 5.6757058457642415 21.650533587576319 0 21.650533587576319 10.42852393045905 0 0 0 0 -3.0752718311923672 23.944156593013759 0 23.944156593013759 -4.7679098774151498 0 0 0 0 3.3607306263439156 8.085340355309933 0 8.085340355309933 11.579303537162744 0 0 0 0 -19.635200168544543 50.894281115512058 0 50.894281115512058 15.742591492526117 0 0 0 0 -22.446695198438192 39.071061775608086 0 39.071061775608086 55.589406517901807 0 0 0 0 372.00815411693475 220.74494637389853 0 220.74494637389853 53.779965709745738 0 0 0 0 89.919093660762883 111.80395838509503 0 111.80395838509503 24.809104365936037 0 0 0 0 83.898582536181493 88.977364708065579 0 88.977364708065579 58.312855625841621 0 0 0 0 45.254874343059782 50.020537531861919 0 50.020537531861919 35.435394848623218 0 0 0 0 46.548275155641022 56.867591839290981 0 56.867591839290981 48.282697074078897 0 0 0 0 95.856519420455697 38.148279911082 0 38.148279911082 13.303935123956762 0 0 0 0 58.112825390160651 3.5517825440053912 0 3.5517825440053912 -4.7467186888243305 0 0 0 0 17.360703944723355 -6.8536552619498252 0 -6.8536552619498252 41.11174187098004 0 0 0 0 -37.732770953378349 -145.2910156373473 0 -145.2910156373473 364.2340223718229 0 0 0 0 -125.20387203842665 -16.167381684012071 0 -16.167381684012071 294.1741796734168 0 0 0 0 -55.476088351819428 18.254281364610524 0 18.254281364610524 43.882778846782372 0 0 0 0 -201.37099805663092 768.03294228293817 0 768.03294228293817 849.85571419778717 0 0 0 0 8.9328285809751833 -119.85296641792593 0 -119.85296641792593 377.50042514057986 0 0 0 0 23.720649681708892 -90.54121537735773 0 -90.54121537735773 429.96717761859964 0 0 0 0 5.9845632016658783 -176.69640273239929 0 -176.69640273239929 411.681981543662 0 0 0 0 -29.276639247516869 -185.64196064207499 0 -185.64196064207499 366.01744319278259 0 0 0 0 3.4282816302657011 -166.41980706274626 0 -166.41980706274626 371.16321902889467 0 0 0 0 9.3058383491843415 -195.24830605135196 0 -195.24830605135196 429.28062419857451 0 0 0 0 6.2605938834312838 -161.96478784166902 0 -161.96478784166902 466.62588392151156 0 0 0 0 -56.087984641817457 -217.64182753546629 0 -217.64182753546629 417.00564934806971 0 0 0 0 21.87871695546346 -153.10073685585303 0 -153.10073685585303 446.28899745264061 0 0 0 0 -41.811083527136361 -238.99493600476853 0 -238.99493600476853 303.75753331859596 0 0 0 0 -54.820008640159813 -241.09605333468721 0 -241.09605333468721 343.48865506434231 0 0 0 0 -40.496480863599572 -182.6349467745822 0 -182.6349467745822 369.29578602151014 0 0 0 0 -38.637437055484043 -191.85436842869967 0 -191.85436842869967 290.7717409088109 0 0 0 0 10.018072944352753 -135.78142809842211 0 -135.78142809842211 407.48187926325409 0 0 0 0 61.200129636519705 -208.60700945409553 0 -208.60700945409553 369.81712127521246 0 0 0 0 109.69238014240545 -118.36466039323795 0 -118.36466039323795 359.40879744047561 0 0 0 0 -70.962759185858886 -69.101593754390706 0 -69.101593754390706 357.95353821671779 0 0 0 0 -4.1974585414609464 -62.553313017062464 0 -62.553313017062464 446.75766011013911 0 0 0 0 -94.673483479113202 -123.43675955026356 0 -123.43675955026356 501.44639443973028 0 0 0 0 0.12329505037632771 -163.48882471611432 0 -163.48882471611432 341.12730576181821 0 0 0 0 -105.28875698757474 -102.81458767438653 0 -102.81458767438653 431.10354059659585 0 0 0 0 -23.171220043285359 -2.824397850842578 0 -2.824397850842578 -5.6620286596648004 0 0 0 0 61.017538080799568 -153.16831784819442 0 -153.16831784819442 456.30630264268802 0 0 0 0 72.276975164713804 -225.2532710334217 0 -225.2532710334217 515.65081458384611 0 0 0 0 38.307600762442235 -162.67640635362022 0 -162.67640635362022 457.35406950241486 0 0 0 0 -11.677862152137095 -96.002403612415947 0 -96.002403612415947 573.95458710914681 0 0 0 0 30.052457918420259 -152.41525282547082 0 -152.41525282547082 431.07771930239687 0 0 0 0 30.023810497711878 -145.16040908857147 0 -145.16040908857147 529.4332018610512 0 0 0 0 17.142540954984725 -77.776558007997664 0 -77.776558007997664 538.40998432440801 0 0 0 0 25.097219979274087 -79.870111951193394 0 -79.870111951193394 512.57680781689123 0 0 0 0 22.78353593294014 -212.70558088624421 0 -212.70558088624421 539.97906195555697 0 0 0 0 31.203996616197401 -90.643936609105367 0 -90.643936609105367 556.75498891731695 0 0 0 0 -68.91668433277664 -149.68758259682363 0 -149.68758259682363 417.52123085068524 0 0 0 0 -86.361268534120654 47.445630964740587 0 47.445630964740587 246.8269596047503 0 0 0 0 -400.53227538967076 62.653729280105722 0 62.653729280105722 486.3601227125946 0 0 0 0 -339.00785685031951 54.448427278623058 0 54.448427278623058 450.93718641005216 0 0 0 0 -337.32570100878365 50.694637215448893 0 50.694637215448893 413.51618761469342 0 0 0 0 -7.5246367183624301 -1.858411641359643 0 -1.858411641359643 1.0630063673451975 0 0 0 0 26.188168360196869 -131.79837514715655 0 -131.79837514715655 456.76485296302508 0 0 0 0 -278.92279608798708 266.20593800431743 0 266.20593800431743 84.19277722505376 0 0 0 0 -537.38241055075014 236.36082036622554 0 236.36082036622554 415.96688912147874 0 0 0 0 -461.54165313929843 -294.54490724969946 0 -294.54490724969946 1555.6380352486049 0 0 0 0 -72.784853176512115 -150.96907910829032 0 -150.96907910829032 822.48260386397669 0 0 0 0 -167.68709471303009 -339.71757973468993 0 -339.71757973468993 782.15476517985371 0 0 0 0 682.37722414105247 -578.37889828839798 0 -578.37889828839798 1162.4392238609253 0 0 0 0 -34.845021147059619 29.092033707451868 0 29.092033707451868 23.038191459449109 0 0 0 0 -0.60329724950954144 4.5086846354520311 0 4.5086846354520311 4.6465673531527809 0 0 0 0 -208.13955474900285 -301.16624002265416 0 -301.16624002265416 536.84935540379229 0 0 0 0 -430.90279171068323 -254.25893840925983 0 -254.25893840925983 625.64291374132517 0 0 0 0 -4.0781473501701839 -110.15557470718704 0 -110.15557470718704 700.76436382311658 0 0 0 0 -223.39393625494267 -355.07630261211307 0 -355.07630261211307 661.40198077219884 0 0 0 0 7.4395473203549045 -408.06772345823993 0 -408.06772345823993 633.26208966058039 0 0 0 0 -175.17038176908682 -310.68148327526433 0 -310.68148327526433 605.24064221580738 0 0 0 0 -206.68390827734584 -375.83552165270362 0 -375.83552165270362 656.02898729174922 0 0 0 0 -49.985732753331831 -64.858774072032247 0 -64.858774072032247 -261.84675132794291 0 0 0 0 -433.63731499598521 -343.46152491314933 0 -343.46152491314933 18.571452050397056 0 0 0 0 -226.36881360176994 -51.73529024191339 0 -51.73529024191339 271.2082656107475 0 0 0 0 -183.03054518713543 -88.486543081006857 0 -88.486543081006857 128.05775001109578 0 0 0 0 -186.17844837002667 -85.908108630272181 0 -85.908108630272181 -42.082624694288825 0 0 0 0 -90.840102809474047 7.8920279865669727 0 7.8920279865669727 -109.88786970555338 0 0 0 0 -64.921231193585299 50.72777819914154 0 50.72777819914154 -69.919467844891187 0 0 0 0 -66.384653493923906 54.691924095068316 0 54.691924095068316 -35.372999309649458 0 0 0 0 -59.81073573404683 34.152626796370896 0 34.152626796370896 -95.600666062893652 0 0 0 0 -137.39234545697218 77.90136460888607 0 77.90136460888607 154.8539988819939 0 0 0 0 -165.55210553509642 -40.465027017342436 0 -40.465027017342436 54.326542162772967 0 0 0 0 -86.634681811561677 60.41707166584456 0 60.41707166584456 48.498851012205705 0 0 0 0 -76.708188540713309 80.240614113430638 0 80.240614113430638 9.8850025175306655 0 0 0 0 -81.424679329247738 56.480128108854842 0 56.480128108854842 -6.0693415867062868 0 0 0 0 -64.334254196623078 72.543292055659549 0 72.543292055659549 -77.961346052370573 0 0 0 0 -64.508043089739658 52.217927476238401 0 52.217927476238401 -115.753209995215 0 0 0 0 -68.67795943314195 76.530332905203977 0 76.530332905203977 -78.643950835830765 0 0 0 0 -69.7299426299993 55.398114775745057 0 55.398114775745057 -58.388366964565648 0 0 0 0 2.436735278362903 114.96763103900958 0 114.96763103900958 -298.97833089579217 0 0 0 0 674.41949325172754 -605.68375512767398 0 -605.68375512767398 1626.9927301650769 0 0 0 0 -33.076456770304503 96.687313826634636 0 96.687313826634636 -198.62913679749909 0 0 0 0 -49.029119502041794 54.257411699300064 0 54.257411699300064 -170.95740259547165 0 0 0 0 -56.723522314559887 66.194607741865184 0 66.194607741865184 -127.56185881972488 0 0 0 0 -9.3920872915587097 49.000014015477063 0 49.000014015477063 -285.89335229137941 0 0 0 0 -46.636079791780503 21.288041599334974 0 21.288041599334974 -218.02004636096535 0 0 0 0 -54.891670342081852 31.598478116147817 0 31.598478116147817 -127.16783312153711 0 0 0 0 124.5923403804336 -14.275401347862498 0 -14.275401347862498 738.3706520183041 0 0 0 0 236.43218428824184 -65.28445627245128 0 -65.28445627245128 591.83514571404521 0 0 0 0 171.69621737962734 -80.683319901520008 0 -80.683319901520008 554.31102502640715 0 0 0 0 -14.032660285438396 -136.51220899505552 0 -136.51220899505552 669.59406332010985 0 0 0 0 119.17265363624028 -93.141382271678594 0 -93.141382271678594 586.4087207474513 0 0 0 0 76.730405442780466 -174.46440029314908 0 -174.46440029314908 552.30863152115126 0 0 0 0 92.820769800339804 -201.8255048540409 0 -201.8255048540409 571.45002633617696 0 0 0 0 172.88054542158352 -172.99207662867138 0 -172.99207662867138 580.7427525082021 0 0 0 0 131.98459843994169 -1154.9951150574198 0 -1154.9951150574198 1295.570519951958 0 0 0 0 0.54520606207418076 -0.51030167456552888 0 -0.51030167456552888 0.87901931449671089 0 0 0 0 53.935874882812641 -201.33644356231525 0 -201.33644356231525 609.00890855063517 0 0 0 0 -39.771857289139007 208.35026207857663 0 208.35026207857663 -263.25607560031676 0 0 0 0 -46.319716919349432 28.312894071098007 0 28.312894071098007 20.084969640538326 0 0 0 0 16.77464624842105 -194.70968719705616 0 -194.70968719705616 610.20532209620069 0 0 0 0 -154.53394545997708 291.15639655684936 0 291.15639655684936 -167.73063214386275 0 0 0 0 -126.42877175183639 229.5681460872438 0 229.5681460872438 -184.26872247299434 0 0 0 0 -177.86940037632985 188.19283435481975 0 188.19283435481975 3.4677527632811689 0 0 0 0 -47.311281831886845 151.17194296275193 0 151.17194296275193 -156.3975427093028 0 0 0 0 -73.971940256077062 72.733000768762395 0 72.733000768762395 -36.970604024925706 0 0 0 0 -161.47145891530772 150.65258204638121 0 150.65258204638121 -69.467973422400974 0 0 0 0 -94.711442170468217 132.39287486571629 0 132.39287486571629 -116.73071113265541 0 0 0 0 -50.651251426785166 114.47115464964372 0 114.47115464964372 -151.30472915311111 0 0 0 0 -53.436758041476423 158.8337359255529 0 158.8337359255529 -165.97903710549144 0 0 0 0 -32.14161346063338 164.01457347613177 0 164.01457347613177 -239.22921240230062 0 0 0 0 -32.824626120527682 100.10698455310194 0 100.10698455310194 -218.92517081714323 0 0 0 0 -58.569061658765349 120.2036685278872 0 120.2036685278872 -140.74631454789778 0 0 0 0 -65.732172746811557 97.45832951682678 0 97.45832951682678 -105.47668437022367 0 0 0 0 -55.590284247247837 93.157494067545485 0 93.157494067545485 -139.98028893816786 0 0 0 0 -72.512798229364307 78.223723358231837 0 78.223723358231837 -62.040764615798253 0 0 0 0 -67.657341801730468 58.277638896898907 0 58.277638896898907 2.1891443128406536 0 0 0 0 -71.498288945592321 89.40551269318712 0 89.40551269318712 -18.71700395080552 0 0 0 0 -70.526448465533122 91.62093354209901 0 91.62093354209901 50.495409236462365 0 0 0 0 -52.131703376987389 96.864422422320786 0 96.864422422320786 -49.973055327573093 0 0 0 0 -38.342351345997542 55.680221254243861 0 55.680221254243861 -58.408284096964053 0 0 0 0 -48.006523449239182 21.139034640053978 0 21.139034640053978 34.411651693320891 0 0 0 0 -8.0729759574016953 26.481754820295464 0 26.481754820295464 -0.83361106210941216 0 0 0 0 -85.122721271744922 32.147541775959326 0 32.147541775959326 10.749281703534507 0 0 0 0 -50.824279613881799 45.241380085757555 0 45.241380085757555 5.049288590940705 0 0 0 0 6.7574772959314942 -12.028489521188021 0 -12.028489521188021 60.638233129655418 0 0 0 0 -141.57670039127652 124.19163036154714 0 124.19163036154714 -35.240599068489246 0 0 0 0 -155.82706599571748 51.978144430566317 0 51.978144430566317 76.152573476589168 0 0 0 0 -166.88936849677702 112.87130580754638 0 112.87130580754638 58.94953353015444 0 0 0 0 -240.71585255116133 109.99341790486324 0 109.99341790486324 267.11151575648182 0 0 0 0 -291.51435236499083 182.8475346615669 0 182.8475346615669 178.15176483679898 0 0 0 0 -277.07086024208456 294.80928889819188 0 294.80928889819188 -42.010129404163308 0 0 0 0 -98.957737066988557 46.742861326294587 0 46.742861326294587 141.37992997489346 0 0 0 0 -117.74360297122848 34.79730562822806 0 34.79730562822806 177.24165879633074 0 0 0 0 1.5154211309833925 3.1769020997654582 0 3.1769020997654582 8.6510845026516137 0 0 0 0 253.87329941384826 257.37759484933122 0 257.37759484933122 212.46674009528215 0 0 0 0 36.56701497065751 45.469070079207086 0 45.469070079207086 18.656381246441015 0 0 0 0 99.411010184400311 189.79705639533495 0 189.79705639533495 135.04543609818484 0 0 0 0 -70.031615398223039 66.297749381012181 0 66.297749381012181 79.882309150356377 0 0 0 0 -45.438615169463446 109.10677064626907 0 109.10677064626907 71.058017006405862 0 0 0 0 -157.50249770759365 120.97606112907852 0 120.97606112907852 476.96247942737318 0 0 0 0 -155.20975035306446 -52.687936836362496 0 -52.687936836362496 311.13615809917428 0 0 0 0 -164.55153860107873 75.703635645341592 0 75.703635645341592 229.73630584042257 0 0 0 0 -144.93809812548625 20.767552894241817 0 20.767552894241817 282.1371257449955 0 0 0 0 -116.06475980758296 132.52603818334319 0 132.52603818334319 201.04461274666755 0 0 0 0 -141.44783827164792 63.081739416924393 0 63.081739416924393 114.38492000813494 0 0 0 0 -160.40472870666599 79.66992767913689 0 79.66992767913689 233.28320446555153 0 0 0 0 -202.3493347195099 80.802169768108797 0 80.802169768108797 211.02579300578873 0 0 0 0 -151.838434295669 114.37051765397405 0 114.37051765397405 226.47065560234478 0 0 0 0 -173.9917078484541 120.50272476786085 0 120.50272476786085 266.51096368816383 0 0 0 0 -62.266707687495 98.528971050212931 0 98.528971050212931 210.60519087796092 0 0 0 0 -146.28538599799231 6.2381443343128922 0 6.2381443343128922 135.79826427922671 0 0 0 0 -60.959893772800569 -21.830737247910292 0 -21.830737247910292 85.026412228422487 0 0 0 0 -66.71892265523752 -13.930417854885945 0 -13.930417854885945 83.559816667140694 0 0 0 0 -17.39987143841806 -3.5287252436328274 0 -3.5287252436328274 0.42584373386137031 0 0 0 0 -88.0273984631026 -114.61966573610607 0 -114.61966573610607 -45.47015526631003 0 0 0 0 -25.164339550219665 3.2561354634453892 0 3.2561354634453892 124.27856504966348 0 0 0 0 -147.8382016159369 -81.368405041526785 0 -81.368405041526785 174.69451927678165 0 0 0 0 -120.61978859722012 -30.122119621655656 0 -30.122119621655656 166.70030055770985 0 0 0 0 -148.58164806454397 24.398913956802062 0 24.398913956802062 1007.1381785366211 0 0 0 0 -8.6202847188547196 -3.5931404318929339 0 -3.5931404318929339 1.2417869098425793 0 0 0 0 84.214634791054095 -300.6603657046744 0 -300.6603657046744 -321.95664224728534 0 0 0 0 -2.4169770775694976 -2.1541371076686815 0 -2.1541371076686815 0.40368868758704046 0 0 0 0 364.71988492458627 -203.93298051978854 0 -203.93298051978854 -698.77943039603451 0 0 0 0 -103.7715284689485 101.4893298781335 0 101.4893298781335 -291.2299105329439 0 0 0 0 484.5461437913047 -356.8975031044647 0 -356.8975031044647 64.110143718367908 0 0 0 0 373.59171800081549 321.08073358893853 0 321.08073358893853 108.76789957676738 0 0 0 0 -2.0117172288778775 -23.501993545977662 0 -23.501993545977662 118.06304791916469 0 0 0 0 -39.2364827717156 -20.581324683516868 0 -20.581324683516868 146.67866483845137 0 0 0 0 233.16725418541864 -205.38635929285374 0 -205.38635929285374 70.286277941830122 0 0 0 0 -71.422230992604455 -139.66178679005861 0 -139.66178679005861 66.677022018568096 0 0 0 0 -26.790734815494943 -5.767331651688437 0 -5.767331651688437 133.87457475702968 0 0 0 0 -23.449305618192739 -54.378100493322563 0 -54.378100493322563 124.26358844157676 0 0 0 0 -22.139963272618843 -14.034857545881096 0 -14.034857545881096 143.88181674577208 0 0 0 0 -23.009346633189125 -17.992232233559662 0 -17.992232233559662 178.65236697057844 0 0 0 0 -32.047851824979261 -47.219041177193503 0 -47.219041177193503 150.31988740384622 0 0 0 0 -2.4255951766238013 5.9216061967613207 0 5.9216061967613207 15.433187312268918 0 0 0 0 -42.567357977150095 -61.666050333529711 0 -61.666050333529711 139.41064990113227 0 0 0 0 -5.2798133742126083 -28.540316454638742 0 -28.540316454638742 138.25858843790775 0 0 0 0 -4.1930099470709763 -28.327358443683892 0 -28.327358443683892 117.56267938090902 0 0 0 0 -15.69418293700857 -16.420139217772302 0 -16.420139217772302 20.923088166618406 0 0 0 0 -11.377896040430642 -37.499770509595692 0 -37.499770509595692 139.22546095713187 0 0 0 0 -27.944658073992535 6.0953613472063495 0 6.0953613472063495 91.189380429471299 0 0 0 0 -148.55354816052932 6.4115296611689701 0 6.4115296611689701 -18.913184356952115 0 0 0 0 -42.010572550418146 124.59297266546491 0 124.59297266546491 -49.703550536434705 0 0 0 0 -263.25252171804277 -65.04399105327866 0 -65.04399105327866 182.73879369359929 0 0 0 0 -88.639952067635022 128.54721788665483 0 128.54721788665483 200.26423591000457 0 0 0 0 -261.99159897396339 -50.068140432701966 0 -50.068140432701966 294.03130588257045 0 0 0 0 -192.60388853658878 52.481300102527712 0 52.481300102527712 433.75631388208421 0 0 0 0 77.502326300633285 183.97113851113318 0 183.97113851113318 252.79651554737211 0 0 0 0 -80.802001307401952 91.590329182130517 0 91.590329182130517 203.65326471973458 0 0 0 0 -43.674262605010881 218.25134909867484 0 218.25134909867484 53.35477298987098 0 0 0 0 -293.89900538441361 -379.08649401120601 0 -379.08649401120601 308.66928556256607 0 0 0 0 -84.548241035156025 8.9367382570001155 0 8.9367382570001155 210.08833417193819 0 0 0 0 -66.997667408104462 33.113024837191915 0 33.113024837191915 160.16097859226284 0 0 0 0 235.02919825307617 -292.86798817923591 0 -292.86798817923591 244.55005093902582 0 0 0 0 282.61156293623208 -42.656941711706168 0 -42.656941711706168 166.96152118008376 0 0 0 0 69.104438943944842 -270.05111783259235 0 -270.05111783259235 336.50763454065964 0 0 0 0 159.19003634372893 251.80647762054923 0 251.80647762054923 91.512967178186955 0 0 0 0 -50.430706549726892 38.009179868320643 0 38.009179868320643 49.956523262954761 0 0 0 0 -179.7704980793751 216.75298297123663 0 216.75298297123663 580.18744843408035 0 0 0 0 266.15568720624287 -585.63602562733104 0 -585.63602562733104 499.88449137672751 0 0 0 0 3.4473796240711785 3.1848651398139651 0 3.1848651398139651 3.2631545843076708 0 0 0 0 -52.390759436365897 46.747457548269722 0 46.747457548269722 70.03467658225054 0 0 0 0 -57.913082416131147 16.304546988829316 0 16.304546988829316 93.789251794913071 0 0 0 0 -55.75961384297625 14.031059799635841 0 14.031059799635841 38.173763454698019 0 0 0 0 -58.346116995753619 41.62017719018877 0 41.62017719018877 51.165777582966257 0 0 0 0 8.446570242249436 -7.0753924975106202 0 -7.0753924975106202 373.63201517809466 0 0 0 0 1.4927072769833813 2.1792304295833613 0 2.1792304295833613 3.4520049416245016 0 0 0 0 4.7050870770563726 7.1695561889165802 0 7.1695561889165802 14.87809588729445 0 0 0 0 -41.583473038452212 -3.9003212032694137 0 -3.9003212032694137 53.457137171359136 0 0 0 0 -10.91513751136284 2.9656434527307276 0 2.9656434527307276 44.496456427833522 0 0 0 0 -38.787706917609285 -4.8049349154075571 0 -4.8049349154075571 62.776695357202698 0 0 0 0 -26.40475564918961 -0.32001124102498579 0 -0.32001124102498579 47.456697692063244 0 0 0 0 -52.743507201923421 -11.618873206494754 0 -11.618873206494754 52.37118707641639 0 0 0 0 -58.626469918588555 -14.830031755818709 0 -14.830031755818709 75.822417339941239 0 0 0 0 -63.880772798026555 -6.8226833660132797 0 -6.8226833660132797 71.908036261811503 0 0 0 0 -25.945959444614676 0.48501647499029588 0 0.48501647499029588 15.201842350180506 0 0 0 0 -40.693588685881878 6.2598442625931057 0 6.2598442625931057 88.839579013785624 0 0 0 0 -11.642823297542975 0.46167506711151263 0 0.46167506711151263 57.607761691001443 0 0 0 0 -26.895630789805637 21.430388403549841 0 21.430388403549841 95.968560572343449 0 0 0 0 -20.703018508929745 -14.493529349760138 0 -14.493529349760138 28.770329010661953 0 0 0 0 -22.519292414788218 5.2812099458687012 0 5.2812099458687012 45.127538954586129 0 0 0 0 -6.5960626538216118 4.1806046044146203 0 4.1806046044146203 4.8647799754651118 0 0 0 0 -4.1823108867010887 19.753719198313775 0 19.753719198313775 92.443604924838723 0 0 0 0 -40.747234346714322 39.286888621605613 0 39.286888621605613 94.046650787247927 0 0 0 0 -15.789401578822435 39.717899137277527 0 39.717899137277527 66.320547055473071 0 0 0 0 -18.241453706207245 13.330981963454729 0 13.330981963454729 48.966024399037757 0 0 0 0 -20.380038114798481 30.456269553093989 0 30.456269553093989 51.403753788061294 0 0 0 0 2.6958756810290652 62.637555324112327 0 62.637555324112327 95.342772831871343 0 0 0 0 -16.604503670425157 0.41198484093885845 0 0.41198484093885845 50.717765591191956 0 0 0 0 -22.030790178243478 -4.5012091807680008 0 -4.5012091807680008 51.783562240061997 0 0 0 0 -8.4214339187793534 5.4529554220440648 0 5.4529554220440648 74.391585596141383 0 0 0 0 -5.4023095730644854 1.9197668075248657 0 1.9197668075248657 139.99279171851958 0 0 0 0 -2.4157281700863322 -5.18448864081968 0 -5.18448864081968 28.373925578102018 0 0 0 0 -21.836232893652777 7.0105274382585776 0 7.0105274382585776 182.43930813247425 0 0 0 0 -14.971353401622764 -19.278964871220523 0 -19.278964871220523 136.33826724173014 0 0 0 0 -11.125842343065973 -22.322004751603956 0 -22.322004751603956 18.425945040747735 0 0 0 0 -30.885722335791797 -3.4030311931492179 0 -3.4030311931492179 158.35989872358914 0 0 0 0 -18.608115605959028 -1.92551691457993 0 -1.92551691457993 156.33936028501194 0 0 0 0 -21.743458145965633 7.1922977615377022 0 7.1922977615377022 166.78710692448658 0 0 0 0 -22.803056545033542 2.4186812421612558 0 2.4186812421612558 152.22530121869931 0 0 0 0 -22.857034069620568 14.279688644835915 0 14.279688644835915 149.80206169928351 0 0 0 0 -15.686303244159717 17.423014393672929 0 17.423014393672929 105.98596135855496 0 0 0 0 -19.266658021784679 16.255257639484626 0 16.255257639484626 150.78762217404142 0 0 0 0 -9.6532582182706683 25.969143494357308 0 25.969143494357308 90.244243540149625 0 0 0 0 -34.893456791547578 57.303327501031163 0 57.303327501031163 75.461613523471897 0 0 0 0 -16.800185823862194 6.1342564031929214 0 6.1342564031929214 137.52659900080562 0 0 0 0 -20.207124112841484 15.952267474001019 0 15.952267474001019 163.76239605824958 0 0 0 0 -6.9803817252377485 16.543406293858425 0 16.543406293858425 142.04040309759512 0 0 0 0 -4.6681473745829862 25.994172350861845 0 25.994172350861845 164.74995597302768 0 0 0 0 20.547899389950544 26.961982129079843 0 26.961982129079843 142.71344670323924 0 0 0 0 0.13440646964954794 9.491041198521998 0 9.491041198521998 163.40677749158385 0 0 0 0 6.1111430837845546 -0.011263625772699015 0 -0.011263625772699015 189.42709408964038 0 0 0 0 -2.8354993387747527 13.675748899411701 0 13.675748899411701 185.90175490962429 0 0 0 0 29.364455963840555 -5.2870662382156297 0 -5.2870662382156297 206.78278256975318 0 0 0 0 9.1476321978825581 16.696654253111774 0 16.696654253111774 205.62328754831833 0 0 0 0 19.900992008409958 22.965864846399199 0 22.965864846399199 171.65182199671472 0 0 0 0 16.689805598765815 -18.47330684755434 0 -18.47330684755434 218.45377380454283 0 0 0 0 10.781891473956421 12.216040669376525 0 12.216040669376525 210.19311747336906 0 0 0 0 -1.411473288320849 -11.569120862081036 0 -11.569120862081036 195.90366689175426 0 0 0 0 -11.291252988494307 1.0703502154283342 0 1.0703502154283342 185.38127221382456 0 0 0 0 -18.410726885922486 -0.788980596800684 0 -0.788980596800684 159.78507234293829 0 0 0 0 -17.506856548719952 -5.5100337951698748 0 -5.5100337951698748 179.33219945615747 0 0 0 0 -17.166427747128182 7.7223502012129757 0 7.7223502012129757 159.4458481454858 0 0 0 0 -14.865134620980825 13.170487983959902 0 13.170487983959902 170.62929562992213 0 0 0 0 -7.7884753900107171 4.726083235025726 0 4.726083235025726 170.93302321698047 0 0 0 0 18.791388048834051 22.481051871949603 0 22.481051871949603 127.51659446481244 0 0 0 0 42.070081915780975 -2.1465101546609731 0 -2.1465101546609731 150.35977290892333 0 0 0 0 16.993579355250404 3.3073041619536525 0 3.3073041619536525 148.12140866466143 0 0 0 0 37.956852482719114 21.186616510714884 0 21.186616510714884 157.83954370814354 0 0 0 0 24.790482800030077 19.712044453579438 0 19.712044453579438 203.33074981784739 0 0 0 0 20.653624767208385 7.4020170615694951 0 7.4020170615694951 236.2700393701416 0 0 0 0 26.561067784141414 -20.218627507812926 0 -20.218627507812926 292.70117623507394 0 0 0 0 28.971045118250913 29.841726888007543 0 29.841726888007543 204.03747196427048 0 0 0 0 -38.678529279193754 55.939238268939334 0 55.939238268939334 405.16256963001797 0 0 0 0 14.456015765313168 30.927895579759934 0 30.927895579759934 336.77915185217716 0 0 0 0 28.782226250486929 73.927949515598812 0 73.927949515598812 189.842006505678 0 0 0 0 -1.4507573152160234 1.0846662016526309 0 1.0846662016526309 0.74300404817023491 0 0 0 0 7.223152549326187 331.04138608829635 0 331.04138608829635 -593.82836127910923 0 0 0 0 -41.382923404307803 -78.790307365416083 0 -78.790307365416083 569.28263121642885 0 0 0 0 23.895456630945773 -45.746712539195869 0 -45.746712539195869 349.46915999633711 0 0 0 0 -124.17093213626504 206.40385276269808 0 206.40385276269808 -215.58807006899224 0 0 0 0 -138.62347630263389 117.90093473225352 0 117.90093473225352 -242.67670210783399 0 0 0 0 -3.9672238122107402 1.4040669873527563 0 1.4040669873527563 3.6499294871344361 0 0 0 0 -4.0918644363118801 -8.3492776850616792 0 -8.3492776850616792 335.51543595143039 0 0 0 0 -130.63551572782308 200.83713405090384 0 200.83713405090384 -220.19959834196197 0 0 0 0 19.443752911385673 -49.148664962845942 0 -49.148664962845942 333.71699860893932 0 0 0 0 11.845042540335271 -19.98438580070524 0 -19.98438580070524 301.14454595910502 0 0 0 0 32.54681796080331 -15.537684274298954 0 -15.537684274298954 324.11986224156135 0 0 0 0 21.863361005533079 -30.650153881761071 0 -30.650153881761071 281.89539547974709 0 0 0 0 22.45132150819154 -34.498251006714781 0 -34.498251006714781 298.3808429461933 0 0 0 0 27.627302276989212 -41.323591899599705 0 -41.323591899599705 277.87376587523067 0 0 0 0 2.6426497566499165 -132.22337398090167 0 -132.22337398090167 391.88839470913081 0 0 0 0 -1.2182280448774669 -0.3098170880497122 0 -0.3098170880497122 1.073696838697046 0 0 0 0 11.784394108861306 -126.93938967848044 0 -126.93938967848044 248.86550901753071 0 0 0 0 -116.72209845901853 101.86509102759373 0 101.86509102759373 -96.611172365828679 0 0 0 0 -12.4024737393338 -34.015212224545394 0 -34.015212224545394 -35.773999842400372 0 0 0 0 -0.40978034022572274 -0.15313171715725105 0 -0.15313171715725105 3.8731006491770152 0 0 0 0 -7.7219615730259399 1.3382762854695454 0 1.3382762854695454 9.829457625914678 0 0 0 0 -94.651706738462963 135.85727465629861 0 135.85727465629861 -189.22979854528239 0 0 0 0 -163.09235123998224 230.04933826664274 0 230.04933826664274 -226.40937342993857 0 0 0 0 -105.05745407657014 93.300686427413893 0 93.300686427413893 -17.049401516870375 0 0 0 0 -159.15031950324737 173.06404658073188 0 173.06404658073188 -14.130710850251489 0 0 0 0 -31.945283897315676 53.301767887824099 0 53.301767887824099 64.408301716342976 0 0 0 0 -181.8455451821419 162.39054033295179 0 162.39054033295179 59.727190430974588 0 0 0 0 -97.634815354736929 201.3233391119029 0 201.3233391119029 -193.84092184692418 0 0 0 0 -11.951371813789592 -17.923251250758767 0 -17.923251250758767 165.97137537007802 0 0 0 0 0.8746431136951287 -61.000383713580959 0 -61.000383713580959 182.51680343102726 0 0 0 0 -4.2428307501686504 -34.135724411429692 0 -34.135724411429692 192.54938481178988 0 0 0 0 -3.4000794877501903 -40.580130305326747 0 -40.580130305326747 233.03886521745335 0 0 0 0 4.4778962651125767 -2.0562830111684889 0 -2.0562830111684889 210.88901431416161 0 0 0 0 36.313984312124376 -45.104152842985059 0 -45.104152842985059 251.20122100827757 0 0 0 0 9.9745449315514634 -8.4249739108199719 0 -8.4249739108199719 255.67825823710882 0 0 0 0 10.510128941106814 24.248007074038469 0 24.248007074038469 100.75806011520763 0 0 0 0 45.806679692432226 -81.330730052883155 0 -81.330730052883155 306.73388197821259 0 0 0 0 29.494853124757356 -52.605784214480082 0 -52.605784214480082 278.25363632662629 0 0 0 0 14.164912056487083 -56.276571068483463 0 -56.276571068483463 281.38197062611289 0 0 0 0 38.010476164636202 -122.93366594461259 0 -122.93366594461259 301.00232094373132 0 0 0 0 -1.6044009657799663 -1.9892967083647317 0 -1.9892967083647317 4.5583525006256309 0 0 0 0 9.6449456503823967 -35.071354063782564 0 -35.071354063782564 229.96874689463584 0 0 0 0 33.233187818150327 -100.74182983605715 0 -100.74182983605715 209.04543445647869 0 0 0 0 11.762783659998604 -58.863993862156349 0 -58.863993862156349 170.50008532131869 0 0 0 0 9.3065174749863218 -30.612200979491718 0 -30.612200979491718 97.955720816815301 0 0 0 0 -2.3791782062391746 2.8770939283719006 0 2.8770939283719006 10.751915602912128 0 0 0 0 0.33570701992861274 -9.7996306761030887 0 -9.7996306761030887 -4.4446865197015981 0 0 0 0 -12.186516887852122 8.489209941797526 0 8.489209941797526 10.989964678014076 0 0 0 0 -0.86372203278006054 -4.5777557227338548 0 -4.5777557227338548 17.244187391261221 0 0 0 0 -3.8393767891611787 -7.4928677280258853 0 -7.4928677280258853 19.11357628200858 0 0 0 0 -1.1106901251626695 -4.3469831663884513 0 -4.3469831663884513 5.2104322615274157 0 0 0 0 -4.9260994169336101 -1.360751909368993 0 -1.360751909368993 11.257304815300202 0 0 0 0 -13.781177591453204 -0.43148478082391506 0 -0.43148478082391506 18.906221917244693 0 0 0 0 -4.1026569021425772 4.4747969946625821 0 4.4747969946625821 14.135918438023161 0 0 0 0 14.083608331871801 -11.956170611178095 0 -11.956170611178095 141.66605853119472 0 0 0 0 -8.9120100170253167 1.8543170532261399 0 1.8543170532261399 8.6762887166943035 0 0 0 0 -18.995433121912356 10.348390284929337 0 10.348390284929337 34.919945375136194 0 0 0 0 -16.231461954492261 -62.765248346979206 0 -62.765248346979206 94.634778643448044 0 0 0 0 0.25232922195209539 -7.7407681058912203 0 -7.7407681058912203 12.286195546446834 0 0 0 0 -29.662346189242271 140.67756622442084 0 140.67756622442084 -133.65278579443111 0 0 0 0 -33.039026073420246 -226.60596261133378 0 -226.60596261133378 450.34288077271776 0 0 0 0 1.4252190024053562 7.4160400429191213 0 7.4160400429191213 3.2970486422054819 0 0 0 0 -1.9332300350602054 25.698957835898682 0 25.698957835898682 6.4301297959464137 0 0 0 0 -2.9423243158880652 6.1168526724212775 0 6.1168526724212775 13.727042565894791 0 0 0 0 -8.0853089325719338 9.8753567232433852 0 9.8753567232433852 8.0037628655099979 0 0 0 0 -2.4401862123729181 1.3577025799528277 0 1.3577025799528277 11.969108126951312 0 0 0 0 2.5310340051827254 2.7330607398920748 0 2.7330607398920748 -0.82644553683159216 0 0 0 0 -23.887280466205993 -125.44787714849554 0 -125.44787714849554 88.046068455229033 0 0 0 0 -14.920850267939386 1.4198801952006761 0 1.4198801952006761 16.972201199791016 0 0 0 0 -34.35735369437316 70.674810048201834 0 70.674810048201834 -93.495490971185973 0 0 0 0 -194.74720537935355 194.48359248321867 0 194.48359248321867 -44.144549139080482 0 0 0 0 -168.85790436779553 88.515760310315272 0 88.515760310315272 142.46932108351029 0 0 0 0 -67.960654303635238 30.62006858474706 0 30.62006858474706 120.55979524909435 0 0 0 0 -49.774543741228626 -74.914079601442381 0 -74.914079601442381 231.39021997841337 0 0 0 0 -145.61713082037204 108.13966061608153 0 108.13966061608153 206.87909352907081 0 0 0 0 -80.017312975483947 -195.62219769465082 0 -195.62219769465082 479.67824403741542 0 0 0 0 -88.595297184634546 -16.763274356389957 0 -16.763274356389957 536.34084707546072 0 0 0 0 -69.764502170986816 -245.85825280754761 0 -245.85825280754761 394.42726860325911 0 0 0 0 -117.71006065783331 -14.052061906650124 0 -14.052061906650124 296.49879113724819 0 0 0 0 -51.711258394901961 -155.99879938142658 0 -155.99879938142658 507.41210463441348 0 0 0 0 -109.14155142767959 -264.37030527974821 0 -264.37030527974821 795.18040139484947 0 0 0 0 -102.37154322412607 -325.18279830273059 0 -325.18279830273059 764.90356999243886 0 0 0 0 -91.809752569824923 -426.67796096989878 0 -426.67796096989878 1008.8553077226625 0 0 0 0 44.84383994325799 -389.38122451044637 0 -389.38122451044637 721.88855082729788 0 0 0 0 50.858427268121886 -579.00184789488958 0 -579.00184789488958 1092.841607942054 0 0 0 0 26.011726647549494 -64.195588791883893 0 -64.195588791883893 1360.5594584668106 0 0 0 0 268.15211679295498 406.01926231417383 0 406.01926231417383 634.95946650041878 0 0 0 0 193.93365169425488 -322.56154527176113 0 -322.56154527176113 362.04923329233134 0 0 0 0 1.2994931134607306 -2.2549887013565879 0 -2.2549887013565879 4.7452762831629371 0 0 0 0 -1.6179397114384138 -2.4596890298898977 0 -2.4596890298898977 1.3905455035530707 0 0 0 0 -33.017232204092124 -190.85017281592081 0 -190.85017281592081 480.45194531826928 0 0 0 0 38.145851469469562 -337.39005297836593 0 -337.39005297836593 1028.0531210547015 0 0 0 0 36.169645842717728 -352.59941398225601 0 -352.59941398225601 1334.755159399896 0 0 0 0 979.48979132908244 -529.69082585304022 0 -529.69082585304022 1083.3254901270211 0 0 0 0 396.43796670098436 -791.08160781264451 0 -791.08160781264451 1863.760559284925 0 0 0 0 536.55403371889133 -658.0368114489238 0 -658.0368114489238 992.87914500604529 0 0 0 0 390.42593645334455 -368.97590655248496 0 -368.97590655248496 1043.9625930201055 0 0 0 0 229.55995269432333 -398.89185407452533 0 -398.89185407452533 783.40309435982817 0 0 0 0 246.09849064054197 -449.87490476115363 0 -449.87490476115363 775.3051762883988 0 0 0 0 24.78674369750388 -433.57869175219639 0 -433.57869175219639 1121.1218239324553 0 0 0 0 -27.977543018330834 -319.6912081346054 0 -319.6912081346054 893.07172198167882 0 0 0 0 -147.43411727689363 -289.12781760040343 0 -289.12781760040343 939.13403973566164 0 0 0 0 -129.52359448264178 -330.50648862350863 0 -330.50648862350863 946.95735239782061 0 0 0 0 -61.392079049286622 -356.05090193593605 0 -356.05090193593605 898.48236053281653 0 0 0 0 -108.03784959015502 -200.44841068373171 0 -200.44841068373171 892.27958423167684 0 0 0 0 -66.97452891698515 -143.38559247257854 0 -143.38559247257854 678.63701851857331 0 0 0 0 -72.455593465320817 -168.73531865195321 0 -168.73531865195321 1256.5802236058516 0 0 0 0 4.8098267564582784 56.424732027599021 0 56.424732027599021 644.32128743180283 0 0 0 0 -17.523196597571769 -77.994442465110296 0 -77.994442465110296 315.68855356359563 0 0 0 0 -66.359334919317917 68.627943991461507 0 68.627943991461507 318.8163870316024 0 0 0 0 207.87688995928511 121.06411359780577 0 121.06411359780577 312.59269786213372 0 0 0 0 81.769011347736523 1.0830731273617857 0 1.0830731273617857 424.38899795221005 0 0 0 0 79.050754377907651 60.267349905790979 0 60.267349905790979 372.2455366197014 0 0 0 0 195.81566660880799 154.37460080588971 0 154.37460080588971 228.7362341397311 0 0 0 0 221.28553964389312 197.33947813728537 0 197.33947813728537 401.58689699225943 0 0 0 0 115.79423837461127 250.46514669167482 0 250.46514669167482 834.44599047679549 0 0 0 0 3.2665390190552444 -5.0172944539291819 0 -5.0172944539291819 10.168753633919735 0 0 0 0 208.63218719240467 635.58273158183874 0 635.58273158183874 1891.1307272074596 0 0 0 0 438.23087241247276 -434.76834454325126 0 -434.76834454325126 105.49834603397176 0 0 0 0 3.375379672196205 -11.271303043706311 0 -11.271303043706311 27.818425363805048 0 0 0 0 -51.996404949702992 225.16883843502364 0 225.16883843502364 220.46725719391043 0 0 0 0 -5.662980860681774 2.8123128628091578 0 2.8123128628091578 15.34014486912654 0 0 0 0 -203.60006940238236 -16.244065677012259 0 -16.244065677012259 86.034047994937282 0 0 0 0 4.0855448640904797 56.089966503797768 0 56.089966503797768 -9.0094461000735464 0 0 0 0 2.7921760374156293 51.011341267218086 0 51.011341267218086 -23.617692352188897 0 0 0 0 0.30444058381500128 -1.6917860243697653 0 -1.6917860243697653 9.9535557131848691 0 0 0 0 225.56174918524994 -36.014077241472478 0 -36.014077241472478 29.975287836927237 0 0 0 0 83.328546941274908 7.8797776283863641 0 7.8797776283863641 31.017799866698624 0 0 0 0 -1.3288976266444816 -3.3389892769417671 0 -3.3389892769417671 26.192343056607697 0 0 0 0 -3.0668203023569731 -2.2489617617666227 0 -2.2489617617666227 37.357223442144459 0 0 0 0 -3.2816012143809346 -0.47366935663290377 0 -0.47366935663290377 5.4673547575651895 0 0 0 0 -3.1289098868455767 -1.5831820160883581 0 -1.5831820160883581 42.832729203124472 0 0 0 0 1.2797658321724157 -0.88704185060487362 0 -0.88704185060487362 38.312495523608959 0 0 0 0 1.7203903510653618 40.808376807660352 0 40.808376807660352 -22.792734171758639 0 0 0 0 85.164194144264911 127.83276852001654 0 127.83276852001654 62.239210590232688 0 0 0 0 77.442632773212154 61.711703692467836 0 61.711703692467836 287.9184124363419 0 0 0 0 234.79944440477993 121.48564879134756 0 121.48564879134756 -3.8818489584227791 0 0 0 0 132.40056302497032 90.593683289862383 0 90.593683289862383 10.669447125485021 0 0 0 0 91.551203414048359 111.7189228130519 0 111.7189228130519 0.38475945519530796 0 0 0 0 132.54771107197666 100.9213905510951 0 100.9213905510951 37.24725493742153 0 0 0 0 129.02730409876131 87.477679810825066 0 87.477679810825066 24.241998463097843 0 0 0 0 93.050955141723534 81.370122306758276 0 81.370122306758276 42.988011098444986 0 0 0 0 36.526931443433568 91.329843342078675 0 91.329843342078675 53.487625140553064 0 0 0 0 52.123996636499214 106.27928836972933 0 106.27928836972933 29.295694567757891 0 0 0 0 -213.55573968208591 315.34360693120107 0 315.34360693120107 -56.093658143577159 0 0 0 0 60.486960349722722 127.68133355549844 0 127.68133355549844 34.596312619767559 0 0 0 0 30.645825825446082 139.44068439890179 0 139.44068439890179 31.916446954305684 0 0 0 0 -65.024252157083083 149.08685845191985 0 149.08685845191985 75.831021987494751 0 0 0 0 -19.122094672809908 99.142793409855585 0 99.142793409855585 119.31989391918432 0 0 0 0 0.11526632570554263 3.0211800731327685 0 3.0211800731327685 1.5280129623012044 0 0 0 0 -30.265404318710353 69.870211768224181 0 69.870211768224181 42.520893722853543 0 0 0 0 0.26599928230772818 -0.36001242755598639 0 -0.36001242755598639 -0.5948665675415441 0 0 0 0 55.429970299859633 55.960635171243666 0 55.960635171243666 45.568185684442142 0 0 0 0 -8.1743718558245746 -31.102495691660806 0 -31.102495691660806 75.442133871044462 0 0 0 0 -104.66521177498544 -41.523949688171342 0 -41.523949688171342 110.43464644954111 0 0 0 0 4.9815145642314747 4.5879013294834294 0 4.5879013294834294 30.043115122909512 0 0 0 0 -3.1913126463532535 2.6224877465247118 0 2.6224877465247118 41.136817909848105 0 0 0 0 -3.6355374027116341 13.81610328865645 0 13.81610328865645 27.672671903636001 0 0 0 0 0.27096496371091305 9.779933033966234 0 9.779933033966234 20.766864329526058 0 0 0 0 -3.9011460143519798 6.0447010451280221 0 6.0447010451280221 32.44808925329562 0 0 0 0 11.088610556292224 28.664534427219223 0 28.664534427219223 15.26295860053142 0 0 0 0 -8.0792748789954203 18.481903723475625 0 18.481903723475625 25.119027586275479 0 0 0 0 -9.2398115462533497 19.177238212492739 0 19.177238212492739 30.171816400288662 0 0 0 0 -1.3200080901321982 9.4773845239258563 0 9.4773845239258563 22.139040732639572 0 0 0 0 -55.75746647867345 1.8373382958216098 0 1.8373382958216098 49.887101734857424 0 0 0 0 26.642070417289915 25.355713660112542 0 25.355713660112542 148.86955416832643 0 0 0 0 3.0666460747880127 -1.9345445546935665 0 -1.9345445546935665 15.306331612286343 0 0 0 0 25.708696674615567 94.704088920309005 0 94.704088920309005 111.93576555386608 0 0 0 0 -10.247618222855635 44.335360815561216 0 44.335360815561216 10.092559544344113 0 0 0 0 245.80107910038623 316.7058622079976 0 316.7058622079976 320.91689512008088 0 0 0 0 32.222612366580506 -109.90601513326146 0 -109.90601513326146 49.876131214673933 0 0 0 0 0.59248813225986652 -2.004850720428216 0 -2.004850720428216 4.3705230052551087 0 0 0 0 -2.6663268669581157 -7.0415587098941614 0 -7.0415587098941614 107.43490802623273 0 0 0 0 9.3480126316785572 -44.860739671281408 0 -44.860739671281408 120.38600698281516 0 0 0 0 28.799025085925678 -14.667855891828367 0 -14.667855891828367 97.855093541054885 0 0 0 0 8.008147768247909 -141.92816345874053 0 -141.92816345874053 245.22168519375919 0 0 0 0 -17.003826281085821 -11.833940457909193 0 -11.833940457909193 129.6798335304502 0 0 0 0 -57.925943389398441 21.787660219209428 0 21.787660219209428 180.46636450292863 0 0 0 0 -57.822576563735637 40.018297303240928 0 40.018297303240928 429.60499568608066 0 0 0 0 109.16222522068892 234.40890762744584 0 234.40890762744584 234.73574240613016 0 0 0 0 37.291461367850388 73.762391646954711 0 73.762391646954711 20.045759821252432 0 0 0 0 31.444675693868248 118.58761059691574 0 118.58761059691574 147.21672780098379 0 0 0 0 -113.23879017991021 3.2253492100007861 0 3.2253492100007861 460.13716604524257 0 0 0 0 -38.724200695102809 -94.877783631451166 0 -94.877783631451166 159.56201087611407 0 0 0 0 15.00608514460589 235.79630473914358 0 235.79630473914358 474.40828065692222 0 0 0 0 -10.013813007025426 5.5821362480069894 0 5.5821362480069894 -3.5454778970543579 0 0 0 0 161.56315522258774 -115.78675851652861 0 -115.78675851652861 -2.2789421823872544 0 0 0 0 -19.229859120403034 18.614499484051976 0 18.614499484051976 107.61063842390286 0 0 0 0 -8.4569807243683499 44.130849465575466 0 44.130849465575466 131.49587551360673 0 0 0 0 -21.029992416667483 16.751010443596897 0 16.751010443596897 126.9570967891691 0 0 0 0 4.8979548066240568 45.3087717419412 0 45.3087717419412 133.01477924136998 0 0 0 0 -15.460146463994533 34.021177256295232 0 34.021177256295232 148.65905308517631 0 0 0 0 -7.9490536131193039 39.544654941423687 0 39.544654941423687 147.82624807505272 0 0 0 0 -7.4332919549694267 5.1171280413412958 0 5.1171280413412958 -6.6207734248320875 0 0 0 0 0.50527402190255088 51.710799264223169 0 51.710799264223169 174.80070596712267 0 0 0 0 10.533964088470384 41.243503298795986 0 41.243503298795986 146.76128985343348 0 0 0 0 -3.0933454930732864 39.948437380947439 0 39.948437380947439 150.91241036465726 0 0 0 0 -5.7163417331111823 43.517318839990033 0 43.517318839990033 138.67593980465452 0 0 0 0 3.4650365451088874 28.731569489807953 0 28.731569489807953 144.17103376294745 0 0 0 0 -7.5356711673393875 37.130833740336129 0 37.130833740336129 141.21370475085496 0 0 0 0 -29.141559434265218 24.323265046850793 0 24.323265046850793 143.21143992953057 0 0 0 0 -43.559375525777341 11.952016505884785 0 11.952016505884785 139.47242476744213 0 0 0 0 -28.786176441141833 23.846305454857429 0 23.846305454857429 142.73016650850332 0 0 0 0 -38.765342538023106 24.392148532713691 0 24.392148532713691 139.23832164789928 0 0 0 0 -1.962851847302943 31.686160547233044 0 31.686160547233044 138.08877963718987 0 0 0 0 -542.67763115957678 720.16317841962518 0 720.16317841962518 950.71607984667935 0 0 0 0 738.72879023141058 -619.24203162752019 0 -619.24203162752019 -370.17381434643175 0 0 0 0 -30.606256987155575 -262.22282738857029 0 -262.22282738857029 1034.3611137397165 0 0 0 0 -119.00992587569181 484.742478703286 0 484.742478703286 240.2291999818699 0 0 0 0 -130.77907965880877 180.96864744063714 0 180.96864744063714 979.27190492020691 0 0 0 0 264.69312950878702 -749.86174748753911 0 -749.86174748753911 1456.3352657525661 0 0 0 0 2.2696703783937835 5.1090399262422608 0 5.1090399262422608 13.716314494920539 0 0 0 0 74.945707429656068 -29.82312027626449 0 -29.82312027626449 209.03300253493671 0 0 0 0 -38.530672346079427 -5.9285671376537721 0 -5.9285671376537721 293.25198390290825 0 0 0 0 -188.97106022968273 132.08748917371213 0 132.08748917371213 109.11271201933414 0 0 0 0 -46.274127859983309 -30.128421791860092 0 -30.128421791860092 219.52877251210066 0 0 0 0 -176.6829922123552 271.91946005986392 0 271.91946005986392 59.089288150958964 0 0 0 0 -134.20351501111418 123.90251565707331 0 123.90251565707331 392.02728658753313 0 0 0 0 -13.230662162402716 11.646622570250855 0 11.646622570250855 34.555152368011079 0 0 0 0 -5.1821152131085579 50.083602937341269 0 50.083602937341269 142.01156668186485 0 0 0 0 6.8949916102251336 41.580487977652865 0 41.580487977652865 187.09122222480073 0 0 0 0 -6.2504382173410704 84.147039548566681 0 84.147039548566681 115.85437337473195 0 0 0 0 -6.277823568310815 12.207270246551559 0 12.207270246551559 33.629564642734557 0 0 0 0 -2.9655067193325522 9.195709536981667 0 9.195709536981667 130.58410111359808 0 0 0 0 -14.56109678372195 106.63894609253111 0 106.63894609253111 117.76613857802295 0 0 0 0 7.6233697207629696 55.36038247500808 0 55.36038247500808 131.41441241582049 0 0 0 0 -176.04905814982158 165.62049361195568 0 165.62049361195568 104.37063186073829 0 0 0 0 61.186618810334039 486.00712664847924 0 486.00712664847924 -685.95451171377499 0 0 0 0 -285.60363576624513 82.939786754492161 0 82.939786754492161 210.56340229984289 0 0 0 0 -339.72145064420852 384.03483831958783 0 384.03483831958783 -22.866720969075686 0 0 0 0 73.633030274092562 366.2116325954903 0 366.2116325954903 -443.29200994801795 0 0 0 0 -87.133911132787034 195.70256487798906 0 195.70256487798906 114.51884728173536 0 0 0 0 -15.501796196351734 258.25635302187493 0 258.25635302187493 -63.576867529784067 0 0 0 0 -43.560820131658147 124.91888428779203 0 124.91888428779203 116.0830057127032 0 0 0 0 -38.36649200105785 71.510460814543876 0 71.510460814543876 110.49250831532481 0 0 0 0 4.449920028101829 44.055976231034535 0 44.055976231034535 119.339386387595 0 0 0 0 -77.573781198155302 99.778957213015019 0 99.778957213015019 103.84882575620941 0 0 0 0 -18.589651681097166 81.714886950778236 0 81.714886950778236 64.357314667709943 0 0 0 0 -28.603694038516551 44.960562118438247 0 44.960562118438247 130.39944825865268 0 0 0 0 -27.438363776856022 49.569685362921518 0 49.569685362921518 140.50045199134911 0 0 0 0 -29.028432196510039 50.824761202402442 0 50.824761202402442 209.51641160691543 0 0 0 0 -13.928611127270415 -6.4683742151592014 0 -6.4683742151592014 132.84520841750054 0 0 0 0 -10.908729801290974 -21.064546048473858 0 -21.064546048473858 202.99884250647756 0 0 0 0 -4.4819332907081844 6.0664786321485735 0 6.0664786321485735 149.46379648987431 0 0 0 0 -15.931026992987427 27.505693400258679 0 27.505693400258679 124.41950363707656 0 0 0 0 13.86025816350957 14.485334879979746 0 14.485334879979746 138.79078600626963 0 0 0 0 17.862199512919688 -24.279248174523673 0 -24.279248174523673 113.9615157985827 0 0 0 0 27.901797234631886 -10.407660193330685 0 -10.407660193330685 132.85067586763398 0 0 0 0 -44.869587834475169 86.374183766699389 0 86.374183766699389 66.411469961842158 0 0 0 0 -28.350427522423615 52.854100328589539 0 52.854100328589539 110.06967023663856 0 0 0 0 -2.3355404672511852 34.804764096057227 0 34.804764096057227 105.61802654761848 0 0 0 0 -6.3721919102517859 30.929023125889216 0 30.929023125889216 110.53009607243914 0 0 0 0 -7.7184061691059469 21.351824769910309 0 21.351824769910309 142.09474443418367 0 0 0 0 16.005507271140232 9.9793386267647293 0 9.9793386267647293 125.13476577637994 0 0 0 0 5.6505639102065288 28.257329909428336 0 28.257329909428336 99.51828129144269 0 0 0 0 -34.551910907877641 55.032257328535934 0 55.032257328535934 66.116520267511078 0 0 0 0 22.652020654011721 38.333918228959192 0 38.333918228959192 55.264111544647676 0 0 0 0 23.69453598817654 64.448680772268744 0 64.448680772268744 52.54029900011119 0 0 0 0 -11.05665777608192 52.161592129222299 0 52.161592129222299 62.232275952003874 0 0 0 0 -3.0316143388595265 36.494807179793952 0 36.494807179793952 66.980465802254912 0 0 0 0 4.2896004599738262 41.711672262251341 0 41.711672262251341 54.546287485107314 0 0 0 0 -1.7627625872796671 20.253268920456321 0 20.253268920456321 58.217107337270136 0 0 0 0 -5.8036311730168899 4.5593124128325826 0 4.5593124128325826 51.901707996726877 0 0 0 0 21.954565783054022 24.075181622778473 0 24.075181622778473 57.266766762309999 0 0 0 0 -40.039423562694537 -15.657319911448212 0 -15.657319911448212 64.447974956250619 0 0 0 0 -17.697271713896953 -4.3196671799287287 0 -4.3196671799287287 56.469320647316636 0 0 0 0 -174.58455133063933 -31.004365238517494 0 -31.004365238517494 283.36865731626676 0 0 0 0 -19.715250119975963 -10.52032629353198 0 -10.52032629353198 50.173489346958377 0 0 0 0 -18.801279949222945 -4.0317738925910191 0 -4.0317738925910191 7.073269503656002 0 0 0 0 29.514121935391813 28.167485475985814 0 28.167485475985814 52.214560586522566 0 0 0 0 32.812730946181546 36.403869322681203 0 36.403869322681203 51.602833256768463 0 0 0 0 28.643299735798792 23.493937240311425 0 23.493937240311425 59.313352097256939 0 0 0 0 58.683994161129704 14.761405883995394 0 14.761405883995394 52.3349125237919 0 0 0 0 76.70098398742924 39.58544189243927 0 39.58544189243927 38.272860912406031 0 0 0 0 43.947968046021742 41.609692063667353 0 41.609692063667353 38.532863082338736 0 0 0 0 65.698706963037509 15.885899988416895 0 15.885899988416895 38.615103545269449 0 0 0 0 -2.532345519688548 -6.76354893371062 0 -6.76354893371062 36.557666397147628 0 0 0 0 -1.9353940645549397 -0.26518008674375437 0 -0.26518008674375437 1.2533259212128129 0 0 0 0 -178.64274011267048 38.414257731739781 0 38.414257731739781 -21.918867654443602 0 0 0 0 -85.913684348188383 -277.81844751279618 0 -277.81844751279618 -155.13515525179173 0 0 0 0 0.39605114110805473 -2.226567152191441 0 -2.226567152191441 25.454613318767187 0 0 0 0 76.608341659092048 13.153261638514778 0 13.153261638514778 31.573417576416432 0 0 0 0 162.30481049557943 -6.0977420024610183 0 -6.0977420024610183 -106.71958695795911 0 0 0 0 76.680178247957883 15.8633398165166 0 15.8633398165166 33.768182874497143 0 0 0 0 52.767377774626311 54.285525194710317 0 54.285525194710317 33.121722358528132 0 0 0 0 69.451373251464247 87.290945398863187 0 87.290945398863187 46.583048364609567 0 0 0 0 -34.716030312147495 144.33116774562109 0 144.33116774562109 34.632353579341725 0 0 0 0 -18.179595026090055 79.604780808921532 0 79.604780808921532 51.444061804311787 0 0 0 0 1.5535407339548328 28.433930607594448 0 28.433930607594448 53.781543184963084 0 0 0 0 -11.547411125616691 25.33720569533034 0 25.33720569533034 60.874420971200379 0 0 0 0 -7.7582188050647023 -1.4626191767822405 0 -1.4626191767822405 -0.02886144383134237 0 0 0 0 41.601273425568706 -3.8606336659977387 0 -3.8606336659977387 62.052008561702678 0 0 0 0 -32.327892841983953 3.2436508549126302 0 3.2436508549126302 244.00860169218504 0 0 0 0 -28.141041891525447 -31.121315215226787 0 -31.121315215226787 109.17682452821828 0 0 0 0 8.5092133048617598 41.846692785753476 0 41.846692785753476 137.45185214440062 0 0 0 0 14.191554118237718 11.817724049999015 0 11.817724049999015 14.52843233313979 0 0 0 0 7.1591949275048137 -3.6404607297499751 0 -3.6404607297499751 58.039161823087852 0 0 0 0 -13.423611673673246 -2.5326440753872674 0 -2.5326440753872674 -1.1700070840551646 0 0 0 0 -147.75770205421077 10.013105531881592 0 10.013105531881592 167.60322968141554 0 0 0 0 -18.380797572508982 16.487046565627679 0 16.487046565627679 157.59587913192445 0 0 0 0 -3.9752153414304985 -3.8630035794822106 0 -3.8630035794822106 87.028585828491487 0 0 0 0 -20.86878959948217 -1.8995626018440817 0 -1.8995626018440817 86.871870808694439 0 0 0 0 -14.881729363378213 11.468473410377783 0 11.468473410377783 85.568866534806148 0 0 0 0 -17.801841336614871 -20.646487950742085 0 -20.646487950742085 63.835603574936613 0 0 0 0 1.5377785176572161 -86.665741089211224 0 -86.665741089211224 89.275236229892471 0 0 0 0 71.467930569935561 8.5639081123081269 0 8.5639081123081269 216.28754866750114 0 0 0 0 203.26920069287064 118.88629803146523 0 118.88629803146523 -10.809168663283344 0 0 0 0 107.75950433218077 157.01558175711398 0 157.01558175711398 258.62148632372555 0 0 0 0 -12.087362732203474 36.522559882934729 0 36.522559882934729 -55.18976600111273 0 0 0 0 -158.00568905192722 -77.631904769155881 0 -77.631904769155881 6.3194542250348604 0 0 0 0 -4.7661690646020887 -0.53006135356973516 0 -0.53006135356973516 3.2159589943967504 0 0 0 0 7.530570192234336 144.88936720307538 0 144.88936720307538 175.76856695487365 0 0 0 0 -144.09293030136723 -111.23888202802846 0 -111.23888202802846 -38.868417444235092 0 0 0 0 -228.06023749718588 10.6671000460301 0 10.6671000460301 177.297489496872 0 0 0 0 41.208717610164058 -20.362054245157196 0 -20.362054245157196 -16.412437707997015 0 0 0 0 -2.8215228061240687 -0.45604751872904359 0 -0.45604751872904359 0.23873507331731147 0 0 0 0 -26.610134189994824 16.41732733462959 0 16.41732733462959 57.6209062896869 0 0 0 0 14.357547540811751 -16.716920373060304 0 -16.716920373060304 81.372219966226112 0 0 0 0 -3.4627974277191242 14.061881761161203 0 14.061881761161203 57.418611153741949 0 0 0 0 -8.4378182096948855 0.41612274413925121 0 0.41612274413925121 -0.87928494939681379 0 0 0 0 -2.0635584628332708 -11.929135690523253 0 -11.929135690523253 33.367597977976402 0 0 0 0 -9.5017545791588418 28.81147802556734 0 28.81147802556734 62.117420325081184 0 0 0 0 -9.0235146726889752 78.280107915856661 0 78.280107915856661 65.053308169892262 0 0 0 0 -1.712070719078838 42.016964734690191 0 42.016964734690191 109.66898659483741 0 0 0 0 7.1224132637964885 12.651121012796466 0 12.651121012796466 48.602132597472519 0 0 0 0 -6.0258904065230734 -0.57867798217783672 0 -0.57867798217783672 2.9498020529046727 0 0 0 0 -4.8690429953303465 -63.247522299807315 0 -63.247522299807315 20.92977026254448 0 0 0 0 -5.5479725759528407 -0.51933584295439061 0 -0.51933584295439061 1.4451764615446905 0 0 0 0 -70.755274149584693 -180.10183575804331 0 -180.10183575804331 -119.01234882089557 0 0 0 0 -100.86366303809245 -26.285882451826183 0 -26.285882451826183 -57.488022708541394 0 0 0 0 -87.025653635590515 -230.58716399147852 0 -230.58716399147852 -237.9013153351716 0 0 0 0 -2.7145629980654604 -0.71566115241468964 0 -0.71566115241468964 1.5423554655567457 0 0 0 0 -35.570947994757745 100.9655667707957 0 100.9655667707957 115.55104173453583 0 0 0 0 -160.00454686499563 40.340502140318904 0 40.340502140318904 61.163549188473553 0 0 0 0 32.337317156894187 -124.43110875346429 0 -124.43110875346429 -40.941289890990447 0 0 0 0 129.83733822308238 32.684786724996229 0 32.684786724996229 -55.644716702227015 0 0 0 0 -16.058552701947065 60.309937695583358 0 60.309937695583358 49.506428950502595 0 0 0 0 154.06446632939219 -61.706410061684437 0 -61.706410061684437 130.43523305655981 0 0 0 0 -0.55990548426856845 1.6932947369752576 0 1.6932947369752576 6.5756627372454233 0 0 0 0 14.084926735749832 19.513569611182902 0 19.513569611182902 144.99438625367839 0 0 0 0 -16.068569052532894 68.031137240510361 0 68.031137240510361 666.35441941302633 0 0 0 0 -72.369660617363479 9.7776788949267939 0 9.7776788949267939 179.81460951917325 0 0 0 0 29.210162991583275 -122.55849970928125 0 -122.55849970928125 10.620629327087954 0 0 0 0 -63.390768179574195 -92.939880598732543 0 -92.939880598732543 60.619856570767297 0 0 0 0 -86.279284808223565 41.938444545645325 0 41.938444545645325 177.57662764646193 0 0 0 0 -97.640832284072303 -10.692438172888615 0 -10.692438172888615 9.208677699760301 0 0 0 0 -93.707059115982815 -68.4137636882582 0 -68.4137636882582 6.1000934574294661 0 0 0 0 -91.072100014686839 -39.917983278121028 0 -39.917983278121028 2.2785273369081551 0 0 0 0 159.88873720782703 56.959874971435056 0 56.959874971435056 104.16329028591826 0 0 0 0 188.95371814174359 -34.801485661944753 0 -34.801485661944753 129.57812234754965 0 0 0 0 79.575278067101863 9.0734352539475367 0 9.0734352539475367 184.64712244382463 0 0 0 0 329.7724408639624 86.458319784564083 0 86.458319784564083 -139.99851953592224 0 0 0 0 158.23989023443846 124.37154740774531 0 124.37154740774531 23.139134602442937 0 0 0 0 111.79202264317519 94.626980353719773 0 94.626980353719773 30.468711547595376 0 0 0 0 131.92896229088819 37.843254355456338 0 37.843254355456338 42.609809092795331 0 0 0 0 114.72587526535972 61.173517958870434 0 61.173517958870434 28.377189554952565 0 0 0 0 94.100762411110722 4.7400679192435291 0 4.7400679192435291 32.012434527812729 0 0 0 0 149.79700724905706 28.064174791888945 0 28.064174791888945 23.378773166779865 0 0 0 0 -0.43917011974553311 -0.057474260382827325 0 -0.057474260382827325 16.212737279123459 0 0 0 0 88.520710554079074 68.610285304077479 0 68.610285304077479 126.45551133477784 0 0 0 0 114.08565977991748 64.086178603747612 0 64.086178603747612 103.07197704157079 0 0 0 0 146.40829147036476 147.4425610896584 0 147.4425610896584 262.99245068204618 0 0 0 0 153.39501980466116 69.031941528242896 0 69.031941528242896 108.70351744673644 0 0 0 0 334.18434159568125 370.10635119427616 0 370.10635119427616 373.98714180619936 0 0 0 0 19.199310406944505 209.2965634078264 0 209.2965634078264 625.73976729944479 0 0 0 0 33.142199928477339 186.39671314312 0 186.39671314312 574.91986152697791 0 0 0 0 -5.6907704618383832 227.75909515007061 0 227.75909515007061 387.27058886027953 0 0 0 0 94.234784359616242 115.02982945161602 0 115.02982945161602 416.02579600752142 0 0 0 0 84.091463751593892 33.999905660162767 0 33.999905660162767 279.77054828508699 0 0 0 0 64.772933487871342 129.30152195782284 0 129.30152195782284 411.15086789885027 0 0 0 0 -40.283891678011059 -166.81683904600141 0 -166.81683904600141 530.29005054391382 0 0 0 0 -130.69320068335401 252.97017290366239 0 252.97017290366239 623.44096284231227 0 0 0 0 5.2845110218540867 77.3739350669548 0 77.3739350669548 383.05522939036734 0 0 0 0 28.158564665773611 125.09931248447174 0 125.09931248447174 118.26954636214941 0 0 0 0 -65.482001960403068 -39.918895616268856 0 -39.918895616268856 117.4229491579332 0 0 0 0 50.948506679394086 80.458968293780345 0 80.458968293780345 183.82744381603698 0 0 0 0 59.752902971907588 93.418432933656732 0 93.418432933656732 193.05900476335228 0 0 0 0 63.973071516134212 127.54417428742636 0 127.54417428742636 256.68645081304567 0 0 0 0 50.723380751127479 105.12090017315859 0 105.12090017315859 211.99908167418471 0 0 0 0 -1.5764421671672739 -1.8743949374466524 0 -1.8743949374466524 3.864958955562237 0 0 0 0 -0.67586999020869021 -2.825632693688938 0 -2.825632693688938 4.7987686999038459 0 0 0 0 39.139949451383018 91.161916317998475 0 91.161916317998475 205.83475835635181 0 0 0 0 29.166819419734111 80.061781355727362 0 80.061781355727362 256.71545399614843 0 0 0 0 43.002660518874563 80.354627978966164 0 80.354627978966164 242.22418203541383 0 0 0 0 9.9185009331662286 26.748168537171296 0 26.748168537171296 257.03880949322047 0 0 0 0 -15.63366148755722 13.12538480796502 0 13.12538480796502 238.31820694205817 0 0 0 0 -4.9844782439049595 8.4909570853997138 0 8.4909570853997138 234.81996388718471 0 0 0 0 -18.957509126046716 11.750352949427906 0 11.750352949427906 204.98835401290489 0 0 0 0 -32.796103153281365 -30.582867680106574 0 -30.582867680106574 174.73342849625442 0 0 0 0 -61.827333773667306 -45.752436642353132 0 -45.752436642353132 146.51586316913745 0 0 0 0 16.395994836417913 21.596131960184721 0 21.596131960184721 147.08891826191393 0 0 0 0 11.012403759898916 56.892781424190616 0 56.892781424190616 205.08243479273551 0 0 0 0 7.1002996271333814 31.812458643375066 0 31.812458643375066 178.96876199827966 0 0 0 0 1.6080119497886116 2.8249660962512504 0 2.8249660962512504 5.5463030610616215 0 0 0 0 41.033620564303419 7.7149975509255455 0 7.7149975509255455 -118.57426563046829 0 0 0 0 292.29694752128853 366.67324683162587 0 366.67324683162587 204.86279370290504 0 0 0 0 -230.38230602731983 100.69098234353623 0 100.69098234353623 126.340345397286 0 0 0 0 9.7346756687587117 200.51249509629383 0 200.51249509629383 441.74872763508756 0 0 0 0 14.140274369045073 68.944054177822181 0 68.944054177822181 25.86803678848446 0 0 0 0 87.548278143062362 280.63454834805816 0 280.63454834805816 294.84865306230495 0 0 0 0 106.05286019341997 273.84558883736099 0 273.84558883736099 288.49735931526084 0 0 0 0 107.64773795206293 317.23165279415116 0 317.23165279415116 315.29218979230245 0 0 0 0 133.95644164165128 250.39181946891949 0 250.39181946891949 271.54136053054026 0 0 0 0 320.39689444019928 45.72825616828959 0 45.72825616828959 283.83382372095002 0 0 0 0 264.49877139343016 392.39724411675707 0 392.39724411675707 406.38879421493039 0 0 0 0 72.458414089576536 121.90072521806724 0 121.90072521806724 299.95608936544522 0 0 0 0 4.1153494807628022 34.805562027057022 0 34.805562027057022 382.46073168261137 0 0 0 0 96.286032820195032 207.86544484608567 0 207.86544484608567 515.7466972785187 0 0 0 0 71.831620234355796 -73.640252200460964 0 -73.640252200460964 539.76420116849113 0 0 0 0 63.122536410696625 132.16749902268111 0 132.16749902268111 386.15580660746491 0 0 0 0 -0.88512808285235867 -2.572549471904388 0 -2.572549471904388 4.9259485006985528 0 0 0 0 -1.5349967476033335 -1.4866000532467325 0 -1.4866000532467325 3.782102865429664 0 0 0 0 333.53615587163586 -202.06843666359418 0 -202.06843666359418 648.59606788899691 0 0 0 0 115.13254191894248 473.07827327573978 0 473.07827327573978 546.58910613796252 0 0 0 0 292.71347588684148 -127.78715162622393 0 -127.78715162622393 748.56006821923438 0 0 0 0 63.270146783172549 188.24218853557886 0 188.24218853557886 926.97236741987581 0 0 0 0 434.18770716543168 98.346858829172561 0 98.346858829172561 580.30402092891745 0 0 0 0 229.36866875664145 252.72204896113908 0 252.72204896113908 716.12621258833678 0 0 0 0 447.53575451006714 260.20099953749559 0 260.20099953749559 716.36628157367522 0 0 0 0 331.40990932045952 -269.31712716953916 0 -269.31712716953916 542.41122351046943 0 0 0 0 0.30332885166566115 -1.0673800283617112 0 -1.0673800283617112 -1.1574538665142029 0 0 0 0 32.782276916848787 5.0338026276003802 0 5.0338026276003802 539.72298195743133 0 0 0 0 28.321671989320748 55.208736681292066 0 55.208736681292066 263.42624959589739 0 0 0 0 123.31257378571399 -70.829631241032985 0 -70.829631241032985 424.01094607112464 0 0 0 0 163.89578652363753 -8.0901803658243807 0 -8.0901803658243807 400.68416547754896 0 0 0 0 131.13439591539282 -43.100985272823891 0 -43.100985272823891 506.22103430016432 0 0 0 0 154.6231865189111 19.628354863394634 0 19.628354863394634 488.51424812625191 0 0 0 0 116.12062497428633 -8.9415968133835122 0 -8.9415968133835122 473.42717448566691 0 0 0 0 92.805625333960052 -25.503287835046649 0 -25.503287835046649 536.9030125314257 0 0 0 0 39.147572288256924 0.13076990656554699 0 0.13076990656554699 525.95622809547058 0 0 0 0 118.77193319498883 8.8613467248742381 0 8.8613467248742381 522.91090502368752 0 0 0 0 56.518159873496188 28.211726455265307 0 28.211726455265307 525.30032603019208 0 0 0 0 138.68489416618218 71.661507081414129 0 71.661507081414129 544.11129365619854 0 0 0 0 133.29728012798387 32.987820844771704 0 32.987820844771704 480.16133107501082 0 0 0 0 67.019556506584195 92.794650058327534 0 92.794650058327534 558.58350002689986 0 0 0 0 176.81135954909678 82.159191908309367 0 82.159191908309367 545.16242298422731 0 0 0 0 188.01719369484613 157.96243095435875 0 157.96243095435875 592.27177017202484 0 0 0 0 222.9398595803832 124.29635812075867 0 124.29635812075867 581.82987216290348 0 0 0 0 316.30342024388756 23.280535108271579 0 23.280535108271579 502.48966897799983 0 0 0 0 106.46162746239861 40.155505847593304 0 40.155505847593304 468.15041957405629 0 0 0 0 165.36522178227233 -5.4584566947842177 0 -5.4584566947842177 501.43664983499912 0 0 0 0 190.87528214418853 92.53417546334822 0 92.53417546334822 522.08829983063333 0 0 0 0 97.601681266029118 -122.36680636407982 0 -122.36680636407982 478.50897340915981 0 0 0 0 118.13695640352307 -31.246767853968777 0 -31.246767853968777 701.54949875969032 0 0 0 0 123.61359128572531 29.91616755773066 0 29.91616755773066 518.92349632464902 0 0 0 0 93.132012248739102 -94.984423693076678 0 -94.984423693076678 236.75828276797802 0 0 0 0 -27.369096351610096 -87.005547666522034 0 -87.005547666522034 210.66611891192952 0 0 0 0 100.33430729932775 -62.641290439965815 0 -62.641290439965815 381.95504742488265 0 0 0 0 9.0654277426183398 -191.28051608423993 0 -191.28051608423993 309.99225102698983 0 0 0 0 57.563443604301028 -135.88867274104268 0 -135.88867274104268 266.7407627675384 0 0 0 0 66.028393873789355 -83.906312202539993 0 -83.906312202539993 291.53352385764447 0 0 0 0 75.004270970775451 -140.43888529583728 0 -140.43888529583728 381.27877828260534 0 0 0 0 27.567075093528729 -12.990545333701448 0 -12.990545333701448 471.18831584261352 0 0 0 0 40.044415862443088 -18.430865931971312 0 -18.430865931971312 346.37196017493261 0 0 0 0 25.597535608613896 -41.455515807667325 0 -41.455515807667325 316.01914987085911 0 0 0 0 35.534609205257141 -91.786870817226372 0 -91.786870817226372 248.59543630529515 0 0 0 0 41.630496197950833 -80.364609179661784 0 -80.364609179661784 253.31465134706377 0 0 0 0 40.997647807818623 -110.71927945547759 0 -110.71927945547759 332.58940350564808 0 0 0 0 58.87772580597175 -119.88149604844511 0 -119.88149604844511 237.61620453412979 0 0 0 0 -0.22505964518294164 -2.4125265686901827 0 -2.4125265686901827 -2.3580345948874282 0 0 0 0 72.615647211880741 -101.15343958149333 0 -101.15343958149333 168.84189403060736 0 0 0 0 52.842522866161119 -96.024946368946985 0 -96.024946368946985 184.30082155905257 0 0 0 0 66.169948202349545 -111.08897385439559 0 -111.08897385439559 173.47911134979222 0 0 0 0 185.61805329441404 -59.969735500337265 0 -59.969735500337265 0.15245238276111195 0 0 0 0 -85.466725273648535 -152.60426260877648 0 -152.60426260877648 170.45582891594677 0 0 0 0 -5.7429059595755145 -8.7692577586123832 0 -8.7692577586123832 -7.4008345545759369 0 0 0 0 75.327972629625947 -0.75466037044316181 0 -0.75466037044316181 60.078688205292565 0 0 0 0 77.723986893953679 -121.55755501499698 0 -121.55755501499698 174.28310015499301 0 0 0 0 -31.710566762725648 -109.80058992343402 0 -109.80058992343402 116.99109754206438 0 0 0 0 0.83214488877093196 -1.3692511247125907 0 -1.3692511247125907 -1.6311248896294614 0 0 0 0 1.4471936652917066 -33.198760510927968 0 -33.198760510927968 51.452569719534949 0 0 0 0 5.6320545036433032 -24.3506059383908 0 -24.3506059383908 55.203789400875394 0 0 0 0 12.704034525041607 -30.095612838089437 0 -30.095612838089437 30.292524938711722 0 0 0 0 10.523866822020864 -37.596255048629246 0 -37.596255048629246 58.734847208595966 0 0 0 0 9.5008282961971418 -8.6628384584619198 0 -8.6628384584619198 27.874108557109139 0 0 0 0 76.923275942565397 -36.848782802982896 0 -36.848782802982896 8.8167725101375254 0 0 0 0 1.4131589707115602 -4.8306979977982181 0 -4.8306979977982181 -5.2836710137457885 0 0 0 0 13.968647111896644 -14.538269824814051 0 -14.538269824814051 25.200909532850346 0 0 0 0 -54.296702526283298 -74.369808824747452 0 -74.369808824747452 130.92620467976667 0 0 0 0 -51.147195655355972 -92.193496313007927 0 -92.193496313007927 166.48478898288295 0 0 0 0 -34.018148655872665 -41.522936890762139 0 -41.522936890762139 170.26629294632585 0 0 0 0 -121.79904295513188 -88.984712397472322 0 -88.984712397472322 162.44752637926285 0 0 0 0 -167.64032414241319 40.851958359239688 0 40.851958359239688 78.670503354689572 0 0 0 0 -87.243204699748389 -16.466339978152519 0 -16.466339978152519 181.50514810738969 0 0 0 0 -106.65852048466422 -70.725711063489143 0 -70.725711063489143 179.72329374038964 0 0 0 0 -7.9099367474600513 -20.469695230978687 0 -20.469695230978687 189.45526961839641 0 0 0 0 20.018755075124318 -27.800628225635592 0 -27.800628225635592 296.83478414652927 0 0 0 0 15.983018130953951 -47.52451781907439 0 -47.52451781907439 226.28892255265964 0 0 0 0 -7.7626116347329628 -16.261295873465087 0 -16.261295873465087 278.12197355921671 0 0 0 0 20.092815349058583 -83.547415206427104 0 -83.547415206427104 188.73866786325016 0 0 0 0 25.323471624988997 -69.560564566803805 0 -69.560564566803805 218.93400866996672 0 0 0 0 -8.826143854055772 -41.776311602570786 0 -41.776311602570786 226.67567038169364 0 0 0 0 -21.777651381275973 -62.126126430084696 0 -62.126126430084696 204.94392496186811 0 0 0 0 -12.029860378894114 -73.482535136471597 0 -73.482535136471597 159.47466273502505 0 0 0 0 -11.62536900012006 -77.079816379413387 0 -77.079816379413387 190.15678519077483 0 0 0 0 -2.4824049727158126 -86.695953244947304 0 -86.695953244947304 162.01735886633105 0 0 0 0 29.462419423392475 -86.841567268005747 0 -86.841567268005747 159.39647800273087 0 0 0 0 47.534407033585865 -103.08806218339305 0 -103.08806218339305 190.09238407311932 0 0 0 0 29.165079210362961 -87.068616918926637 0 -87.068616918926637 177.1147700285801 0 0 0 0 59.772060920909439 -99.85049317065932 0 -99.85049317065932 153.81919505297265 0 0 0 0 55.144622471048478 -103.35841748559324 0 -103.35841748559324 157.8707745029169 0 0 0 0 55.633275170100205 -98.965430419390032 0 -98.965430419390032 153.7394072242605 0 0 0 0 63.910292172201707 -111.55690016950393 0 -111.55690016950393 170.78574876376661 0 0 0 0 -0.35797468825181 -2.7422265142695323 0 -2.7422265142695323 -2.7633628737219027 0 0 0 0 57.916948780436996 -108.61547012702067 0 -108.61547012702067 150.53998273401157 0 0 0 0 39.216598514617544 -78.767511462878247 0 -78.767511462878247 134.99348837436992 0 0 0 0 47.783456059903983 -101.4080830259627 0 -101.4080830259627 157.37293579176185 0 0 0 0 69.053030158963338 -95.541772688506171 0 -95.541772688506171 135.40228112221575 0 0 0 0 -8.2337824691214792 -73.694567124552123 0 -73.694567124552123 154.11737719429948 0 0 0 0 16.634243387482456 -53.172727856432175 0 -53.172727856432175 125.09523635666847 0 0 0 0 -62.356045272981646 -87.52289933195425 0 -87.52289933195425 155.0958138020801 0 0 0 0 -53.940756368894199 -92.042226140300045 0 -92.042226140300045 143.30057749791013 0 0 0 0 -74.206357973725972 -108.88418066747545 0 -108.88418066747545 147.5275814135257 0 0 0 0 -53.248550558173065 -91.103007965461074 0 -91.103007965461074 149.51515212491358 0 0 0 0 -63.990552971604302 -67.054123714515299 0 -67.054123714515299 146.20421744132182 0 0 0 0 -52.161935378443559 -95.213356956919597 0 -95.213356956919597 164.58733834967279 0 0 0 0 -59.0664529755486 -94.520678899141785 0 -94.520678899141785 150.13148504658784 0 0 0 0 -17.80115762740661 -66.990368675677018 0 -66.990368675677018 130.87050742499059 0 0 0 0 -75.742592960095408 -64.625902374753423 0 -64.625902374753423 131.05190332942584 0 0 0 0 -13.596636331829217 -42.853504607033081 0 -42.853504607033081 96.277658611739071 0 0 0 0 11.030553660315491 -64.681346534720433 0 -64.681346534720433 73.842119685741807 0 0 0 0 -14.533863731489873 -95.668156958186046 0 -95.668156958186046 75.584321039464442 0 0 0 0 -7.3359570261049143 -8.8807151779294315 0 -8.8807151779294315 34.908922042463217 0 0 0 0 -33.889625875433921 -1.1228743716383178 0 -1.1228743716383178 144.54850569610426 0 0 0 0 -25.107839839166445 -41.214139035184417 0 -41.214139035184417 125.85093247381155 0 0 0 0 52.936992136694244 -162.84435027954896 0 -162.84435027954896 213.57395679104229 0 0 0 0 4.8675744162936354 -2.1311331538232423 0 -2.1311331538232423 -5.4745005725032456 0 0 0 0 -15.41422237484403 -51.985559995999211 0 -51.985559995999211 150.36761773618491 0 0 0 0 -34.187878552869734 -66.77657314787939 0 -66.77657314787939 171.3353519622251 0 0 0 0 -55.26207007877565 -18.889056236322176 0 -18.889056236322176 130.18712544340087 0 0 0 0 -67.332852605519292 -35.739855713767611 0 -35.739855713767611 164.8418641147 0 0 0 0 -14.058149430902631 -68.312953260756331 0 -68.312953260756331 145.02899129801517 0 0 0 0 -83.190407685411628 -43.461718221140472 0 -43.461718221140472 139.94691998666349 0 0 0 0 -84.42592332669301 -90.916704641349497 0 -90.916704641349497 196.10666794381177 0 0 0 0 18.876156051890575 32.496800951357727 0 32.496800951357727 125.0595126785538 0 0 0 0 -29.570261805059999 35.621153654330556 0 35.621153654330556 113.33146703921011 0 0 0 0 -34.221235240080404 -26.139894674036022 0 -26.139894674036022 83.728227489631848 0 0 0 0 -7.4187426298490458 13.019016485578872 0 13.019016485578872 34.996387951127772 0 0 0 0 -65.77960723544129 -11.988413260736706 0 -11.988413260736706 129.92623877474398 0 0 0 0 -38.462190169278074 -48.573307873647536 0 -48.573307873647536 131.29370481747901 0 0 0 0 -28.020755388302454 -37.936678269673656 0 -37.936678269673656 89.30473460608934 0 0 0 0 -10.182370050638838 -6.0829042863460927 0 -6.0829042863460927 128.28536859944097 0 0 0 0 -13.956674686992301 11.277407975483584 0 11.277407975483584 140.79643317404134 0 0 0 0 -7.2293377524381981 -8.2811356689164768 0 -8.2811356689164768 108.64181603406541 0 0 0 0 3.8408826516624117 -19.532250658296107 0 -19.532250658296107 67.084373070779293 0 0 0 0 15.644970814449607 16.366870840060074 0 16.366870840060074 117.08384860117258 0 0 0 0 -11.081496104594407 -12.231280010172213 0 -12.231280010172213 120.92850856314789 0 0 0 0 -5.3620892684808688 -1.3016548674281623 0 -1.3016548674281623 28.395929940114286 0 0 0 0 7.0955386942050609 -37.54792740027824 0 -37.54792740027824 117.18445680517073 0 0 0 0 -8.5063843882216474 -65.751971779607118 0 -65.751971779607118 114.08116165850879 0 0 0 0 -17.820094730641358 -11.864284541273946 0 -11.864284541273946 61.631623148186918 0 0 0 0 -18.521547032115791 9.9935273291725935 0 9.9935273291725935 45.273685751049243 0 0 0 0 -26.859470257202588 4.47889238926291 0 4.47889238926291 77.881462145723617 0 0 0 0 -24.319714003929509 -8.4328886663558364 0 -8.4328886663558364 99.259701055914775 0 0 0 0 -23.037570508359181 4.7726846992263745 0 4.7726846992263745 97.878206844491615 0 0 0 0 28.053760700533985 -6.4216804589141248 0 -6.4216804589141248 47.893628256006195 0 0 0 0 -6.7876643877384595 -7.6806658246982806 0 -7.6806658246982806 57.777277441595402 0 0 0 0 -13.157088279153868 -0.0065787333423941163 0 -0.0065787333423941163 56.479785347171685 0 0 0 0 -27.013413071469984 -7.7846679409344688 0 -7.7846679409344688 82.315631310759272 0 0 0 0 10.581612418583973 0.67204274758569227 0 0.67204274758569227 47.337795680869931 0 0 0 0 -1.0933270349532904 2.8102944012505304 0 2.8102944012505304 76.749323403534618 0 0 0 0 -6.3883079889938017 -2.0289057104919266 0 -2.0289057104919266 77.923176250444158 0 0 0 0 1.2110596381176038 9.7765258043455106 0 9.7765258043455106 93.904481739229595 0 0 0 0 -15.618470513344107 -1.7050974247977138 0 -1.7050974247977138 98.271592435724415 0 0 0 0 -25.749968298695876 5.4991524795541409 0 5.4991524795541409 98.592912835669267 0 0 0 0 -14.052764319786547 5.8306453478110143 0 5.8306453478110143 95.171474508350002 0 0 0 0 -11.480395965641037 -12.528035943795658 0 -12.528035943795658 68.90234042155862 0 0 0 0 -22.908748948768448 -4.1831563387804636 0 -4.1831563387804636 103.55343274478946 0 0 0 0 13.45035262237252 -8.3632933095977933 0 -8.3632933095977933 98.905378446443365 0 0 0 0 -3.8922777538539322 8.1676955227285362 0 8.1676955227285362 101.11654248434661 0 0 0 0 -10.649313244319501 -19.101664501320556 0 -19.101664501320556 120.77592140936122 0 0 0 0 -21.165554141941811 0.23939378103750641 0 0.23939378103750641 106.66167781044351 0 0 0 0 -8.9616192796393079 14.2539085190283 0 14.2539085190283 113.79624926266638 0 0 0 0 -28.090842972874157 7.2556119859655155 0 7.2556119859655155 101.30707786697144 0 0 0 0 -25.724288228136679 5.5186601139323557 0 5.5186601139323557 94.770687066515165 0 0 0 0 -20.537298143172166 6.2303156186508204 0 6.2303156186508204 94.791420291854081 0 0 0 0 -21.672838563430901 1.2543964203186988 0 1.2543964203186988 74.091243279704941 0 0 0 0 -14.649031016444013 12.207180758666254 0 12.207180758666254 56.219038975084914 0 0 0 0 -18.031842896146827 27.537793727071403 0 27.537793727071403 131.61026313779621 0 0 0 0 -17.438613008987659 29.578074977999677 0 29.578074977999677 100.85029151418826 0 0 0 0 9.2637606427219907 48.358548676746523 0 48.358548676746523 42.004031986096379 0 0 0 0 -9.9748530172034826 -1.200040254388048 0 -1.200040254388048 11.01825710206608 0 0 0 0 41.110649301301237 -1.1128779738810408 0 -1.1128779738810408 18.911289122439484 0 0 0 0 -14.497868022454782 -5.1483919868996963 0 -5.1483919868996963 57.822376835820705 0 0 0 0 -16.256207848568692 0.73633540275204723 0 0.73633540275204723 57.121540940821433 0 0 0 0 -12.772068428278317 -7.5033348567721987 0 -7.5033348567721987 70.837131543170017 0 0 0 0 -132.02163201961412 -351.64458882548115 0 -351.64458882548115 585.45546467649365 0 0 0 0 -237.15585115531894 59.233824221924806 0 59.233824221924806 785.32940155797769 0 0 0 0 -1.7865057445014259 3.5941779393477589 0 3.5941779393477589 6.9456537815249817 0 0 0 0 1.1869972623058311 -1.0679737555064399 0 -1.0679737555064399 -0.83688291145428195 0 0 0 0 106.40173821605936 70.480813555152963 0 70.480813555152963 31.466530810015684 0 0 0 0 90.288594252478106 19.035828789867082 0 19.035828789867082 8.6068310659761664 0 0 0 0 -15.896930414100098 -30.990104903779866 0 -30.990104903779866 284.81859417351188 0 0 0 0 -85.029675487613702 56.311541074975366 0 56.311541074975366 101.06038071590228 0 0 0 0 6.9057334900305838 -9.5736392073984895 0 -9.5736392073984895 30.460301754124096 0 0 0 0 -24.03714364286013 18.440989948738782 0 18.440989948738782 105.73051781611052 0 0 0 0 -9.1600870770830056 -3.806117397994214 0 -3.806117397994214 1.2883769171953396 0 0 0 0 63.540799034309657 -330.57883870252226 0 -330.57883870252226 -41.171135040262016 0 0 0 0 -11.763674440851673 3.8946152490261738 0 3.8946152490261738 50.619365918977564 0 0 0 0 -10.313543179982389 -2.8295571297971946 0 -2.8295571297971946 49.501675531151704 0 0 0 0 -77.238505697559049 370.89525834549568 0 370.89525834549568 502.61635951635617 0 0 0 0 285.44417791978458 13.964794628991513 0 13.964794628991513 -10.400004230595187 0 0 0 0 -17.440094563638226 29.993531575290721 0 29.993531575290721 122.25750339668194 0 0 0 0 -58.651345562882852 49.251144457561168 0 49.251144457561168 94.364264565308986 0 0 0 0 -51.478650718211611 32.033658580025076 0 32.033658580025076 115.15341468672341 0 0 0 0 -60.190190763941246 29.121031240742013 0 29.121031240742013 123.55731006938004 0 0 0 0 -74.212154718211423 40.235118406710171 0 40.235118406710171 126.40035345983051 0 0 0 0 -57.309002339887797 20.268166249026649 0 20.268166249026649 142.64774016914453 0 0 0 0 -63.466345636243204 33.072838483670239 0 33.072838483670239 136.13995782245911 0 0 0 0 -54.663749619252485 28.034317245928833 0 28.034317245928833 139.49367268180367 0 0 0 0 -56.387776186738904 30.746840097517406 0 30.746840097517406 135.88046177602519 0 0 0 0 -37.026374218168712 42.192755005296021 0 42.192755005296021 130.15496844913287 0 0 0 0 -53.038371770213189 37.796235156867624 0 37.796235156867624 128.95934300355657 0 0 0 0 -29.477856091266403 39.192403620823825 0 39.192403620823825 131.33899432601902 0 0 0 0 -34.187659568358868 24.421984397265987 0 24.421984397265987 139.7479702808439 0 0 0 0 -50.636252005796791 21.943957412830287 0 21.943957412830287 144.68342717895939 0 0 0 0 -48.970190079707663 15.931446108836553 0 15.931446108836553 148.7782827983101 0 0 0 0 127.20080415706343 -163.57497491586855 0 -163.57497491586855 214.40763811016586 0 0 0 0 -71.705210426487611 275.6883759896682 0 275.6883759896682 137.04334035035481 0 0 0 0 -10.531982723392701 38.301987252392827 0 38.301987252392827 131.87187877928378 0 0 0 0 -18.205327663724347 26.861586874860222 0 26.861586874860222 138.70308101106821 0 0 0 0 28.226199313579855 -77.113212360191028 0 -77.113212360191028 142.27691587650042 0 0 0 0 0.17306591913211378 -124.49418677321637 0 -124.49418677321637 217.65853658928609 0 0 0 0 67.800101282648029 -208.67655711224688 0 -208.67655711224688 306.73687349172178 0 0 0 0 4.6069059325872459 14.439381402469749 0 14.439381402469749 39.908853112763097 0 0 0 0 -108.48737393110241 -24.864693936042386 0 -24.864693936042386 44.279652958024599 0 0 0 0 -349.37382972531213 143.83513474790652 0 143.83513474790652 85.873479539135587 0 0 0 0 -134.71552139680716 -1.1102619199737092 0 -1.1102619199737092 44.082495420928353 0 0 0 0 -131.55145945914865 26.728055752542787 0 26.728055752542787 125.46873112266985 0 0 0 0 -73.595330674570505 -38.423693368458771 0 -38.423693368458771 106.87502462811881 0 0 0 0 -71.443060793968471 -69.851125768887869 0 -69.851125768887869 166.5366285460259 0 0 0 0 -81.054163063930901 -30.887823876260882 0 -30.887823876260882 154.50121453536849 0 0 0 0 -113.64585436781272 13.761344281210768 0 13.761344281210768 127.32001668172074 0 0 0 0 -100.48721222022755 -51.285126648618188 0 -51.285126648618188 137.92360368702793 0 0 0 0 -78.026377532225524 15.505195434665438 0 15.505195434665438 70.72104883143038 0 0 0 0 7.2627290153741235 31.875333634448388 0 31.875333634448388 82.549203462572351 0 0 0 0 -16.648533228481938 112.46986005622239 0 112.46986005622239 69.858323680076865 0 0 0 0 5.5510583321838567 41.716035063496747 0 41.716035063496747 30.293730339235481 0 0 0 0 -91.307063040281719 28.699444314836001 0 28.699444314836001 117.31105964112066 0 0 0 0 -28.396587923531115 11.335448290593831 0 11.335448290593831 78.008772845518251 0 0 0 0 -7.7001565417367601 94.308325506448455 0 94.308325506448455 407.664794138871 0 0 0 0 -226.0623517938111 78.763755945790763 0 78.763755945790763 93.877314859219041 0 0 0 0 -67.971325323593192 54.188329933360365 0 54.188329933360365 181.60478269228315 0 0 0 0 9.4686828050212988 24.24358814164788 0 24.24358814164788 60.704325131786689 0 0 0 0 -3.583353449985708 -72.77420821414853 0 -72.77420821414853 256.68183113993655 0 0 0 0 -0.054625102736498031 -41.943822265744529 0 -41.943822265744529 205.3251662208786 0 0 0 0 -40.473786593216332 -35.076739768126572 0 -35.076739768126572 261.02751175291905 0 0 0 0 -31.492391947502846 -61.471193884166496 0 -61.471193884166496 296.59767127250961 0 0 0 0 -28.023611549727264 -129.28928549348348 0 -129.28928549348348 437.16106908186339 0 0 0 0 -84.282414405547343 -32.080782916265889 0 -32.080782916265889 533.8207560176088 0 0 0 0 -93.966243594825414 8.8226903186150594 0 8.8226903186150594 361.5699588195348 0 0 0 0 -402.36860426655562 -471.02111714056809 0 -471.02111714056809 704.20085953330272 0 0 0 0 -135.36734110686575 100.21352804312482 0 100.21352804312482 816.88245760084101 0 0 0 0 32.738062970091903 -349.15685920374017 0 -349.15685920374017 449.72901793985511 0 0 0 0 0.54332467392399764 -164.11972607809184 0 -164.11972607809184 332.8744229421718 0 0 0 0 119.45072169318746 -222.64420108892955 0 -222.64420108892955 337.91134630146735 0 0 0 0 460.82032544135893 -346.22747933131177 0 -346.22747933131177 260.30561435922573 0 0 0 0 158.74977280581305 -152.78791765038113 0 -152.78791765038113 146.21933093931875 0 0 0 0 -51.368042889834442 -67.510432903000037 0 -67.510432903000037 305.78724291241087 0 0 0 0 20.801487809523849 -131.32078976311459 0 -131.32078976311459 312.82176955443265 0 0 0 0 84.218570574459875 -133.11598486675211 0 -133.11598486675211 224.85055613125223 0 0 0 0 49.79222947749264 -131.81536379973841 0 -131.81536379973841 225.00983324527624 0 0 0 0 74.83386999728495 -31.575804209773196 0 -31.575804209773196 107.19067325009382 0 0 0 0 150.60708292459339 -93.162686451407353 0 -93.162686451407353 107.02847586691496 0 0 0 0 58.382493230467176 -100.24026976157984 0 -100.24026976157984 189.00553792291612 0 0 0 0 31.785645324028138 -64.123984920210205 0 -64.123984920210205 178.17378584378639 0 0 0 0 33.619674754904821 -75.376095278450521 0 -75.376095278450521 209.85338681199664 0 0 0 0 26.205894405907912 -97.680728815663315 0 -97.680728815663315 247.59396444102458 0 0 0 0 -12.736899168764012 -83.708127372654417 0 -83.708127372654417 247.35513768870442 0 0 0 0 12.057480293887942 -74.583678975785006 0 -74.583678975785006 210.0123116512259 0 0 0 0 -0.030601293677049279 -62.938727058233781 0 -62.938727058233781 238.27645109454897 0 0 0 0 0.069401432714996047 -46.624969764463458 0 -46.624969764463458 186.90862042127992 0 0 0 0 68.090767187289387 -38.562404978976701 0 -38.562404978976701 180.62541854065785 0 0 0 0 59.6552367054908 -58.613295675044355 0 -58.613295675044355 135.74609417449392 0 0 0 0 7.2233004464061139 -27.070863462300622 0 -27.070863462300622 144.74298455461394 0 0 0 0 -0.0032558684042193545 -23.828874079234083 0 -23.828874079234083 177.44260808798208 0 0 0 0 70.872452971467965 20.829563308674551 0 20.829563308674551 187.16682116614538 0 0 0 0 103.5586339454776 -84.362458285067987 0 -84.362458285067987 170.76077756943414 0 0 0 0 -185.72220516083331 -4.6024384689008002 0 -4.6024384689008002 344.02882042402052 0 0 0 0 -0.21458140388476907 3.0779628125526184 0 3.0779628125526184 2.5036006706529861 0 0 0 0 -21.120533052881001 21.28021896048449 0 21.28021896048449 72.7639858010225 0 0 0 0 105.15119112927573 137.58471196941809 0 137.58471196941809 -9.5811164919578005 0 0 0 0 -1.3648583825887011 5.5370018475054792 0 5.5370018475054792 52.482734633136488 0 0 0 0 10.611947148494913 -39.696121880679129 0 -39.696121880679129 99.787194645003183 0 0 0 0 0.019976473326203954 -2.178882956974121 0 -2.178882956974121 88.792865726965829 0 0 0 0 -21.149430321372762 -44.827960543956578 0 -44.827960543956578 160.87919806569698 0 0 0 0 -58.087925124977801 -63.998989109775721 0 -63.998989109775721 115.24023716703232 0 0 0 0 22.465003828625413 -10.034577650076244 0 -10.034577650076244 64.458844777604099 0 0 0 0 -10.644124798673452 -12.567012708434802 0 -12.567012708434802 40.076136107133621 0 0 0 0 -21.180187690704244 66.51009050259745 0 66.51009050259745 12.454538996105839 0 0 0 0 -78.027427867056758 -7.7106692235392984 0 -7.7106692235392984 96.994635378337989 0 0 0 0 5.1433893589249209 -36.246139322916861 0 -36.246139322916861 20.933580732147675 0 0 0 0 -6.9170034618051472 0.2011482436307972 0 0.2011482436307972 17.34756548676171 0 0 0 0 -124.7459407278093 90.49979595323714 0 90.49979595323714 186.82318179236609 0 0 0 0 -203.47293227115551 13.654872544248065 0 13.654872544248065 130.6959373807731 0 0 0 0 6.6518387335157074 36.20170705441604 0 36.20170705441604 91.991494696885582 0 0 0 0 -123.84524175545894 141.10475528081588 0 141.10475528081588 -10.680964211307582 0 0 0 0 -120.54656060522848 -134.72960882261395 0 -134.72960882261395 9.9162065474811243 0 0 0 0 92.288324373935211 40.08433875515766 0 40.08433875515766 115.16705235124391 0 0 0 0 96.618358240490977 -58.709388930456043 0 -58.709388930456043 139.95848451965867 0 0 0 0 -167.55905692404463 -10.181603076283864 0 -10.181603076283864 -23.458328061940847 0 0 0 0 24.779759209801213 -29.01172610355934 0 -29.01172610355934 133.43506485705439 0 0 0 0 23.718474500446561 -32.512781296478352 0 -32.512781296478352 130.27633046832489 0 0 0 0 63.059455943691319 467.27313272834726 0 467.27313272834726 335.01637205050793 0 0 0 0 10.120008662484505 34.446293142577041 0 34.446293142577041 87.64268131768813 0 0 0 0 294.58363992057548 144.30494914047449 0 144.30494914047449 -191.10403915859933 0 0 0 0 10.80590673893721 8.4199624512912123 0 8.4199624512912123 72.70897985388001 0 0 0 0 -49.429211922587911 89.825192053955107 0 89.825192053955107 -21.782495796431022 0 0 0 0 -51.053087904176209 90.396828511085914 0 90.396828511085914 42.576244039404628 0 0 0 0 8.6190211040912939 31.331377729047063 0 31.331377729047063 81.003247480733648 0 0 0 0 -36.377856526092273 2.4013061069344985 0 2.4013061069344985 20.707631044131631 0 0 0 0 29.293367740924836 87.952543789218907 0 87.952543789218907 126.44397684294381 0 0 0 0 3.9058247352732174 -0.22601925851455462 0 -0.22601925851455462 0.32191547219998107 0 0 0 0 -73.45572414786875 40.143915779040981 0 40.143915779040981 -2.9026067150261952 0 0 0 0 44.980182554539397 241.58252871513105 0 241.58252871513105 461.25905441014766 0 0 0 0 83.234055722276025 51.17618642810703 0 51.17618642810703 237.86527201924764 0 0 0 0 35.985165718124335 55.749487608802156 0 55.749487608802156 307.34743020583119 0 0 0 0 10.701765604625507 45.001164855348179 0 45.001164855348179 213.82434455869952 0 0 0 0 59.5808064407654 -13.74952636778653 0 -13.74952636778653 232.91885468925466 0 0 0 0 -22.476453339022783 36.534015292601907 0 36.534015292601907 174.99870772127178 0 0 0 0 16.632955880203099 48.863382264262327 0 48.863382264262327 152.49636930660927 0 0 0 0 -22.362246782216971 41.238324953075789 0 41.238324953075789 245.3269600991016 0 0 0 0 -0.25423004777279168 -4.3555337677269534 0 -4.3555337677269534 3.2602879557834683 0 0 0 0 32.686697349739461 24.09685749448181 0 24.09685749448181 55.436598101478012 0 0 0 0 42.487715094166333 -76.186108577579944 0 -76.186108577579944 92.104137499758508 0 0 0 0 11.963865919007731 -13.090677355969092 0 -13.090677355969092 246.71617213796981 0 0 0 0 -73.845079382677795 -111.45273705330328 0 -111.45273705330328 415.07640070234629 0 0 0 0 -21.54608723138881 -56.570026678688009 0 -56.570026678688009 116.8925197054341 0 0 0 0 -50.177987173753536 0.74697349913913058 0 0.74697349913913058 179.94035569306288 0 0 0 0 -50.202140045651504 -6.5171947345770604 0 -6.5171947345770604 284.93719236862671 0 0 0 0 -12.122420669287749 12.397891125001479 0 12.397891125001479 124.07319002124859 0 0 0 0 -49.603257706784916 33.235292321332963 0 33.235292321332963 263.58818436510046 0 0 0 0 -84.329878085191922 24.649428710625216 0 24.649428710625216 263.59116183097649 0 0 0 0 -70.34506881825655 54.107537653180771 0 54.107537653180771 290.75453286821721 0 0 0 0 -41.555642408075073 26.422296765907959 0 26.422296765907959 265.05304525734027 0 0 0 0 -60.216471017105505 55.206093563927425 0 55.206093563927425 239.05325669483864 0 0 0 0 -61.735808174103113 103.76853095544175 0 103.76853095544175 512.76944618106063 0 0 0 0 31.497903748637327 51.198887230071705 0 51.198887230071705 91.88113156601321 0 0 0 0 -36.164341166550003 90.835444928117795 0 90.835444928117795 250.13447521527996 0 0 0 0 258.17159836432529 238.07184317788779 0 238.07184317788779 248.92295452846156 0 0 0 0 38.972327240772756 80.131761935248505 0 80.131761935248505 176.7379239777656 0 0 0 0 157.10972319233724 67.917954228047165 0 67.917954228047165 -91.610887356946478 0 0 0 0 39.351500977436217 12.299610577654676 0 12.299610577654676 202.883879081739 0 0 0 0 77.28937769292645 67.11645495042103 0 67.11645495042103 178.96346596138756 0 0 0 0 12.016269268233657 1.4685070876347481 0 1.4685070876347481 0.23554259903572117 0 0 0 0 -21.647756179510907 -35.46718011503981 0 -35.46718011503981 76.908632691747698 0 0 0 0 -92.115973343220801 -285.25225717989088 0 -285.25225717989088 484.25550286572252 0 0 0 0 0.097151075865836711 3.2701578236232649 0 3.2701578236232649 1.5478041454011304 0 0 0 0 715.57813919305886 -8.9438402110827155 0 -8.9438402110827155 100.19252027707989 0 0 0 0 -23.799113518902232 57.034585219829751 0 57.034585219829751 211.78902368315903 0 0 0 0 11.500863994222835 0.7826414147292553 0 0.7826414147292553 0.34253634032950941 0 0 0 0 -85.3452723315404 4.7739547360033612 0 4.7739547360033612 156.4245695520076 0 0 0 0 -73.078353892683481 48.246357346550212 0 48.246357346550212 239.32818833313195 0 0 0 0 -1598.3063573719269 -300.00941445789067 0 -300.00941445789067 669.43550234328723 0 0 0 0 55.338547468771935 80.803129838823224 0 80.803129838823224 19.034279662682138 0 0 0 0 78.600429301590054 28.148188679602754 0 28.148188679602754 11.023859289594839 0 0 0 0 -7.4668854258153416 3.1155181103544436 0 3.1155181103544436 2.0962663807615058 0 0 0 0 132.43697835303601 84.400414654024644 0 84.400414654024644 19.141014477791032 0 0 0 0 143.90345730603829 24.190601812700152 0 24.190601812700152 10.066287798108533 0 0 0 0 5.9120647570053961 -57.540848970478692 0 -57.540848970478692 42.512055669372785 0 0 0 0 -8.9337587893021073 12.801237411010334 0 12.801237411010334 26.361561714147683 0 0 0 0 -2.7718553154315835 0.44306336881672337 0 0.44306336881672337 3.1669841903978408 0 0 0 0 214.66991636112425 96.171590592159191 0 96.171590592159191 233.56067620583781 0 0 0 0 -3.346218648918911 1.1574895045822586 0 1.1574895045822586 4.2496727425752283 0 0 0 0 -4.5342946200693177 8.8732222459511831 0 8.8732222459511831 27.783527523788507 0 0 0 0 -8.8305665111739486 8.1712267238737013 0 8.1712267238737013 30.677539841388352 0 0 0 0 -5.6471117070731793 4.6779567686080554 0 4.6779567686080554 31.858747994716396 0 0 0 0 -16.154682434312235 9.3312504943169188 0 9.3312504943169188 74.406962862616638 0 0 0 0 -2.951232332626887 27.35790247002069 0 27.35790247002069 84.551245202645077 0 0 0 0 -3.2343495224608887 24.584340484252607 0 24.584340484252607 57.38308570785739 0 0 0 0 27.34717438874759 57.049112151227746 0 57.049112151227746 45.303121564007597 0 0 0 0 4.1211456893092873 82.453043606277788 0 82.453043606277788 45.169437275023085 0 0 0 0 121.07156006583958 76.984666476269922 0 76.984666476269922 70.641077957217931 0 0 0 0 197.94200117935395 -138.715090618658 0 -138.715090618658 150.66656511658221 0 0 0 0 5.6715144323048836 26.742376199493812 0 26.742376199493812 74.776895214482579 0 0 0 0 -4.5417050112166404 7.4907098242262435 0 7.4907098242262435 19.852677689582151 0 0 0 0 -1.7267182287505634 24.72632606234103 0 24.72632606234103 80.488589495431484 0 0 0 0 -105.43094790933537 401.93977579565581 0 401.93977579565581 576.92256952557364 0 0 0 0 0.93694443168988073 4.6038974001749011 0 4.6038974001749011 80.990341393081508 0 0 0 0 -0.64673709439354576 12.313973738457847 0 12.313973738457847 13.08663525981234 0 0 0 0 948.15705921426104 -781.45758852845756 0 -781.45758852845756 -128.3987509428116 0 0 0 0 461.37033604077931 -42.301439680297335 0 -42.301439680297335 106.79648547447505 0 0 0 0 1235.1778354519899 -347.91255747617106 0 -347.91255747617106 69.238396801316412 0 0 0 0 363.26318094749217 431.53446582127071 0 431.53446582127071 657.80919441998412 0 0 0 0 1.1903145565520001 -4.6781107860188698 0 -4.6781107860188698 12.546361170473403 0 0 0 0 -245.41824486467317 353.37334368366282 0 353.37334368366282 1417.0347364875197 0 0 0 0 -447.67467085653868 -161.13813831845982 0 -161.13813831845982 1631.4058307175001 0 0 0 0 968.7059045518024 -688.05640373578353 0 -688.05640373578353 337.39120978163555 0 0 0 0 396.26746124503006 -746.40968878501735 0 -746.40968878501735 552.84150500319083 0 0 0 0 77.754923892144234 -644.04144989307679 0 -644.04144989307679 549.8509473646991 0 0 0 0 604.28498411724729 -629.72355701535707 0 -629.72355701535707 329.28123459206836 0 0 0 0 -9.8306283719187277 9.5629035620370573 0 9.5629035620370573 64.231713428499631 0 0 0 0 -29.105942561097891 6.3206211019059992 0 6.3206211019059992 78.066397498241713 0 0 0 0 -19.007964370127866 9.5168112857791129 0 9.5168112857791129 78.964438246614009 0 0 0 0 -24.495263731357682 0.59479945820203284 0 0.59479945820203284 70.981553402976715 0 0 0 0 -17.0066501543036 11.927231164832847 0 11.927231164832847 68.139079528169532 0 0 0 0 -3.3034802234852805 13.32490924913327 0 13.32490924913327 71.094199928629678 0 0 0 0 -26.923763749457727 -14.638286721097373 0 -14.638286721097373 42.561416512154835 0 0 0 0 -32.743493388046772 -51.623254361562431 0 -51.623254361562431 49.196052638118545 0 0 0 0 -18.608574676944045 9.5349589076304255 0 9.5349589076304255 60.822569006762933 0 0 0 0 -4.1443914558003598 -5.1372658341788338 0 -5.1372658341788338 34.410903025360312 0 0 0 0 -51.155527319315297 -4.198581505123002 0 -4.198581505123002 127.13020148951182 0 0 0 0 -23.821087712945047 -1.6211230260408342 0 -1.6211230260408342 49.534870952470072 0 0 0 0 -29.383152617321684 -3.6967884008117835 0 -3.6967884008117835 56.43595130131871 0 0 0 0 -19.276406536287752 -7.6458673192916677 0 -7.6458673192916677 48.794993427076406 0 0 0 0 -44.179702387784346 -53.233999428098286 0 -53.233999428098286 124.88262115461839 0 0 0 0 -49.941073718699045 -10.506151975980174 0 -10.506151975980174 55.559149742302452 0 0 0 0 -39.670796953570971 -40.333114419048798 0 -40.333114419048798 49.947407063940773 0 0 0 0 5.8111791692999759 -89.427041396027789 0 -89.427041396027789 100.28397996510466 0 0 0 0 11.531562533329634 -58.268485449370928 0 -58.268485449370928 55.728339041877916 0 0 0 0 -13.07364677626682 -10.494123019983675 0 -10.494123019983675 -9.2863389300813992 0 0 0 0 -56.482181905217203 -68.568992310417343 0 -68.568992310417343 103.50077467514348 0 0 0 0 -21.373448744314594 -19.273616880135428 0 -19.273616880135428 -6.0263116602155975 0 0 0 0 -34.579954894437833 -37.563137403161818 0 -37.563137403161818 48.661698690585581 0 0 0 0 -19.265150395087403 -22.540907000111474 0 -22.540907000111474 14.900304221257102 0 0 0 0 -9.5044054274791918 -2.6682429273932158 0 -2.6682429273932158 6.9480700681635739 0 0 0 0 -20.159798538212272 -9.9472815999397426 0 -9.9472815999397426 144.30183612830297 0 0 0 0 -63.157961358809189 -53.565154682764842 0 -53.565154682764842 94.539477069309214 0 0 0 0 -29.912728603039795 -38.509116456225456 0 -38.509116456225456 101.06096579778023 0 0 0 0 -39.123493235493697 -60.489397296440075 0 -60.489397296440075 66.520547530817566 0 0 0 0 -38.841557539170026 -55.958079467527568 0 -55.958079467527568 71.930699063210341 0 0 0 0 -13.901427914043779 -42.166034088195374 0 -42.166034088195374 53.094437176878273 0 0 0 0 -29.39218297219486 -23.688510929348922 0 -23.688510929348922 47.669205830155988 0 0 0 0 41.154577241967672 2.173256857891829 0 2.173256857891829 82.121453777461284 0 0 0 0 2.2205043243093314 -12.735397242806357 0 -12.735397242806357 108.43991558926791 0 0 0 0 13.402324812062943 -26.738200776344456 0 -26.738200776344456 119.66419621028035 0 0 0 0 11.7598984734841 -37.446027331694495 0 -37.446027331694495 66.873342867496831 0 0 0 0 0.26768881284078816 -19.366390888564638 0 -19.366390888564638 85.36885639925822 0 0 0 0 -63.475171702759866 -111.54542362042139 0 -111.54542362042139 -45.181212118739495 0 0 0 0 -11.605000706784615 -8.2519216345931596 0 -8.2519216345931596 79.812805965774174 0 0 0 0 -13.67843742553957 9.9360905171257485 0 9.9360905171257485 47.050522760735532 0 0 0 0 -34.23566071733876 -2.2074873612873489 0 -2.2074873612873489 67.646684427963919 0 0 0 0 -12.114481198778321 5.2659904497359094 0 5.2659904497359094 112.90269823774725 0 0 0 0 -33.754671453318224 -14.992679176015372 0 -14.992679176015372 55.882696675937041 0 0 0 0 -15.549697248941978 2.4454498853905022 0 2.4454498853905022 58.351812845982835 0 0 0 0 -5.5161779475263302 16.779319427714654 0 16.779319427714654 64.928851037788263 0 0 0 0 -40.236095499148405 -39.991584785355371 0 -39.991584785355371 18.750811380712548 0 0 0 0 -16.487292503065646 2.6983306772599462 0 2.6983306772599462 71.544393634481821 0 0 0 0 -7.4665478424910683 -0.40072856760559716 0 -0.40072856760559716 23.58977608532598 0 0 0 0 32.925239862614376 24.672365517420985 0 24.672365517420985 45.912399001128506 0 0 0 0 40.078317570347821 -35.37775691946581 0 -35.37775691946581 -0.51042728705215268 0 0 0 0 82.652020349051099 -34.200856433410081 0 -34.200856433410081 95.706768694970378 0 0 0 0 28.933403681280538 -4.7000982877852948 0 -4.7000982877852948 -137.55844557478849 0 0 0 0 -3.9047399883388607 9.3268941992500913 0 9.3268941992500913 83.776827523965039 0 0 0 0 -215.06012914753433 318.48822309569368 0 318.48822309569368 88.863859383942327 0 0 0 0 94.606966845201214 -175.82053358292615 0 -175.82053358292615 88.783358428168867 0 0 0 0 -166.7117491672044 60.692380034692178 0 60.692380034692178 391.61425029321981 0 0 0 0 4.450057823384844 0.013779187769344503 0 0.013779187769344503 0.3368248801845759 0 0 0 0 85.778707747142562 -190.08729495483567 0 -190.08729495483567 71.441397120914189 0 0 0 0 78.874985002126095 -189.92177229666049 0 -189.92177229666049 113.43909179919865 0 0 0 0 52.744539836848844 57.742134835600154 0 57.742134835600154 155.97722786883241 0 0 0 0 201.12292720523419 177.75660672737285 0 177.75660672737285 -0.21350389570579864 0 0 0 0 -38.79552653798055 38.810947414855036 0 38.810947414855036 167.92327271934482 0 0 0 0 372.31317521439757 -101.52590969332596 0 -101.52590969332596 215.82699002126174 0 0 0 0 87.814765799677843 32.040195646681241 0 32.040195646681241 629.47302561527613 0 0 0 0 78.949863173832 -76.890902821214695 0 -76.890902821214695 258.07837024591572 0 0 0 0 80.679902255468903 -70.214000149472668 0 -70.214000149472668 -5.3218284994509304 0 0 0 0 109.69243657854122 24.958637801304576 0 24.958637801304576 176.28326222183387 0 0 0 0 56.002568748263457 46.238869444670854 0 46.238869444670854 292.92322694216273 0 0 0 0 57.674305501152844 65.024926889886046 0 65.024926889886046 66.140121113276109 0 0 0 0 76.998211847862876 108.22931535179669 0 108.22931535179669 175.49509180530004 0 0 0 0 200.59823959377138 214.80677499617013 0 214.80677499617013 215.88134252669988 0 0 0 0 217.6919303295449 189.51451452070614 0 189.51451452070614 194.32990525302375 0 0 0 0 124.15101745375568 -95.089020205243287 0 -95.089020205243287 71.953655920649908 0 0 0 0 280.8716903874265 290.77211992663797 0 290.77211992663797 310.58301141763513 0 0 0 0 -0.66413018113745537 -0.46585856867662301 0 -0.46585856867662301 5.1437659929842141 0 0 0 0 -59.787623268517564 -2.4258960359438788 0 -2.4258960359438788 -22.852354113787442 0 0 0 0 50.106448962361753 154.05353907149038 0 154.05353907149038 137.25584361502843 0 0 0 0 -68.340199357082383 114.8310398108224 0 114.8310398108224 186.66072624128719 0 0 0 0 13.025373969519933 -20.679642197923386 0 -20.679642197923386 114.33408959010558 0 0 0 0 -51.967736794589342 99.823600269643066 0 99.823600269643066 -102.97668016629177 0 0 0 0 -35.008960732816831 -5.9059556050924584 0 -5.9059556050924584 140.84102183079085 0 0 0 0 -274.6831083073821 -31.085969596082577 0 -31.085969596082577 65.852109873361769 0 0 0 0 -15.606833028193828 -5.4192776365491966 0 -5.4192776365491966 68.867228999820583 0 0 0 0 -12.31474204173719 -1.700082904419105 0 -1.700082904419105 72.099064684458426 0 0 0 0 36.748653510898293 12.204068054663367 0 12.204068054663367 29.702985494011955 0 0 0 0 -12.819844810197882 -8.5385139779125296 0 -8.5385139779125296 75.971591469585661 0 0 0 0 42.350680452026609 44.442867900044803 0 44.442867900044803 75.814144354393648 0 0 0 0 -87.435884940615324 -397.70053019201441 0 -397.70053019201441 484.49152920443157 0 0 0 0 98.912222917939289 -149.52312863233965 0 -149.52312863233965 -178.33120638796026 0 0 0 0 30.999736703548933 -18.819519324075372 0 -18.819519324075372 64.694112079741899 0 0 0 0 8.7084288328460389 -7.8922268937676563 0 -7.8922268937676563 90.02179266600433 0 0 0 0 -22.131516691197248 2.3283124982117442 0 2.3283124982117442 77.450627303500369 0 0 0 0 6.8986351751964321 0.97447103499052901 0 0.97447103499052901 47.220319347834447 0 0 0 0 -136.66357522380531 -14.110193254940896 0 -14.110193254940896 54.983884856163058 0 0 0 0 -22.315165802018456 -11.554079972050204 0 -11.554079972050204 -12.334199518634705 0 0 0 0 -70.601647505478468 -6.7354338363438728 0 -6.7354338363438728 48.535905609026486 0 0 0 0 -91.237440437347686 -45.68227448743346 0 -45.68227448743346 4.3895581899269018 0 0 0 0 -0.42453621315069956 -0.37011342308305739 0 -0.37011342308305739 4.2389816394466493 0 0 0 0 -133.80725352983882 80.907831256688951 0 80.907831256688951 50.682474137051031 0 0 0 0 -87.268478365235751 -31.317835476418622 0 -31.317835476418622 53.781173117989965 0 0 0 0 74.111927610097155 85.828461590035658 0 85.828461590035658 -48.106568813411286 0 0 0 0 90.566285713382968 18.299569710117794 0 18.299569710117794 -4.0883687178211403 0 0 0 0 26.816457998149417 -13.879661752651373 0 -13.879661752651373 59.857670346886152 0 0 0 0 3.488808999149569 -45.034147006617786 0 -45.034147006617786 88.609408223663195 0 0 0 0 2.7680842618156021 -129.50810164337236 0 -129.50810164337236 90.904174351109759 0 0 0 0 -9.0161786726399686 -5.2940183012883448 0 -5.2940183012883448 51.831299918665906 0 0 0 0 147.66721142730603 -88.464764842850855 0 -88.464764842850855 183.26307845755946 0 0 0 0 -1.3020983317101695 -6.9058457286462129 0 -6.9058457286462129 12.169599269194137 0 0 0 0 -0.26764223225321171 -0.49841423613046665 0 -0.49841423613046665 2.3390436192507025 0 0 0 0 -108.65260073255467 73.573948216457211 0 73.573948216457211 71.046761648023676 0 0 0 0 -61.990400600428984 22.996583658674354 0 22.996583658674354 69.343014952901285 0 0 0 0 -62.094870150993302 31.381786301946704 0 31.381786301946704 -62.944292021235015 0 0 0 0 -91.754904622988761 44.235891428572359 0 44.235891428572359 112.50405835146194 0 0 0 0 14.590635997184108 -142.38489674447555 0 -142.38489674447555 63.710301112674642 0 0 0 0 -58.277901450063837 -33.256603203040868 0 -33.256603203040868 155.61719671652872 0 0 0 0 -135.63874940734877 50.838524697217508 0 50.838524697217508 152.40651453866303 0 0 0 0 72.412567555428723 -51.061062158236382 0 -51.061062158236382 -172.60316264062203 0 0 0 0 -6.4263652218605465 -1.311249252162364 0 -1.311249252162364 54.831595695497413 0 0 0 0 -116.52421195663374 130.90768898752503 0 130.90768898752503 189.84523915619502 0 0 0 0 -117.77125014349991 70.29195103333808 0 70.29195103333808 104.61515797606262 0 0 0 0 -4.5037044401033199 -36.777734655412132 0 -36.777734655412132 44.223569312489417 0 0 0 0 -7.5689778412884152 -81.756721155081323 0 -81.756721155081323 162.36502214487336 0 0 0 0 -4.9910056628891653 -55.561027056646708 0 -55.561027056646708 -174.51951284757524 0 0 0 0 -2.3744974340072007 -0.77196882648986076 0 -0.77196882648986076 -0.2736995540527829 0 0 0 0 -14.325577186790838 -5.2352253368662787 0 -5.2352253368662787 -60.713276281063372 0 0 0 0 -115.58424835372261 12.133104324659143 0 12.133104324659143 -22.057442230512606 0 0 0 0 -19.246218038122606 68.058200989184115 0 68.058200989184115 -77.507106175866284 0 0 0 0 -106.10808497898347 102.14839412731635 0 102.14839412731635 77.582282821320405 0 0 0 0 -43.567102834733248 28.469751588002964 0 28.469751588002964 43.661574123500031 0 0 0 0 -6.1245118984452347 17.359620728042501 0 17.359620728042501 35.170487538155612 0 0 0 0 -19.431198480579951 -2.5498299077298725 0 -2.5498299077298725 27.626868929844932 0 0 0 0 -24.249211933221886 11.764898369154253 0 11.764898369154253 49.104502342685009 0 0 0 0 -7.9231988967403595 32.140886620807578 0 32.140886620807578 52.504293416081055 0 0 0 0 -52.965791507951508 -0.66032259865460219 0 -0.66032259865460219 86.511491015677166 0 0 0 0 -24.138693609326765 6.1294661919382634 0 6.1294661919382634 86.527533183776541 0 0 0 0 -21.399696381062313 -1.0420701692819421 0 -1.0420701692819421 52.293049027950474 0 0 0 0 -14.729888840265934 -0.58894317238700467 0 -0.58894317238700467 10.324550158267645 0 0 0 0 103.79582478521093 -53.397808702172824 0 -53.397808702172824 -18.898276394524146 0 0 0 0 -25.979019168838931 -2.1664766579779098 0 -2.1664766579779098 53.005971533289994 0 0 0 0 -5.457109717165487 3.5636051566157487 0 3.5636051566157487 42.338702176029415 0 0 0 0 -22.745527783515172 -5.7204064568450121 0 -5.7204064568450121 50.016112196601171 0 0 0 0 -15.99195858672465 -3.2922424449334358 0 -3.2922424449334358 49.888404470868409 0 0 0 0 -16.000080127163528 -3.4455679659222369 0 -3.4455679659222369 63.257210158590169 0 0 0 0 -0.58716253854981915 6.5195280001389619 0 6.5195280001389619 46.525704862629937 0 0 0 0 -14.056516710831602 7.7879265309675247 0 7.7879265309675247 54.972655272293196 0 0 0 0 -14.180918416082704 9.5479115396808538 0 9.5479115396808538 31.793370889732614 0 0 0 0 -20.009525999674281 -21.402415255622827 0 -21.402415255622827 50.750742639043892 0 0 0 0 -18.171787979038527 14.453402022316368 0 14.453402022316368 48.80946259800794 0 0 0 0 -8.3591944475335112 1.4189567701744608 0 1.4189567701744608 8.6729105455604696 0 0 0 0 74.630099414776851 -0.9106402853212785 0 -0.9106402853212785 3.7102537376631517 0 0 0 0 -22.712734138922315 21.10376068426558 0 21.10376068426558 45.686781378339219 0 0 0 0 -2.8976996417550938 -0.68023232817290591 0 -0.68023232817290591 35.388127866484382 0 0 0 0 20.767028829010087 24.933005784485431 0 24.933005784485431 57.253040856830921 0 0 0 0 31.473131128299428 17.494553248558077 0 17.494553248558077 59.868365404821816 0 0 0 0 22.268747606813122 3.7883672876487253 0 3.7883672876487253 71.85856576666265 0 0 0 0 -14.45856789406389 11.035187253233744 0 11.035187253233744 81.932003640278708 0 0 0 0 62.940876912781732 43.404683130549529 0 43.404683130549529 -39.581661363117746 0 0 0 0 -16.708342141798312 -89.094601340131703 0 -89.094601340131703 51.708600618156197 0 0 0 0 -92.21293192729172 3.6127843645117537 0 3.6127843645117537 35.456029451270297 0 0 0 0 -46.127726763321334 -26.81569493297502 0 -26.81569493297502 21.643053959269309 0 0 0 0 -51.976391215644981 -39.140738820577099 0 -39.140738820577099 50.072370570622525 0 0 0 0 -28.672389570701853 -61.20181379558926 0 -61.20181379558926 50.015571346331853 0 0 0 0 -43.265255705821801 -73.204940335479478 0 -73.204940335479478 91.92981142221106 0 0 0 0 31.439716392668061 -134.76159360827205 0 -134.76159360827205 106.70808270706766 0 0 0 0 -0.16339561928114499 -0.28473390951922184 0 -0.28473390951922184 2.0140348401545509 0 0 0 0 -3.7314524149496719 68.679203710385991 0 68.679203710385991 0.70254989289242076 0 0 0 0 -76.478395811605878 49.653604471805011 0 49.653604471805011 83.344162228728237 0 0 0 0 -40.335703698652651 39.387111776839447 0 39.387111776839447 188.24900043515117 0 0 0 0 -15.899805756438582 -10.682319650641148 0 -10.682319650641148 143.00902070345182 0 0 0 0 90.37360007135976 -136.03479658863034 0 -136.03479658863034 111.43707278184593 0 0 0 0 -104.74556811234925 60.989919272557017 0 60.989919272557017 -3.4514589000627893 0 0 0 0 -101.70248831610039 -35.799367345812414 0 -35.799367345812414 97.373610731912777 0 0 0 0 -26.763443632348753 164.78722053054844 0 164.78722053054844 -160.94638740009032 0 0 0 0 -82.689976963532899 73.224088574323105 0 73.224088574323105 91.463031577173524 0 0 0 0 2.0270208335859934 -20.953058862276521 0 -20.953058862276521 215.61730005248319 0 0 0 0 -25.785597065147158 -102.49127889552983 0 -102.49127889552983 158.0536592212884 0 0 0 0 0.62980619170668639 7.2285394948288744 0 7.2285394948288744 25.009831058532342 0 0 0 0 -136.80387176048225 -14.989408870371335 0 -14.989408870371335 51.746553141994809 0 0 0 0 26.721011810050186 -134.53413701837417 0 -134.53413701837417 27.640668323114369 0 0 0 0 45.119650972193995 -61.815814244011563 0 -61.815814244011563 108.04973130832877 0 0 0 0 -8.6038439212152298 25.138964622925414 0 25.138964622925414 46.935942107385927 0 0 0 0 -8.2374976215289522 2.2536316774672969 0 2.2536316774672969 8.8861081545727387 0 0 0 0 -34.146074790060084 17.85880496208847 0 17.85880496208847 42.617979789327364 0 0 0 0 -5.7377396629902062 4.7713701857557265 0 4.7713701857557265 31.801082567918073 0 0 0 0 40.071412645000237 -36.749443408902152 0 -36.749443408902152 33.196494805037219 0 0 0 0 -7.827524001973341 -1.1906093582150703 0 -1.1906093582150703 12.814006009611376 0 0 0 0 -0.17524757769111687 0.83835800294274065 0 0.83835800294274065 8.9178112123612294 0 0 0 0 -24.665768940441922 30.638094437133987 0 30.638094437133987 59.38942974784004 0 0 0 0 23.913136239047162 16.211401380991447 0 16.211401380991447 50.350550971001212 0 0 0 0 79.034091389876266 -126.0516365499825 0 -126.0516365499825 150.17431157332612 0 0 0 0 -1.2999332433929638 -1.6366178398208291 0 -1.6366178398208291 -2.0513101817216182 0 0 0 0 -78.381475423913798 -118.19739502210359 0 -118.19739502210359 34.541098389894614 0 0 0 0 323.61731061267346 -154.99616252676424 0 -154.99616252676424 30.857144593892372 0 0 0 0 175.96157008801811 -65.839750779564383 0 -65.839750779564383 -19.136319461838866 0 0 0 0 1.9133597484137006 5.3862509484878007 0 5.3862509484878007 16.391048367447894 0 0 0 0 42.758747219863835 -59.993433140940397 0 -59.993433140940397 -16.526402219438751 0 0 0 0 -51.865755924596783 146.78571087202477 0 146.78571087202477 -173.25360133531649 0 0 0 0 -6.9178438694033773 -5.469574880743977 0 -5.469574880743977 -4.4294591777610037 0 0 0 0 60.226654267004278 -98.49846528194189 0 -98.49846528194189 88.876654127823713 0 0 0 0 53.762611065696547 -56.309191672748057 0 -56.309191672748057 70.747019547950913 0 0 0 0 62.285140279656844 -108.56036048156602 0 -108.56036048156602 138.07426711658263 0 0 0 0 48.341503215111516 -31.247699422649021 0 -31.247699422649021 160.36905501864385 0 0 0 0 30.29822186670026 -25.18404941262088 0 -25.18404941262088 407.06532756272645 0 0 0 0 64.655253615943366 -125.925799878215 0 -125.925799878215 266.15406498599623 0 0 0 0 138.94255583870836 -38.656807372153708 0 -38.656807372153708 178.40270880788376 0 0 0 0 154.53508958934526 11.623681108283563 0 11.623681108283563 481.15998712737201 0 0 0 0 237.63811858428926 -2.4413328202062985 0 -2.4413328202062985 266.56677878875053 0 0 0 0 241.26885782796126 105.47040583931812 0 105.47040583931812 396.5095681652906 0 0 0 0 22.134090165838643 217.8372915389773 0 217.8372915389773 629.19317680280074 0 0 0 0 -22.439891796803749 213.56628290632216 0 213.56628290632216 703.43942036752924 0 0 0 0 -236.39196953756391 32.707067472028939 0 32.707067472028939 616.12930103902909 0 0 0 0 9.2028772338017006 -107.76635710494884 0 -107.76635710494884 198.66872688161857 0 0 0 0 40.01964226248856 -15.432621398820629 0 -15.432621398820629 1039.696359855192 0 0 0 0 -1.2895890056533972 192.528630296747 0 192.528630296747 407.77138619001562 0 0 0 0 199.56815733948679 371.57669329460623 0 371.57669329460623 877.66532390783141 0 0 0 0 13.222298640843292 270.72678734779038 0 270.72678734779038 838.55831841132022 0 0 0 0 -5.3393944243953229 199.56317168372698 0 199.56317168372698 720.5327702499344 0 0 0 0 209.00988662367945 213.53805401209684 0 213.53805401209684 662.37463538754673 0 0 0 0 43.149181512741052 157.60485133496695 0 157.60485133496695 641.72679920234077 0 0 0 0 79.342722199908167 188.55968610147829 0 188.55968610147829 657.66406145983274 0 0 0 0 44.429146760609001 221.75418650721258 0 221.75418650721258 715.56398064656241 0 0 0 0 -24.933621559010135 241.0119512746387 0 241.0119512746387 750.03277213835099 0 0 0 0 -33.988090454902704 153.34796036581974 0 153.34796036581974 670.69727436741232 0 0 0 0 -21.647620199071753 160.24099474119066 0 160.24099474119066 650.80494635734067 0 0 0 0 19.341324075219745 156.15100816723134 0 156.15100816723134 635.313036464373 0 0 0 0 -9.2576689619163517 91.380144447830389 0 91.380144447830389 603.7185706589662 0 0 0 0 73.206517800601659 148.48900785545493 0 148.48900785545493 643.16688560080365 0 0 0 0 36.009390702786732 218.47093806902194 0 218.47093806902194 698.52422913964256 0 0 0 0 -20.576051282696426 253.5792921718421 0 253.5792921718421 784.79074528934143 0 0 0 0 -55.557306223287014 181.68791382895688 0 181.68791382895688 792.73490477239829 0 0 0 0 -73.07687925283858 119.62497641921664 0 119.62497641921664 962.76895649191283 0 0 0 0 -69.599402741112499 94.631678445184662 0 94.631678445184662 665.44013072179223 0 0 0 0 65.806304652063773 -103.30367136766654 0 -103.30367136766654 370.61294182375423 0 0 0 0 2.8791384691139683 159.35684276017128 0 159.35684276017128 589.76840600932337 0 0 0 0 25.195744566650319 70.293655048899382 0 70.293655048899382 280.91752532978717 0 0 0 0 -51.632029132928437 160.78677013901324 0 160.78677013901324 590.07018157645871 0 0 0 0 -6.1232129055570113 48.260384981316747 0 48.260384981316747 571.81438754493138 0 0 0 0 -80.885896598694671 38.133154190378264 0 38.133154190378264 573.61200107168406 0 0 0 0 -94.70806290989276 21.768935961154057 0 21.768935961154057 564.90051070495974 0 0 0 0 2.4020650627135183 -1.1612477796152234 0 -1.1612477796152234 515.010928717762 0 0 0 0 40.503109821626367 18.998059424453459 0 18.998059424453459 525.53156504576327 0 0 0 0 -0.59866533461899962 16.438477933770628 0 16.438477933770628 543.48358460376039 0 0 0 0 15.912061846753204 85.759360932410345 0 85.759360932410345 603.8945587737835 0 0 0 0 63.632290926503629 43.161711615226523 0 43.161711615226523 554.56539022322977 0 0 0 0 -54.344576631738164 55.475882883620216 0 55.475882883620216 590.92013526032679 0 0 0 0 -39.856347735691088 120.969575372088 0 120.969575372088 614.92165305309754 0 0 0 0 -47.075632637457602 168.83023199281888 0 168.83023199281888 648.79612360931424 0 0 0 0 -61.562267703845464 126.21535379441275 0 126.21535379441275 615.43463009758852 0 0 0 0 -140.56697165992955 110.22724547420512 0 110.22724547420512 612.5326898037456 0 0 0 0 -169.53726740212733 77.183966480020899 0 77.183966480020899 580.74534173472784 0 0 0 0 0.33737603430545704 -0.56066716533371164 0 -0.56066716533371164 0.49172817438528682 0 0 0 0 -23.075011768865807 2.0215355700929649 0 2.0215355700929649 116.11122682224959 0 0 0 0 -178.8616411533003 -38.809815244938363 0 -38.809815244938363 407.4181134327664 0 0 0 0 -23.588742954387271 -3.5271285177150276 0 -3.5271285177150276 308.45560835115612 0 0 0 0 -85.272225856355362 93.056613019798533 0 93.056613019798533 570.80083690944593 0 0 0 0 -42.740629137064388 45.731774659347138 0 45.731774659347138 518.94198120376677 0 0 0 0 -1.3149195197893278 -16.461346095271438 0 -16.461346095271438 39.607300811374444 0 0 0 0 11.591635601187591 -15.396118636548636 0 -15.396118636548636 39.058569580498443 0 0 0 0 8.7027051175614361 -20.982265246642783 0 -20.982265246642783 41.888901548838476 0 0 0 0 11.921693147765836 -13.75892528586337 0 -13.75892528586337 47.15113282184393 0 0 0 0 -20.195219765651373 6.9467313481585933 0 6.9467313481585933 26.689218209164721 0 0 0 0 10.156017627250321 -23.993041378667158 0 -23.993041378667158 38.444755661752424 0 0 0 0 9.5766379482947741 -22.63634521154745 0 -22.63634521154745 38.537816149560967 0 0 0 0 7.6583078683878689 -7.3676137612286823 0 -7.3676137612286823 7.1800559951147918 0 0 0 0 14.123663215336023 -22.249207217150342 0 -22.249207217150342 39.123649282868428 0 0 0 0 -47.343258651006181 39.233609217175399 0 39.233609217175399 50.229250244521609 0 0 0 0 -87.454492784519971 82.815875042731932 0 82.815875042731932 70.855888411178967 0 0 0 0 3.8676614599571622 -25.108700822038372 0 -25.108700822038372 61.701584771974012 0 0 0 0 -373.12441251534074 139.81533552087421 0 139.81533552087421 648.55503507677349 0 0 0 0 -489.78999774014119 557.78356422509751 0 557.78356422509751 -2.2794923912879312 0 0 0 0 -90.043985946127577 97.740634686106205 0 97.740634686106205 38.117334751925227 0 0 0 0 -44.792008756713585 64.296137039471432 0 64.296137039471432 -101.85800517983444 0 0 0 0 -30.657100024327519 134.82399707126751 0 134.82399707126751 22.232291101465307 0 0 0 0 -22.422853236571406 4.3328440473024159 0 4.3328440473024159 10.206033192458918 0 0 0 0 -35.60659596162759 200.70654912848568 0 200.70654912848568 -660.12452943448443 0 0 0 0 -7.3231263112414879 0.94612708385089661 0 0.94612708385089661 0.23044615958002623 0 0 0 0 -237.03688996758501 308.16015689694905 0 308.16015689694905 273.77250093142356 0 0 0 0 489.7863802548386 649.22375894729976 0 649.22375894729976 391.83790757945098 0 0 0 0 -125.73958476448024 366.07840426378243 0 366.07840426378243 1385.3422515433449 0 0 0 0 3.6246200034702269 -155.62154503682268 0 -155.62154503682268 1074.8224939810825 0 0 0 0 271.15615031359084 -10.566403174154402 0 -10.566403174154402 27.920799744029864 0 0 0 0 6.8242622790778498 5.714692144006932 0 5.714692144006932 5.453150931943469 0 0 0 0 57.221532938179735 297.7843664939428 0 297.7843664939428 1172.727303708305 0 0 0 0 261.5997491420203 467.8679249212837 0 467.8679249212837 1012.4730059811882 0 0 0 0 206.97475604865031 359.49319955130704 0 359.49319955130704 798.42142996019538 0 0 0 0 708.67402480842702 224.10146683045605 0 224.10146683045605 514.70323920381634 0 0 0 0 348.17131357660219 -223.77578883898605 0 -223.77578883898605 772.50079314940376 0 0 0 0 -128.8393864416721 188.85062123178795 0 188.85062123178795 800.25015696903574 0 0 0 0 136.60648487298749 87.875783186578701 0 87.875783186578701 354.62234994797473 0 0 0 0 -128.63681299878226 249.66229734779699 0 249.66229734779699 151.15361457243489 0 0 0 0 -455.39818561275388 74.500561157237826 0 74.500561157237826 133.8260933348356 0 0 0 0 86.869144165548903 572.38544343208127 0 572.38544343208127 -211.45596276452125 0 0 0 0 -91.901176234567174 467.12691538300351 0 467.12691538300351 244.7930600024265 0 0 0 0 80.013389620675298 778.79487569770572 0 778.79487569770572 515.86826594930608 0 0 0 0 291.55380529774266 1129.7301814861094 0 1129.7301814861094 -3.254522981322225 0 0 0 0 -273.28159832447216 1152.4706879766181 0 1152.4706879766181 193.00955340338987 0 0 0 0 4.5792581510161767 8.6140992282241093 0 8.6140992282241093 20.38940083574451 0 0 0 0 553.99676346017623 766.59538978382079 0 766.59538978382079 -131.17920341716672 0 0 0 0 863.76899600928664 -994.69070430575448 0 -994.69070430575448 1473.533146674039 0 0 0 0 1282.7571430832095 196.67648257195287 0 196.67648257195287 751.27187783204135 0 0 0 0 474.28592324684723 294.55889986106195 0 294.55889986106195 1835.6155236933464 0 0 0 0 -743.21606463332819 -100.93740491403878 0 -100.93740491403878 1681.5062732297592 0 0 0 0 840.89069097917854 -807.17682139381577 0 -807.17682139381577 821.06420446147604 0 0 0 0 124.72663932730211 -238.63076096917939 0 -238.63076096917939 1000.6298442508159 0 0 0 0 43.550384564543492 -105.36731566089293 0 -105.36731566089293 1064.2535590599437 0 0 0 0 160.8735488904349 -170.23987764880076 0 -170.23987764880076 555.11211145277775 0 0 0 0 237.12827678798567 -526.47923613817693 0 -526.47923613817693 2061.0814148162171 0 0 0 0 218.71025621511581 14.244540812818741 0 14.244540812818741 1114.2936418172503 0 0 0 0 320.54503048848983 -207.9806105630214 0 -207.9806105630214 1000.904014588843 0 0 0 0 102.22577186230046 -376.84963646912365 0 -376.84963646912365 1309.8805378755933 0 0 0 0 51.248138179955276 -310.03848048381769 0 -310.03848048381769 1327.0808347028869 0 0 0 0 236.80488113970949 -322.51252714025742 0 -322.51252714025742 1321.1671742759936 0 0 0 0 638.61543259698919 -525.42812439526824 0 -525.42812439526824 606.12063681568543 0 0 0 0 219.47438287429759 -471.90158770628841 0 -471.90158770628841 1329.2777169176989 0 0 0 0 9.0280887877124769 407.30531652429636 0 407.30531652429636 919.85609563638718 0 0 0 0 51.312520404522957 -314.49799580908416 0 -314.49799580908416 1518.7885519487754 0 0 0 0 -1.7418984526585248 -0.49152997802922727 0 -0.49152997802922727 1.8857926115384203 0 0 0 0 96.766060964713688 83.112924474851752 0 83.112924474851752 748.86578536608067 0 0 0 0 590.30152714383019 -74.868778659399993 0 -74.868778659399993 15.446565260950592 0 0 0 0 790.49529985482513 -324.6934101914012 0 -324.6934101914012 133.82494445590419 0 0 0 0 590.83154744742626 -137.28778896089 0 -137.28778896089 387.11180940554186 0 0 0 0 9.1400339239405035 23.792841152572461 0 23.792841152572461 55.43741913383576 0 0 0 0 -600.81768911662266 448.96349522552464 0 448.96349522552464 95.085944391321391 0 0 0 0 337.38697179428891 -362.21117272650008 0 -362.21117272650008 433.43116536176967 0 0 0 0 293.0065495395138 -329.35269713468006 0 -329.35269713468006 91.844490901017707 0 0 0 0 685.32464201550647 -80.577666643968769 0 -80.577666643968769 161.30256116659439 0 0 0 0 -397.57070658064185 143.15708069393077 0 143.15708069393077 143.10394371103757 0 0 0 0 844.8532251594479 -560.4682466313825 0 -560.4682466313825 150.51708445415716 0 0 0 0 14.445134327880858 36.325338655822542 0 36.325338655822542 85.490514160907139 0 0 0 0 -135.14222444198094 32.995190274512424 0 32.995190274512424 114.04043251448456 0 0 0 0 -145.74523568290897 32.962303675703879 0 32.962303675703879 118.10446167784175 0 0 0 0 -220.9335503325201 17.03163554557068 0 17.03163554557068 154.63144826997086 0 0 0 0 -284.8640695574195 39.780546793386748 0 39.780546793386748 2.5574190105653543 0 0 0 0 -178.65570536582163 -139.93671431069743 0 -139.93671431069743 349.9973810393858 0 0 0 0 -331.2060757084073 35.056775262271913 0 35.056775262271913 273.72793733006256 0 0 0 0 38.611954069863714 -149.02981821460708 0 -149.02981821460708 418.34123920278034 0 0 0 0 -25.556402843956675 -33.143722440925558 0 -33.143722440925558 224.0607742907232 0 0 0 0 -86.428755345812533 -136.87690592288345 0 -136.87690592288345 303.37413540535999 0 0 0 0 74.579940714662371 -109.90002874662241 0 -109.90002874662241 153.60918783195666 0 0 0 0 -175.60746219134671 -95.978733453106543 0 -95.978733453106543 209.51924903946201 0 0 0 0 -103.61165541725859 -78.181174476485467 0 -78.181174476485467 163.73298042397619 0 0 0 0 -20.456884793361496 -97.960222024532413 0 -97.960222024532413 141.11713589706778 0 0 0 0 -13.154208418196504 -112.15949252324936 0 -112.15949252324936 166.89787271243404 0 0 0 0 -67.317232396966574 -69.013600107944512 0 -69.013600107944512 124.03256320956098 0 0 0 0 -99.61133456016023 -34.891155065137355 0 -34.891155065137355 174.59034087676991 0 0 0 0 -87.020825206112931 -44.380990470774123 0 -44.380990470774123 125.29756646975954 0 0 0 0 -114.29324892671866 13.118738879245939 0 13.118738879245939 157.3574558082546 0 0 0 0 -53.437527604202842 3.4699556938576279 0 3.4699556938576279 128.25264180715021 0 0 0 0 -118.58566659748112 7.3478353842289152 0 7.3478353842289152 151.61373246606672 0 0 0 0 -153.87015076317084 -22.511402716222165 0 -22.511402716222165 173.83638153179345 0 0 0 0 -2.1270685581637423 -4.3807915603155969 0 -4.3807915603155969 8.0152496931228256 0 0 0 0 -75.041082918752181 21.497332519546035 0 21.497332519546035 233.82004448183579 0 0 0 0 652.1008439037405 -488.55907713627676 0 -488.55907713627676 782.00114921051863 0 0 0 0 700.17239595744104 -645.14230305769888 0 -645.14230305769888 535.5049450198494 0 0 0 0 974.36721385424426 -367.55629738577409 0 -367.55629738577409 346.55400643491885 0 0 0 0 828.45769126852974 -289.59612682438456 0 -289.59612682438456 430.43846023478545 0 0 0 0 480.51757148180695 -752.56950364491786 0 -752.56950364491786 769.80670316248688 0 0 0 0 4.2011286782735624 -64.399417836290922 0 -64.399417836290922 440.02958331187256 0 0 0 0 -15.383328652571436 -212.04774657875532 0 -212.04774657875532 813.38088119385884 0 0 0 0 16.381102348804227 51.375265366289703 0 51.375265366289703 120.50011782790006 0 0 0 0 -115.69335234485266 55.771297161984762 0 55.771297161984762 153.83458395115304 0 0 0 0 570.75904336861277 -488.44928649511712 0 -488.44928649511712 693.17348922483507 0 0 0 0 890.96909765984128 -392.32431606242608 0 -392.32431606242608 209.60788349591894 0 0 0 0 -7.5356863632566231 27.36396874737909 0 27.36396874737909 32.349659939620068 0 0 0 0 -21.029213029270977 64.826635959778287 0 64.826635959778287 140.64073276196723 0 0 0 0 -9.7871082440251485 15.153223265144334 0 15.153223265144334 62.369225082133198 0 0 0 0 -26.434975360554176 5.5202554236692123 0 5.5202554236692123 86.578971894155345 0 0 0 0 -19.984081844891421 5.1539349032751147 0 5.1539349032751147 86.871747335366535 0 0 0 0 -17.050091728737662 15.643964666599629 0 15.643964666599629 53.163404388263558 0 0 0 0 -4.3279079826315865 -157.48022189414041 0 -157.48022189414041 245.07707930821925 0 0 0 0 772.40848414240827 -572.1920504013251 0 -572.1920504013251 309.47963742224965 0 0 0 0 590.31449793053253 -304.85086199836223 0 -304.85086199836223 132.11832532838162 0 0 0 0 -10.016955932749177 2.9714477403585846 0 2.9714477403585846 21.139884954050927 0 0 0 0 264.87655261902273 -457.3918361610049 0 -457.3918361610049 584.34095866803546 0 0 0 0 45.225704006712476 146.20428794958571 0 146.20428794958571 208.09449797059142 0 0 0 0 170.91397533817712 -545.24823218624442 0 -545.24823218624442 643.90762951294892 0 0 0 0 163.65175235156528 -482.95720948553935 0 -482.95720948553935 354.92013344919542 0 0 0 0 -51.402983836967337 -456.18408408205869 0 -456.18408408205869 423.29612997692311 0 0 0 0 359.25012938988505 -500.58079720978276 0 -500.58079720978276 301.08192465221509 0 0 0 0 359.09788929431625 -494.69518133671954 0 -494.69518133671954 239.581703728094 0 0 0 0 661.5241398259343 -456.29163261759095 0 -456.29163261759095 85.179745693632867 0 0 0 0 381.24740317977773 -361.44669485722989 0 -361.44669485722989 69.151794583303854 0 0 0 0 399.11281966788533 -388.78657079738332 0 -388.78657079738332 98.272329077823088 0 0 0 0 263.2893171683545 -476.54923950726516 0 -476.54923950726516 241.93750127011663 0 0 0 0 204.74128809527735 -286.75331801071297 0 -286.75331801071297 100.38103822554694 0 0 0 0 76.903985981825826 -217.91894917580066 0 -217.91894917580066 195.85684072249387 0 0 0 0 261.06293171888228 -354.69076696860429 0 -354.69076696860429 181.67561860071146 0 0 0 0 62.46518544268838 -331.74694391294906 0 -331.74694391294906 277.56099009035097 0 0 0 0 171.70479395042912 -412.64021804028016 0 -412.64021804028016 197.43648629126255 0 0 0 0 192.16589199242935 -476.07306816751225 0 -476.07306816751225 353.53906385105802 0 0 0 0 179.08119437476307 -490.82129971959512 0 -490.82129971959512 358.14234489717637 0 0 0 0 57.629456056818299 -43.068757139400986 0 -43.068757139400986 -79.146313048404409 0 0 0 0 756.84049034429518 118.04787688801298 0 118.04787688801298 142.19418180431239 0 0 0 0 371.9539298656714 -171.69627396798751 0 -171.69627396798751 -57.599979352031369 0 0 0 0 -3.2626850501201998 1.1966492923217515 0 1.1966492923217515 5.0109258923826019 0 0 0 0 1046.8902123179564 -336.83686081004271 0 -336.83686081004271 30.964897333644331 0 0 0 0 572.15343700410563 -185.92942862241762 0 -185.92942862241762 32.213138044229709 0 0 0 0 366.84505231959292 -122.54991470972891 0 -122.54991470972891 49.996802126872353 0 0 0 0 -34.530441621895079 -112.62076125824387 0 -112.62076125824387 99.423934247839497 0 0 0 0 278.36623224593632 -228.14355514087947 0 -228.14355514087947 55.902158278389834 0 0 0 0 108.30642146446371 -31.891826008912176 0 -31.891826008912176 -0.37985797685541911 0 0 0 0 -9.928274748813692 -7.9333399011229631 0 -7.9333399011229631 15.375532168458449 0 0 0 0 -0.52382891954038113 -8.381602227234632 0 -8.381602227234632 16.577497214345328 0 0 0 0 -0.60135838537748088 -2.8458743099439943 0 -2.8458743099439943 17.754381662467381 0 0 0 0 -52.590613086966044 15.548055360417493 0 15.548055360417493 73.809350807045121 0 0 0 0 0.43399743331518137 -6.6388268168368061 0 -6.6388268168368061 53.425581663603964 0 0 0 0 -5.2932666643762811 -6.8130658823649384 0 -6.8130658823649384 5.9154125819953833 0 0 0 0 -2.6370552542207406 71.378856158378767 0 71.378856158378767 67.256316194954707 0 0 0 0 18.909240033787512 -0.86417144825099967 0 -0.86417144825099967 23.705681636405643 0 0 0 0 -1.7902619898593102 -7.837777085776537 0 -7.837777085776537 28.99131756665895 0 0 0 0 101.87618971485801 -91.598324869017233 0 -91.598324869017233 66.128370176813405 0 0 0 0 104.0040168148571 -120.76397765868023 0 -120.76397765868023 -34.348078750641434 0 0 0 0 -19.86360695073472 -79.570956581665087 0 -79.570956581665087 348.46993456937707 0 0 0 0 93.864613283423751 -441.96087832035846 0 -441.96087832035846 599.17170184972929 0 0 0 0 110.06677910800545 -281.64171098219231 0 -281.64171098219231 304.38804811076261 0 0 0 0 108.50651822400073 -183.5444321854593 0 -183.5444321854593 232.37517315612058 0 0 0 0 37.633404782191064 -34.094656846355065 0 -34.094656846355065 110.05853871833824 0 0 0 0 -71.953299480710484 -6.2388434862223221 0 -6.2388434862223221 214.975605989428 0 0 0 0 41.767310603293936 -137.52282437647227 0 -137.52282437647227 220.19860367671936 0 0 0 0 28.908344506853609 52.078432853028062 0 52.078432853028062 228.20450997436501 0 0 0 0 11.128428293424804 -101.25082742072482 0 -101.25082742072482 -40.627709823544137 0 0 0 0 44.838576512794134 40.660045459240791 0 40.660045459240791 -53.178289829447749 0 0 0 0 39.089628246461473 -144.07583010704002 0 -144.07583010704002 -311.42866323632188 0 0 0 0 -3.0202998900039404 -0.32161207565198424 0 -0.32161207565198424 1.2545126641171294 0 0 0 0 -26.985906121593644 -55.727605811385729 0 -55.727605811385729 73.079238163983973 0 0 0 0 10.788829753546452 18.736927121390181 0 18.736927121390181 10.564815262659977 0 0 0 0 -181.44620328295446 -225.22296465330146 0 -225.22296465330146 -219.45315667442628 0 0 0 0 -532.32150180443602 -795.70379261752169 0 -795.70379261752169 -1016.6621346921602 0 0 0 0 0.32464888854657425 -9.1314859093404852 0 -9.1314859093404852 74.427392339579455 0 0 0 0 297.68926201724184 30.5997008718914 0 30.5997008718914 -1053.527964429275 0 0 0 0 349.08465151657128 256.03001078133821 0 256.03001078133821 -265.36101401603082 0 0 0 0 193.46848902089005 160.1365752462807 0 160.1365752462807 -315.53584261790093 0 0 0 0 -20.081603295359855 -24.35062382660908 0 -24.35062382660908 14.455589095377945 0 0 0 0 -2.6070287441109805 0.10269928998059186 0 0.10269928998059186 8.0880658675672521 0 0 0 0 -97.791958233801779 186.14455636622733 0 186.14455636622733 -116.14830135705415 0 0 0 0 22.176780010137463 -11.83207171781396 0 -11.83207171781396 -50.035770491856965 0 0 0 0 35.74001220826176 3.0101261451491155 0 3.0101261451491155 -35.780962323158747 0 0 0 0 663.71126103359711 -634.55581553531374 0 -634.55581553531374 288.02799000038067 0 0 0 0 -2.6022356146740071 -3.7785202850387449 0 -3.7785202850387449 14.20507638256791 0 0 0 0 56.623264143285269 -106.38236210924151 0 -106.38236210924151 285.39776082421304 0 0 0 0 631.47476010789069 61.284180629867478 0 61.284180629867478 111.42207508245701 0 0 0 0 484.18792114134976 -261.21554383554758 0 -261.21554383554758 -38.14440307537734 0 0 0 0 -1.4510259796166451 0.37237620487079681 0 0.37237620487079681 19.405030791713472 0 0 0 0 110.25385819350959 141.56812040131263 0 141.56812040131263 19.037584906371194 0 0 0 0 -5.0105019671866344 -3.739902311545265 0 -3.739902311545265 5.4544269257766871 0 0 0 0 -120.57890234176466 365.86614203999488 0 365.86614203999488 -71.467584200072451 0 0 0 0 -61.759172780442896 124.70286483563541 0 124.70286483563541 -152.20813169678149 0 0 0 0 -252.10908323896729 -108.7220200346419 0 -108.7220200346419 328.09538352576783 0 0 0 0 -177.99597082237506 377.46977426951344 0 377.46977426951344 641.67200855803094 0 0 0 0 -68.495825193293058 199.70763514349528 0 199.70763514349528 380.68056440311193 0 0 0 0 -209.50988743971538 -163.83817859025294 0 -163.83817859025294 785.05693476332817 0 0 0 0 -286.90573932725783 -11.037077550507092 0 -11.037077550507092 516.86137986407266 0 0 0 0 -167.41522891829482 -470.66450583268306 0 -470.66450583268306 765.28975376360904 0 0 0 0 -346.92647620117259 -378.13311577848071 0 -378.13311577848071 1113.0135422586318 0 0 0 0 -303.63381500506739 -447.57864588512166 0 -447.57864588512166 1185.150374659599 0 0 0 0 -460.73312290631884 235.38227454974913 0 235.38227454974913 133.13900888356147 0 0 0 0 -66.500991122684354 -100.24343265857169 0 -100.24343265857169 -86.693159589820425 0 0 0 0 -1.1544787007598245 -1.6418159156957071 0 -1.6418159156957071 8.8320287571238509 0 0 0 0 296.9587715456837 -800.49439842807624 0 -800.49439842807624 1029.4908192226285 0 0 0 0 107.59966614508994 322.88209199684206 0 322.88209199684206 560.62309235296561 0 0 0 0 150.94714224043491 -408.51008678955259 0 -408.51008678955259 106.56479295500139 0 0 0 0 -181.7637471586786 -495.61058624109864 0 -495.61058624109864 1051.0496686834958 0 0 0 0 105.7223646913302 -61.4915697054671 0 -61.4915697054671 -149.63701861636946 0 0 0 0 455.17850466942673 -8.4541126830572466 0 -8.4541126830572466 1002.7320364270854 0 0 0 0 -119.62587318342594 -131.27467760389118 0 -131.27467760389118 1027.0337097705924 0 0 0 0 -79.126173866183308 38.461130879237317 0 38.461130879237317 1710.8984302959252 0 0 0 0 -194.20957981295032 -525.48123043286614 0 -525.48123043286614 1825.0746940350218 0 0 0 0 -196.2871973540764 -442.31198787431458 0 -442.31198787431458 1033.0462565928465 0 0 0 0 -293.09792614694561 -352.12617559643695 0 -352.12617559643695 1380.629171139517 0 0 0 0 -251.80369673459791 -372.41671697622223 0 -372.41671697622223 1104.6938644664042 0 0 0 0 -182.1966457867934 -400.11181581448182 0 -400.11181581448182 817.921423295149 0 0 0 0 -151.78122622424689 -72.448184206663427 0 -72.448184206663427 1057.2026053865557 0 0 0 0 -111.43721861434096 -117.22538462504599 0 -117.22538462504599 619.9386542357388 0 0 0 0 -126.1517548531242 -206.74137591951512 0 -206.74137591951512 873.02878544104169 0 0 0 0 -140.19302296706883 105.9666565806765 0 105.9666565806765 618.05363120650031 0 0 0 0 1.3314423991596414 43.056133261936338 0 43.056133261936338 255.18952676275512 0 0 0 0 -69.454148986806103 -35.535698971863894 0 -35.535698971863894 596.88610040841741 0 0 0 0 10.461252945980959 81.780175589388818 0 81.780175589388818 708.8286166334874 0 0 0 0 -9.0371347154541581 -152.21964502399351 0 -152.21964502399351 964.14615673106891 0 0 0 0 32.273467081511626 92.851198786585883 0 92.851198786585883 705.27510514701135 0 0 0 0 -397.76859447006535 217.08676327389912 0 217.08676327389912 282.89253699027176 0 0 0 0 -812.6481954262108 -286.67146998810495 0 -286.67146998810495 77.352297965757316 0 0 0 0 -3.9857088637348204 21.88879858819616 0 21.88879858819616 115.9786223626098 0 0 0 0 -377.88362969737136 -1518.6187764557326 0 -1518.6187764557326 3391.7033547869651 0 0 0 0 -90.567848457376385 55.961978125647875 0 55.961978125647875 406.92731294255827 0 0 0 0 53.735695641917118 -214.31713703971764 0 -214.31713703971764 329.51347481852645 0 0 0 0 16.176575975352989 -536.36020024445315 0 -536.36020024445315 521.6827670784478 0 0 0 0 132.44567367934064 -366.29528021808073 0 -366.29528021808073 610.26955355977407 0 0 0 0 -272.07230627376885 -431.45919472162495 0 -431.45919472162495 1158.3644835958221 0 0 0 0 -74.148896369365957 -589.87592348592443 0 -589.87592348592443 1121.3077994672494 0 0 0 0 262.36958394479132 -979.66971203411958 0 -979.66971203411958 1310.5050487159024 0 0 0 0 3.8340870871547068 8.2517812262670702 0 8.2517812262670702 43.841835363267336 0 0 0 0 605.69580870576408 1575.908040696002 0 1575.908040696002 222.16820754879154 0 0 0 0 1140.4116759239441 -1338.4916179113388 0 -1338.4916179113388 1471.7824057598627 0 0 0 0 795.28102737405027 -635.19306463778048 0 -635.19306463778048 248.5204502904744 0 0 0 0 276.95172324665566 49.543132355091075 0 49.543132355091075 -230.99462265703187 0 0 0 0 -274.74597659550244 -1167.9935925123391 0 -1167.9935925123391 8930.1031532664783 0 0 0 0 667.81830797062435 489.66730557215851 0 489.66730557215851 -4537.8809363023029 0 0 0 0 128.03163001975565 -913.39095834123282 0 -913.39095834123282 1869.0959413912205 0 0 0 0 113.94303329714549 -1172.3759788111545 0 -1172.3759788111545 3186.8116665969283 0 0 0 0 -455.71993016305782 -360.88941344131308 0 -360.88941344131308 3869.221584237217 0 0 0 0 -181.56313109969051 -560.02980178024154 0 -560.02980178024154 1327.0944350952923 0 0 0 0 -343.7011686879323 -129.86643948887649 0 -129.86643948887649 1612.5602390708518 0 0 0 0 -337.64008027642831 -95.904074562909955 0 -95.904074562909955 980.69169624127244 0 0 0 0 -215.54630193394041 -585.51952724184957 0 -585.51952724184957 1560.3994457424487 0 0 0 0 -364.65519383115043 120.45188850514387 0 120.45188850514387 1172.6837375456817 0 0 0 0 -680.14738769992539 172.43128409863857 0 172.43128409863857 2602.8867509747361 0 0 0 0 -111.37056636704187 432.24384109023231 0 432.24384109023231 259.85263739783841 0 0 0 0 103.94641247205777 1083.2320744213939 0 1083.2320744213939 -280.66913553094491 0 0 0 0 -127.34140218492485 632.70066433860484 0 632.70066433860484 1312.4259161095251 0 0 0 0 123.31778569568178 347.01176855538506 0 347.01176855538506 -10.969214717842988 0 0 0 0 4.6378975184818501 250.39429326976096 0 250.39429326976096 26.543079193637823 0 0 0 0 -0.53996302596242574 -4.2625233712214197 0 -4.2625233712214197 75.529209404664243 0 0 0 0 172.4541564045478 2469.2835345806016 0 2469.2835345806016 -217.40340369836485 0 0 0 0 -386.65625174158345 1573.9324399932229 0 1573.9324399932229 3070.1954038621152 0 0 0 0 718.19028769124373 140.25042990535439 0 140.25042990535439 -2489.9084531865956 0 0 0 0 585.225065926414 675.64604818212683 0 675.64604818212683 -194.82218369292968 0 0 0 0 -424.11037495377411 30.988047875078337 0 30.988047875078337 171.17636164392752 0 0 0 0 -48.060451740774838 38.624468217894901 0 38.624468217894901 33.352717741065135 0 0 0 0 -82.439858481337453 87.994802367866214 0 87.994802367866214 92.950611744687194 0 0 0 0 -200.95837849477212 -56.206378993942053 0 -56.206378993942053 62.625935436572036 0 0 0 0 37.345452245430877 -9.6473174092534464 0 -9.6473174092534464 86.69543875497402 0 0 0 0 -38.853793225187282 86.38391679286724 0 86.38391679286724 115.08216949432244 0 0 0 0 40.677791018913297 4.1597435570729431 0 4.1597435570729431 119.1182620000618 0 0 0 0 51.012125213249242 -52.746003018995907 0 -52.746003018995907 336.65864326886367 0 0 0 0 89.176144424532708 -129.90186339955108 0 -129.90186339955108 252.72667729560635 0 0 0 0 130.39925839054479 -414.58862937125741 0 -414.58862937125741 455.34429321561765 0 0 0 0 62.823882951226707 -121.42682880561188 0 -121.42682880561188 314.72194683879206 0 0 0 0 70.676323823955599 -153.82545933705114 0 -153.82545933705114 264.4077922784345 0 0 0 0 -147.80534941159243 196.47081613930641 0 196.47081613930641 -80.826027355476981 0 0 0 0 122.59494827192273 -55.474285199918086 0 -55.474285199918086 35.591805253654456 0 0 0 0 413.93355413114062 -190.83018816530239 0 -190.83018816530239 -210.74219841695594 0 0 0 0 -0.055063624845333572 1.5146080265632449 0 1.5146080265632449 32.890900563019215 0 0 0 0 352.49102500948976 -659.14206256256148 0 -659.14206256256148 888.02084943314549 0 0 0 0 385.82877498628739 -448.26103630122088 0 -448.26103630122088 125.78710129216779 0 0 0 0 -151.48056362864486 -160.05782104039827 0 -160.05782104039827 1456.4306036989874 0 0 0 0 318.48430758191159 -797.68729850857017 0 -797.68729850857017 893.29757430666359 0 0 0 0 81.058085684080496 -323.52836851608299 0 -323.52836851608299 422.24435112669016 0 0 0 0 -63.363226585868574 -141.75298660764383 0 -141.75298660764383 850.7912029581712 0 0 0 0 -158.3724473695101 -91.349528771374025 0 -91.349528771374025 824.46072851638019 0 0 0 0 135.66481130407399 422.11586456569785 0 422.11586456569785 615.06227183924057 0 0 0 0 141.79281517646135 525.24390950222732 0 525.24390950222732 536.27056468713272 0 0 0 0 -110.85311179034903 54.356225084455218 0 54.356225084455218 1030.1564963064156 0 0 0 0 -205.83105284807246 -599.76875993135036 0 -599.76875993135036 2646.2430607875867 0 0 0 0 -76.011687435206227 1451.3730797009266 0 1451.3730797009266 2068.2900061094988 0 0 0 0 682.2438315045049 1640.4280714754714 0 1640.4280714754714 347.03603829878557 0 0 0 0 -45.485208953857622 18.825977158958267 0 18.825977158958267 546.39267821235353 0 0 0 0 -76.793557753885295 44.474339917112957 0 44.474339917112957 739.33552784934 0 0 0 0 -18.071420516020833 -103.63554229387773 0 -103.63554229387773 524.67365441817674 0 0 0 0 -64.993143827980575 -159.49463890800689 0 -159.49463890800689 673.36691065827472 0 0 0 0 -13.389152470848003 -81.896568061252765 0 -81.896568061252765 517.86019340844359 0 0 0 0 -0.12263179529309429 -24.402373591798096 0 -24.402373591798096 587.41253921855241 0 0 0 0 27.932713511526842 -53.273402181599522 0 -53.273402181599522 481.54927240798133 0 0 0 0 65.077893573304806 -159.47886852679221 0 -159.47886852679221 468.1216091151291 0 0 0 0 86.961682208323253 49.616275174535986 0 49.616275174535986 352.2261307308072 0 0 0 0 87.803341053196135 78.376902849551698 0 78.376902849551698 122.76419111762516 0 0 0 0 67.477550982294929 63.044277077504375 0 63.044277077504375 409.18885600388967 0 0 0 0 69.537161223339979 -64.861984016635688 0 -64.861984016635688 284.66602012154181 0 0 0 0 0.025259173443850983 -0.044783584227308659 0 -0.044783584227308659 400.74993956682738 0 0 0 0 57.276065968193677 -49.56516562599063 0 -49.56516562599063 384.53723528198316 0 0 0 0 -14.840302421010877 -102.19640477046778 0 -102.19640477046778 228.92260280738992 0 0 0 0 0.039009335167688473 -16.318589803111536 0 -16.318589803111536 -17.93578567187069 0 0 0 0 -12.011323104662875 -91.67148592556714 0 -91.67148592556714 -43.432552686776035 0 0 0 0 -7.3335754769472707 1.4771692847607483 0 1.4771692847607483 42.339312582422281 0 0 0 0 -11.53841558552217 18.36155754844367 0 18.36155754844367 -13.944539397858534 0 0 0 0 -43.821933181598489 -51.052421775377297 0 -51.052421775377297 0.31375995030248305 0 0 0 0 -0.18559953686118216 -0.35009682264517039 0 -0.35009682264517039 1.2322094972529953 0 0 0 0 65.000507462756104 41.848170685276273 0 41.848170685276273 68.017835543199908 0 0 0 0 -158.65117914357245 32.837361658965165 0 32.837361658965165 93.904015990148764 0 0 0 0 9.6535817570127804 13.916963929004851 0 13.916963929004851 46.485363631982182 0 0 0 0 -37.082540952781358 33.955705140193459 0 33.955705140193459 75.187650593114085 0 0 0 0 34.350485788722501 93.747338079258043 0 93.747338079258043 77.92611245237822 0 0 0 0 -0.47832413613063607 -0.8881809155359548 0 -0.8881809155359548 2.2678619920218637 0 0 0 0 -9.0104518940148175 46.595006509908671 0 46.595006509908671 45.090394578815904 0 0 0 0 -1.7426883705366587 -0.25631697845454937 0 -0.25631697845454937 4.6084672352853033 0 0 0 0 -30.308926298373336 -40.896574598758889 0 -40.896574598758889 36.832311620659311 0 0 0 0 -6.8980590640680362 47.046280039518024 0 47.046280039518024 64.952842553640949 0 0 0 0 64.029507940732671 191.75635498123393 0 191.75635498123393 377.66343679116108 0 0 0 0 22.66973198350388 91.382870861823903 0 91.382870861823903 48.700996818675776 0 0 0 0 -0.0084416735996415415 -1.5008716879563906 0 -1.5008716879563906 2.7629785765089991 0 0 0 0 -56.445117585999355 15.611569073727878 0 15.611569073727878 356.876193941971 0 0 0 0 -45.885700868755379 43.210421272728126 0 43.210421272728126 226.69763871343457 0 0 0 0 -26.850519774932962 -20.301415753161564 0 -20.301415753161564 141.1302029628132 0 0 0 0 -30.071413629428449 18.774685100543138 0 18.774685100543138 171.14254979768884 0 0 0 0 0.0041473186013459475 -22.424300186013813 0 -22.424300186013813 60.413750521169277 0 0 0 0 -0.15496624564173722 -263.51831341400248 0 -263.51831341400248 1616.5013089588538 0 0 0 0 16.241132994877432 -406.37965115083352 0 -406.37965115083352 1683.21702382066 0 0 0 0 -49.211819603848994 -407.77806491122101 0 -407.77806491122101 2027.4693763795804 0 0 0 0 67.672643539499859 -306.46045247206348 0 -306.46045247206348 1866.3396940660423 0 0 0 0 197.48953062064771 -426.4162161696695 0 -426.4162161696695 1464.5705230828025 0 0 0 0 31.943109832977555 -413.35461196568576 0 -413.35461196568576 2083.0334597722249 0 0 0 0 51.366612663948558 -534.37565641933179 0 -534.37565641933179 1745.334643167138 0 0 0 0 56.145493950982541 -326.18191945712169 0 -326.18191945712169 1517.2414003882004 0 0 0 0 154.89249196725254 -534.50007779421685 0 -534.50007779421685 1155.5585228685813 0 0 0 0 59.527816602142707 -299.52439487569791 0 -299.52439487569791 1021.9484918072703 0 0 0 0 79.838209208832382 -436.1455313720362 0 -436.1455313720362 1468.262948555639 0 0 0 0 284.64492451043509 -571.69568448005157 0 -571.69568448005157 970.04456066018611 0 0 0 0 98.158612601435294 -381.45152571471772 0 -381.45152571471772 940.41737010606448 0 0 0 0 251.97490358576053 -460.09659666310472 0 -460.09659666310472 614.63082616789325 0 0 0 0 130.09565211770791 -420.8713477468209 0 -420.8713477468209 1173.892085615269 0 0 0 0 48.445191430816394 -493.55320309803949 0 -493.55320309803949 1157.3103691118085 0 0 0 0 0.28138887139920904 -189.31389215089075 0 -189.31389215089075 812.14114061491273 0 0 0 0 123.35394987547153 -342.2762126955131 0 -342.2762126955131 656.70849849850492 0 0 0 0 215.39462637479835 -236.16768440297528 0 -236.16768440297528 351.3133219005249 0 0 0 0 147.83279184745157 -78.971453888285964 0 -78.971453888285964 221.97234747305629 0 0 0 0 0.087286502508711103 -130.77795778201835 0 -130.77795778201835 471.71724715561868 0 0 0 0 148.65358098819763 -103.38536068585381 0 -103.38536068585381 410.50894338813669 0 0 0 0 87.319864412727895 79.982758259109687 0 79.982758259109687 549.95191339798748 0 0 0 0 111.78719750742056 92.228101098149637 0 92.228101098149637 152.32087592121388 0 0 0 0 0.15165695317592801 -43.876528051918285 0 -43.876528051918285 387.75005836487981 0 0 0 0 833.75372051519548 537.88283613880776 0 537.88283613880776 -1067.9222017096763 0 0 0 0 -293.575838949169 -370.62124547997519 0 -370.62124547997519 -203.74059719649449 0 0 0 0 137.40044456998652 -49.355091073979565 0 -49.355091073979565 273.76178279966553 0 0 0 0 134.69568706389816 -23.898620004572876 0 -23.898620004572876 73.362416119816771 0 0 0 0 -0.68184434350299594 -0.092845553994891361 0 -0.092845553994891361 0.92615029664793269 0 0 0 0 47.826871874022586 -233.40025448164124 0 -233.40025448164124 239.26725916391297 0 0 0 0 108.99356054789655 -43.619767035474069 0 -43.619767035474069 123.15044675937679 0 0 0 0 102.65880390551132 -202.51617879654077 0 -202.51617879654077 391.07904501004668 0 0 0 0 86.304298548718123 -225.3430554229999 0 -225.3430554229999 576.25297314323689 0 0 0 0 168.80915731855842 -323.1754720760332 0 -323.1754720760332 312.80813935650804 0 0 0 0 138.56900218892244 -54.601414352860957 0 -54.601414352860957 126.67268092448649 0 0 0 0 -0.59825466966917551 -0.25208053116662654 0 -0.25208053116662654 -0.046006412778240247 0 0 0 0 27.316959401528457 13.946112924902991 0 13.946112924902991 26.935713970611687 0 0 0 0 -3.9139787310293528 -153.2761500061315 0 -153.2761500061315 254.78552729853254 0 0 0 0 -86.791187837001303 -39.347212884800683 0 -39.347212884800683 146.0358366675282 0 0 0 0 5.1201294552058609 17.72135447981492 0 17.72135447981492 61.959466519625721 0 0 0 0 -87.598648249245343 231.05710232334241 0 231.05710232334241 101.76430069546041 0 0 0 0 -135.45712523939028 110.06077832637311 0 110.06077832637311 -35.718188096085214 0 0 0 0 4.7639675078729438 20.623117851766537 0 20.623117851766537 81.34487583225382 0 0 0 0 -374.61759474740984 85.13740508922092 0 85.13740508922092 333.44205587200122 0 0 0 0 -193.6747140568537 53.76037010413711 0 53.76037010413711 162.15392777355737 0 0 0 0 -63.786539077139565 7.6300913077684527 0 7.6300913077684527 66.015807920368388 0 0 0 0 -80.882272749759807 22.050137986412665 0 22.050137986412665 168.95822160820535 0 0 0 0 1.8040106102065079 27.05482936380151 0 27.05482936380151 95.866700024200611 0 0 0 0 -170.35899354537929 70.069558122821036 0 70.069558122821036 102.81540414939445 0 0 0 0 -93.041779506203056 -38.951709839289833 0 -38.951709839289833 65.300350780853478 0 0 0 0 -113.38641794111777 -72.55289537277713 0 -72.55289537277713 104.41914653404092 0 0 0 0 -194.81220099390353 -86.263144001182809 0 -86.263144001182809 249.72566647089843 0 0 0 0 -11.356998939585891 12.2550582575183 0 12.2550582575183 39.762442582401775 0 0 0 0 96.912496875281704 257.05650185759441 0 257.05650185759441 -264.68929623603253 0 0 0 0 -297.95160944583114 155.04583233632798 0 155.04583233632798 68.300128596732975 0 0 0 0 -15.336215786540134 -6.1574954371074568 0 -6.1574954371074568 36.119343450853563 0 0 0 0 100.36897853990922 77.643499845609767 0 77.643499845609767 -430.03954415042972 0 0 0 0 -366.09077294875351 -60.87669901852496 0 -60.87669901852496 260.73690860422357 0 0 0 0 -92.183226429893693 161.62686306668184 0 161.62686306668184 207.86857971575228 0 0 0 0 -175.47091364794051 -73.440186081708816 0 -73.440186081708816 601.09424780422705 0 0 0 0 50.981455667231785 -0.34683240497543011 0 -0.34683240497543011 122.86194435053039 0 0 0 0 -45.168109341163472 175.55316221436442 0 175.55316221436442 394.78570787016361 0 0 0 0 -80.594804302820194 236.97842993601807 0 236.97842993601807 268.57286818327748 0 0 0 0 -2.0864712526025517 2.6392609278472037 0 2.6392609278472037 3.7517727826463556 0 0 0 0 -226.87202156040985 42.100220656826423 0 42.100220656826423 -146.16238596651237 0 0 0 0 20.73736782859055 27.55553294406397 0 27.55553294406397 16.83105645487484 0 0 0 0 0.021892057581549551 3.4424625671378237 0 3.4424625671378237 2.9490098290663127 0 0 0 0 367.42763221712084 104.06502031160198 0 104.06502031160198 -138.4399600724646 0 0 0 0 -473.44657050563546 -32.249918932844594 0 -32.249918932844594 -321.24643875312177 0 0 0 0 -76.963488277255237 487.02690011211962 0 487.02690011211962 -349.83490397820151 0 0 0 0 126.99379102970124 272.29871315637502 0 272.29871315637502 -388.48863197366518 0 0 0 0 -54.398939956238564 -578.53329594588831 0 -578.53329594588831 416.56384983280441 0 0 0 0 272.60626978875871 622.98366962876753 0 622.98366962876753 1789.9622688605377 0 0 0 0 -328.59038680694988 185.6764395612845 0 185.6764395612845 1553.3663797709596 0 0 0 0 -57.313451321106754 -135.55770247188775 0 -135.55770247188775 296.93355710453761 0 0 0 0 278.48558536899577 48.2981817674372 0 48.2981817674372 209.98102225975163 0 0 0 0 -139.75999772290444 126.08070174664772 0 126.08070174664772 518.53114999868558 0 0 0 0 -4.7363800539501426 380.34347715880722 0 380.34347715880722 21.379719651689811 0 0 0 0 2.2928404321781359 6.1033710860471899 0 6.1033710860471899 5.7300811250816679 0 0 0 0 -75.487834610257892 1208.3021528578076 0 1208.3021528578076 -1515.1482506885004 0 0 0 0 -420.54077715079438 -919.5737903388399 0 -919.5737903388399 3189.3992123739008 0 0 0 0 -77.862458676171855 85.213229147884704 0 85.213229147884704 -703.47298646466515 0 0 0 0 556.94652264953015 817.85145353486132 0 817.85145353486132 -52.304898770293221 0 0 0 0 -91.967299933298477 12.103548775012314 0 12.103548775012314 877.33589015847974 0 0 0 0 -10.677556403916242 -56.618447109613044 0 -56.618447109613044 481.31428300165862 0 0 0 0 4.5530443680997923 0.10360618733584204 0 0.10360618733584204 8.9892454968402262 0 0 0 0 928.14234325424036 944.9402596205764 0 944.9402596205764 512.40586787503366 0 0 0 0 16.798520806023589 257.96451979318954 0 257.96451979318954 -212.61122771056398 0 0 0 0 293.08410544033563 -178.70672787990407 0 -178.70672787990407 -104.675936269472 0 0 0 0 -5.6734535996173143 -3.3881549689547228 0 -3.3881549689547228 12.415146589319562 0 0 0 0 474.07370752142197 -327.28842408814671 0 -327.28842408814671 208.67172965581631 0 0 0 0 155.26264186088588 111.3676999613599 0 111.3676999613599 116.76239627768518 0 0 0 0 70.928119012498541 -345.15156736045174 0 -345.15156736045174 381.34956614550902 0 0 0 0 323.14973497968282 -321.75634923508915 0 -321.75634923508915 364.46822249903926 0 0 0 0 275.83150331509489 -617.30986327452774 0 -617.30986327452774 931.90886697365204 0 0 0 0 166.27254056338614 -397.82783570432366 0 -397.82783570432366 1221.7391704672918 0 0 0 0 1.7918418834969563 5.7359248354886319 0 5.7359248354886319 35.757744040062903 0 0 0 0 1279.5159015406009 -1356.4560066254198 0 -1356.4560066254198 969.2097181672907 0 0 0 0 131.71397648928951 -92.974462955688068 0 -92.974462955688068 512.69331509771291 0 0 0 0 187.67467178885659 -671.99662610166706 0 -671.99662610166706 2769.9323886550847 0 0 0 0 1.1231242608566456 1.230711750199589 0 1.230711750199589 14.605294572756804 0 0 0 0 313.20793775536856 -660.23888342679857 0 -660.23888342679857 1375.4968681656828 0 0 0 0 329.94068564138996 -241.60936156323442 0 -241.60936156323442 1955.8215037517839 0 0 0 0 292.30033319586079 -207.48498678609394 0 -207.48498678609394 2098.5185496028425 0 0 0 0 727.8661469050636 183.33959569745275 0 183.33959569745275 2402.4071687434698 0 0 0 0 1350.6046059568898 -342.22987470145745 0 -342.22987470145745 1780.2694486933906 0 0 0 0 576.69896690974815 -809.06693505025032 0 -809.06693505025032 2121.1392878006736 0 0 0 0 294.88943323021067 -345.01712910140668 0 -345.01712910140668 1533.7058010763285 0 0 0 0 -152.25406108628988 -182.22190871086787 0 -182.22190871086787 1985.1707850608946 0 0 0 0 303.87920825296703 147.81100288571179 0 147.81100288571179 872.14282264279609 0 0 0 0 313.38276070184787 353.36869293545715 0 353.36869293545715 2493.1281570345163 0 0 0 0 -233.52729674151863 35.944959682015906 0 35.944959682015906 499.17407186333003 0 0 0 0 -351.2152626360438 104.04169375390484 0 104.04169375390484 1005.0785872599808 0 0 0 0 -82.601316926714503 -196.89280387090548 0 -196.89280387090548 978.33698397038825 0 0 0 0 -70.809790076437139 -665.85783257481671 0 -665.85783257481671 1369.3295039419772 0 0 0 0 -81.643596814425337 -297.48390900205777 0 -297.48390900205777 478.05247169057111 0 0 0 0 -5.2726960038859358 1.1130457946819377 0 1.1130457946819377 -2.0328270199126983 0 0 0 0 -172.31322667649616 -49.171747360316658 0 -49.171747360316658 278.50431844686682 0 0 0 0 -409.66312286341491 103.43780034753399 0 103.43780034753399 207.27700807999645 0 0 0 0 -442.95038004998401 126.77501248055341 0 126.77501248055341 787.4537442212968 0 0 0 0 -263.20031306858141 474.65254449199347 0 474.65254449199347 -266.8937909413944 0 0 0 0 -177.76211680024096 93.742199966145563 0 93.742199966145563 176.80819534941111 0 0 0 0 120.33135510603755 -635.60759471439997 0 -635.60759471439997 1717.3990269430215 0 0 0 0 262.81721584225988 -526.74050820817502 0 -526.74050820817502 1346.9026245593195 0 0 0 0 11.277902599860987 35.219362922440482 0 35.219362922440482 29.069260492828775 0 0 0 0 4.1809998196597196 22.087954663997095 0 22.087954663997095 18.834822578110348 0 0 0 0 -197.29352303305086 903.6456804571244 0 903.6456804571244 -1158.600975729576 0 0 0 0 -471.61360565176687 562.43351605768112 0 562.43351605768112 351.41469644376957 0 0 0 0 -373.34205090126869 240.71615779075546 0 240.71615779075546 -136.08720448125678 0 0 0 0 -232.18162588203745 521.47081809527299 0 521.47081809527299 781.4195523018916 0 0 0 0 -247.22839701860346 193.19027479597389 0 193.19027479597389 9.8872314051986905 0 0 0 0 -609.69815913983462 827.57803822794085 0 827.57803822794085 -34.369337727024231 0 0 0 0 755.55694389609266 -82.026833005889785 0 -82.026833005889785 1404.6612931582713 0 0 0 0 548.45676221232907 -960.59368407676084 0 -960.59368407676084 1537.2054667958291 0 0 0 0 -147.64174759395223 -776.27197363706364 0 -776.27197363706364 2269.2682022174486 0 0 0 0 372.91817574810119 -779.03753034144029 0 -779.03753034144029 1485.8331826052017 0 0 0 0 -211.03063961962437 -101.25023632278317 0 -101.25023632278317 1578.4859357451705 0 0 0 0 0.30149083152848988 1.7037362613706932 0 1.7037362613706932 0.88787325545661133 0 0 0 0 -1269.304258064345 -180.65609566947387 0 -180.65609566947387 -583.34636238998064 0 0 0 0 374.38186089610281 222.28551735913061 0 222.28551735913061 -429.90915356623009 0 0 0 0 25.707469438021405 -816.57310575249448 0 -816.57310575249448 720.37638594460441 0 0 0 0 356.73793967389793 258.05027762062673 0 258.05027762062673 -273.47913759421499 0 0 0 0 421.74287988144351 543.19555841796682 0 543.19555841796682 -477.18766457328456 0 0 0 0 37.661654702259341 35.370805626112485 0 35.370805626112485 23.855035276227824 0 0 0 0 427.99917973364131 386.54576453492336 0 386.54576453492336 334.96739033865742 0 0 0 0 46.166387039294932 161.46349400999316 0 161.46349400999316 -91.342910499013669 0 0 0 0 -432.33507776776969 302.32141042032163 0 302.32141042032163 17.813971780706197 0 0 0 0 193.1267577684921 53.484954278450459 0 53.484954278450459 -93.746573005613755 0 0 0 0 -280.70745779224217 -136.38856566068171 0 -136.38856566068171 -157.48424169691862 0 0 0 0 258.51543010269961 -15.347560433743638 0 -15.347560433743638 -504.53747996838501 0 0 0 0 337.22882525675232 149.30294082858018 0 149.30294082858018 -186.35946762634558 0 0 0 0 431.8402000873175 143.27207818924944 0 143.27207818924944 -313.16278485314979 0 0 0 0 382.74483251514903 193.70806155930768 0 193.70806155930768 -190.8828863755989 0 0 0 0 389.27294726432137 12.500165087860296 0 12.500165087860296 -3.8860097492288332 0 0 0 0 533.10141476444187 114.76419517509203 0 114.76419517509203 68.381633389792114 0 0 0 0 133.80343726167848 -28.383313240941789 0 -28.383313240941789 127.03973062823934 0 0 0 0 411.8431428271615 94.524968893150799 0 94.524968893150799 -245.28315832206135 0 0 0 0 392.08750040679251 35.0521974299063 0 35.0521974299063 141.26461274144822 0 0 0 0 347.04276105313193 -97.447307815407839 0 -97.447307815407839 361.86123008582217 0 0 0 0 633.17643703464273 237.58788700627338 0 237.58788700627338 674.56588885343081 0 0 0 0 60.999751573992398 8.8317476186639396 0 8.8317476186639396 677.20947612680902 0 0 0 0 180.74667408305686 -200.83574251877872 0 -200.83574251877872 628.66637775639538 0 0 0 0 -71.426952794532554 14.732365763193229 0 14.732365763193229 635.54401348543252 0 0 0 0 146.26081240894018 33.411652226761362 0 33.411652226761362 205.8023881281697 0 0 0 0 -167.87524004939587 50.516870233834197 0 50.516870233834197 267.89197498792782 0 0 0 0 397.81748772891478 -524.48939469403376 0 -524.48939469403376 375.59358952783805 0 0 0 0 -133.51851711218114 -343.5053710760476 0 -343.5053710760476 637.71034566648086 0 0 0 0 735.27704919694952 -284.14279717375757 0 -284.14279717375757 400.40130485541886 0 0 0 0 438.14960343804705 -118.57255937294394 0 -118.57255937294394 325.65984519760968 0 0 0 0 324.33399561491387 -236.3719744794389 0 -236.3719744794389 183.85805422495469 0 0 0 0 582.47535863607482 -177.04685136218177 0 -177.04685136218177 148.31637811274413 0 0 0 0 387.06377223079471 17.445548934323597 0 17.445548934323597 2.8939430251339218 0 0 0 0 405.6994495305189 -0.56888202726986492 0 -0.56888202726986492 -22.112355553355883 0 0 0 0 87.001558914186717 -370.60135531806009 0 -370.60135531806009 305.92487040816923 0 0 0 0 255.82034352372102 -121.76357302290853 0 -121.76357302290853 35.228233799905865 0 0 0 0 583.48176648419394 -204.1948559033699 0 -204.1948559033699 183.25294697536447 0 0 0 0 -297.77438172013717 -6.3768637285611476 0 -6.3768637285611476 -11.076559914885365 0 0 0 0 1414.7597163908358 687.0583964464895 0 687.0583964464895 -303.7119650872628 0 0 0 0 40.341342465170904 34.244841842018658 0 34.244841842018658 22.917594552328993 0 0 0 0 58.742556080589566 365.18885900709574 0 365.18885900709574 -280.61374266854909 0 0 0 0 219.06759846770365 -144.47797016960249 0 -144.47797016960249 21.213492283837695 0 0 0 0 63.771346343935875 187.86337873491721 0 187.86337873491721 -116.03697071797797 0 0 0 0 371.8659096453448 229.55428054839649 0 229.55428054839649 -232.3541385470453 0 0 0 0 19.678938918967106 -398.71906880103052 0 -398.71906880103052 1627.168882914264 0 0 0 0 262.1507188128719 21.854608600253414 0 21.854608600253414 840.77259640578995 0 0 0 0 489.88776914078869 -496.39499475829871 0 -496.39499475829871 989.33760699539562 0 0 0 0 95.686067306354744 -176.65721444934752 0 -176.65721444934752 -204.55499292536479 0 0 0 0 190.83905523125213 -306.2951920143405 0 -306.2951920143405 1272.3038707697488 0 0 0 0 31.049470507964795 26.248855515638269 0 26.248855515638269 18.583203412994521 0 0 0 0 27.779333718098314 -129.68483619934705 0 -129.68483619934705 163.09570270484983 0 0 0 0 -46.803000179577793 -218.03207279604612 0 -218.03207279604612 219.34512212483241 0 0 0 0 -4.7290297464087416 -165.36500313775832 0 -165.36500313775832 195.64572322396998 0 0 0 0 51.345516798068275 -145.22669160370788 0 -145.22669160370788 114.1639840007324 0 0 0 0 57.157688028728444 -286.13857276658382 0 -286.13857276658382 88.822192767310753 0 0 0 0 0.17197615819804923 -288.24374925044503 0 -288.24374925044503 313.73235002822912 0 0 0 0 -125.73266747686284 -177.11616401495849 0 -177.11616401495849 388.00358252346086 0 0 0 0 -98.670061319607839 -242.00935229846709 0 -242.00935229846709 476.7803960356614 0 0 0 0 -42.520773869696768 -21.861350339399451 0 -21.861350339399451 99.610460209463781 0 0 0 0 -20.388088929353604 4.8679461269148874 0 4.8679461269148874 26.744785458216299 0 0 0 0 -103.42403662855463 -87.444897920407584 0 -87.444897920407584 212.1285304184421 0 0 0 0 -30.262076041801265 -80.846363960128656 0 -80.846363960128656 189.2415788869821 0 0 0 0 -13.441682269243756 -182.62376155384118 0 -182.62376155384118 250.4304186896079 0 0 0 0 -6.6100657323731866 -176.5864914724425 0 -176.5864914724425 218.01469903451652 0 0 0 0 22.368002192597487 -96.604113157140091 0 -96.604113157140091 140.58476633127066 0 0 0 0 83.412253970443089 -101.89166806091816 0 -101.89166806091816 122.61928874088335 0 0 0 0 155.36076776383902 -123.14997301742778 0 -123.14997301742778 50.883469250708004 0 0 0 0 129.25302555942108 -321.40206929082342 0 -321.40206929082342 375.21723930288863 0 0 0 0 1.8752358737838222 -179.72002155610608 0 -179.72002155610608 217.62488902792393 0 0 0 0 -43.455250991341018 -56.26753816765995 0 -56.26753816765995 231.74758815865425 0 0 0 0 -13.799377752404325 -180.79149451360354 0 -180.79149451360354 281.87677492882358 0 0 0 0 -101.58578154045244 -104.50575802901585 0 -104.50575802901585 532.79595683451771 0 0 0 0 -108.10529394384139 -23.936695789285295 0 -23.936695789285295 233.29466939855774 0 0 0 0 -92.572140492899052 -227.45829297380988 0 -227.45829297380988 348.75108940117207 0 0 0 0 95.647812005730884 -525.56572551138379 0 -525.56572551138379 814.97290169513144 0 0 0 0 -312.67857879545591 64.118991131692383 0 64.118991131692383 922.08357618172886 0 0 0 0 -214.91244873883352 194.65821221035367 0 194.65821221035367 286.42709230245964 0 0 0 0 181.81037039493822 496.44139667964373 0 496.44139667964373 697.43302968368516 0 0 0 0 26.925599813572262 90.26949675900687 0 90.26949675900687 -27.091158122217166 0 0 0 0 -6.1714203077644925 -1125.1215738533356 0 -1125.1215738533356 3121.3180525001189 0 0 0 0 4.8766638637259092 3.0196810064175708 0 3.0196810064175708 4.1701120384420136 0 0 0 0 396.85419632109188 45.251281700344407 0 45.251281700344407 2546.8438580286365 0 0 0 0 413.97763834368271 -640.42916568522992 0 -640.42916568522992 1134.0233599929488 0 0 0 0 382.50199541064103 149.38260232529137 0 149.38260232529137 854.76112825656855 0 0 0 0 -381.31062255078359 -9.5358668666958692 0 -9.5358668666958692 2139.4327305313018 0 0 0 0 628.38238033229209 -775.57436230773601 0 -775.57436230773601 2042.3448110663967 0 0 0 0 194.76402387281269 -451.51084783349506 0 -451.51084783349506 1758.0438411558571 0 0 0 0 108.18814279872095 -583.66468364962202 0 -583.66468364962202 2175.1858648733905 0 0 0 0 13.761881094479477 12.241164580496132 0 12.241164580496132 13.007199128742073 0 0 0 0 -0.029719527273861956 -7.6370562065720264 0 -7.6370562065720264 6.3240959530365295 0 0 0 0 -12.413502495537614 66.690268986556475 0 66.690268986556475 73.703449590022501 0 0 0 0 -39.499993900666595 27.283388776155334 0 27.283388776155334 114.85032879233768 0 0 0 0 175.28377726935287 -872.55079380623647 0 -872.55079380623647 2215.2964735538917 0 0 0 0 -13.620017211822415 -32.874342585171689 0 -32.874342585171689 225.37014504417675 0 0 0 0 15.794342405238929 15.543499854940606 0 15.543499854940606 15.45959570272953 0 0 0 0 508.76417550689985 -770.03491896404739 0 -770.03491896404739 1301.4998413948779 0 0 0 0 5.1986451856828353 -60.92209085887589 0 -60.92209085887589 212.87060745836061 0 0 0 0 20.551878227838642 -61.625675372539263 0 -61.625675372539263 115.97109126227588 0 0 0 0 168.23099581087445 -406.51764879545954 0 -406.51764879545954 1627.3407484329364 0 0 0 0 324.49563062865127 -867.54087928903755 0 -867.54087928903755 2768.557825202759 0 0 0 0 399.37652373814126 -824.05971529924864 0 -824.05971529924864 1809.6056830373127 0 0 0 0 1.9185944935126287 5.5847330546800436 0 5.5847330546800436 6.0701522388246438 0 0 0 0 170.67237905644743 -493.19446634734049 0 -493.19446634734049 1449.0872880884563 0 0 0 0 85.505775941071988 -554.58223105374054 0 -554.58223105374054 1730.0281795784103 0 0 0 0 22.971915359764392 45.797173734941964 0 45.797173734941964 35.241715835160733 0 0 0 0 -130.41738948099339 138.94787589246698 0 138.94787589246698 11.741226710793853 0 0 0 0 71.00611276091513 -260.57739430131187 0 -260.57739430131187 1395.3597137780107 0 0 0 0 462.79510942154229 -768.26115965714416 0 -768.26115965714416 1102.0369311503819 0 0 0 0 609.10665979290025 -797.01474304719159 0 -797.01474304719159 1637.7133335003746 0 0 0 0 -94.871807038482075 -693.69258185234503 0 -693.69258185234503 1643.4326541673927 0 0 0 0 -161.98364877413769 -360.47518284355465 0 -360.47518284355465 1704.8728714585959 0 0 0 0 31.398802122745394 67.896965409436234 0 67.896965409436234 92.512279519301956 0 0 0 0 31.96869715534055 94.499246340950776 0 94.499246340950776 107.01785218332589 0 0 0 0 0.62487198142673606 35.33407888992042 0 35.33407888992042 88.442358446030994 0 0 0 0 -16.564116329955468 4.5636920802276109 0 4.5636920802276109 15.436057641170203 0 0 0 0 -15.121948858826727 57.025825398639427 0 57.025825398639427 205.30743729969981 0 0 0 0 234.9846138318353 132.61109998940083 0 132.61109998940083 67.436232717693656 0 0 0 0 85.211303647205568 39.440113412652863 0 39.440113412652863 46.291840257568765 0 0 0 0 32.321363433086589 24.186297285414312 0 24.186297285414312 16.260006545593924 0 0 0 0 -125.76909760866693 100.95640348333836 0 100.95640348333836 386.82398862153059 0 0 0 0 535.95208780909707 -743.06286161717799 0 -743.06286161717799 415.41306473594159 0 0 0 0 -11.641640457920982 7.8233607170192485 0 7.8233607170192485 97.339071213266209 0 0 0 0 8.4533248084518959 17.81017158784001 0 17.81017158784001 12.555477624911134 0 0 0 0 8.4837843059386842 21.788035717203456 0 21.788035717203456 114.43246269863448 0 0 0 0 32.85689882590458 51.055463710534823 0 51.055463710534823 41.775393383810666 0 0 0 0 42.150626349876347 242.72932513368141 0 242.72932513368141 258.87211338106135 0 0 0 0 147.5720758886805 35.941521690765512 0 35.941521690765512 251.67588163934306 0 0 0 0 14.228581333950387 14.838309220143856 0 14.838309220143856 160.70920991057937 0 0 0 0 33.764462220249015 74.281193706221529 0 74.281193706221529 241.23076896528073 0 0 0 0 7.1404757231938403 -12.44794211961954 0 -12.44794211961954 42.183980885605592 0 0 0 0 101.80600797027375 90.505227279756582 0 90.505227279756582 160.77501731438679 0 0 0 0 -20.359832755808839 -14.404339282802539 0 -14.404339282802539 104.56898472906823 0 0 0 0 9.4800934492398028 98.318489919738568 0 98.318489919738568 371.73517136718147 0 0 0 0 1148.25455724167 -916.63516959465051 0 -916.63516959465051 358.68385342711451 0 0 0 0 59.299998872938602 179.45282621880142 0 179.45282621880142 2340.4983072283067 0 0 0 0 3.5529068075689381 -7.5212164187150421 0 -7.5212164187150421 15.370315013241566 0 0 0 0 591.55310293119192 -1564.2920500897308 0 -1564.2920500897308 1729.6767713558766 0 0 0 0 349.60132738570337 159.85510320629146 0 159.85510320629146 327.56943796892301 0 0 0 0 35.289562563529444 2.5925602024144609 0 2.5925602024144609 222.77478426288872 0 0 0 0 15.93138226146948 83.254248030003509 0 83.254248030003509 1086.1373280180997 0 0 0 0 404.18061345100386 -1273.9144715012662 0 -1273.9144715012662 1211.1193921191425 0 0 0 0 534.06480631375257 -1364.1600810508062 0 -1364.1600810508062 1613.6364158781798 0 0 0 0 587.32786142540624 -1447.9092917517846 0 -1447.9092917517846 1737.6086047795102 0 0 0 0 346.56252395761453 -1054.3398297620297 0 -1054.3398297620297 1697.1562186173614 0 0 0 0 512.53868249383993 -1381.422623656912 0 -1381.422623656912 2345.8907007709931 0 0 0 0 347.86277182607915 -1591.0747538589394 0 -1591.0747538589394 2498.8768736923594 0 0 0 0 325.83996521483027 -1529.8327472302562 0 -1529.8327472302562 2332.2270682598974 0 0 0 0 210.26192587609694 -1627.2778286576004 0 -1627.2778286576004 3499.9608855851802 0 0 0 0 911.25197175002984 -1373.9913072819018 0 -1373.9913072819018 1750.1591107424319 0 0 0 0 958.82231517050593 -1004.2674804269925 0 -1004.2674804269925 2396.798496704665 0 0 0 0 -304.44581070302519 -972.71626397300361 0 -972.71626397300361 3499.6570441918266 0 0 0 0 -128.05225844779699 -903.17040756568895 0 -903.17040756568895 2711.4372759730813 0 0 0 0 -81.63540543707299 -852.63638637788972 0 -852.63638637788972 2666.9927122273002 0 0 0 0 17.338497857682267 -1051.2772911943266 0 -1051.2772911943266 2646.8484635534296 0 0 0 0 -124.6798013105379 -876.21260989721668 0 -876.21260989721668 2731.0152947456299 0 0 0 0 9.9607092308607719 -958.03740759587254 0 -958.03740759587254 2137.3397252906434 0 0 0 0 -246.48611190372696 -873.18789336870941 0 -873.18789336870941 2128.0159486477896 0 0 0 0 -1.043920134082498 -1160.0985853986676 0 -1160.0985853986676 2116.0510266518322 0 0 0 0 208.34062482982569 -648.79666447878117 0 -648.79666447878117 2301.5058523339139 0 0 0 0 212.3999828800026 -748.26453498695264 0 -748.26453498695264 1182.0037352759828 0 0 0 0 -519.04612380914114 -491.1906795864943 0 -491.1906795864943 1283.7905775176696 0 0 0 0 308.36546522675405 -250.4817162622785 0 -250.4817162622785 188.52845393413622 0 0 0 0 -14.25620226773492 -544.55188170525435 0 -544.55188170525435 1560.5795010455404 0 0 0 0 143.82110978562434 -885.54125805818694 0 -885.54125805818694 1657.8408092560858 0 0 0 0 142.96813352471736 -888.19605203697574 0 -888.19605203697574 1826.8720930421355 0 0 0 0 482.72437993566302 -557.66643729303178 0 -557.66643729303178 1862.9148632749784 0 0 0 0 121.63433887258134 -823.0910036010755 0 -823.0910036010755 1789.377432002786 0 0 0 0 477.09801432301379 -539.71123130586784 0 -539.71123130586784 1810.4821697197076 0 0 0 0 622.89260034477934 -405.09105555004498 0 -405.09105555004498 1926.5497818298754 0 0 0 0 402.70105110408554 -148.76822118833661 0 -148.76822118833661 2096.8281086073894 0 0 0 0 320.51386327000012 -236.78419693936485 0 -236.78419693936485 2165.3729598204227 0 0 0 0 211.98654281239317 -594.00060272092742 0 -594.00060272092742 2076.7452333917063 0 0 0 0 74.784050533287541 -569.78061012970647 0 -569.78061012970647 2566.7447764907265 0 0 0 0 267.74007525772242 -574.07957641263056 0 -574.07957641263056 1987.0349566611694 0 0 0 0 -11.094224288199484 -253.09683492905242 0 -253.09683492905242 1935.8602251326665 0 0 0 0 270.32388218875758 -691.43526790863143 0 -691.43526790863143 2103.5281668724638 0 0 0 0 -102.07948701048235 -745.60421696401318 0 -745.60421696401318 2122.1383702244784 0 0 0 0 -312.27963346901487 -549.44529729046553 0 -549.44529729046553 2818.2219767087818 0 0 0 0 -390.50451074658486 -358.82698395845182 0 -358.82698395845182 3194.1118099634623 0 0 0 0 -353.3177509912274 -442.79396933076623 0 -442.79396933076623 2608.804137958643 0 0 0 0 21.217334997336593 -501.21429995451399 0 -501.21429995451399 2597.0510470978043 0 0 0 0 -49.152964689747705 -218.05982589221094 0 -218.05982589221094 2282.8629542102317 0 0 0 0 -527.19809612169854 -143.8299423862627 0 -143.8299423862627 3499.1380565722393 0 0 0 0 -532.71679892978943 -45.32127457236129 0 -45.32127457236129 3357.3530288034817 0 0 0 0 -439.35151105633463 145.664883390873 0 145.664883390873 2352.8174545132233 0 0 0 0 0.84634050529894211 -235.05585520968452 0 -235.05585520968452 3425.5219313790803 0 0 0 0 -116.7409789920539 -80.849079988820449 0 -80.849079988820449 3258.5102255064048 0 0 0 0 -101.04743181328911 589.1406932839418 0 589.1406932839418 2186.5613537151949 0 0 0 0 -65.931145074855976 876.04555723698286 0 876.04555723698286 4466.1472700467275 0 0 0 0 -0.17289884186953119 -3.0200049886459226 0 -3.0200049886459226 10.823216887746355 0 0 0 0 -5.8842562848415128 334.05619467906217 0 334.05619467906217 1023.5010699219565 0 0 0 0 0.34727017171612051 -110.43208372903212 0 -110.43208372903212 290.50386146237724 0 0 0 0 -0.37170771299278288 -114.54147574149465 0 -114.54147574149465 1454.8914081862604 0 0 0 0 -32.957955161517475 230.79073106190481 0 230.79073106190481 1336.877396040265 0 0 0 0 -44.158886649427103 71.993123207381359 0 71.993123207381359 1216.1675995718979 0 0 0 0 0.88507147590611135 -8.4117267141610625 0 -8.4117267141610625 16.679373063802132 0 0 0 0 -115.63011578722183 398.10497958827546 0 398.10497958827546 1034.6188768435095 0 0 0 0 -429.89481751308494 -50.159822515888663 0 -50.159822515888663 1752.0754633040233 0 0 0 0 -95.688164819070948 -1215.6603011107072 0 -1215.6603011107072 714.75354469994636 0 0 0 0 12.831313477692674 645.6227525156246 0 645.6227525156246 3381.3414010649867 0 0 0 0 0.74736755152925394 -4.3061702334695724 0 -4.3061702334695724 8.9369948771577583 0 0 0 0 368.21789454982792 -607.43341003529486 0 -607.43341003529486 2513.9442352365731 0 0 0 0 437.78783549699324 -148.47399327260064 0 -148.47399327260064 2220.7939267428628 0 0 0 0 257.70310509877299 -155.55878246766952 0 -155.55878246766952 2076.4901347618434 0 0 0 0 -17.084611734951068 -278.56049108591833 0 -278.56049108591833 2289.668312350419 0 0 0 0 212.32426496190925 -478.92660398211001 0 -478.92660398211001 2042.0628073753469 0 0 0 0 -3.9024526971542173 -274.03852746318444 0 -274.03852746318444 2023.3671957937427 0 0 0 0 -0.11582831256623327 -273.37473280571066 0 -273.37473280571066 1961.1676117489187 0 0 0 0 -65.409979580112235 -304.47088991082637 0 -304.47088991082637 2086.2384850141025 0 0 0 0 -210.81738122510194 34.950958572411764 0 34.950958572411764 2233.2891891078907 0 0 0 0 -3.4254645586242987 -133.38248389173532 0 -133.38248389173532 -73.519240331866968 0 0 0 0 -9.2473234302788114 -119.77577580087018 0 -119.77577580087018 -70.925644237530832 0 0 0 0 -33.576855207527842 -119.6894684285744 0 -119.6894684285744 -70.115488045946222 0 0 0 0 -37.105591017894767 -147.20514187113804 0 -147.20514187113804 -77.059337501437767 0 0 0 0 38.069071499350684 -22.215976277626396 0 -22.215976277626396 -177.89464533601495 0 0 0 0 42.918317002005551 -64.819417105398315 0 -64.819417105398315 -59.187531866329664 0 0 0 0 5.8298787731027915 16.407540854987019 0 16.407540854987019 169.10121453058673 0 0 0 0 4.4379166580445144 13.743882664419552 0 13.743882664419552 35.738875978498861 0 0 0 0 -1129.9818608287828 187.81391872461973 0 187.81391872461973 936.13446915552777 0 0 0 0 -26.514180341972406 -82.284542881024208 0 -82.284542881024208 -54.538882707050789 0 0 0 0 -0.042060910371804816 -19.55925461089155 0 -19.55925461089155 109.90220990000793 0 0 0 0 -56.222277893187766 -110.1715794576412 0 -110.1715794576412 -39.652953870065176 0 0 0 0 -463.05576882994683 -352.25998903066102 0 -352.25998903066102 379.13056898541981 0 0 0 0 -70.672337433483335 -539.27658083327697 0 -539.27658083327697 197.80802473973017 0 0 0 0 -405.61792516669266 -205.56421185201179 0 -205.56421185201179 203.0302123939764 0 0 0 0 14.386058037109251 22.610243844319484 0 22.610243844319484 322.38986570803536 0 0 0 0 -251.5843135423238 -57.804260441669612 0 -57.804260441669612 298.0853115961072 0 0 0 0 80.466352927247499 -19.198040272545768 0 -19.198040272545768 127.62798895635933 0 0 0 0 61.609805142063124 -15.209733055962715 0 -15.209733055962715 263.00360372020805 0 0 0 0 146.3199170975804 -14.402634230806143 0 -14.402634230806143 253.86239863567607 0 0 0 0 44.5020240952108 -103.87684232665924 0 -103.87684232665924 386.83015524045913 0 0 0 0 427.17297885360858 -116.82261973300047 0 -116.82261973300047 346.00252659822581 0 0 0 0 153.08285232386334 81.175051858430379 0 81.175051858430379 544.0903001241677 0 0 0 0 226.63502083549156 187.39789428871518 0 187.39789428871518 518.82509693744942 0 0 0 0 -279.30283390684417 332.19178030919284 0 332.19178030919284 748.21627638000064 0 0 0 0 -561.98368411500269 60.245515796734253 0 60.245515796734253 510.1134228638839 0 0 0 0 47.581888273271034 -73.440795550588518 0 -73.440795550588518 377.69354178835056 0 0 0 0 18.971449137648733 -155.43034340041231 0 -155.43034340041231 501.68472715142707 0 0 0 0 29.525725264002176 -157.32715202914551 0 -157.32715202914551 593.40637808724932 0 0 0 0 201.88721201880389 -140.21723682523589 0 -140.21723682523589 304.47271210147301 0 0 0 0 77.076819239908218 -138.40016030998231 0 -138.40016030998231 595.4590106044152 0 0 0 0 91.779924580295301 -289.25228023847194 0 -289.25228023847194 992.04517764490447 0 0 0 0 -37.944035344857184 -59.372481469523336 0 -59.372481469523336 573.27382132581988 0 0 0 0 21.078928753398486 -249.6606350003949 0 -249.6606350003949 820.41238284933206 0 0 0 0 14.165267352740322 -10.531133513344031 0 -10.531133513344031 6.7802278964105369 0 0 0 0 -177.59677118798709 241.38433446284216 0 241.38433446284216 969.48713795603544 0 0 0 0 -180.17408245985098 98.470565602692659 0 98.470565602692659 1818.1961277718892 0 0 0 0 -187.94350643470352 -63.700583558238577 0 -63.700583558238577 1127.7400676220641 0 0 0 0 568.40849186484957 -729.19022606895305 0 -729.19022606895305 1189.9696885318263 0 0 0 0 1435.24689458379 908.47835746233613 0 908.47835746233613 238.50408987379342 0 0 0 0 -651.30410967973694 1258.7475996015819 0 1258.7475996015819 1001.4514571891632 0 0 0 0 504.70072823383452 1760.4663426579718 0 1760.4663426579718 321.873402862082 0 0 0 0 1421.8703539342259 -242.39334914445499 0 -242.39334914445499 480.38795523155113 0 0 0 0 444.96095655088675 -1307.734413003458 0 -1307.734413003458 54.135509417666071 0 0 0 0 6.1640299683207136 -26.436927386206154 0 -26.436927386206154 78.993941882717849 0 0 0 0 190.38307632202941 -769.1696915890916 0 -769.1696915890916 -810.844120353373 0 0 0 0 430.44819599121092 -985.96057703183305 0 -985.96057703183305 -1408.3443225063893 0 0 0 0 304.79424631570942 -97.88778361137156 0 -97.88778361137156 -1380.8800156414986 0 0 0 0 -837.09949431374343 -898.23653396796362 0 -898.23653396796362 313.49432185102341 0 0 0 0 -164.44005268197816 -632.91940308313497 0 -632.91940308313497 253.64235936675459 0 0 0 0 152.05301935042652 -1205.3200522289517 0 -1205.3200522289517 1237.1511460102265 0 0 0 0 167.37755749904954 -495.86707001957075 0 -495.86707001957075 111.83988111135477 0 0 0 0 1061.9731841452149 133.59738111865227 0 133.59738111865227 0.43120566267589311 0 0 0 0 710.13681461977785 37.251661414851696 0 37.251661414851696 -50.178071248681135 0 0 0 0 -675.48947403574346 -424.2708045543277 0 -424.2708045543277 145.11405600688886 0 0 0 0 73.439231709253818 -640.38782596486817 0 -640.38782596486817 -161.10164403722956 0 0 0 0 128.15357078615716 -247.3637515210894 0 -247.3637515210894 -124.64515809521617 0 0 0 0 460.47694315633635 76.245004988459186 0 76.245004988459186 75.479126469404036 0 0 0 0 363.88037416407315 -66.215013759302565 0 -66.215013759302565 -177.40414686348595 0 0 0 0 546.25087395029141 794.42745810371252 0 794.42745810371252 1360.1569088170427 0 0 0 0 237.22000733640743 -111.73538688114968 0 -111.73538688114968 590.08273453833681 0 0 0 0 507.50817510283946 124.31704942255465 0 124.31704942255465 181.21811308556426 0 0 0 0 -63.351739331970748 -74.158178745464738 0 -74.158178745464738 1043.5040459985894 0 0 0 0 20.749640265595644 7.2201606685775914 0 7.2201606685775914 342.52782718635808 0 0 0 0 32.87064651636183 362.02450098375266 0 362.02450098375266 -96.505871586848116 0 0 0 0 123.17711891171894 110.79840325787973 0 110.79840325787973 185.46324627939566 0 0 0 0 78.309297224972852 -71.443744367375984 0 -71.443744367375984 -162.6182643121283 0 0 0 0 -67.683887428662729 162.60982757581363 0 162.60982757581363 24.987917242011463 0 0 0 0 -11.398587245503677 -137.72747608007012 0 -137.72747608007012 269.47589814805724 0 0 0 0 -88.903116109682742 -90.563074623645662 0 -90.563074623645662 270.91117232869146 0 0 0 0 18.055264764423782 29.314019483793057 0 29.314019483793057 26.319374145079749 0 0 0 0 49.810950498995226 100.22547982831463 0 100.22547982831463 -107.58473840681029 0 0 0 0 57.470424991523487 -31.485076042716457 0 -31.485076042716457 151.34197557886645 0 0 0 0 5.9962865651474999 150.81433051233955 0 150.81433051233955 14.650169177012856 0 0 0 0 112.91793818770248 -0.54924451792501827 0 -0.54924451792501827 -47.547143074697942 0 0 0 0 17.217459878351946 28.624234770259235 0 28.624234770259235 26.4191613560698 0 0 0 0 -43.029549975394673 23.36853105655733 0 23.36853105655733 314.92615499336421 0 0 0 0 -21.256524917829068 75.706379282531316 0 75.706379282531316 75.313994429355034 0 0 0 0 12.482642470940675 25.164825027122653 0 25.164825027122653 21.129552659405469 0 0 0 0 176.07171728468643 188.47580988110394 0 188.47580988110394 -272.02633175741175 0 0 0 0 -38.894705686416955 -20.821231008098266 0 -20.821231008098266 281.3066438686792 0 0 0 0 81.97564422940502 -132.59898173019587 0 -132.59898173019587 322.66777353177935 0 0 0 0 7.378485233017102 -55.186032929437715 0 -55.186032929437715 309.77344426502123 0 0 0 0 16.24032529837848 -52.730609654386285 0 -52.730609654386285 271.80630115260055 0 0 0 0 12.561780509425034 27.931139899231653 0 27.931139899231653 367.38069222039371 0 0 0 0 12.612291239746579 -65.383705729476389 0 -65.383705729476389 579.02032637866625 0 0 0 0 -1.5797709761795495 1.0419812008268854 0 1.0419812008268854 2.8070787836849975 0 0 0 0 16.45220292472402 -206.69998292752484 0 -206.69998292752484 709.17361987715287 0 0 0 0 -22.900345009155785 55.599542010066671 0 55.599542010066671 258.78565503979371 0 0 0 0 -47.370214340181406 -14.991590422846116 0 -14.991590422846116 54.822303706340335 0 0 0 0 -46.675924784371858 141.55513488034475 0 141.55513488034475 -19.268193725633409 0 0 0 0 -5.9231475789912338 -22.535900418606502 0 -22.535900418606502 17.139244252642357 0 0 0 0 2.1318460135335044 -22.13019451661205 0 -22.13019451661205 50.29357044929111 0 0 0 0 12.86523495669644 0.53030948528817135 0 0.53030948528817135 44.1523553363877 0 0 0 0 -41.338672045956194 32.431225994742121 0 32.431225994742121 3.5345611482416643 0 0 0 0 45.144077071171068 -145.32156844241445 0 -145.32156844241445 363.02950166707183 0 0 0 0 44.325889040587853 -88.90707244721726 0 -88.90707244721726 232.00645680846173 0 0 0 0 -2.971095555423124 2.5307671281402344 0 2.5307671281402344 6.1340173290126394 0 0 0 0 -1.3922908462272288 3.91619711889496 0 3.91619711889496 3.0016790469013319 0 0 0 0 34.594264397322604 -62.937404369814431 0 -62.937404369814431 193.0072897149455 0 0 0 0 37.84550752246605 -77.189912968197859 0 -77.189912968197859 195.69241655935548 0 0 0 0 -0.9825130434046514 -25.392312362861958 0 -25.392312362861958 178.52637265834483 0 0 0 0 36.671750485950497 -69.131543204645027 0 -69.131543204645027 142.95798099896729 0 0 0 0 13.793114495047575 -44.935578982738434 0 -44.935578982738434 188.70584952535319 0 0 0 0 16.73265577666939 -56.308817289955869 0 -56.308817289955869 226.71257277687255 0 0 0 0 0.88158735926663212 -35.513611324541671 0 -35.513611324541671 237.73956314462157 0 0 0 0 4.5540038873648427 -37.63975267209662 0 -37.63975267209662 227.13925997562819 0 0 0 0 1.7466639893536922 -35.773561567074921 0 -35.773561567074921 225.72070445041754 0 0 0 0 -1.321338578308314 -44.022141362462662 0 -44.022141362462662 241.94814147713396 0 0 0 0 -0.75151903572077572 -56.127824260132456 0 -56.127824260132456 290.69569805523543 0 0 0 0 -10.703354516637773 -26.506263326744602 0 -26.506263326744602 274.21590504215146 0 0 0 0 -9.1421642865097965 -20.124295013063602 0 -20.124295013063602 258.72701262211172 0 0 0 0 -5.1441989628494866 -23.539663668270919 0 -23.539663668270919 260.40573664701878 0 0 0 0 -4.8310227928213862 -32.607712673810056 0 -32.607712673810056 260.87980776009135 0 0 0 0 -2.5520731994633934 -31.251414677641833 0 -31.251414677641833 236.46551781752714 0 0 0 0 0.7436539550812995 -25.895162387916571 0 -25.895162387916571 230.11438183481459 0 0 0 0 -1.8182403834098295 -27.029497090391033 0 -27.029497090391033 244.40731227595097 0 0 0 0 2.4729564858371305 -22.007493298037843 0 -22.007493298037843 243.35633726152003 0 0 0 0 5.8299572316573176 -18.77746134668314 0 -18.77746134668314 246.37573219236219 0 0 0 0 2.7511706112809406 -27.985032942562725 0 -27.985032942562725 241.41582088418909 0 0 0 0 -4.9564213814987852 -17.354448411660087 0 -17.354448411660087 253.47149089253435 0 0 0 0 4.8561736986857795 5.1585662418567608 0 5.1585662418567608 257.53196564866766 0 0 0 0 -20.817638340422491 -7.1313290719290308 0 -7.1313290719290308 260.60495048548182 0 0 0 0 2.9785868005848215 -9.3169071310442746 0 -9.3169071310442746 258.24506600398308 0 0 0 0 3.6678955151428454 -5.6378623573209552 0 -5.6378623573209552 256.94161734762929 0 0 0 0 10.101256829604608 -21.960162949468668 0 -21.960162949468668 250.45370718107733 0 0 0 0 11.83005608537951 -23.544833135007138 0 -23.544833135007138 243.2859700431909 0 0 0 0 19.697570728210849 -11.229639634571868 0 -11.229639634571868 245.37183024438491 0 0 0 0 1.4821413345146084 -16.258752025600188 0 -16.258752025600188 244.91896257038388 0 0 0 0 32.223771600847613 -13.078423416733131 0 -13.078423416733131 245.43959958057621 0 0 0 0 28.165251327242004 -25.016286132459754 0 -25.016286132459754 250.82533059195475 0 0 0 0 -9.1086212921763945 -2.6720594166563387 0 -2.6720594166563387 321.4910342892581 0 0 0 0 -8.8509225254885315 29.438038488707583 0 29.438038488707583 9.8935329929298366 0 0 0 0 17.131350455540087 -118.87774747537873 0 -118.87774747537873 232.33162251438625 0 0 0 0 -41.156395199580629 18.872997643502231 0 18.872997643502231 235.07444040059318 0 0 0 0 -17.62816727099198 -22.476970862616326 0 -22.476970862616326 262.21383018566394 0 0 0 0 -21.121792810394254 -163.95529736683238 0 -163.95529736683238 130.24086387928401 0 0 0 0 57.925472364422603 -19.703950991584861 0 -19.703950991584861 136.66670281470579 0 0 0 0 97.173956123782773 -100.24012597218825 0 -100.24012597218825 -13.024376463617955 0 0 0 0 43.361759569888534 -65.421982815342062 0 -65.421982815342062 226.46093601483153 0 0 0 0 24.644643843343147 -52.513482248687069 0 -52.513482248687069 329.36777741660626 0 0 0 0 40.739036814355245 -137.29300784177417 0 -137.29300784177417 238.77692500884586 0 0 0 0 -92.859294014122497 -57.975453389321046 0 -57.975453389321046 237.58567421263433 0 0 0 0 13.28748888554037 -130.45666503190296 0 -130.45666503190296 337.07273960018938 0 0 0 0 39.004990454101062 -34.545201077024103 0 -34.545201077024103 308.34946766600297 0 0 0 0 81.928895348780316 -41.072967827247339 0 -41.072967827247339 238.44742158020381 0 0 0 0 -10.590643077022833 44.275476656901446 0 44.275476656901446 206.2763800859102 0 0 0 0 -31.50244174704239 51.007421080512188 0 51.007421080512188 76.856563112017398 0 0 0 0 1.1547300405395688 2.2980280923541443 0 2.2980280923541443 1.3292755056015153 0 0 0 0 24.156006385623186 29.934929726528935 0 29.934929726528935 136.33624412622885 0 0 0 0 122.39027913703285 15.717400155095675 0 15.717400155095675 176.81762382408488 0 0 0 0 6.7902573534438488 303.2376329553008 0 303.2376329553008 -1121.5830635059028 0 0 0 0 -217.77679091832761 452.64617182871734 0 452.64617182871734 -718.64014513483562 0 0 0 0 7.5796346457645996 -15.038901787513169 0 -15.038901787513169 237.19347302677488 0 0 0 0 -128.79952024102386 -95.97555223791278 0 -95.97555223791278 107.15228054584441 0 0 0 0 4.8623106335580815 -27.495724396653713 0 -27.495724396653713 237.97785148980256 0 0 0 0 6.2743860929404036 -27.365461619980124 0 -27.365461619980124 233.82690444830587 0 0 0 0 3.4844512286908866 -26.362790908081479 0 -26.362790908081479 245.0415122890181 0 0 0 0 6.7539071852879715 -23.989058664421464 0 -23.989058664421464 243.94248901170704 0 0 0 0 7.6584663855028339 -26.123444992514123 0 -26.123444992514123 244.09196198420887 0 0 0 0 13.232034477834532 -29.939799689624124 0 -29.939799689624124 228.73488596220341 0 0 0 0 27.972780854743178 -41.22599711942712 0 -41.22599711942712 230.75036511194048 0 0 0 0 18.74459921552625 -33.130497310371538 0 -33.130497310371538 229.5166857763702 0 0 0 0 12.34926297572747 -37.857228671140547 0 -37.857228671140547 238.13201316070808 0 0 0 0 6.1536265633239964 -31.652351856702808 0 -31.652351856702808 234.75408791133486 0 0 0 0 4.8630270131998259 -34.160746835168993 0 -34.160746835168993 237.50158793052105 0 0 0 0 4.6803614280070178 -34.17732483695363 0 -34.17732483695363 238.46853908709716 0 0 0 0 9.1028319256447503 -44.688074788316271 0 -44.688074788316271 242.25800834961046 0 0 0 0 4.6744993840511597 -31.256656497133008 0 -31.256656497133008 240.35250390979127 0 0 0 0 -0.24308622376520361 -32.304431893438959 0 -32.304431893438959 240.23229927516695 0 0 0 0 3.3086100306900335 -27.646385158289831 0 -27.646385158289831 240.04193704751378 0 0 0 0 -6.9707101303210948 -28.813753609996638 0 -28.813753609996638 239.90963979935032 0 0 0 0 -3.6978325344298355 -37.227828778261028 0 -37.227828778261028 236.40853378006068 0 0 0 0 8.3042882730842393 -38.294001032567394 0 -38.294001032567394 234.22441413201341 0 0 0 0 2.7995273630424116 4.8479057195398028 0 4.8479057195398028 4.0477393390548997 0 0 0 0 -1.4495017022909451 -68.122726781152323 0 -68.122726781152323 276.22157672935646 0 0 0 0 -9.2761911539892026 -36.961240513817756 0 -36.961240513817756 239.46528610742371 0 0 0 0 -220.51146849413499 244.93586647056327 0 244.93586647056327 -383.75699071066992 0 0 0 0 -39.837482218427695 49.167484144129745 0 49.167484144129745 64.143460722867104 0 0 0 0 61.902671571020619 34.84560436096217 0 34.84560436096217 0.35612218992810085 0 0 0 0 -5.4352625740757503 -39.877198068882535 0 -39.877198068882535 242.27167574049963 0 0 0 0 -1.4355333882804189 -51.921549707728218 0 -51.921549707728218 255.08664365720688 0 0 0 0 25.103421818225797 -60.620076355984281 0 -60.620076355984281 242.08086232696951 0 0 0 0 -12.020071691509656 -38.419241039950521 0 -38.419241039950521 279.3854218979468 0 0 0 0 -3.8944224311817379 -51.19631872282298 0 -51.19631872282298 249.04678604048422 0 0 0 0 -22.164156123428256 -37.381742877385477 0 -37.381742877385477 206.92462449965092 0 0 0 0 -1.4731824809050522 -47.173436692948826 0 -47.173436692948826 223.14702385417877 0 0 0 0 -9.7013597901959656 -28.07920648895788 0 -28.07920648895788 240.64288144156308 0 0 0 0 -5.2613983121973433 -47.489070312430613 0 -47.489070312430613 231.32722175241724 0 0 0 0 2.9675393815196003 -34.806995887785888 0 -34.806995887785888 207.18440163288847 0 0 0 0 -6.828739010191839 -59.858240249044457 0 -59.858240249044457 161.48989201855875 0 0 0 0 -2.350049366343228 -22.469245242952638 0 -22.469245242952638 178.39054252816095 0 0 0 0 -6.9710856131978289 -23.55013576421743 0 -23.55013576421743 214.12446233468654 0 0 0 0 0.63576864302422109 -29.767989480528513 0 -29.767989480528513 222.7887628890694 0 0 0 0 -10.441465597201386 -45.117689383233483 0 -45.117689383233483 211.87318368899969 0 0 0 0 -7.7500235634497585 -59.339676039242988 0 -59.339676039242988 149.20495298607239 0 0 0 0 -32.783358868085088 -34.911173526773837 0 -34.911173526773837 139.71926279783747 0 0 0 0 -32.043487545987468 -93.890726451853922 0 -93.890726451853922 104.82094141953257 0 0 0 0 -34.901485186680929 -114.92565122939777 0 -114.92565122939777 113.31139063436422 0 0 0 0 -2.7158051957270004 -53.820046231583724 0 -53.820046231583724 100.21377012483006 0 0 0 0 9.9609696231764246 -31.70992225977534 0 -31.70992225977534 113.15752736014406 0 0 0 0 -3.1033293833879725 -30.033112915902166 0 -30.033112915902166 212.1897622556753 0 0 0 0 4.7078880171466153 -82.026116690965409 0 -82.026116690965409 225.59321817057855 0 0 0 0 -8.5875127424224047 -66.702524606862426 0 -66.702524606862426 216.58745868624192 0 0 0 0 -20.935189313896444 -35.915982405444993 0 -35.915982405444993 180.8543189977554 0 0 0 0 16.359693971313391 -23.61524575444264 0 -23.61524575444264 250.95535982513047 0 0 0 0 34.423330625717426 -56.724935893249494 0 -56.724935893249494 218.3506590627926 0 0 0 0 -1.5561034362698365 -64.320064810612521 0 -64.320064810612521 115.94513325251549 0 0 0 0 -12.032785131304991 -63.52109435499608 0 -63.52109435499608 223.71735189546052 0 0 0 0 -45.221496643173644 40.074721043768591 0 40.074721043768591 77.970556156470693 0 0 0 0 -58.476035301427146 95.848229686098421 0 95.848229686098421 -105.87757571240218 0 0 0 0 -39.142454801409009 0.91072174281302409 0 0.91072174281302409 62.447748782294298 0 0 0 0 -74.030772140868066 -144.67802422102977 0 -144.67802422102977 93.366290992024005 0 0 0 0 14.040152179011784 5.6462507017204189 0 5.6462507017204189 -19.587561165419174 0 0 0 0 -119.2320919911981 -111.27332492827554 0 -111.27332492827554 139.27363541723753 0 0 0 0 0.96198171717612446 -1.7952854670735974 0 -1.7952854670735974 -2.3644558475676973 0 0 0 0 36.327503330221703 -172.73338357688772 0 -172.73338357688772 33.921574335734476 0 0 0 0 59.03008017703678 -172.07745096731378 0 -172.07745096731378 37.420200109892903 0 0 0 0 -73.012074339978653 -50.993048387890667 0 -50.993048387890667 125.34648258665402 0 0 0 0 126.37638589038488 -126.90664098298294 0 -126.90664098298294 49.572118359792512 0 0 0 0 -91.615336982492067 -15.032702430762583 0 -15.032702430762583 220.01095544889176 0 0 0 0 -44.420544389584848 -30.468345221057461 0 -30.468345221057461 86.265404058089189 0 0 0 0 103.33243795199087 -72.392412837791198 0 -72.392412837791198 103.24676568933955 0 0 0 0 0.021863551867134845 -0.36130282351098231 0 -0.36130282351098231 -0.24325962892368125 0 0 0 0 -44.98141947604654 -43.641096982093586 0 -43.641096982093586 94.124808843960636 0 0 0 0 -63.863077494285335 -56.821570474990949 0 -56.821570474990949 92.872258443196188 0 0 0 0 -6.2196756179200747 -34.61264724704597 0 -34.61264724704597 86.373102503290283 0 0 0 0 -24.225814709232509 -37.151920933516521 0 -37.151920933516521 98.14093924327608 0 0 0 0 -25.242903183625458 -43.947962217309396 0 -43.947962217309396 112.42943350192581 0 0 0 0 -47.612743522583514 -43.677811028366705 0 -43.677811028366705 108.02042820628412 0 0 0 0 30.314767296935315 -91.53564122755779 0 -91.53564122755779 151.64457953504461 0 0 0 0 21.580427454701749 -74.95927396649131 0 -74.95927396649131 163.56303596862563 0 0 0 0 -23.78738936858873 -26.074688674505211 0 -26.074688674505211 4.0611930626395178 0 0 0 0 -0.23459280263418236 -2.3132596209879779 0 -2.3132596209879779 4.8013117287923421 0 0 0 0 -49.883540446926304 -219.65861743903042 0 -219.65861743903042 22.819711257223389 0 0 0 0 39.53266303251803 -50.599448720582586 0 -50.599448720582586 69.236605192709249 0 0 0 0 30.955540528730126 -64.198084549763735 0 -64.198084549763735 98.224849583013565 0 0 0 0 -16.839666341007614 -49.935193004566827 0 -49.935193004566827 170.71781993728655 0 0 0 0 104.77724365601171 -89.896386876469478 0 -89.896386876469478 76.477249432013195 0 0 0 0 -3.4429080240443355 0.82827958280260816 0 0.82827958280260816 6.685369365981046 0 0 0 0 67.460925813755239 -103.37564138605921 0 -103.37564138605921 122.44462175697845 0 0 0 0 89.095587253838858 -54.642526953826746 0 -54.642526953826746 92.606462322888547 0 0 0 0 4.7929918818299484 -44.397805217929999 0 -44.397805217929999 163.58256241072377 0 0 0 0 4.1727222568833895 -50.388750302763583 0 -50.388750302763583 105.72212362912251 0 0 0 0 -10.173838637410881 -27.515681271695939 0 -27.515681271695939 102.81721362295502 0 0 0 0 -1.8480190799709817 -77.174120689036499 0 -77.174120689036499 95.841111912974156 0 0 0 0 51.559062705081033 -86.964067466149572 0 -86.964067466149572 84.922921798846801 0 0 0 0 41.123877246391203 -53.334814616762742 0 -53.334814616762742 92.700918735401501 0 0 0 0 -42.30149684278058 -26.79317332539722 0 -26.79317332539722 78.921240634648711 0 0 0 0 -48.714508003109586 -28.366910366930824 0 -28.366910366930824 107.119208142758 0 0 0 0 -37.786404842187039 -44.030205166636733 0 -44.030205166636733 123.30666743722395 0 0 0 0 -29.75727254978392 -33.073250209796242 0 -33.073250209796242 95.730919352630735 0 0 0 0 -38.692235597023682 -44.672647815546952 0 -44.672647815546952 100.37525285102311 0 0 0 0 -61.533528891914102 -9.791528473404469 0 -9.791528473404469 101.77012070067576 0 0 0 0 -58.631041117302175 -0.42618929272612149 0 -0.42618929272612149 81.873716673479066 0 0 0 0 -50.944833146811561 -12.100146983892046 0 -12.100146983892046 78.198495440417901 0 0 0 0 -81.069346696171124 15.788419469387009 0 15.788419469387009 53.096406738935912 0 0 0 0 -83.291419714325457 23.350787716975901 0 23.350787716975901 66.429869997158676 0 0 0 0 -72.27964195535651 -13.585460216676438 0 -13.585460216676438 94.961876252869843 0 0 0 0 -83.898908651863167 26.144975838837127 0 26.144975838837127 15.331367846636567 0 0 0 0 -149.38041613589121 32.47380209871335 0 32.47380209871335 72.100325120874913 0 0 0 0 34.862514624573578 -69.846534816831991 0 -69.846534816831991 85.938316005733213 0 0 0 0 32.080254467782197 -75.838218622937347 0 -75.838218622937347 101.73048231337452 0 0 0 0 -86.817342264836043 -21.685368524107616 0 -21.685368524107616 99.767743455107393 0 0 0 0 -31.610809547002646 -60.448882684686396 0 -60.448882684686396 88.77688801145996 0 0 0 0 -39.272525882914124 -80.777101451232738 0 -80.777101451232738 100.94480002138152 0 0 0 0 -13.428997637608518 -79.664374803280225 0 -79.664374803280225 32.234086796444899 0 0 0 0 -164.02696548061795 -65.801396173490502 0 -65.801396173490502 118.58687435696629 0 0 0 0 28.075527578326728 -12.053756688976137 0 -12.053756688976137 112.00584244748461 0 0 0 0 45.359273995431067 -62.76955517262104 0 -62.76955517262104 60.653583043800609 0 0 0 0 44.018615525850123 -46.259416290210993 0 -46.259416290210993 146.28268187779759 0 0 0 0 102.17547289925824 52.110432134933944 0 52.110432134933944 240.55422173087936 0 0 0 0 112.15707347516218 -15.712028002802981 0 -15.712028002802981 111.95988167911128 0 0 0 0 77.507000382529895 -46.462844759596919 0 -46.462844759596919 127.59038601652719 0 0 0 0 68.03338247236934 -84.194042274859385 0 -84.194042274859385 96.348579297104152 0 0 0 0 64.174487544752992 -78.782849750685273 0 -78.782849750685273 96.782295278622769 0 0 0 0 72.063582987513655 -58.048582318435365 0 -58.048582318435365 135.71738747130439 0 0 0 0 58.253399181448913 -49.056383866278338 0 -49.056383866278338 130.73824483731732 0 0 0 0 56.765168303689279 -62.546374489291338 0 -62.546374489291338 177.39575505169341 0 0 0 0 39.87872721776148 -71.268355702915869 0 -71.268355702915869 264.71867280099104 0 0 0 0 28.241608767372441 -105.31212226302819 0 -105.31212226302819 389.6695792076498 0 0 0 0 44.064461874684639 -11.066428589852876 0 -11.066428589852876 247.18792873855273 0 0 0 0 52.682840837436402 -74.478547899771911 0 -74.478547899771911 193.73040332605888 0 0 0 0 43.495825372232503 -5.4584373096367926 0 -5.4584373096367926 110.0696839356242 0 0 0 0 44.056130399278572 -23.028258470192668 0 -23.028258470192668 210.02400820313778 0 0 0 0 31.331294488712956 -75.394117619071039 0 -75.394117619071039 138.20590150705539 0 0 0 0 -21.652208353203605 276.32964548766904 0 276.32964548766904 -465.59377765892714 0 0 0 0 42.70618554091493 -46.823847927774295 0 -46.823847927774295 104.36366150781396 0 0 0 0 -191.19052095835286 91.495581409719307 0 91.495581409719307 -26.471831662711338 0 0 0 0 -19.791769504679905 -84.938031440862687 0 -84.938031440862687 81.278577875062183 0 0 0 0 44.634430865811737 -83.810003176564351 0 -83.810003176564351 35.020432575474842 0 0 0 0 -42.586575529930997 -10.390141861498705 0 -10.390141861498705 116.53118975057077 0 0 0 0 1.2148276762806205 6.1648706179628476 0 6.1648706179628476 3.6907155773976967 0 0 0 0 12.769632704566902 0.30890791277488461 0 0.30890791277488461 50.625147523554915 0 0 0 0 59.126698374271655 -54.383727726715733 0 -54.383727726715733 27.573875203292118 0 0 0 0 30.581179589884414 -77.542422655977134 0 -77.542422655977134 105.01139854795474 0 0 0 0 27.141624354591272 -46.449633021638874 0 -46.449633021638874 63.302461169485468 0 0 0 0 56.092624805305604 -76.966972083791916 0 -76.966972083791916 79.936920415129862 0 0 0 0 51.409219975184897 -86.99940576244262 0 -86.99940576244262 84.988254402582243 0 0 0 0 52.26467248149163 -69.522511484239431 0 -69.522511484239431 90.945027278998168 0 0 0 0 55.605458639100107 -54.573984934751934 0 -54.573984934751934 66.898650454510062 0 0 0 0 46.433302378766371 -85.546546453227165 0 -85.546546453227165 93.445399431118858 0 0 0 0 12.908243928328147 -44.584483760599369 0 -44.584483760599369 123.0895673924897 0 0 0 0 9.7997865698186502 -23.298802088510001 0 -23.298802088510001 59.483658355253283 0 0 0 0 4.1162166116237131 -30.671742425145567 0 -30.671742425145567 67.095443978985713 0 0 0 0 4.6173728171588664 -29.030647979805508 0 -29.030647979805508 59.931312115848414 0 0 0 0 -21.902680606054432 3.6434454040406195 0 3.6434454040406195 25.522662635868642 0 0 0 0 -13.70092359256796 -25.229413670600479 0 -25.229413670600479 61.918297982861986 0 0 0 0 5.440088674821709 -30.039924989861902 0 -30.039924989861902 60.590023698634468 0 0 0 0 12.191731825001625 -29.447126495171688 0 -29.447126495171688 58.00528109059087 0 0 0 0 24.595226464560255 -40.938733417555341 0 -40.938733417555341 58.560029308820958 0 0 0 0 -9.1567826802256604 -40.827010044024064 0 -40.827010044024064 58.79908354888903 0 0 0 0 -80.211132096032088 -79.108924314947217 0 -79.108924314947217 103.00671841432631 0 0 0 0 -5.1867565404372726 -47.830811638086743 0 -47.830811638086743 70.609537786935107 0 0 0 0 90.470012734929924 17.970489530925988 0 17.970489530925988 40.783622273531364 0 0 0 0 8.1172685224464658 -67.317298573812877 0 -67.317298573812877 66.860299114312511 0 0 0 0 -13.879258609635166 -13.316539930217118 0 -13.316539930217118 -13.949661284858337 0 0 0 0 -32.843366357235936 -70.952458937099436 0 -70.952458937099436 66.883976040561834 0 0 0 0 -25.260098721601025 -45.491609502398205 0 -45.491609502398205 71.534083657979863 0 0 0 0 -36.8610234694479 -40.601173120572639 0 -40.601173120572639 84.198995574981382 0 0 0 0 -24.37150825858771 -24.074660844540631 0 -24.074660844540631 59.216368144931039 0 0 0 0 -47.256143990163764 -22.021338001890399 0 -22.021338001890399 81.356807536542874 0 0 0 0 -34.558349720739898 2.2626808275163057 0 2.2626808275163057 22.751337890287687 0 0 0 0 -21.26226294365177 0.2608103740462937 0 0.2608103740462937 23.586400574141805 0 0 0 0 -65.2233731193528 39.52716087931185 0 39.52716087931185 32.671048308849095 0 0 0 0 65.150937312213728 -77.980603330392569 0 -77.980603330392569 37.346637560716772 0 0 0 0 53.841923988144117 -39.708999907670659 0 -39.708999907670659 -99.840505602202029 0 0 0 0 38.971073936158064 8.7533248165309487 0 8.7533248165309487 6.4423287765894202 0 0 0 0 -24.379364730544694 -22.783132640284748 0 -22.783132640284748 62.593619779422625 0 0 0 0 -23.266732882105426 2.5892923416227092 0 2.5892923416227092 24.091222413130737 0 0 0 0 6.1582161474671011 -110.34917633945952 0 -110.34917633945952 130.85902972910117 0 0 0 0 34.658447389301728 -73.347610237842673 0 -73.347610237842673 33.763715858527576 0 0 0 0 5.3369769288583484 -38.532641982790665 0 -38.532641982790665 122.67123162552889 0 0 0 0 -51.076876069415448 -98.839692999550607 0 -98.839692999550607 26.795680201932555 0 0 0 0 -34.490751540320616 15.770806505392102 0 15.770806505392102 -93.479388136940543 0 0 0 0 159.42049721569492 8.6324290921620559 0 8.6324290921620559 -258.65229277053004 0 0 0 0 7.577324677076021 -3.4049169081159789 0 -3.4049169081159789 0.98194703510915105 0 0 0 0 423.68251535467061 -386.43776844606327 0 -386.43776844606327 215.80782437852758 0 0 0 0 94.017718460883771 -134.37041587365093 0 -134.37041587365093 37.811941537242092 0 0 0 0 195.86431584108868 -70.544218795017514 0 -70.544218795017514 -192.34607680042973 0 0 0 0 41.796019010776945 -79.086065536746901 0 -79.086065536746901 112.0926397830699 0 0 0 0 49.988650295592379 -56.011978841710516 0 -56.011978841710516 121.7053849997742 0 0 0 0 -171.82859015692884 -351.56699152175133 0 -351.56699152175133 1309.5495246129576 0 0 0 0 -180.48817967591458 -363.96938745331136 0 -363.96938745331136 1852.5755660183204 0 0 0 0 -314.53935083265242 -212.47888881858671 0 -212.47888881858671 1188.013848651055 0 0 0 0 -290.57329070620108 -175.37943432529937 0 -175.37943432529937 1098.0768280061311 0 0 0 0 -171.05163004975475 -79.439781836408656 0 -79.439781836408656 689.65314896102063 0 0 0 0 -147.94162154822334 139.6900065593727 0 139.6900065593727 1741.9396177923936 0 0 0 0 -150.31522580841556 189.21683901412325 0 189.21683901412325 1186.4669449799203 0 0 0 0 9.224827399128678 -10.816060277226484 0 -10.816060277226484 2.3887697585840151 0 0 0 0 -630.92637179115263 205.09296656245715 0 205.09296656245715 2293.8379604728252 0 0 0 0 228.04765068012603 64.737578295120329 0 64.737578295120329 224.79465338968294 0 0 0 0 808.08202626720504 -679.8968216454814 0 -679.8968216454814 971.58393185991008 0 0 0 0 -346.77275254108463 -101.46236625654274 0 -101.46236625654274 692.5811569039779 0 0 0 0 347.76307977656506 -252.99730038645794 0 -252.99730038645794 -138.18378359366034 0 0 0 0 -59.944692062052127 157.90902538339287 0 157.90902538339287 113.66350281592167 0 0 0 0 -445.12931760022184 139.43226655523904 0 139.43226655523904 602.42175508643777 0 0 0 0 120.02334798312768 -322.73192570333777 0 -322.73192570333777 2595.349589656129 0 0 0 0 5.3617166450567737 -5.6958326132900368 0 -5.6958326132900368 2.6566482142256778 0 0 0 0 -185.15149799959181 -121.30855163975502 0 -121.30855163975502 666.07366086424008 0 0 0 0 105.03484751451833 -218.75768480465922 0 -218.75768480465922 438.889879230519 0 0 0 0 -150.7577440039131 -134.58301129192114 0 -134.58301129192114 783.92322382259863 0 0 0 0 -240.30619650454901 -37.647249182467931 0 -37.647249182467931 781.73388552207325 0 0 0 0 -283.21373800569563 -207.69891293664114 0 -207.69891293664114 1059.7569278009832 0 0 0 0 -360.16278507607421 26.497065429844952 0 26.497065429844952 904.88033895156696 0 0 0 0 -292.64249939599176 -184.11679470920353 0 -184.11679470920353 1117.9073511554525 0 0 0 0 -297.85208886217242 -200.48823107884164 0 -200.48823107884164 1109.8085920516314 0 0 0 0 -297.85067311428793 -200.5109767743561 0 -200.5109767743561 1136.8866875718231 0 0 0 0 -78.772357568956977 -284.14388092194713 0 -284.14388092194713 1086.4217838748882 0 0 0 0 -92.276718950019131 -191.86791727764648 0 -191.86791727764648 1080.2757419220216 0 0 0 0 163.21695809670018 -352.26093709486304 0 -352.26093709486304 1095.8422630900805 0 0 0 0 221.58514559368996 -220.55409423183301 0 -220.55409423183301 1132.5701001354682 0 0 0 0 313.58714224749656 -330.42519382507089 0 -330.42519382507089 842.28167476388626 0 0 0 0 249.27910044396049 -413.7974720493803 0 -413.7974720493803 856.46132031930028 0 0 0 0 231.60647395425895 -330.34227193293918 0 -330.34227193293918 662.52863989895559 0 0 0 0 110.95302917402478 -217.24297841302177 0 -217.24297841302177 747.10381181443518 0 0 0 0 214.10858755762456 -374.26201635901089 0 -374.26201635901089 690.25738165068105 0 0 0 0 22.967854232542869 -8.0185816701663271 0 -8.0185816701663271 0.17045499233493722 0 0 0 0 437.73636082968187 -619.39198633771593 0 -619.39198633771593 177.31633340939152 0 0 0 0 683.47232830675057 -844.51320420554839 0 -844.51320420554839 2291.2661793144325 0 0 0 0 108.4049563238525 -194.97159023268978 0 -194.97159023268978 479.00352045794716 0 0 0 0 325.19685520042185 -1115.8228655525309 0 -1115.8228655525309 1456.3366938010586 0 0 0 0 -687.90109887827202 -485.67038815657725 0 -485.67038815657725 2298.1206027875596 0 0 0 0 -185.29648127949622 -610.23934916060534 0 -610.23934916060534 957.75174090731889 0 0 0 0 502.71215757163191 -829.85387138540682 0 -829.85387138540682 740.98254764819285 0 0 0 0 334.36338470764167 -511.16061308031203 0 -511.16061308031203 489.52150122862076 0 0 0 0 209.05698475006648 -477.09635274636821 0 -477.09635274636821 769.3674003854685 0 0 0 0 361.62683381147326 -637.1701957291898 0 -637.1701957291898 900.96409690158907 0 0 0 0 32.106463977083251 -11.257063018306795 0 -11.257063018306795 2.6281867751777543 0 0 0 0 273.80421037878114 -323.33522181768785 0 -323.33522181768785 347.17279891981889 0 0 0 0 154.70231543386762 -354.89016748894937 0 -354.89016748894937 889.31165205111029 0 0 0 0 131.06799682012388 48.268049556125334 0 48.268049556125334 243.94537017793482 0 0 0 0 -53.853048086431954 -340.88436204103346 0 -340.88436204103346 970.57413383027597 0 0 0 0 -53.55782707272374 -394.77415381819083 0 -394.77415381819083 1083.1651836638339 0 0 0 0 -754.09187406706894 248.37559229076305 0 248.37559229076305 982.51772395573789 0 0 0 0 188.82320140707452 -199.87093780588475 0 -199.87093780588475 407.40091688081156 0 0 0 0 184.58032053916395 -326.76672097368282 0 -326.76672097368282 704.14675257282215 0 0 0 0 -11.232734682806722 -104.28762429781182 0 -104.28762429781182 665.85602339328034 0 0 0 0 76.168572077336648 -344.19402937806444 0 -344.19402937806444 922.6463091414771 0 0 0 0 128.78850919166325 -270.32575058001385 0 -270.32575058001385 721.24447392032016 0 0 0 0 44.231496182628689 -280.32513776468841 0 -280.32513776468841 1142.1264726673326 0 0 0 0 138.40206567275527 -208.54980235717812 0 -208.54980235717812 1028.0254727185238 0 0 0 0 274.29641221743145 -188.41365565081196 0 -188.41365565081196 1064.3816537534149 0 0 0 0 126.46174191720274 -380.06799028906971 0 -380.06799028906971 929.84659838085645 0 0 0 0 168.18926188642399 -239.06500246617361 0 -239.06500246617361 1215.9618146305147 0 0 0 0 193.97924292121468 -72.595849047997945 0 -72.595849047997945 1319.0237475135218 0 0 0 0 12.866062840994346 -132.66125170140731 0 -132.66125170140731 1498.9532132290842 0 0 0 0 51.044954002335544 -153.04601888552861 0 -153.04601888552861 1478.0066880887462 0 0 0 0 97.509185308696487 -14.750852322515129 0 -14.750852322515129 1879.7769183044584 0 0 0 0 599.09686181193319 58.617843070787785 0 58.617843070787785 1370.1786576251143 0 0 0 0 155.23572986796444 -524.89239660857493 0 -524.89239660857493 1745.1672140734154 0 0 0 0 20.281091841160091 -6.0888851180287489 0 -6.0888851180287489 9.4197712071724879 0 0 0 0 203.33127558112574 -316.7091649643171 0 -316.7091649643171 1089.229658102071 0 0 0 0 -422.38362582991249 -135.20470206698519 0 -135.20470206698519 200.49986069262377 0 0 0 0 21.818491135470595 -36.767807671887567 0 -36.767807671887567 57.166586426963477 0 0 0 0 -7.2730843110883558 7.5749429629412646 0 7.5749429629412646 51.48583297056939 0 0 0 0 -19.767682509842416 32.249218866931187 0 32.249218866931187 142.15403254015837 0 0 0 0 -29.960405925353012 -20.66826852923235 0 -20.66826852923235 41.91899999114284 0 0 0 0 24.251261502226079 -21.015224827604698 0 -21.015224827604698 34.174681050963756 0 0 0 0 77.119658487807101 163.4807543269817 0 163.4807543269817 518.02345226069883 0 0 0 0 476.12604094417838 61.220359633189219 0 61.220359633189219 59.621312356419821 0 0 0 0 49.548900238701663 32.579050703116081 0 32.579050703116081 71.801297011166753 0 0 0 0 16.388323376360635 22.51823220116944 0 22.51823220116944 6.9702186658019336 0 0 0 0 8.9501848641763591 -3.4527342138543418 0 -3.4527342138543418 -9.7298737646226101 0 0 0 0 -27.977803660411155 17.86599522956385 0 17.86599522956385 163.4295419423288 0 0 0 0 -190.50003920094423 -104.87543687247671 0 -104.87543687247671 1440.4405133467808 0 0 0 0 -190.37891951814072 372.6969090799422 0 372.6969090799422 1017.1756417821016 0 0 0 0 153.46189809533644 604.55081795216392 0 604.55081795216392 805.13910137493076 0 0 0 0 -188.66424386242841 181.5247024718023 0 181.5247024718023 1892.5392370650516 0 0 0 0 35.31849081067412 -450.82795034597802 0 -450.82795034597802 1913.0522391978761 0 0 0 0 593.55735662285701 -497.02625799596018 0 -497.02625799596018 1321.7274820164312 0 0 0 0 -6.1114400035967265 -374.58187476572493 0 -374.58187476572493 1414.7791295236675 0 0 0 0 -122.17328208956133 -121.70316424141856 0 -121.70316424141856 1326.170183205686 0 0 0 0 -231.00506651784235 -198.55576682114042 0 -198.55576682114042 1258.6528049646149 0 0 0 0 -231.26562217526043 -208.47892493099062 0 -208.47892493099062 976.54063645978749 0 0 0 0 -233.65602908285473 -171.75616257433285 0 -171.75616257433285 1084.6530264398898 0 0 0 0 -128.76900513299233 -113.06093652721938 0 -113.06093652721938 977.10640987202351 0 0 0 0 -243.6362069899551 22.643623678974109 0 22.643623678974109 1138.0831270235503 0 0 0 0 -145.71453289569399 -68.534160497496487 0 -68.534160497496487 908.8017118025673 0 0 0 0 -10.206358132963942 45.295881434169132 0 45.295881434169132 588.2256594550272 0 0 0 0 -7.5390259836835867 68.060425331226725 0 68.060425331226725 162.88261978553783 0 0 0 0 26.408621338796326 23.100082527362247 0 23.100082527362247 -3.24167383290653 0 0 0 0 66.127151266267902 8.8484764941385947 0 8.8484764941385947 69.490964430279746 0 0 0 0 39.768971371398948 -134.44532540295404 0 -134.44532540295404 401.62456402953649 0 0 0 0 45.350125977005519 -318.94759765203526 0 -318.94759765203526 792.25782407765655 0 0 0 0 134.54311288506688 -317.20133370414987 0 -317.20133370414987 792.24685880455218 0 0 0 0 -236.39740085877929 -327.60333811565943 0 -327.60333811565943 1203.8199855624143 0 0 0 0 -247.20854576291822 -258.90432226927805 0 -258.90432226927805 1082.9013202311617 0 0 0 0 697.38529183285391 98.268900750023022 0 98.268900750023022 813.54162506390276 0 0 0 0 -181.10409295971203 180.10101761323313 0 180.10101761323313 1155.115905773815 0 0 0 0 -185.2945930440037 140.01405881504252 0 140.01405881504252 825.94321098366345 0 0 0 0 -152.64779950639968 185.62046851325067 0 185.62046851325067 707.84387572499691 0 0 0 0 -162.7310553942873 67.660518594309906 0 67.660518594309906 704.11893820819387 0 0 0 0 -81.185474811624587 35.936286331907581 0 35.936286331907581 708.07092605954676 0 0 0 0 -59.974562926499857 -126.7190928205091 0 -126.7190928205091 760.36536976147181 0 0 0 0 -184.36273517222799 32.436830824493882 0 32.436830824493882 806.34991521213669 0 0 0 0 -80.83953733983617 10.449019644162036 0 10.449019644162036 525.89576127124019 0 0 0 0 47.387518716154773 117.95623247890035 0 117.95623247890035 413.55203396129946 0 0 0 0 55.80916269374552 92.58228220674755 0 92.58228220674755 205.22782534567523 0 0 0 0 72.791948321088057 367.06340840453777 0 367.06340840453777 698.90526572706221 0 0 0 0 138.63667650890511 216.77907112520188 0 216.77907112520188 -38.878330747986638 0 0 0 0 -94.247559524860662 60.517926233525941 0 60.517926233525941 -21.039448853554859 0 0 0 0 163.94707463335999 320.72222320619767 0 320.72222320619767 221.19046676475773 0 0 0 0 4.3515587438014176 -0.50327013985324953 0 -0.50327013985324953 6.7201545647784542 0 0 0 0 51.325067231033245 -44.168367483762268 0 -44.168367483762268 132.05092361992865 0 0 0 0 -147.78931827170709 -129.82610068781651 0 -129.82610068781651 21.760103013366461 0 0 0 0 117.06683126465123 -429.39319350024743 0 -429.39319350024743 780.43890450934123 0 0 0 0 -271.07591377151766 177.11815414360899 0 177.11815414360899 -101.60771447914885 0 0 0 0 0.12008754687955303 -5.1563893518552533 0 -5.1563893518552533 6.9929843160238789 0 0 0 0 221.57352022825944 -411.85808585604536 0 -411.85808585604536 458.53226032754174 0 0 0 0 132.96492103786227 -315.05568894537714 0 -315.05568894537714 1313.6405080917393 0 0 0 0 88.295888202785136 -141.09567542833975 0 -141.09567542833975 1289.0223476222309 0 0 0 0 49.454214016116566 -351.21854585545952 0 -351.21854585545952 1146.4762041158683 0 0 0 0 102.78428684839105 -236.63923249794971 0 -236.63923249794971 1457.9129619215382 0 0 0 0 94.98797167648172 -206.25910256354655 0 -206.25910256354655 1360.4251093338244 0 0 0 0 11.874221531479634 -141.19799556527141 0 -141.19799556527141 1451.7648423498031 0 0 0 0 269.42741856175599 -105.46707865520148 0 -105.46707865520148 1341.8756686260185 0 0 0 0 577.22284894457607 -393.27456179489309 0 -393.27456179489309 1191.2048180076235 0 0 0 0 382.33115170429119 -126.05320236089756 0 -126.05320236089756 1262.4899935781141 0 0 0 0 60.760402931560748 -170.31911055587625 0 -170.31911055587625 1942.7860122460625 0 0 0 0 61.67453065195059 -82.598087244939961 0 -82.598087244939961 1347.5898438385484 0 0 0 0 38.817170214841099 -189.02199698198092 0 -189.02199698198092 1530.5424987489459 0 0 0 0 29.807110373140858 -44.581586266544036 0 -44.581586266544036 1508.0075179280057 0 0 0 0 -127.86166881834652 -850.56164538055236 0 -850.56164538055236 -586.16140268561594 0 0 0 0 81.556386537876449 -16.44557654060813 0 -16.44557654060813 4.5402209948444385 0 0 0 0 -186.46418193529826 -997.03354017631682 0 -997.03354017631682 140.97879121757433 0 0 0 0 110.55686777263327 -561.86246619824669 0 -561.86246619824669 2392.345069305622 0 0 0 0 29.702671035910367 -0.77779883701559527 0 -0.77779883701559527 -0.35375223724577864 0 0 0 0 22.364221889309398 -13.120484293378475 0 -13.120484293378475 6.6810799112134305 0 0 0 0 853.20846753820297 -398.17269163298624 0 -398.17269163298624 -2474.5793560189777 0 0 0 0 1423.4270571980833 -767.33787780322382 0 -767.33787780322382 -2949.4737643664466 0 0 0 0 514.35911751067761 -428.04322747933475 0 -428.04322747933475 -2467.8120392332639 0 0 0 0 -637.47601006551758 383.96662477589052 0 383.96662477589052 2208.5806379403439 0 0 0 0 -131.21647858906545 299.28963512571499 0 299.28963512571499 740.89324970248344 0 0 0 0 -539.79862236628287 -409.46074406173284 0 -409.46074406173284 1016.9716794783453 0 0 0 0 -710.52618205795443 -353.1313795769529 0 -353.1313795769529 1283.3040178948359 0 0 0 0 4917.988399262751 -596.99554376487504 0 -596.99554376487504 -3168.2807581371308 0 0 0 0 775.60963366553369 -959.59554643660522 0 -959.59554643660522 1782.234670363534 0 0 0 0 2528.0536363092933 3380.6027342874659 0 3380.6027342874659 567.11686583283154 0 0 0 0 -896.08545755667092 -54.546181952018742 0 -54.546181952018742 1462.6503593911475 0 0 0 0 -595.28718671923343 -698.54986041593656 0 -698.54986041593656 253.1721921756689 0 0 0 0 30.009475638719593 -27.303674545311395 0 -27.303674545311395 19.336911488495645 0 0 0 0 -308.91688736867582 -1256.4059162362646 0 -1256.4059162362646 -666.45441196071624 0 0 0 0 -140.17504830807911 -138.98871902903556 0 -138.98871902903556 -274.22339081826067 0 0 0 0 -428.43393022009514 -698.63699901820655 0 -698.63699901820655 82.657395467023889 0 0 0 0 -470.09498013034363 -997.2469322611596 0 -997.2469322611596 862.27764100247441 0 0 0 0 -622.45108937747955 -461.72406771207716 0 -461.72406771207716 1074.8472586487987 0 0 0 0 -524.24541493786421 -708.91607574408317 0 -708.91607574408317 1696.9131471899891 0 0 0 0 -790.6426446661244 -652.8431894094465 0 -652.8431894094465 1251.6498563839705 0 0 0 0 -296.30698998395781 -279.42017241986105 0 -279.42017241986105 254.28405349045534 0 0 0 0 -682.17482387072869 -604.19757348612802 0 -604.19757348612802 779.88280933228089 0 0 0 0 -830.35525142555025 538.35644101831349 0 538.35644101831349 -369.31217926392912 0 0 0 0 -1132.9645252866017 -245.20124897726237 0 -245.20124897726237 946.92337263005447 0 0 0 0 -845.79249882639829 -307.42721012192942 0 -307.42721012192942 795.18291006880463 0 0 0 0 -953.85726123658606 -629.64090095378924 0 -629.64090095378924 1080.2509466312986 0 0 0 0 -796.12571146800656 -628.64023149847708 0 -628.64023149847708 1146.9159671312373 0 0 0 0 -723.8559404581647 -591.01823196845362 0 -591.01823196845362 1086.4231172891268 0 0 0 0 -619.32921517429713 -642.99650152852701 0 -642.99650152852701 923.01149811133655 0 0 0 0 -541.98082766757943 -243.42063606160082 0 -243.42063606160082 1354.3018327226528 0 0 0 0 -885.74380266200569 -582.70505736806444 0 -582.70505736806444 1514.1034081809048 0 0 0 0 -919.12957679843021 -194.31701078469996 0 -194.31701078469996 2507.9872272475332 0 0 0 0 141.85764192247007 -709.92447264809925 0 -709.92447264809925 -452.81482753984164 0 0 0 0 -787.2202115971395 -907.71143337478134 0 -907.71143337478134 2429.4318695498346 0 0 0 0 50.249124281408513 -1715.418988462201 0 -1715.418988462201 904.94478682253612 0 0 0 0 29.270313918212196 342.31334486335072 0 342.31334486335072 -104.32093592418823 0 0 0 0 -26.32236196428331 23.771525312817534 0 23.771525312817534 127.08473226516116 0 0 0 0 -29.972945537621424 -23.054562666748353 0 -23.054562666748353 16.230052972545828 0 0 0 0 130.75313049601982 -104.44425517824493 0 -104.44425517824493 216.8529833561679 0 0 0 0 -304.90543862883169 -251.99577166608105 0 -251.99577166608105 542.76789592681689 0 0 0 0 408.56750641867256 1284.5886058235283 0 1284.5886058235283 1989.2378100688802 0 0 0 0 -704.46048763134013 30.620252168460866 0 30.620252168460866 -94.425268164013687 0 0 0 0 -16.207267897486084 -4.7020556371067244 0 -4.7020556371067244 26.52593932495823 0 0 0 0 0.52983586285495676 -23.213472123324557 0 -23.213472123324557 15.078669778046603 0 0 0 0 -340.78049803939575 404.21677111087047 0 404.21677111087047 210.92527055986648 0 0 0 0 -10.472849125146464 -1.690758797778031 0 -1.690758797778031 -2.3607627388379058 0 0 0 0 361.58488755000656 -482.0520489976941 0 -482.0520489976941 168.12724018566223 0 0 0 0 -77.893508021666094 469.34002765794503 0 469.34002765794503 133.9018951056878 0 0 0 0 -615.48622408742312 -22.649042234462286 0 -22.649042234462286 226.8286782047071 0 0 0 0 -258.02341513587373 -410.76085659834621 0 -410.76085659834621 268.82469566984946 0 0 0 0 2.4366880945851799 0.11395301881404052 0 0.11395301881404052 -4.5029109040740281 0 0 0 0 85.123762358215458 -134.09886914431718 0 -134.09886914431718 207.38277870404636 0 0 0 0 -0.73097225632815821 -53.614612001694695 0 -53.614612001694695 57.349878522800282 0 0 0 0 64.15869043303428 -79.71485853676495 0 -79.71485853676495 66.409393755824567 0 0 0 0 39.119962919159207 -33.254570163215249 0 -33.254570163215249 221.59652873549931 0 0 0 0 58.6453362315292 109.72984300109783 0 109.72984300109783 545.09150777807736 0 0 0 0 -2.6716274677085039 -93.411637666436945 0 -93.411637666436945 262.57811380165549 0 0 0 0 -11.161356662391086 -120.46922002636347 0 -120.46922002636347 209.64588224163299 0 0 0 0 -597.61830465695937 179.8468020451719 0 179.8468020451719 914.00758892426529 0 0 0 0 -340.63939124947365 375.9713806189784 0 375.9713806189784 767.67198635079694 0 0 0 0 -164.54934346085247 506.38404281027806 0 506.38404281027806 323.35748607217465 0 0 0 0 -560.55134022869629 -167.69210560145802 0 -167.69210560145802 443.51500807660977 0 0 0 0 -179.28584587971682 114.72767555688915 0 114.72767555688915 387.78860891866498 0 0 0 0 -376.62468154205771 278.73212469614373 0 278.73212469614373 252.49101464379055 0 0 0 0 12.578114512625689 -15.920188436553872 0 -15.920188436553872 316.54046321830538 0 0 0 0 9.8129011716545023 71.580167211508524 0 71.580167211508524 210.61078168207314 0 0 0 0 40.233665298704182 4.4449034576828126 0 4.4449034576828126 194.06629557684937 0 0 0 0 70.690098305981337 84.993544298289635 0 84.993544298289635 274.98273824906937 0 0 0 0 -31.295127040046737 -16.361847465028404 0 -16.361847465028404 500.7644406599793 0 0 0 0 0.83534610408512533 2.056612117858144 0 2.056612117858144 1.1965760421142306 0 0 0 0 206.3158073132654 -284.22368377674866 0 -284.22368377674866 300.30577504687244 0 0 0 0 92.084934225012603 -104.93266520868929 0 -104.93266520868929 62.425640201407077 0 0 0 0 -51.366325732634323 -45.658549627456523 0 -45.658549627456523 243.77930090687369 0 0 0 0 -34.854891120210596 -20.229520785927889 0 -20.229520785927889 237.65215625035125 0 0 0 0 -13.622684454210003 -42.667287879041396 0 -42.667287879041396 259.95083777925174 0 0 0 0 -8.3147023387996342 63.359120544833786 0 63.359120544833786 266.25781826884486 0 0 0 0 -16.730780594203679 19.541349308463396 0 19.541349308463396 163.63942996180049 0 0 0 0 -25.502858299381387 23.201519962291059 0 23.201519962291059 194.93591089115944 0 0 0 0 -18.905999061039438 -30.853482866350532 0 -30.853482866350532 181.44038197647023 0 0 0 0 -38.357615267852452 -9.094506530520448 0 -9.094506530520448 221.91504867000185 0 0 0 0 -30.748357033843604 -8.8166899194329744 0 -8.8166899194329744 180.35451516267494 0 0 0 0 -16.011468365952169 6.420483052956115 0 6.420483052956115 144.69524740146881 0 0 0 0 -38.603800683173631 -59.40443308426984 0 -59.40443308426984 169.21656367523428 0 0 0 0 9.139566270285524 -68.171654545153345 0 -68.171654545153345 83.915497680045974 0 0 0 0 -53.63940549932795 -52.298204505503236 0 -52.298204505503236 225.93586778850295 0 0 0 0 -38.383390607677939 -31.372849429017151 0 -31.372849429017151 203.99539982585702 0 0 0 0 46.162136286231089 -137.7712902720632 0 -137.7712902720632 3.9928100733668543 0 0 0 0 92.5728935882305 -56.300476370388424 0 -56.300476370388424 24.940543095938665 0 0 0 0 -43.528541085574716 -74.541291691344668 0 -74.541291691344668 182.99203541136376 0 0 0 0 95.445828479877491 -79.483935494174148 0 -79.483935494174148 163.64751075756612 0 0 0 0 -215.53935547121409 -42.501413081252394 0 -42.501413081252394 232.75281776334668 0 0 0 0 -21.274446869937378 -127.86818335374619 0 -127.86818335374619 103.68585908936802 0 0 0 0 -0.44193314449869447 -58.836977971993363 0 -58.836977971993363 85.127441043035518 0 0 0 0 18.849224117445829 -107.60434201142198 0 -107.60434201142198 62.329924808611395 0 0 0 0 -421.47258170073871 -60.703299574365701 0 -60.703299574365701 209.51084349567827 0 0 0 0 -0.45096575565539077 -18.375588055084137 0 -18.375588055084137 11.138423756052561 0 0 0 0 -4.2760050448681763 5.031748605534399 0 5.031748605534399 127.42515773209209 0 0 0 0 103.74735731492547 -153.18895971418897 0 -153.18895971418897 364.61466114038558 0 0 0 0 -2.8895810989645536 2.472321840579383 0 2.472321840579383 26.621113453638017 0 0 0 0 331.05994803890451 -784.4273420852428 0 -784.4273420852428 -625.00837863673223 0 0 0 0 -349.169283879246 -2.8547770129298442 0 -2.8547770129298442 513.4958622329068 0 0 0 0 -436.99910680476751 -296.65144082217375 0 -296.65144082217375 10.155473404454824 0 0 0 0 -183.47129736180204 33.015557166268991 0 33.015557166268991 33.238656032044673 0 0 0 0 -189.64298048536466 116.97952436190826 0 116.97952436190826 397.64160275120958 0 0 0 0 995.41628142331842 -2571.7414916586204 0 -2571.7414916586204 3496.0209791329075 0 0 0 0 819.43901664479131 -1966.0232617520051 0 -1966.0232617520051 2148.7061636785147 0 0 0 0 1260.8199447362081 -1193.9329436834705 0 -1193.9329436834705 885.37488420728278 0 0 0 0 101.64777302414973 4.776420868389323 0 4.776420868389323 632.49712387360341 0 0 0 0 487.30075526871587 -1090.4825854339069 0 -1090.4825854339069 2166.2526866710832 0 0 0 0 3.8217578999801258 -0.59726817836587998 0 -0.59726817836587998 -0.77877194035184516 0 0 0 0 1046.7057468020491 -1146.9219838159993 0 -1146.9219838159993 1113.6339854759717 0 0 0 0 1.748169659587087 7.9759305196179557 0 7.9759305196179557 91.040589479596036 0 0 0 0 -54.330571964382216 360.95484279168159 0 360.95484279168159 441.11976861643598 0 0 0 0 59.726459384545251 -123.87817920398811 0 -123.87817920398811 86.183278319280362 0 0 0 0 158.09607076215912 154.47577245920365 0 154.47577245920365 408.56166967436729 0 0 0 0 106.7066443704084 110.49982829880901 0 110.49982829880901 569.12496602801912 0 0 0 0 734.87290994135856 803.80633439176199 0 803.80633439176199 745.43097246938851 0 0 0 0 322.18635722868703 2072.3787549719373 0 2072.3787549719373 3493.2348379349096 0 0 0 0 5.5648685134295839 1.1169349266998712 0 1.1169349266998712 35.653635744732583 0 0 0 0 2595.8321740724891 1805.6926507529188 0 1805.6926507529188 769.2564910548972 0 0 0 0 292.63699991355111 167.41141878412873 0 167.41141878412873 362.99521993637973 0 0 0 0 4030.7350583745697 -2430.9799037185635 0 -2430.9799037185635 882.69132039299438 0 0 0 0 -493.75400618630681 554.34784710722579 0 554.34784710722579 2351.4380966839271 0 0 0 0 -411.28830468215938 407.92991033033832 0 407.92991033033832 1558.76474401679 0 0 0 0 -498.24716275799096 219.95298772010938 0 219.95298772010938 2504.996239586264 0 0 0 0 -350.84753035576045 254.29091922903808 0 254.29091922903808 1574.1740637709354 0 0 0 0 -84.958123284638418 197.17869699798757 0 197.17869699798757 721.11024495123092 0 0 0 0 -181.78725893239721 326.85348710706421 0 326.85348710706421 781.97315145261018 0 0 0 0 -172.74911959533461 517.68553148248247 0 517.68553148248247 1396.9974727336448 0 0 0 0 -284.47440909084713 108.86939544296865 0 108.86939544296865 929.50392067515713 0 0 0 0 256.41734745276 234.03578713662682 0 234.03578713662682 495.73302124092788 0 0 0 0 -197.35530395450508 453.35692570369247 0 453.35692570369247 1294.2186869126672 0 0 0 0 -94.84369398288402 569.74139263250981 0 569.74139263250981 1249.563159757794 0 0 0 0 -87.469636171817115 624.79003025243765 0 624.79003025243765 1344.0729309577273 0 0 0 0 16.265468750638945 993.24905171216051 0 993.24905171216051 1990.8914069161001 0 0 0 0 -99.614594597935891 1259.0024322827194 0 1259.0024322827194 1925.5965773696284 0 0 0 0 -585.35513019911923 1186.5377371294408 0 1186.5377371294408 3500.7353408583986 0 0 0 0 -732.67581007001309 732.67554408517481 0 732.67554408517481 2358.0757986228018 0 0 0 0 -791.61332623504381 283.84550371941168 0 283.84550371941168 2491.1881106163673 0 0 0 0 -870.38184348611378 556.67494031045044 0 556.67494031045044 3499.0776698257432 0 0 0 0 -757.0685363276699 139.18321723260397 0 139.18321723260397 3084.3149608657568 0 0 0 0 -815.34226839173266 -93.304660730952492 0 -93.304660730952492 3499.6319400339416 0 0 0 0 -493.65245103952293 -52.482587546114701 0 -52.482587546114701 2322.4914137367559 0 0 0 0 -65.81281363671846 -496.45421161570357 0 -496.45421161570357 2935.4562522212727 0 0 0 0 -475.66516808031253 -439.02949300093951 0 -439.02949300093951 3499.8324463784575 0 0 0 0 -647.76250161944654 -137.46170101067173 0 -137.46170101067173 2985.2923740745337 0 0 0 0 -487.40846084269583 -224.60200444086695 0 -224.60200444086695 3002.1416692367739 0 0 0 0 -201.63118095559366 -371.18125822379716 0 -371.18125822379716 2394.6567640505527 0 0 0 0 -191.49674742278626 -454.89983360190672 0 -454.89983360190672 2924.5408612460506 0 0 0 0 240.09559532794 -827.92615872754095 0 -827.92615872754095 2389.3024699080452 0 0 0 0 147.9008710239757 -720.11122821568824 0 -720.11122821568824 2338.6816346929863 0 0 0 0 -204.78488559856339 -465.17325528914262 0 -465.17325528914262 2436.8809649719788 0 0 0 0 98.236136071424539 -537.66326699791898 0 -537.66326699791898 861.85805547384007 0 0 0 0 25.633254703687157 -466.87062333570248 0 -466.87062333570248 1522.7380179829606 0 0 0 0 160.43803425508392 -571.39904344986735 0 -571.39904344986735 1570.6578963020329 0 0 0 0 206.92675295482886 -69.874972012077819 0 -69.874972012077819 23.964304853929207 0 0 0 0 -376.25106200130892 82.33382292661463 0 82.33382292661463 1549.0762250792104 0 0 0 0 -180.29767958383752 -284.68963773108044 0 -284.68963773108044 1653.1698484364133 0 0 0 0 -346.88905767115784 -182.44422664207559 0 -182.44422664207559 2352.1815900511187 0 0 0 0 -80.191890158234855 -385.44765318251484 0 -385.44765318251484 1664.4104238649875 0 0 0 0 -14.355799407679797 -173.277071831797 0 -173.277071831797 909.35454667689555 0 0 0 0 -59.031382188918087 -95.738723323378508 0 -95.738723323378508 1555.307844360746 0 0 0 0 377.74961119210752 28.520271648725611 0 28.520271648725611 703.2075297204359 0 0 0 0 314.65568825140735 -175.53036089234365 0 -175.53036089234365 44.110887618389825 0 0 0 0 50.523341665305111 -415.24636080562323 0 -415.24636080562323 775.16533409593558 0 0 0 0 25.339395331731907 -244.82342740982494 0 -244.82342740982494 795.21377120628676 0 0 0 0 263.74774714421756 -170.56730193337444 0 -170.56730193337444 110.05382988792189 0 0 0 0 242.00781907851294 -732.89847410551374 0 -732.89847410551374 819.40239166335232 0 0 0 0 0.48833188738537991 9.0466005450797304 0 9.0466005450797304 39.651566099969486 0 0 0 0 -211.17094063255979 197.11131274333638 0 197.11131274333638 25.408512038738991 0 0 0 0 -132.82527688747405 -373.64528000342398 0 -373.64528000342398 -151.38076199397256 0 0 0 0 -6.5333236586538712 -5.2575150532488308 0 -5.2575150532488308 -5.1743497471040953 0 0 0 0 14.435064193058224 -465.67359736815979 0 -465.67359736815979 -100.11051540166955 0 0 0 0 -1140.5838826454601 865.64713471895993 0 865.64713471895993 906.65582770902893 0 0 0 0 1455.3365451660397 -1492.485536966919 0 -1492.485536966919 1564.2396290890429 0 0 0 0 0.48387655681547237 3.2930420629536492 0 3.2930420629536492 15.106513012339001 0 0 0 0 52.346121335456701 -494.51046454457446 0 -494.51046454457446 2475.7795624785067 0 0 0 0 -907.86793907894662 230.78269577064839 0 230.78269577064839 2601.3294765233913 0 0 0 0 -856.47951436846006 371.94753439454689 0 371.94753439454689 2488.5401449182227 0 0 0 0 2514.5539987708903 -808.03441925008337 0 -808.03441925008337 431.42193563294859 0 0 0 0 2.9729099412853399 -8.5298950785193632 0 -8.5298950785193632 29.227258469630726 0 0 0 0 544.98855231802008 -1223.1794106353555 0 -1223.1794106353555 2465.2342155227998 0 0 0 0 119.66948458928709 -445.63101782242666 0 -445.63101782242666 1062.9525792001664 0 0 0 0 111.81489376640138 359.23065064861657 0 359.23065064861657 2354.8686105752749 0 0 0 0 151.51264013863022 275.34282888177222 0 275.34282888177222 933.47668865953892 0 0 0 0 227.97650681378707 -1032.3594114521848 0 -1032.3594114521848 1334.0244680562682 0 0 0 0 1583.7957778814384 665.75930766139754 0 665.75930766139754 241.91603021565379 0 0 0 0 -31.240802762707972 -455.53846662218166 0 -455.53846662218166 747.43352222223257 0 0 0 0 -4.8277560056640141 -366.12787673990806 0 -366.12787673990806 671.36164733390342 0 0 0 0 56.139942462881663 -407.7785000564345 0 -407.7785000564345 561.83298510449072 0 0 0 0 31.642292994469244 -309.84148813918182 0 -309.84148813918182 595.8902446873517 0 0 0 0 -71.780411839425597 -100.8862690902572 0 -100.8862690902572 334.49706760163645 0 0 0 0 -86.766657454522601 -250.24808053008985 0 -250.24808053008985 787.457807991952 0 0 0 0 180.13032630116322 -117.28504912270182 0 -117.28504912270182 933.12979840488151 0 0 0 0 521.20036620751762 -604.42101031855509 0 -604.42101031855509 720.07082210416047 0 0 0 0 80.958901582314866 -578.94133981231062 0 -578.94133981231062 1143.400248247016 0 0 0 0 -43.004803650563645 -383.14182230300412 0 -383.14182230300412 835.15844351591295 0 0 0 0 46.770600810137694 -542.16112387343492 0 -542.16112387343492 858.11702686832223 0 0 0 0 315.68397064801138 -500.64231997915522 0 -500.64231997915522 635.43040601934263 0 0 0 0 107.39682459823416 -407.64329216195074 0 -407.64329216195074 604.18084033757168 0 0 0 0 117.43974647577897 -417.68955080551223 0 -417.68955080551223 591.1969870145731 0 0 0 0 709.43220217932321 -595.38289294667629 0 -595.38289294667629 513.25393183425876 0 0 0 0 339.29323409063363 -550.98791909585725 0 -550.98791909585725 715.90032546540078 0 0 0 0 -155.73641079987192 -85.412637275203451 0 -85.412637275203451 252.46299024751534 0 0 0 0 203.04868622942649 -214.14839026397294 0 -214.14839026397294 332.25850418582013 0 0 0 0 -4.2855478779530056 16.377317525339429 0 16.377317525339429 55.085699869223603 0 0 0 0 -22.352306769758709 -18.358999236865522 0 -18.358999236865522 -2.539131580185952 0 0 0 0 281.01478938862783 -252.6114675726385 0 -252.6114675726385 239.06807910747921 0 0 0 0 53.921022433140024 -372.69752503474206 0 -372.69752503474206 588.99769989033302 0 0 0 0 122.22447491738421 -270.45218213308635 0 -270.45218213308635 374.88485102531376 0 0 0 0 262.65047808317343 -409.54458225876834 0 -409.54458225876834 509.32568419211748 0 0 0 0 89.090523619070154 -247.99321280877302 0 -247.99321280877302 392.45745413885197 0 0 0 0 203.04511739041652 -213.57916396205576 0 -213.57916396205576 247.06653478078806 0 0 0 0 -19.80270569700042 -207.89094847605247 0 -207.89094847605247 494.60489143075415 0 0 0 0 40.564331562096413 -340.67831737835331 0 -340.67831737835331 524.59228014730456 0 0 0 0 -71.87469926916765 -213.31719866193907 0 -213.31719866193907 745.0570265421677 0 0 0 0 -37.182190334199277 -383.08903690863326 0 -383.08903690863326 725.29964287327311 0 0 0 0 -31.94806863454869 -376.95704565102096 0 -376.95704565102096 690.21929020168136 0 0 0 0 4.1701762718644204 -456.64583062684869 0 -456.64583062684869 741.16626721172179 0 0 0 0 -21.442632226085152 -419.32023827301509 0 -419.32023827301509 688.62825525404583 0 0 0 0 -14.235005515135072 -447.20107189487771 0 -447.20107189487771 739.95350038274955 0 0 0 0 -35.720658568096724 -451.90890133339531 0 -451.90890133339531 759.77592434777034 0 0 0 0 -40.887203622672587 -432.60522638408565 0 -432.60522638408565 765.49642352948831 0 0 0 0 -68.833194513570106 -400.47107785369508 0 -400.47107785369508 731.55617972309301 0 0 0 0 -45.29270696012361 -504.61712105953598 0 -504.61712105953598 1017.7300187882665 0 0 0 0 -87.906406513160618 -150.75257422648338 0 -150.75257422648338 668.21442025719261 0 0 0 0 -3.8313833527415753 -1.5779921427225307 0 -1.5779921427225307 0.26523629926239067 0 0 0 0 -41.391780496147931 -14.033571428177311 0 -14.033571428177311 451.575864422839 0 0 0 0 -196.12590890495312 -105.17414749838417 0 -105.17414749838417 1079.1354333882573 0 0 0 0 -189.71595621282631 70.346301042919549 0 70.346301042919549 704.05731012953629 0 0 0 0 -90.603379228440872 -119.08626165101316 0 -119.08626165101316 603.35060205525951 0 0 0 0 -1.2484700843797327 -10.858112714684466 0 -10.858112714684466 84.288025228116794 0 0 0 0 -0.21575474057681276 -229.67214892135871 0 -229.67214892135871 507.31692080192624 0 0 0 0 30.710314185612788 -117.6226810989981 0 -117.6226810989981 364.43805632719705 0 0 0 0 -5.5529867116204947 -4.6329808059412363 0 -4.6329808059412363 2.8034323945797217 0 0 0 0 -15.07207467605258 -85.606551068748558 0 -85.606551068748558 440.57339202642061 0 0 0 0 -3.4450991409048584 -131.42338802405993 0 -131.42338802405993 578.96458489029374 0 0 0 0 149.09347939926931 -81.862015181908646 0 -81.862015181908646 459.7244745886519 0 0 0 0 -7.2562688009168212 5.246501383594806 0 5.246501383594806 2.8340507061044784 0 0 0 0 -216.05971705641343 49.675037668986988 0 49.675037668986988 845.44201245237855 0 0 0 0 -798.43255352685912 -107.25224534579138 0 -107.25224534579138 3361.9627207056819 0 0 0 0 -235.22985591238933 -589.29167454706567 0 -589.29167454706567 2432.5266464217293 0 0 0 0 -328.87971556752314 254.37249349360422 0 254.37249349360422 967.78840137940642 0 0 0 0 -15.685031121302018 -17.36763309269918 0 -17.36763309269918 81.501590412173755 0 0 0 0 -243.4968868074526 -595.09625250769295 0 -595.09625250769295 1096.2185350419732 0 0 0 0 -191.02632337194268 -311.46359801177732 0 -311.46359801177732 1473.2787570452192 0 0 0 0 -226.13891057743771 -19.463788990089313 0 -19.463788990089313 805.1464201242452 0 0 0 0 528.51886436074108 -875.62815405251058 0 -875.62815405251058 1772.1209765786698 0 0 0 0 15.888020499090999 -17.525405115964531 0 -17.525405115964531 14.498583278107617 0 0 0 0 3.8671221874745725 -2.2617371572773521 0 -2.2617371572773521 8.1898849394618267 0 0 0 0 -28.729106245514519 -8.823227045184856 0 -8.823227045184856 28.436953653566277 0 0 0 0 -18.387509685166371 1.5967241332589399 0 1.5967241332589399 34.175027395443777 0 0 0 0 -177.54685559925429 -354.55135312690254 0 -354.55135312690254 -333.54865288924339 0 0 0 0 -5.4736332663833309 -17.321519856108353 0 -17.321519856108353 38.047379190960783 0 0 0 0 -10.085158853940531 -15.79315936040391 0 -15.79315936040391 20.147977672853457 0 0 0 0 26.134592488982889 16.251862571567472 0 16.251862571567472 68.656965754384146 0 0 0 0 154.08610723298989 -138.57610849569937 0 -138.57610849569937 136.42828871347228 0 0 0 0 40.264409940002224 -184.28641340052127 0 -184.28641340052127 345.8548947292893 0 0 0 0 -29.06046682455235 -115.5667017629662 0 -115.5667017629662 292.75999488748857 0 0 0 0 68.354772755939848 -217.8811243256423 0 -217.8811243256423 307.10953999204503 0 0 0 0 68.191634588822126 -175.62834308286256 0 -175.62834308286256 256.51804839512624 0 0 0 0 2.5365228702539753 -41.639416760191125 0 -41.639416760191125 208.69039849497494 0 0 0 0 -14.308051914216595 -2.7776992476053248 0 -2.7776992476053248 13.054431263949651 0 0 0 0 9.564637971110642 -158.00719384508375 0 -158.00719384508375 323.19468097128811 0 0 0 0 -2.7422019073935644 1.6240474120349973 0 1.6240474120349973 18.915481674364855 0 0 0 0 0.2250619156890481 3.3826046912101617 0 3.3826046912101617 18.807993313908067 0 0 0 0 363.96572846037952 288.89271994342198 0 288.89271994342198 380.23774455755301 0 0 0 0 748.29899318614389 -1523.9680195061419 0 -1523.9680195061419 2999.270427127065 0 0 0 0 322.34353781288064 425.38516140102001 0 425.38516140102001 641.5880414064668 0 0 0 0 -4.7318755193062678 -3.2890373920380362 0 -3.2890373920380362 2.9137654701962443 0 0 0 0 414.31714547217985 634.20519156436148 0 634.20519156436148 710.31067969753576 0 0 0 0 683.34421589086867 -1306.3809523294976 0 -1306.3809523294976 2271.1582214371701 0 0 0 0 147.32057652437041 -734.83948907538797 0 -734.83948907538797 2897.3110047351674 0 0 0 0 383.91906325955568 -798.53541317120016 0 -798.53541317120016 2865.2392184945784 0 0 0 0 1107.9478329448596 -936.09431311107051 0 -936.09431311107051 2919.7793612925407 0 0 0 0 410.94189288761703 -665.64143134026926 0 -665.64143134026926 3478.2125403481023 0 0 0 0 89.430439390180823 -1185.2644721903425 0 -1185.2644721903425 2906.2065532713559 0 0 0 0 282.99450682100559 -844.32452396149779 0 -844.32452396149779 3499.0589348250428 0 0 0 0 -63.809575153389915 -534.61380440596429 0 -534.61380440596429 3229.5378884598485 0 0 0 0 -338.00172699353448 -885.04445251188235 0 -885.04445251188235 2749.0388777862668 0 0 0 0 -35.896603284539303 -734.69185889346466 0 -734.69185889346466 1387.4672932259446 0 0 0 0 -18.581331282446932 -1094.6310648858278 0 -1094.6310648858278 2101.3966854016471 0 0 0 0 -138.80851367331769 -754.92845345199476 0 -754.92845345199476 2245.3923836395788 0 0 0 0 -118.84664196589071 -1469.4644224548019 0 -1469.4644224548019 3244.9365668561886 0 0 0 0 -90.980023479063618 -1214.3032693861012 0 -1214.3032693861012 3500.4632877957347 0 0 0 0 -107.06702388372297 -1582.268857171659 0 -1582.268857171659 2821.9887087295333 0 0 0 0 -83.165867954376083 -1368.3771109072093 0 -1368.3771109072093 2558.2052270057948 0 0 0 0 388.18789282629228 -2105.7926009956027 0 -2105.7926009956027 3495.4229839782856 0 0 0 0 148.14990720301012 -404.77552880346582 0 -404.77552880346582 889.71452977328977 0 0 0 0 938.80056817818388 -837.81051831418335 0 -837.81051831418335 510.14103579170342 0 0 0 0 502.2775486907816 -1627.0682325624566 0 -1627.0682325624566 2169.2144624945972 0 0 0 0 472.74846414426133 -322.6576086418363 0 -322.6576086418363 503.45107129625649 0 0 0 0 401.98339988521866 -728.23689836122503 0 -728.23689836122503 1249.8245720302748 0 0 0 0 -6.6456939634652201 -5.1145500131126695 0 -5.1145500131126695 42.264762588263963 0 0 0 0 -490.60077689718071 -288.87018860158969 0 -288.87018860158969 -21.653025238699229 0 0 0 0 87.142723316903812 -527.81945721979764 0 -527.81945721979764 682.89530266787551 0 0 0 0 -276.63325319225191 -562.654764967559 0 -562.654764967559 328.3341819791558 0 0 0 0 1.5817431254442522 -3.6539813428927639 0 -3.6539813428927639 18.212804771309145 0 0 0 0 -129.92361365214239 951.39371358459709 0 951.39371358459709 1036.0971873685812 0 0 0 0 2760.0380630192799 -2478.8899282246521 0 -2478.8899282246521 1717.4590969196411 0 0 0 0 -657.91594043977727 314.0090726877288 0 314.0090726877288 3495.0669553090147 0 0 0 0 272.0374732612799 546.43814008472486 0 546.43814008472486 5106.2734388476165 0 0 0 0 322.32567675008693 -65.942400671022369 0 -65.942400671022369 1694.1511128876009 0 0 0 0 1465.7153994978798 -1819.3892898331615 0 -1819.3892898331615 1602.821383253814 0 0 0 0 844.31914851958504 -1470.2165950495241 0 -1470.2165950495241 -245.60329252689553 0 0 0 0 943.5749408678771 -618.29440998295672 0 -618.29440998295672 316.06962155922338 0 0 0 0 1424.5747888635115 -957.43195124860904 0 -957.43195124860904 -237.94578618127434 0 0 0 0 793.82610654099381 32.702215640674694 0 32.702215640674694 -1813.281093651251 0 0 0 0 -221.26535861977504 -218.50241984477907 0 -218.50241984477907 1761.7276080301472 0 0 0 0 227.7351427389595 -299.21307382396299 0 -299.21307382396299 -101.41253868916101 0 0 0 0 -266.84592668397499 -362.9842462897368 0 -362.9842462897368 -107.10713288875377 0 0 0 0 86.022222312082704 -42.00551843350695 0 -42.00551843350695 -31.453242619537491 0 0 0 0 -5.1217676944457207 -0.59501056528796781 0 -0.59501056528796781 -0.13283136017244113 0 0 0 0 1281.492692382654 -951.78352836482463 0 -951.78352836482463 658.41005993329429 0 0 0 0 8.9049728712613749 0.14725610417624346 0 0.14725610417624346 4.7798350729936327 0 0 0 0 768.18785299648221 -838.96797649846064 0 -838.96797649846064 -244.24282026962283 0 0 0 0 844.34880251381696 -1180.4099604385508 0 -1180.4099604385508 1255.9657650297702 0 0 0 0 1094.5944411125392 -369.07919020120437 0 -369.07919020120437 499.49547760990652 0 0 0 0 502.07075580571893 -333.85021374124773 0 -333.85021374124773 839.24261919690025 0 0 0 0 819.9424049861276 -375.00256204430025 0 -375.00256204430025 596.78348342613162 0 0 0 0 529.74732328090545 -315.29993775199694 0 -315.29993775199694 517.61474656714722 0 0 0 0 652.85195798660266 -938.71839157704744 0 -938.71839157704744 1400.046762623519 0 0 0 0 1077.3652662249178 -922.20249308796326 0 -922.20249308796326 972.39061549642702 0 0 0 0 614.32197805942508 -476.72537114781016 0 -476.72537114781016 1101.0112512792725 0 0 0 0 1.4098841712706289 -2.7093088119122548 0 -2.7093088119122548 8.5594353071444793 0 0 0 0 581.62935305806832 -886.79804441740748 0 -886.79804441740748 1362.8630463914296 0 0 0 0 177.33242170913172 430.73953881148373 0 430.73953881148373 508.24839064586467 0 0 0 0 366.81853271787804 172.7684519384502 0 172.7684519384502 85.494158645966763 0 0 0 0 -74.815022265088373 242.25510479341938 0 242.25510479341938 1471.7503356785969 0 0 0 0 -59.301646399399203 -116.50186532730459 0 -116.50186532730459 524.38637993981865 0 0 0 0 -75.345469206554299 13.498190082301335 0 13.498190082301335 660.90670699876864 0 0 0 0 -145.14288773852877 -204.03882005607329 0 -204.03882005607329 484.04689679622061 0 0 0 0 -263.91393725516173 -113.78792980697654 0 -113.78792980697654 606.71939075787986 0 0 0 0 4.7177407289980238 -6.0115230505471118 0 -6.0115230505471118 58.160895404404528 0 0 0 0 -9.9080278547514915 1.2329587899004331 0 1.2329587899004331 9.4354417049120975 0 0 0 0 -4.4986934124963227 -12.571443926917709 0 -12.571443926917709 54.242247167690948 0 0 0 0 452.28239944331017 -106.13618023238905 0 -106.13618023238905 199.45470763098456 0 0 0 0 -2.6823400489032014 -3.2696362584533549 0 -3.2696362584533549 5.2033265132053996 0 0 0 0 364.33131029653214 -490.50966112390961 0 -490.50966112390961 355.73331276277986 0 0 0 0 -16.397293056276549 -9.6364941324615341 0 -9.6364941324615341 9.6034469067120867 0 0 0 0 -184.82930561607878 -270.86114996379956 0 -270.86114996379956 -357.16152239411349 0 0 0 0 -28.634275523876568 -14.911967748693542 0 -14.911967748693542 45.742453801415763 0 0 0 0 -10.318439350207729 -13.208676448354128 0 -13.208676448354128 23.155767998699901 0 0 0 0 164.70423501039721 839.60101704021508 0 839.60101704021508 2593.6854785479809 0 0 0 0 134.8052738921707 747.22861192647679 0 747.22861192647679 2654.4719922639415 0 0 0 0 348.55208628380268 1023.4349863994648 0 1023.4349863994648 2775.7182760938413 0 0 0 0 109.91380308207425 846.76405705303887 0 846.76405705303887 2815.1198026993079 0 0 0 0 19.953755249777434 1152.2801809104894 0 1152.2801809104894 3499.737287955948 0 0 0 0 379.9340302952952 1395.666503968534 0 1395.666503968534 2843.998513407365 0 0 0 0 382.14478728191409 1168.6944860964279 0 1168.6944860964279 2303.2494497930711 0 0 0 0 900.07494765672061 1956.7713492252333 0 1956.7713492252333 3499.9212550668726 0 0 0 0 14.784028998341647 3.2102464569259794 0 3.2102464569259794 4.0582663661357969 0 0 0 0 455.17349803465021 813.39413383979991 0 813.39413383979991 2025.2563504284408 0 0 0 0 -327.88265814979331 2619.4805686948675 0 2619.4805686948675 4879.749122173218 0 0 0 0 2830.9679860409096 1566.328457600308 0 1566.328457600308 1150.8822969068879 0 0 0 0 1006.0675001267407 2864.3061246751404 0 2864.3061246751404 2790.052727456763 0 0 0 0 1119.5345128619274 1618.8298750154754 0 1618.8298750154754 4012.5510152815332 0 0 0 0 1055.899935514283 995.38529268160096 0 995.38529268160096 5520.9462889972929 0 0 0 0 3424.570002978207 444.66926040730505 0 444.66926040730505 3501.8626109298784 0 0 0 0 932.79064692078123 2248.8729114798566 0 2248.8729114798566 4602.4402732329072 0 0 0 0 1840.5860545472226 -856.58815762488985 0 -856.58815762488985 -76.332520182433655 0 0 0 0 7.9196474669892751 -11.480798137376159 0 -11.480798137376159 25.634240885293931 0 0 0 0 889.19202285339088 -7.4695229155418019 0 -7.4695229155418019 -436.03129690424225 0 0 0 0 -536.24451359406521 -117.83720230016274 0 -117.83720230016274 4.9179826017971209 0 0 0 0 434.32794852322581 -367.55949454674482 0 -367.55949454674482 -18.767053938016033 0 0 0 0 496.20562750966837 -635.94552185416012 0 -635.94552185416012 513.78767584149273 0 0 0 0 -5.6384724054387334 131.28050955714934 0 131.28050955714934 310.79097575318201 0 0 0 0 153.4831380777473 -258.43964328433049 0 -258.43964328433049 339.3927424605281 0 0 0 0 -278.08512375101054 -95.293148656589665 0 -95.293148656589665 375.13379219315038 0 0 0 0 226.16980314765897 -116.67373735263436 0 -116.67373735263436 527.56080053737901 0 0 0 0 -546.29207334136936 -240.23444436211366 0 -240.23444436211366 157.56108645168865 0 0 0 0 -202.14168005674674 -193.06101407422511 0 -193.06101407422511 -279.31797652731802 0 0 0 0 -291.58621809586475 147.49093453646492 0 147.49093453646492 2112.9361770513678 0 0 0 0 -560.20202602164863 -659.5104577883842 0 -659.5104577883842 78.288203294574487 0 0 0 0 16.59540184685682 -31.246690561796569 0 -31.246690561796569 53.017785462073029 0 0 0 0 1045.4399150988957 26.757084411457981 0 26.757084411457981 -205.0950608785206 0 0 0 0 17.413459583559657 -22.41717163282177 0 -22.41717163282177 77.526394328806404 0 0 0 0 36.911484911040134 -10.294235048626433 0 -10.294235048626433 -187.90210441150975 0 0 0 0 9.7220361752334608 15.174165979178916 0 15.174165979178916 65.453499519254422 0 0 0 0 -670.5643039550896 440.04991276207511 0 440.04991276207511 424.69755485316273 0 0 0 0 -39.792288972014831 -5.0619108236587635 0 -5.0619108236587635 255.71966279654589 0 0 0 0 -594.57655506585161 -171.81483979614495 0 -171.81483979614495 4516.3753037967981 0 0 0 0 1790.1956594119988 2137.5767803524541 0 2137.5767803524541 900.58754181607219 0 0 0 0 1806.4015541717672 4127.0001005484955 0 4127.0001005484955 5675.6368289056554 0 0 0 0 -526.82365434949634 923.55493284955355 0 923.55493284955355 7942.0694967412855 0 0 0 0 5.0333750969030504 10.864938571551136 0 10.864938571551136 23.010117178432566 0 0 0 0 -124.54717564847033 -232.0460116934446 0 -232.0460116934446 277.81174909972469 0 0 0 0 -650.35106768905825 -180.14485917760612 0 -180.14485917760612 272.69091109211149 0 0 0 0 75.606849292154948 -321.03729280955304 0 -321.03729280955304 -45.865277900902583 0 0 0 0 -950.70042075997935 -371.53353620876806 0 -371.53353620876806 197.28669986574823 0 0 0 0 -411.68003847850559 378.18484912669919 0 378.18484912669919 395.12423264215613 0 0 0 0 -190.16092021915574 280.13682541457638 0 280.13682541457638 148.27153027207532 0 0 0 0 -294.50850200457262 245.63867338660043 0 245.63867338660043 235.58121553931505 0 0 0 0 -6.7035651698744019 21.868617492800045 0 21.868617492800045 26.623808119290757 0 0 0 0 -129.43366003679466 123.50373827881594 0 123.50373827881594 128.02781038082321 0 0 0 0 -127.2247727120448 135.46292199870913 0 135.46292199870913 128.37467808787187 0 0 0 0 0.17308861648406193 28.596755714328069 0 28.596755714328069 159.50358475568518 0 0 0 0 -1524.7385224831305 -455.54473738844717 0 -455.54473738844717 2544.9008799156582 0 0 0 0 -156.09269498097819 119.45460620725498 0 119.45460620725498 145.65466031447795 0 0 0 0 -157.12620236028852 91.772885825368576 0 91.772885825368576 97.438922716413799 0 0 0 0 -296.07385181750033 185.92293291313945 0 185.92293291313945 564.95692163040894 0 0 0 0 -150.33567291941654 105.45455221719067 0 105.45455221719067 602.26829081293499 0 0 0 0 -205.42561957272483 -13.064918095550183 0 -13.064918095550183 -7.8815606064231361 0 0 0 0 -276.94680564085161 68.66125468319251 0 68.66125468319251 417.36428703129013 0 0 0 0 -79.176215433232755 208.76256903515468 0 208.76256903515468 322.49566002672236 0 0 0 0 162.51316836994738 -123.35299218531463 0 -123.35299218531463 679.88958645238267 0 0 0 0 -12.940943162519488 79.114824043684166 0 79.114824043684166 522.08600504435253 0 0 0 0 -111.65240399479489 155.1517703763169 0 155.1517703763169 496.94983276897892 0 0 0 0 -35.340106889010258 112.78126480021143 0 112.78126480021143 13.142575642881184 0 0 0 0 -10.884479064488914 142.31633974343106 0 142.31633974343106 -84.858598949207362 0 0 0 0 -36.031534809608274 85.266486090355102 0 85.266486090355102 8.7924229215917649 0 0 0 0 -54.369278741343805 35.720671254446643 0 35.720671254446643 114.99660755210425 0 0 0 0 14.353424384052101 7.7718055419433512 0 7.7718055419433512 4.3791777774555918 0 0 0 0 -148.83672877316349 74.502965125451738 0 74.502965125451738 204.31753653450869 0 0 0 0 2.1683291972696583 34.336904740887569 0 34.336904740887569 150.68398322702029 0 0 0 0 -310.86534171431231 391.11581017462902 0 391.11581017462902 -224.9672765762574 0 0 0 0 1514.0710311195016 -922.50524323021727 0 -922.50524323021727 -1713.8381533663885 0 0 0 0 -128.36449397430624 39.232523273291008 0 39.232523273291008 158.14344127188815 0 0 0 0 -304.00230084585928 55.808059638235136 0 55.808059638235136 227.01736548938061 0 0 0 0 6.0033044398442144 -44.450654316366126 0 -44.450654316366126 205.45391633288455 0 0 0 0 -187.25219002814265 -19.289941482637005 0 -19.289941482637005 265.96925315251428 0 0 0 0 -47.280976176425611 -57.732422021301318 0 -57.732422021301318 241.52636417463145 0 0 0 0 -11.366953591037372 -85.407040255918218 0 -85.407040255918218 241.77325373305212 0 0 0 0 125.14926159702065 -180.99712158428565 0 -180.99712158428565 246.18667908392672 0 0 0 0 216.29716930589893 -146.09661758812217 0 -146.09661758812217 159.85890742326228 0 0 0 0 365.55502197043938 -591.19808253751125 0 -591.19808253751125 720.24136273676368 0 0 0 0 478.88979524361474 -76.393404761315139 0 -76.393404761315139 832.81923197917604 0 0 0 0 214.49223628527261 -356.65833456909604 0 -356.65833456909604 448.70931673643645 0 0 0 0 207.38222450290641 -540.11603808967902 0 -540.11603808967902 689.17091114496134 0 0 0 0 196.92552628742942 -476.10380219235412 0 -476.10380219235412 719.46468958855485 0 0 0 0 157.10764899623564 -464.61762179797984 0 -464.61762179797984 989.23910225639247 0 0 0 0 -118.80854065115273 -300.83596370872874 0 -300.83596370872874 875.98814934843085 0 0 0 0 -36.672410753636541 -596.75378737509163 0 -596.75378737509163 1601.2942683027718 0 0 0 0 448.33215133957651 -325.48092768520701 0 -325.48092768520701 1754.4146170719296 0 0 0 0 949.97010272430725 -553.81405402762948 0 -553.81405402762948 995.29252458167957 0 0 0 0 639.85671655857493 -397.68266972093988 0 -397.68266972093988 899.99311104032586 0 0 0 0 492.78395210453982 -114.05093128506815 0 -114.05093128506815 765.75999563258574 0 0 0 0 530.97391336747557 -335.72438499449163 0 -335.72438499449163 975.2911114368826 0 0 0 0 135.88633162240285 152.5293352314834 0 152.5293352314834 462.86605698064727 0 0 0 0 372.03300540933242 -205.44922426557218 0 -205.44922426557218 760.82424330805406 0 0 0 0 118.40381113657486 236.19233424355389 0 236.19233424355389 599.52032293557863 0 0 0 0 97.861325811098141 54.848356227252225 0 54.848356227252225 97.743415824140357 0 0 0 0 232.81158429898687 -418.40643468279632 0 -418.40643468279632 469.2541450046001 0 0 0 0 -1.5732554142793311 -3.0934427437668583 0 -3.0934427437668583 4.9779537487473391 0 0 0 0 417.31896794941895 122.76655365314582 0 122.76655365314582 101.76699846325937 0 0 0 0 54.404460415275025 -42.066174271380987 0 -42.066174271380987 28.127794026327138 0 0 0 0 118.11375970365543 264.68801652320326 0 264.68801652320326 -47.338927526243424 0 0 0 0 41.543860365093373 23.610184317966798 0 23.610184317966798 12.003762886147978 0 0 0 0 11.500909268412215 56.59550442535874 0 56.59550442535874 -19.410127343614477 0 0 0 0 -24.031437765423107 92.162664657430014 0 92.162664657430014 53.100572718607964 0 0 0 0 102.606664926853 68.636686789594023 0 68.636686789594023 -183.29283396978644 0 0 0 0 122.81968425910078 -4.3802569109798242 0 -4.3802569109798242 -74.840285132904683 0 0 0 0 4.0603776165568908 6.5442964955947556 0 6.5442964955947556 2.8787262678308139 0 0 0 0 58.326520750092676 39.994374864596871 0 39.994374864596871 9.0037883732922737 0 0 0 0 1.3235324164452322 65.464103389305819 0 65.464103389305819 21.566158835688839 0 0 0 0 8.4112348715441545 43.907451455046527 0 43.907451455046527 47.14069569160457 0 0 0 0 -30.829976172678244 12.232391901703295 0 12.232391901703295 148.16287933988679 0 0 0 0 135.97548236732746 -37.310556875501788 0 -37.310556875501788 31.457998051555478 0 0 0 0 392.82460422605163 -95.899086044555588 0 -95.899086044555588 22.763449421032419 0 0 0 0 144.47600665543837 -331.06207132669488 0 -331.06207132669488 458.86458864445012 0 0 0 0 32.788654570698554 -376.45405820006999 0 -376.45405820006999 563.4877373071904 0 0 0 0 206.32039692425906 -383.37840652523118 0 -383.37840652523118 428.95015293761844 0 0 0 0 12.862376564780334 -160.33342466721115 0 -160.33342466721115 299.86630243394939 0 0 0 0 71.151401699649796 -169.78099496770301 0 -169.78099496770301 264.76606381387683 0 0 0 0 -79.126727663327074 1.0848958035903706 0 1.0848958035903706 167.64649148853005 0 0 0 0 44.473074326422648 100.39899275423704 0 100.39899275423704 -8.4986404868600403 0 0 0 0 -91.483012557104303 83.706471571669226 0 83.706471571669226 39.399041140997724 0 0 0 0 52.724287878226278 43.325825695523349 0 43.325825695523349 -44.448365743774048 0 0 0 0 14.43905998756907 27.47228760337698 0 27.47228760337698 29.189632229764566 0 0 0 0 5.0863616587815752 11.961360285709306 0 11.961360285709306 20.550193585026264 0 0 0 0 -47.124032417272247 -112.86314984047476 0 -112.86314984047476 151.58806951317456 0 0 0 0 -4.1642504012320387 -0.31148776270606504 0 -0.31148776270606504 19.82972873062522 0 0 0 0 93.476776213964513 -4.4656785966767529 0 -4.4656785966767529 -4.7406931882705123 0 0 0 0 45.695305969444917 -32.468803169562221 0 -32.468803169562221 70.721398097638314 0 0 0 0 -0.1326091598975836 -135.74286194963588 0 -135.74286194963588 124.53213830668437 0 0 0 0 -33.023696571952314 -125.5476253987697 0 -125.5476253987697 146.56339692030269 0 0 0 0 -1.0615934242450482 0.1280046664967518 0 0.1280046664967518 17.285922995812328 0 0 0 0 347.15907770615831 -400.66892883031994 0 -400.66892883031994 401.45719211022737 0 0 0 0 223.31900551106173 -168.75567097084814 0 -168.75567097084814 72.999278652646922 0 0 0 0 198.7579422790468 135.61008370556726 0 135.61008370556726 151.10133490980803 0 0 0 0 -0.019563185905143499 -0.097952626460809711 0 -0.097952626460809711 5.9607799567215949 0 0 0 0 -491.56027443155835 46.060987249172001 0 46.060987249172001 191.21959961688617 0 0 0 0 -458.11373130214224 146.89534876235348 0 146.89534876235348 2085.2302041248076 0 0 0 0 -172.2012041105736 50.272620940121215 0 50.272620940121215 -62.141030318004596 0 0 0 0 319.05455783326852 -1328.6782063640044 0 -1328.6782063640044 -193.89919324329458 0 0 0 0 335.38609811224887 -24.24954370305295 0 -24.24954370305295 -1081.6620346748114 0 0 0 0 -275.39534460678988 1.7139874130863291 0 1.7139874130863291 133.2390901414264 0 0 0 0 -103.68720002948794 -198.16507872603461 0 -198.16507872603461 240.66706934420858 0 0 0 0 13.485275950743926 -184.8981372003359 0 -184.8981372003359 104.70559777889866 0 0 0 0 -82.822952412672748 -123.66149370423045 0 -123.66149370423045 231.0387978350127 0 0 0 0 -56.786021759744472 -202.62320280921904 0 -202.62320280921904 173.67525003574428 0 0 0 0 -56.497219435796296 -208.2727620012235 0 -208.2727620012235 283.39296597702196 0 0 0 0 3.5284327813615164 422.96247751809278 0 422.96247751809278 -318.19460387037907 0 0 0 0 0.061411400308438502 1.8267809123358063 0 1.8267809123358063 13.883144570842465 0 0 0 0 133.44560527724934 -309.04482300653262 0 -309.04482300653262 268.44584803844191 0 0 0 0 76.219651019104276 -191.9595425497364 0 -191.9595425497364 55.879533781236205 0 0 0 0 -68.403969517818268 -268.41854703332285 0 -268.41854703332285 609.20130059303665 0 0 0 0 -71.0017851691955 476.32430712495989 0 476.32430712495989 801.21341854454136 0 0 0 0 -52.440221500159168 84.494828495842739 0 84.494828495842739 40.214153940744836 0 0 0 0 -87.735649990407182 -139.89899923259236 0 -139.89899923259236 306.62993152972012 0 0 0 0 -88.141435924526377 -153.69688665814465 0 -153.69688665814465 268.18395849627927 0 0 0 0 -71.707578712374016 124.59397393869676 0 124.59397393869676 418.86929346783108 0 0 0 0 19.344233471014377 84.53449404547132 0 84.53449404547132 -89.927058680741538 0 0 0 0 -45.023981932732568 128.51734482389838 0 128.51734482389838 80.319501819610196 0 0 0 0 -2.2539812851523493 43.181115993932963 0 43.181115993932963 -71.713904347005155 0 0 0 0 13.743789544267202 124.94702950511419 0 124.94702950511419 41.907157446832571 0 0 0 0 -26.211897710870851 25.936616728732844 0 25.936616728732844 -2.9762094565192054 0 0 0 0 -1.3449963749953895 219.84474336548874 0 219.84474336548874 -21.461964134793561 0 0 0 0 46.750321102572343 92.050247104391019 0 92.050247104391019 -7.0624116777087238 0 0 0 0 -17.810634327992375 48.751147894938185 0 48.751147894938185 78.290296738077814 0 0 0 0 -78.369975458077533 105.69389355565636 0 105.69389355565636 74.39709848032544 0 0 0 0 -73.422028504968694 84.641965869838714 0 84.641965869838714 124.81438056011666 0 0 0 0 -20.864024623505344 12.141785681062222 0 12.141785681062222 27.778414832379127 0 0 0 0 -1.8537220781570607 22.582203895541415 0 22.582203895541415 130.24464599029002 0 0 0 0 -23.686076547517587 -29.448587705484897 0 -29.448587705484897 178.49197496603301 0 0 0 0 -36.488479241632376 13.025344364046305 0 13.025344364046305 159.902933165984 0 0 0 0 -38.971011988550345 -4.2437275905213028 0 -4.2437275905213028 168.91290165879764 0 0 0 0 4.6877643745901878 -15.772987604570517 0 -15.772987604570517 153.06602969500818 0 0 0 0 26.334655277560159 -26.899553056995501 0 -26.899553056995501 131.70574680311438 0 0 0 0 -1.0462078004196478 -41.544070685498831 0 -41.544070685498831 106.06054048066255 0 0 0 0 -3.1687045047256106 -7.7683292150504712 0 -7.7683292150504712 144.91060316212679 0 0 0 0 4.2126252036516689 -23.544387039920593 0 -23.544387039920593 158.60316739924019 0 0 0 0 -138.04092022909026 302.57356804325536 0 302.57356804325536 557.7745069999205 0 0 0 0 -698.1601485055071 152.4318559771018 0 152.4318559771018 592.17084113589362 0 0 0 0 -64.870800904078351 232.41767157931827 0 232.41767157931827 448.98174421491785 0 0 0 0 -62.891163812102604 357.75128718885026 0 357.75128718885026 453.2837961604273 0 0 0 0 383.37531117945719 -916.24428080599932 0 -916.24428080599932 104.30374436010061 0 0 0 0 12.197808157156032 11.626116582989198 0 11.626116582989198 137.8742536008649 0 0 0 0 -2.7810621938774851 -54.784995573263771 0 -54.784995573263771 79.223674239180767 0 0 0 0 -490.35837205909138 358.89353427635069 0 358.89353427635069 -29.804637992972857 0 0 0 0 11.40235629883191 25.71566995213054 0 25.71566995213054 46.191023341694375 0 0 0 0 15.922116456005824 -28.0971552923329 0 -28.0971552923329 168.86844948094949 0 0 0 0 94.139986795938285 -50.593958683331039 0 -50.593958683331039 146.03721094357752 0 0 0 0 16.611778965521808 -23.607683786765847 0 -23.607683786765847 151.4906967546849 0 0 0 0 -298.91514810338526 33.673470905493332 0 33.673470905493332 127.93685811298201 0 0 0 0 35.724904676540973 -53.531521770797553 0 -53.531521770797553 160.61289324832251 0 0 0 0 35.985831616197174 -39.080976855948393 0 -39.080976855948393 141.47368017734152 0 0 0 0 11.500232424628134 23.620810731936743 0 23.620810731936743 68.488887748855575 0 0 0 0 -295.04280424169212 87.192959873211976 0 87.192959873211976 111.76629809269798 0 0 0 0 -450.86189415267654 74.726755399111426 0 74.726755399111426 187.95673242904377 0 0 0 0 -623.06970221871961 -84.923843670745555 0 -84.923843670745555 216.04619224221096 0 0 0 0 -400.22424485459123 -3.1808861881108896 0 -3.1808861881108896 245.30460974469315 0 0 0 0 -336.3984122507045 -54.090774090698687 0 -54.090774090698687 106.23572988572414 0 0 0 0 -297.83389257021008 -165.40946213485586 0 -165.40946213485586 -11.586298937851097 0 0 0 0 -119.87509325529754 -12.732877387810731 0 -12.732877387810731 82.442159112018999 0 0 0 0 -12.297649569970801 21.027977209222854 0 21.027977209222854 38.974668833748751 0 0 0 0 -166.94663313296405 107.25434346991824 0 107.25434346991824 129.5025310637684 0 0 0 0 1394.5216679942059 -1371.485574190272 0 -1371.485574190272 159.8732737195387 0 0 0 0 -244.06935010367306 62.109845558614325 0 62.109845558614325 142.13737806357676 0 0 0 0 -105.13233727374245 -148.97574178522336 0 -148.97574178522336 175.6629434010174 0 0 0 0 -603.16413337952235 299.81470869833538 0 299.81470869833538 815.88487840993912 0 0 0 0 5.2421945353397135 -7.7035225537773897 0 -7.7035225537773897 14.264748319419454 0 0 0 0 -136.11609565298295 1206.6984902374643 0 1206.6984902374643 690.25548835690279 0 0 0 0 240.56759044137198 431.26181691514284 0 431.26181691514284 479.84953716932796 0 0 0 0 -643.25287764655513 -425.84451456148963 0 -425.84451456148963 -36.341411261665598 0 0 0 0 -1.699237351207195 1.3741990098919246 0 1.3741990098919246 -0.91838203339028723 0 0 0 0 7.3697605952911545 377.53542708649047 0 377.53542708649047 141.65924599773643 0 0 0 0 143.63331540588479 255.22097057605788 0 255.22097057605788 -488.23830787271118 0 0 0 0 116.43370395294733 154.14109805866246 0 154.14109805866246 -8.5366757835436147 0 0 0 0 -45.67476414119119 350.66669842404872 0 350.66669842404872 123.6599825577614 0 0 0 0 78.949210772831975 88.273915745773138 0 88.273915745773138 239.81393389666482 0 0 0 0 -88.727948964477946 157.09870874265062 0 157.09870874265062 212.08799509089295 0 0 0 0 -53.330701156430223 -45.56991103255541 0 -45.56991103255541 268.80256951854847 0 0 0 0 -69.30875963757353 119.6783064147794 0 119.6783064147794 260.11367753519517 0 0 0 0 -6.5057259574788873 56.242670497668335 0 56.242670497668335 181.39209569784555 0 0 0 0 -58.930666951925559 -108.52619487183529 0 -108.52619487183529 33.130524601565412 0 0 0 0 -156.26579111428146 -189.53821417348263 0 -189.53821417348263 119.78021678156074 0 0 0 0 75.057388143024582 -261.35237406615033 0 -261.35237406615033 130.81787392496335 0 0 0 0 367.65060398072819 -195.58522661709503 0 -195.58522661709503 -338.77503541468468 0 0 0 0 -162.60413391985821 -183.81874950478596 0 -183.81874950478596 1550.5761440629703 0 0 0 0 -9.0778381807437825 -88.905066399156112 0 -88.905066399156112 179.68326197569695 0 0 0 0 -236.00143324935198 445.91614568716159 0 445.91614568716159 464.70216610227408 0 0 0 0 -293.69266643239735 177.97126913829561 0 177.97126913829561 493.48687284920015 0 0 0 0 -10.720838048546135 46.284753145391434 0 46.284753145391434 151.59192994811559 0 0 0 0 -10.800919314865382 -76.017086886909055 0 -76.017086886909055 107.4540003149159 0 0 0 0 -23.097313928675703 -28.94735263970415 0 -28.94735263970415 111.91261246228532 0 0 0 0 -66.572669117849728 7.1414672005339526 0 7.1414672005339526 148.09189705835888 0 0 0 0 -21.174982979911306 -41.062138065575709 0 -41.062138065575709 168.20061344568967 0 0 0 0 13.17166524200502 6.398800386399671 0 6.398800386399671 233.41263233438076 0 0 0 0 96.799420813699271 11.090098198845226 0 11.090098198845226 152.42982331180247 0 0 0 0 -343.91767712116598 -202.18929859460331 0 -202.18929859460331 360.75254539306479 0 0 0 0 -115.49611690339589 -184.97330977582169 0 -184.97330977582169 66.128753994664294 0 0 0 0 -59.547583418072463 -68.771540762405493 0 -68.771540762405493 -26.958024298139208 0 0 0 0 -59.543541037570321 -67.68234971043421 0 -67.68234971043421 141.77486976908403 0 0 0 0 -79.108680081781131 -13.060444490529335 0 -13.060444490529335 120.22081234116922 0 0 0 0 -80.455466039111343 -1.9436694972391706 0 -1.9436694972391706 81.689165680239967 0 0 0 0 -127.69574891037337 9.5718557833897648 0 9.5718557833897648 79.546400512241235 0 0 0 0 6.7039932191159366 -21.450718582170637 0 -21.450718582170637 48.896322062353875 0 0 0 0 -153.74089958256991 -46.976299326674052 0 -46.976299326674052 90.48867023105413 0 0 0 0 -92.803097438087207 -42.526196558345873 0 -42.526196558345873 65.068830570657155 0 0 0 0 -48.161495784022009 -5.4594328454513743 0 -5.4594328454513743 67.424396734859329 0 0 0 0 -87.501222584010975 15.101439883423154 0 15.101439883423154 102.50103084504372 0 0 0 0 -115.79103595408378 5.9190967665199423 0 5.9190967665199423 113.16200805036351 0 0 0 0 -78.430421018274501 36.686586188832734 0 36.686586188832734 136.52979497955675 0 0 0 0 -93.367967714349106 16.103566075300478 0 16.103566075300478 134.68651785115071 0 0 0 0 -91.680514010957268 26.139160400634864 0 26.139160400634864 134.85469911226505 0 0 0 0 -81.87481845124239 25.823315196939802 0 25.823315196939802 135.59034533017257 0 0 0 0 -75.889781402789595 18.752579696960311 0 18.752579696960311 117.22493142905296 0 0 0 0 -93.600785158065264 18.636149794292578 0 18.636149794292578 119.34029892054969 0 0 0 0 -58.757174421685704 26.897721707799064 0 26.897721707799064 79.527183320235054 0 0 0 0 -92.190014998167726 31.223243714245655 0 31.223243714245655 113.77464338971185 0 0 0 0 -96.884604602953914 16.231656672673125 0 16.231656672673125 119.75955987808993 0 0 0 0 -70.486232705647126 21.815592152626778 0 21.815592152626778 69.107922794282786 0 0 0 0 -50.119413403272574 22.466961880914823 0 22.466961880914823 129.21196803067869 0 0 0 0 -67.322896347199276 -39.683357982823509 0 -39.683357982823509 116.17735046739108 0 0 0 0 -98.283751701501387 18.408083206780248 0 18.408083206780248 160.96639774269715 0 0 0 0 -63.892676731327811 -30.117795286016189 0 -30.117795286016189 101.00611047327402 0 0 0 0 -3.6375212135602011 21.798880513072547 0 21.798880513072547 -3.8942898184158139 0 0 0 0 5.2338968779067727 18.215044979471713 0 18.215044979471713 164.47378124700117 0 0 0 0 51.118229793436058 -11.361025851354498 0 -11.361025851354498 148.63247957346903 0 0 0 0 45.922100193267397 -19.627508894998755 0 -19.627508894998755 162.24366031780664 0 0 0 0 -26.104496165438832 -9.2082579296220501 0 -9.2082579296220501 141.9973214258498 0 0 0 0 -8.1987112028018601 21.596310717082815 0 21.596310717082815 189.74245150135903 0 0 0 0 -58.998292421308179 10.550626395244763 0 10.550626395244763 132.32118544307014 0 0 0 0 -50.814021990965557 25.154289337442606 0 25.154289337442606 157.69673416958904 0 0 0 0 5.07256919926931 12.135085961017467 0 12.135085961017467 131.29716556776839 0 0 0 0 -41.328311736679325 20.047543920902172 0 20.047543920902172 142.87542369701259 0 0 0 0 -71.619051497801593 28.848323917187372 0 28.848323917187372 140.79172470666526 0 0 0 0 -38.649200858642871 20.755163991052541 0 20.755163991052541 110.95155796910694 0 0 0 0 -58.682262841590273 34.228896123415325 0 34.228896123415325 117.85198220911116 0 0 0 0 -12.865196420456414 41.676734011030931 0 41.676734011030931 113.59046815445618 0 0 0 0 -29.095616771841378 22.333110677900549 0 22.333110677900549 91.117085704478086 0 0 0 0 2.4665559362756539 9.1588963274407433 0 9.1588963274407433 120.52186728866218 0 0 0 0 28.004288978442673 32.80657430588326 0 32.80657430588326 141.9734398391156 0 0 0 0 58.259266844380363 0.58242256790254032 0 0.58242256790254032 120.47366351661913 0 0 0 0 110.11816057574492 8.7246428213948093 0 8.7246428213948093 111.71455970123498 0 0 0 0 -8.9590172568905988 26.459838936275737 0 26.459838936275737 91.487657736247257 0 0 0 0 77.568549387858525 33.692042712798866 0 33.692042712798866 173.59568189264974 0 0 0 0 38.14880190177837 -9.0629129193657718 0 -9.0629129193657718 221.67286973925366 0 0 0 0 109.17964857721743 -63.365166470233362 0 -63.365166470233362 182.00308745505754 0 0 0 0 -9.9360285743608117 23.585368554911724 0 23.585368554911724 46.30430831798833 0 0 0 0 -565.28339579685962 -554.93072657101573 0 -554.93072657101573 815.31115800526231 0 0 0 0 -25.094126566781352 21.57555769056367 0 21.57555769056367 138.13205224285124 0 0 0 0 -227.20780534431651 273.05829735892451 0 273.05829735892451 539.11629043948369 0 0 0 0 -155.8495701543452 94.10330678738228 0 94.10330678738228 806.20435452367656 0 0 0 0 -138.24566475001234 179.85481518386641 0 179.85481518386641 348.53477035279684 0 0 0 0 1200.188973222057 383.43066037226163 0 383.43066037226163 -511.70754547789647 0 0 0 0 99.264846357871647 -275.46659268448002 0 -275.46659268448002 661.93011821815912 0 0 0 0 17.249199420975856 -70.689488309426906 0 -70.689488309426906 150.91720157147483 0 0 0 0 -157.6109854311544 48.343452883532336 0 48.343452883532336 80.64171949201409 0 0 0 0 -32.390819853374374 2.3222072728297594 0 2.3222072728297594 101.74228224587137 0 0 0 0 -153.44008264972581 577.05468101633642 0 577.05468101633642 -92.42083843866385 0 0 0 0 -119.46434752575442 24.020124635487718 0 24.020124635487718 138.6065006017252 0 0 0 0 -208.43405463790623 -51.799133416311179 0 -51.799133416311179 78.33635562481777 0 0 0 0 -3.4614302502668579 -56.218903685852183 0 -56.218903685852183 -15.421878371673301 0 0 0 0 -74.921302512930197 -96.836321007840525 0 -96.836321007840525 -38.330763893583025 0 0 0 0 0.87799190998384802 -3.6248985059241932 0 -3.6248985059241932 154.30646785877252 0 0 0 0 11.337116386406706 -10.8412387398904 0 -10.8412387398904 117.04455957029904 0 0 0 0 47.845080857828179 -29.883308519091315 0 -29.883308519091315 29.781201989742613 0 0 0 0 106.22281442517487 12.430772462348614 0 12.430772462348614 91.329564275655798 0 0 0 0 58.343870451748899 131.35900702165634 0 131.35900702165634 265.25043103707844 0 0 0 0 -68.945110889991156 44.728084992189906 0 44.728084992189906 496.94853058394528 0 0 0 0 -56.015451467554158 8.0371969422515122 0 8.0371969422515122 152.01735218651334 0 0 0 0 0.70496500323224609 234.28344728380432 0 234.28344728380432 369.56681113858281 0 0 0 0 306.40860822528612 181.67518298960357 0 181.67518298960357 202.76662517209829 0 0 0 0 -3.3589758327530603 183.42977743761747 0 183.42977743761747 225.79677968724354 0 0 0 0 268.67189280456068 -117.44479304191903 0 -117.44479304191903 347.93634573974902 0 0 0 0 -95.626106571883611 -112.39777745391736 0 -112.39777745391736 558.32045951025486 0 0 0 0 48.427563709587275 154.57887822566354 0 154.57887822566354 68.031040814443543 0 0 0 0 43.208891754190518 150.52874837169387 0 150.52874837169387 611.18034253678945 0 0 0 0 -96.258611357149789 -93.516063809684084 0 -93.516063809684084 -3.7699824903545505 0 0 0 0 -378.57728870046594 -165.07505642192578 0 -165.07505642192578 123.86143221650991 0 0 0 0 -136.68700716069361 88.504566491656647 0 88.504566491656647 273.14066200541492 0 0 0 0 -177.77958989148465 -92.207961046189439 0 -92.207961046189439 -344.69279108435148 0 0 0 0 469.75653995476659 163.61582470303165 0 163.61582470303165 196.92522565015679 0 0 0 0 0.96805184237285413 -2.2254852771761833 0 -2.2254852771761833 16.649912981642565 0 0 0 0 -1.1068725843466289 2.3898044507972536 0 2.3898044507972536 27.179583845186993 0 0 0 0 428.28550752470801 59.251845635192694 0 59.251845635192694 -1329.3233826228206 0 0 0 0 137.49006237837966 577.77175579866162 0 577.77175579866162 824.99985509609724 0 0 0 0 -91.579795996769462 200.20161621744137 0 200.20161621744137 -145.87319847923936 0 0 0 0 -117.08947708367577 -217.35181882599704 0 -217.35181882599704 618.67797918045835 0 0 0 0 111.11155151974799 -195.92150941162345 0 -195.92150941162345 -113.29049423722608 0 0 0 0 -248.17179979717093 351.76080542823479 0 351.76080542823479 282.40660492338066 0 0 0 0 -1.3451605317757878 -0.5282353983496666 0 -0.5282353983496666 13.805330535379852 0 0 0 0 -62.870288286441792 324.72495572180412 0 324.72495572180412 241.2191677091696 0 0 0 0 -118.3964592109096 317.32259146464946 0 317.32259146464946 248.29808490751861 0 0 0 0 3.0545493984627683 99.651542060387669 0 99.651542060387669 13.760507211115055 0 0 0 0 -118.42065792132053 312.9459493744539 0 312.9459493744539 -67.152299109797241 0 0 0 0 288.81245790413368 -93.58070519289322 0 -93.58070519289322 301.4496616879951 0 0 0 0 199.55585071428001 -34.358492815588761 0 -34.358492815588761 316.78080269174825 0 0 0 0 137.36339569080337 67.590602103089623 0 67.590602103089623 265.59503712844889 0 0 0 0 66.826286878274459 -21.12180985136547 0 -21.12180985136547 350.16404522779339 0 0 0 0 131.32015501750038 119.51567950985191 0 119.51567950985191 370.90820648392855 0 0 0 0 107.75251375844891 155.99854434323788 0 155.99854434323788 571.84428287801711 0 0 0 0 187.76402768565038 -34.800265971585759 0 -34.800265971585759 440.00186982499145 0 0 0 0 185.64748084051755 -178.18429689796176 0 -178.18429689796176 665.159359530031 0 0 0 0 301.50706627432675 -59.379018267894935 0 -59.379018267894935 608.89992103076656 0 0 0 0 62.340907503666926 -1.543906184611842 0 -1.543906184611842 596.43639912587241 0 0 0 0 -12.2716107036116 -142.59466656212317 0 -142.59466656212317 355.04485101968021 0 0 0 0 -26.321331474887259 93.876932354427936 0 93.876932354427936 277.77485075464938 0 0 0 0 91.89521687898548 -82.894353885974851 0 -82.894353885974851 392.67653854555101 0 0 0 0 275.52201969207567 -94.859717565967003 0 -94.859717565967003 362.41270088625606 0 0 0 0 260.58484894347032 -163.69009070618267 0 -163.69009070618267 158.68976954344544 0 0 0 0 19.751247276588629 17.133095643795968 0 17.133095643795968 123.82030962532735 0 0 0 0 1.7619083793457195 -0.93373768064540741 0 -0.93373768064540741 -0.002689388084938571 0 0 0 0 113.40675089687147 37.4321664147501 0 37.4321664147501 109.4833277811631 0 0 0 0 37.703110019029538 -0.20054279853138723 0 -0.20054279853138723 4.2830158634897089 0 0 0 0 38.059476693942543 90.061455091636162 0 90.061455091636162 23.275070534597035 0 0 0 0 -4.1948010393321056 22.992330877532368 0 22.992330877532368 103.57145938657413 0 0 0 0 1.1636171067068317 -0.15753856246183773 0 -0.15753856246183773 -0.13075332354770808 0 0 0 0 86.936572968834753 66.112236709828721 0 66.112236709828721 -108.93688292198931 0 0 0 0 -43.559402385002159 37.047021641061292 0 37.047021641061292 124.3332709048409 0 0 0 0 481.2928287012943 245.98653205835649 0 245.98653205835649 88.530754881663597 0 0 0 0 39.051940149944812 -180.09958051505964 0 -180.09958051505964 31.336718287266422 0 0 0 0 1.7272901897249699 -1.2841206257111537 0 -1.2841206257111537 0.92864318416894776 0 0 0 0 513.87263696263062 -131.36947623832384 0 -131.36947623832384 -27.841147707527853 0 0 0 0 188.57158443560047 -40.344371579078143 0 -40.344371579078143 373.43602350493893 0 0 0 0 240.90826697086004 -25.332399141756468 0 -25.332399141756468 222.44414432316262 0 0 0 0 433.04221345408723 -168.64461578520422 0 -168.64461578520422 31.625416097930156 0 0 0 0 481.61960473031695 -83.989608493109699 0 -83.989608493109699 179.06682440215081 0 0 0 0 28.828879045859821 30.612826729440712 0 30.612826729440712 262.48228717123857 0 0 0 0 218.85713826718393 -63.561848498378822 0 -63.561848498378822 181.11399212989272 0 0 0 0 182.77252964515901 -88.583469250555027 0 -88.583469250555027 -11.803906438828562 0 0 0 0 -91.747704135181266 -245.57942097925115 0 -245.57942097925115 115.9459578263486 0 0 0 0 -310.21512868846185 -390.89542966446606 0 -390.89542966446606 -56.938287717629464 0 0 0 0 -466.44436042809411 -364.40498389580353 0 -364.40498389580353 36.372096543564112 0 0 0 0 -566.32558747458847 -169.22638042445033 0 -169.22638042445033 166.85071351236547 0 0 0 0 -37.466657370635403 -148.85587179700269 0 -148.85587179700269 80.725523004235583 0 0 0 0 -195.85824656119439 49.627691088171559 0 49.627691088171559 -149.3254998846287 0 0 0 0 -5.8924082132774931 4.9217187877765909 0 4.9217187877765909 7.8260787505978158 0 0 0 0 -10.247375528195334 60.453269197285408 0 60.453269197285408 104.66738188639101 0 0 0 0 -9.6469059637365717 89.789873392772279 0 89.789873392772279 52.005006431417769 0 0 0 0 -27.517683949039565 29.226310641344753 0 29.226310641344753 179.78909451380605 0 0 0 0 -30.804523704995518 12.622856919289916 0 12.622856919289916 97.843310956377536 0 0 0 0 -26.999930657475488 -10.956052805006038 0 -10.956052805006038 56.636208861481464 0 0 0 0 76.536879816330838 16.149826610693708 0 16.149826610693708 119.25449798253248 0 0 0 0 162.69130302244957 43.733945549640339 0 43.733945549640339 127.69864523821161 0 0 0 0 3.9166252883078414 -190.65709359545144 0 -190.65709359545144 -2.1981479772512102 0 0 0 0 -312.52488763578549 96.165479793700797 0 96.165479793700797 -55.115390298626153 0 0 0 0 -3.7178295542630408 -2.8669476058083205 0 -2.8669476058083205 -2.9580481990410306 0 0 0 0 -262.48754542672486 -352.10199106620712 0 -352.10199106620712 -81.013569940332673 0 0 0 0 -161.21059567946304 -151.88593027772185 0 -151.88593027772185 4.8960349893313833 0 0 0 0 -322.77787207272013 -264.63409556807892 0 -264.63409556807892 80.962873560034495 0 0 0 0 -581.06323839042125 -150.52093826842611 0 -150.52093826842611 13.747198982358896 0 0 0 0 -13.126851627296301 5.5007995925776925 0 5.5007995925776925 71.518387434361557 0 0 0 0 1.4066395021633298 -8.0860227581864734 0 -8.0860227581864734 7.252941353263509 0 0 0 0 -491.12111670891136 -202.14525094694545 0 -202.14525094694545 380.26305974424758 0 0 0 0 -109.41536533825638 -1.7646543460577959 0 -1.7646543460577959 222.44137139445229 0 0 0 0 -87.838092254997605 -243.46914055695834 0 -243.46914055695834 -129.86269753624219 0 0 0 0 -477.48353868239792 -73.717136755534739 0 -73.717136755534739 230.0537556179479 0 0 0 0 -303.45455609170494 -167.56074281220936 0 -167.56074281220936 -40.269083537412371 0 0 0 0 -348.4346416125436 -314.09454203125642 0 -314.09454203125642 8.9490246707719052 0 0 0 0 -319.48570322473483 -140.23466098187964 0 -140.23466098187964 215.6533036382607 0 0 0 0 -353.71419433219808 -199.58805820479574 0 -199.58805820479574 352.49663837219123 0 0 0 0 -357.00528061471414 -173.51881690149094 0 -173.51881690149094 325.87907385161088 0 0 0 0 -178.60647420397936 -124.53005654695517 0 -124.53005654695517 215.97719582895661 0 0 0 0 -36.350091967557091 98.697009636394796 0 98.697009636394796 226.21305642419975 0 0 0 0 -283.82931249924695 -59.002963662635011 0 -59.002963662635011 188.02684440832672 0 0 0 0 -248.726990418897 -180.93416931210231 0 -180.93416931210231 238.83905455953936 0 0 0 0 -332.98219760803659 -266.75109736684681 0 -266.75109736684681 92.450473201679415 0 0 0 0 -134.26563488671354 11.912074423056765 0 11.912074423056765 338.99223406269448 0 0 0 0 -90.723168520434228 -147.76613012917369 0 -147.76613012917369 405.90090146387956 0 0 0 0 -269.25550023808455 -52.288570824615817 0 -52.288570824615817 357.24086466761946 0 0 0 0 89.002993070897901 27.853202579448407 0 27.853202579448407 299.44215770882511 0 0 0 0 18.94330896946849 66.449491025656243 0 66.449491025656243 497.61706200978369 0 0 0 0 426.64776202567919 301.73540556541502 0 301.73540556541502 528.37755199101957 0 0 0 0 -134.29351039655648 14.264516106792144 0 14.264516106792144 501.93293786379945 0 0 0 0 233.95827541155995 -180.5355482339728 0 -180.5355482339728 528.96777361068234 0 0 0 0 -94.966808526423847 378.69783093334627 0 378.69783093334627 1118.5879025302784 0 0 0 0 -408.65899231317792 -104.18730659138191 0 -104.18730659138191 248.69365271515562 0 0 0 0 -780.3399064107798 -121.40877661590639 0 -121.40877661590639 361.68918038973788 0 0 0 0 -212.76734769834525 -169.24130187729679 0 -169.24130187729679 401.42529576129164 0 0 0 0 -408.00104977827868 -117.26148316333274 0 -117.26148316333274 441.06501812516217 0 0 0 0 -398.43138431124135 143.19148913862591 0 143.19148913862591 628.08649038241856 0 0 0 0 -503.32631851783299 65.769247812466347 0 65.769247812466347 297.67115607348751 0 0 0 0 -428.61864478130337 38.765799427616003 0 38.765799427616003 268.37643369913712 0 0 0 0 -267.24885061772784 220.15303082516402 0 220.15303082516402 112.09346988683683 0 0 0 0 -444.17541696097453 123.8306838122885 0 123.8306838122885 345.04568596513127 0 0 0 0 -270.13031250790601 174.30001350092755 0 174.30001350092755 263.73670283617685 0 0 0 0 54.309619251761433 376.41220879572938 0 376.41220879572938 70.250193585205125 0 0 0 0 -502.53877348371861 178.27740669737977 0 178.27740669737977 150.59640264470727 0 0 0 0 3.2868478906037484 4.9377461271334084 0 4.9377461271334084 6.522668880780401 0 0 0 0 540.28292587319424 375.18049853861885 0 375.18049853861885 -18.148934850891237 0 0 0 0 -120.76858960858226 229.64810150967969 0 229.64810150967969 269.70142797419612 0 0 0 0 149.16188262346395 247.33858161377157 0 247.33858161377157 -214.52881609828182 0 0 0 0 -39.201137143153119 153.92503018708885 0 153.92503018708885 -82.908703899407556 0 0 0 0 2.5085512799861762 10.537453572865317 0 10.537453572865317 19.851389601462813 0 0 0 0 -22.620155345341118 58.604769078534446 0 58.604769078534446 -12.804853484267369 0 0 0 0 -6.9728745021352552 3.4219508890528232 0 3.4219508890528232 -37.233383622136898 0 0 0 0 41.69225024560501 96.228599198620941 0 96.228599198620941 8.781168263820291 0 0 0 0 -342.12690467970424 422.56569289690378 0 422.56569289690378 -19.547004060164909 0 0 0 0 -31.186526730025435 525.69622343673836 0 525.69622343673836 -454.56136772045284 0 0 0 0 82.475942063158982 17.280291442883026 0 17.280291442883026 -53.230793613736751 0 0 0 0 28.369300138706592 101.15284896161893 0 101.15284896161893 114.29754354032048 0 0 0 0 35.302231066293096 -10.405345352043696 0 -10.405345352043696 396.44530812262383 0 0 0 0 103.42475575644249 -689.90426491027756 0 -689.90426491027756 123.60805683611397 0 0 0 0 -4.1056040844297259 -3.2328499825059396 0 -3.2328499825059396 14.77270392487199 0 0 0 0 2.1988039442135232 -69.364090472729004 0 -69.364090472729004 450.47316716660862 0 0 0 0 40.645228186489021 -9.3893140554646379 0 -9.3893140554646379 91.50276028150256 0 0 0 0 -66.136850558323886 -114.59606607118076 0 -114.59606607118076 850.4262387950148 0 0 0 0 4.5123460911895563 420.71558977465975 0 420.71558977465975 990.62430619673887 0 0 0 0 -48.509538357345946 249.47291412502091 0 249.47291412502091 882.77846472625242 0 0 0 0 103.07451761507103 228.82588769659924 0 228.82588769659924 252.06356042377593 0 0 0 0 28.421033704046067 293.00822542219248 0 293.00822542219248 759.1476838190174 0 0 0 0 69.498787625410898 63.764717599672622 0 63.764717599672622 722.63861887691019 0 0 0 0 47.561801876855384 64.948442619061098 0 64.948442619061098 917.53226941281537 0 0 0 0 77.948002841501307 -186.82493976236583 0 -186.82493976236583 1436.2943134117377 0 0 0 0 75.905408045960485 84.944231576220773 0 84.944231576220773 706.58530929710469 0 0 0 0 -1.0220054638602822 -1.8556786127067681 0 -1.8556786127067681 8.2631913575694114 0 0 0 0 285.00829645630694 635.91018488904228 0 635.91018488904228 1160.3846810590603 0 0 0 0 -72.094691731947961 -335.83357127691306 0 -335.83357127691306 798.26396994782408 0 0 0 0 -182.00958913111941 -678.36112584501279 0 -678.36112584501279 -157.40743397719052 0 0 0 0 197.4253824824749 -127.32112407476234 0 -127.32112407476234 468.38848708785372 0 0 0 0 -803.27526783510348 76.44652205381135 0 76.44652205381135 1018.4068925082247 0 0 0 0 -169.78544642592044 301.72002289863303 0 301.72002289863303 75.225060420794762 0 0 0 0 94.204529369209695 205.43637754377414 0 205.43637754377414 -460.4913557298205 0 0 0 0 5.4650126348042321 -0.051713669005579277 0 -0.051713669005579277 0.6091796406516039 0 0 0 0 -582.6133414703811 -237.76998504457151 0 -237.76998504457151 1298.5124065551427 0 0 0 0 -35.360472464162058 344.06847780442172 0 344.06847780442172 -90.323956543361419 0 0 0 0 44.842037488941571 143.12321033110493 0 143.12321033110493 862.53544506890466 0 0 0 0 -160.98565478566479 -20.023175306891062 0 -20.023175306891062 195.35482102296373 0 0 0 0 -86.013075548259394 383.83066358241922 0 383.83066358241922 348.01304218701989 0 0 0 0 -120.03980458766637 178.59604724468227 0 178.59604724468227 664.51429853012087 0 0 0 0 -306.44611533915963 447.62250030947143 0 447.62250030947143 837.97181768761948 0 0 0 0 206.5330828039032 510.33684286058997 0 510.33684286058997 532.5737921484324 0 0 0 0 0.34180915687193192 621.90181686646974 0 621.90181686646974 532.9263027685447 0 0 0 0 -601.66371625030979 513.99423257251328 0 513.99423257251328 923.78146352098702 0 0 0 0 -291.49853444044584 486.07109189053153 0 486.07109189053153 902.78274460760622 0 0 0 0 -179.92712673162384 244.77909503499541 0 244.77909503499541 282.72695467871381 0 0 0 0 -32.866773881209838 396.14340528252797 0 396.14340528252797 -70.376063098836312 0 0 0 0 -117.46402088928039 251.07923224130354 0 251.07923224130354 102.62170637596864 0 0 0 0 -300.98024132455316 88.889416505374356 0 88.889416505374356 79.078011697609327 0 0 0 0 -6.5415386625541077 7.0604266035478247 0 7.0604266035478247 13.113794685757796 0 0 0 0 27.652510106455566 62.50694277785442 0 62.50694277785442 37.838459173057345 0 0 0 0 -53.838245935978932 364.39093924606186 0 364.39093924606186 207.05880039463227 0 0 0 0 -220.7839049672973 335.49218578100772 0 335.49218578100772 39.991779892283375 0 0 0 0 -921.66893046994846 208.91150858992842 0 208.91150858992842 31.641348430188373 0 0 0 0 -2.4082607826790765 9.2628688168360753 0 9.2628688168360753 7.2523001167889447 0 0 0 0 474.31508921964723 144.60185737930442 0 144.60185737930442 36.413566148396058 0 0 0 0 -169.3542139782312 311.88372365890245 0 311.88372365890245 -423.45067901974107 0 0 0 0 4.1230197827220856 16.483417355008598 0 16.483417355008598 24.372301162066094 0 0 0 0 -1072.7482606168023 158.94954274445445 0 158.94954274445445 1315.4446819294535 0 0 0 0 -857.37246885160312 692.50882862820436 0 692.50882862820436 252.51182472305663 0 0 0 0 2024.7051967043953 856.6971375170906 0 856.6971375170906 187.57266682914724 0 0 0 0 -20.676075808029054 362.82177226526983 0 362.82177226526983 199.72861537152494 0 0 0 0 120.73897488197508 405.0552254676295 0 405.0552254676295 140.24461274142959 0 0 0 0 2322.0463026127927 874.27433479786851 0 874.27433479786851 1605.3584806369879 0 0 0 0 -752.10757616011699 1582.2329196125538 0 1582.2329196125538 2331.7631041214336 0 0 0 0 10.809983498445689 13.71442858412351 0 13.71442858412351 6.2066903898317705 0 0 0 0 3.9158954162946618 6.0649935339172814 0 6.0649935339172814 8.8312144702379385 0 0 0 0 -510.0503880325748 -684.23822078870853 0 -684.23822078870853 1394.0434816860216 0 0 0 0 -423.86804953485534 -135.18891980830813 0 -135.18891980830813 699.38734133973048 0 0 0 0 -432.77556331770586 -400.08081880256759 0 -400.08081880256759 1606.0375855725288 0 0 0 0 -553.40869467541665 497.32788000973596 0 497.32788000973596 1334.9156102394481 0 0 0 0 46.727483472413951 260.84090152160206 0 260.84090152160206 1868.7688534830352 0 0 0 0 -199.7586132182455 714.79341097225006 0 714.79341097225006 1237.77236923905 0 0 0 0 -306.48253885219765 1494.4661489904611 0 1494.4661489904611 1904.7710462113344 0 0 0 0 -420.46082753405926 451.17708948666404 0 451.17708948666404 4530.1842309692584 0 0 0 0 -138.84208987186162 34.477542115379038 0 34.477542115379038 3663.9908038418107 0 0 0 0 275.97539917272115 1003.0852390606778 0 1003.0852390606778 2501.2222677313111 0 0 0 0 928.55836330986813 727.30654945574133 0 727.30654945574133 3002.3884452414422 0 0 0 0 149.18246323148469 1294.8147775424659 0 1294.8147775424659 3841.6167940582527 0 0 0 0 462.44540985728327 1380.6773902252899 0 1380.6773902252899 1138.5633062673733 0 0 0 0 177.38072572899262 720.52567241580982 0 720.52567241580982 -359.91220189240994 0 0 0 0 140.11071498029241 438.21359927853337 0 438.21359927853337 -725.74840892320208 0 0 0 0 7.0953712115696401 4.6349835771598293 0 4.6349835771598293 3.8954581420740055 0 0 0 0 -843.13460253050255 9.7214569136594946 0 9.7214569136594946 205.13583621530415 0 0 0 0 263.73597330021403 -333.37492086751081 0 -333.37492086751081 162.44564063743019 0 0 0 0 9.5894401983657218 19.054693635302989 0 19.054693635302989 34.532966247827403 0 0 0 0 -141.25428527838903 315.93329454512423 0 315.93329454512423 -192.93570323404128 0 0 0 0 -200.4933684634816 132.5204220364576 0 132.5204220364576 -156.95393128837895 0 0 0 0 -896.40211884790369 403.00336606341807 0 403.00336606341807 69.367722519513336 0 0 0 0 189.65868674269313 -137.70022378324938 0 -137.70022378324938 -399.50798141091946 0 0 0 0 1072.5623321164321 593.33136859262959 0 593.33136859262959 -98.375604553316407 0 0 0 0 459.65422912028134 197.0241994684402 0 197.0241994684402 -212.07680189586813 0 0 0 0 -1.9865867790423408 38.119349926500036 0 38.119349926500036 -64.461130185445654 0 0 0 0 -31.822812176312254 703.97638966350496 0 703.97638966350496 -140.78216640118626 0 0 0 0 -30.771075980193928 -38.25904904910567 0 -38.25904904910567 -31.703460650412126 0 0 0 0 313.44420420789811 1135.9090154778423 0 1135.9090154778423 1724.3305856103034 0 0 0 0 4.8482636685246323 4.9976164689430647 0 4.9976164689430647 2.6179901010106335 0 0 0 0 705.68974560368724 1361.0362939603729 0 1361.0362939603729 -1292.9694074800354 0 0 0 0 -941.92812701146067 -162.32037438515181 0 -162.32037438515181 3183.0094398868096 0 0 0 0 -340.2998524597665 645.58796295792854 0 645.58796295792854 1946.0261597735371 0 0 0 0 22.83239492420762 314.40369378267133 0 314.40369378267133 -198.8917515209323 0 0 0 0 192.2700860092873 1864.141079812478 0 1864.141079812478 508.55510287070501 0 0 0 0 515.75078096746392 1083.7338025997378 0 1083.7338025997378 149.6616583067007 0 0 0 0 6.9730862346320102 8.68840914932629 0 8.68840914932629 11.492250403175206 0 0 0 0 485.55512206540061 -383.33429467538917 0 -383.33429467538917 1402.4379070405921 0 0 0 0 589.04361848308235 857.01799535650571 0 857.01799535650571 2003.6898472043631 0 0 0 0 431.78149342523648 463.13759596229829 0 463.13759596229829 1069.3033679348155 0 0 0 0 525.00552856895683 484.29115221712527 0 484.29115221712527 743.90630517827958 0 0 0 0 4.3708629654556717 -4.1611081907103653 0 -4.1611081907103653 549.19978092737051 0 0 0 0 78.235507262448664 -275.98334423013148 0 -275.98334423013148 726.33517605595284 0 0 0 0 523.33719141453321 -351.77319102376077 0 -351.77319102376077 161.52180020888773 0 0 0 0 46.135687765570765 1623.6123540136832 0 1623.6123540136832 3355.2579739224457 0 0 0 0 21.80330786183093 4.4774036413530567 0 4.4774036413530567 3.701305193821625 0 0 0 0 600.26851320574497 855.70094976578912 0 855.70094976578912 2085.420541763724 0 0 0 0 781.65311573894542 937.54967908544495 0 937.54967908544495 586.34424139646671 0 0 0 0 377.69965192462132 1150.2581404020857 0 1150.2581404020857 1880.8913953434312 0 0 0 0 239.47800273298517 768.33095305555798 0 768.33095305555798 2877.6155681980999 0 0 0 0 560.71078840679832 953.29014254426147 0 953.29014254426147 1923.7431354856308 0 0 0 0 12.10514637027727 7.3026589688216319 0 7.3026589688216319 1.138896552297588 0 0 0 0 834.66846532734053 848.79273609941993 0 848.79273609941993 1691.6922892649272 0 0 0 0 461.52662121605476 110.29366840033617 0 110.29366840033617 1675.6424510424158 0 0 0 0 -123.82900769597936 552.09117694905581 0 552.09117694905581 1869.9528970651299 0 0 0 0 2.4079471685318881 6.9627152161991575 0 6.9627152161991575 1.8843102124142348 0 0 0 0 368.0317029553097 1036.0165061948246 0 1036.0165061948246 2916.9393211491551 0 0 0 0 287.44196100800821 586.07227732989031 0 586.07227732989031 2409.6130833926436 0 0 0 0 -42.118320254102265 273.09061483725418 0 273.09061483725418 3498.2699694008661 0 0 0 0 20.673215435561676 525.49483960415637 0 525.49483960415637 2891.870960652137 0 0 0 0 306.5093302855081 696.59824342450065 0 696.59824342450065 2942.5600882542421 0 0 0 0 181.48529427960761 760.06293560548147 0 760.06293560548147 3017.1561165173625 0 0 0 0 55.611153782719853 718.02405675930731 0 718.02405675930731 3499.7095267740478 0 0 0 0 78.744921826901546 922.01373152551241 0 922.01373152551241 3044.4174218481458 0 0 0 0 97.540827142906252 975.59096204531488 0 975.59096204531488 3066.8711378829103 0 0 0 0 216.61738836400252 838.06765173739768 0 838.06765173739768 2767.2650381426229 0 0 0 0 23.594331957166446 881.18612294523518 0 881.18612294523518 1164.056248367353 0 0 0 0 -141.41529017372068 312.21845032072451 0 312.21845032072451 875.37311804179262 0 0 0 0 540.8137800627494 574.53203124833499 0 574.53203124833499 663.39870940391847 0 0 0 0 -6.7638739490712396 834.75130746602008 0 834.75130746602008 2406.4816240099426 0 0 0 0 226.2161829897903 1412.2754595564861 0 1412.2754595564861 2088.9123298377672 0 0 0 0 -70.738606537873451 984.75175058886452 0 984.75175058886452 922.62238306842482 0 0 0 0 -1.8290528613640316 2.8654830184946292 0 2.8654830184946292 2.9647378153008503 0 0 0 0 228.39183536344026 610.34006201203374 0 610.34006201203374 1306.9839538176175 0 0 0 0 362.52094799421911 533.98400146273525 0 533.98400146273525 1940.4831604616083 0 0 0 0 -220.66704220621057 1277.2144408456224 0 1277.2144408456224 3359.4177504870586 0 0 0 0 -166.63586670878229 602.98605109917889 0 602.98605109917889 1948.3318860902509 0 0 0 0 280.17943908979089 376.04312499036314 0 376.04312499036314 2706.6432583367387 0 0 0 0 196.16078002218632 -31.406318526365794 0 -31.406318526365794 1218.8614640914057 0 0 0 0 -237.56627829963998 -287.54297103029785 0 -287.54297103029785 3178.8762903261086 0 0 0 0 -164.16520008433139 -228.78748269344942 0 -228.78748269344942 2570.5452461693276 0 0 0 0 -3.6105187620526218 -4.7680807232092803 0 -4.7680807232092803 6.0566971942494803 0 0 0 0 -66.085341851575762 -1199.9705796401977 0 -1199.9705796401977 3501.8676365114115 0 0 0 0 -480.90342147202739 126.44244467291719 0 126.44244467291719 4186.5012716750916 0 0 0 0 -719.61881714861772 -1159.9902615120409 0 -1159.9902615120409 1985.6779750837632 0 0 0 0 -54.783102174076021 -1347.803300898473 0 -1347.803300898473 -607.06584771797498 0 0 0 0 -555.04596700557363 424.74461184340726 0 424.74461184340726 3494.8506745200757 0 0 0 0 -29.95592908987129 208.15707956336428 0 208.15707956336428 -53.63057387976005 0 0 0 0 -480.65248762579859 455.35390637007185 0 455.35390637007185 1473.1307687786048 0 0 0 0 -109.00326658406539 -191.77601621641224 0 -191.77601621641224 70.215861085169308 0 0 0 0 -17.80894805774658 -1.6913365692126945 0 -1.6913365692126945 19.970897209851174 0 0 0 0 519.68727864697189 -669.555180249572 0 -669.555180249572 849.51385439879959 0 0 0 0 -4.2096641891948465 -0.10127309074480983 0 -0.10127309074480983 19.464910299189086 0 0 0 0 101.31644910769838 1525.9741457831915 0 1525.9741457831915 3494.1402047674128 0 0 0 0 1411.9488578408616 1867.9375002324196 0 1867.9375002324196 2022.537626981466 0 0 0 0 -966.70759413937606 443.01459342391172 0 443.01459342391172 2417.4910921730407 0 0 0 0 153.23845422626698 460.61205186473308 0 460.61205186473308 767.50185002856597 0 0 0 0 39.315578365799297 285.21467781898536 0 285.21467781898536 733.82066419993134 0 0 0 0 979.95128940112602 1280.4710840782063 0 1280.4710840782063 1265.3486871005844 0 0 0 0 -138.27636831519862 107.0082940381335 0 107.0082940381335 7.2114876332052518 0 0 0 0 -29.485133907737669 12.862190781232854 0 12.862190781232854 9.9938012447210696 0 0 0 0 -10.149308382341603 -5.0356504870703311 0 -5.0356504870703311 51.978534595383223 0 0 0 0 231.97532800478075 48.055655990865489 0 48.055655990865489 -170.07774857224285 0 0 0 0 -149.17174252301675 -65.85559097440273 0 -65.85559097440273 425.37553366315842 0 0 0 0 -82.600521740384011 4.9886025783725927 0 4.9886025783725927 439.70707318461791 0 0 0 0 -17.542553438930963 4.1953794294747127 0 4.1953794294747127 0.18162575179859175 0 0 0 0 -30.882588139052132 -162.4249721682645 0 -162.4249721682645 953.25188769040687 0 0 0 0 -395.8659304480625 196.6783269054722 0 196.6783269054722 760.01487958293001 0 0 0 0 -353.86849892411192 -389.87741617720894 0 -389.87741617720894 3093.7693749760801 0 0 0 0 0.51755185587458907 -0.20615811509723159 0 -0.20615811509723159 20.636443476898108 0 0 0 0 154.03780886583809 -639.49945776509412 0 -639.49945776509412 936.5978679231921 0 0 0 0 899.36925432074531 1801.0321487270994 0 1801.0321487270994 2647.7046350740638 0 0 0 0 -1161.1904381405147 -1026.4700419649453 0 -1026.4700419649453 -524.09098184613686 0 0 0 0 -6.8466488995177741 0.51267160413641477 0 0.51267160413641477 1.119381594713289 0 0 0 0 -2105.0543451104013 -14.918500883029992 0 -14.918500883029992 0.8186261860828381 0 0 0 0 -2009.6048210930974 -594.35471177590989 0 -594.35471177590989 -70.696674821316265 0 0 0 0 -1724.3969332582114 6.0117330825878526 0 6.0117330825878526 737.40855953541177 0 0 0 0 -94.715530751456754 376.73293628936517 0 376.73293628936517 820.00340796870842 0 0 0 0 62.972017191463237 207.23079424720345 0 207.23079424720345 698.76683173759557 0 0 0 0 -522.83718436998379 -548.65076801105533 0 -548.65076801105533 -548.74364205008897 0 0 0 0 -288.06286427966324 87.054595999987214 0 87.054595999987214 929.17145358960261 0 0 0 0 -502.35321616015062 -759.6688974414792 0 -759.6688974414792 816.85818873950484 0 0 0 0 -833.04251186835063 -315.27764283158467 0 -315.27764283158467 27.969808630892658 0 0 0 0 -981.31374285485572 -309.78323803341846 0 -309.78323803341846 665.57105530633999 0 0 0 0 -1306.4119699278617 180.24975584881031 0 180.24975584881031 46.967804147905554 0 0 0 0 -951.13965048859427 9.2932006406917935 0 9.2932006406917935 125.20217257848708 0 0 0 0 -1424.6975119490398 -598.54184434535273 0 -598.54184434535273 -107.38786316291953 0 0 0 0 -1094.8628601535593 91.94777787928615 0 91.94777787928615 422.73906442537555 0 0 0 0 -713.7497384697682 -145.75846297007956 0 -145.75846297007956 798.87863791188283 0 0 0 0 -746.83035608014325 -262.54444386162504 0 -262.54444386162504 626.47822491728584 0 0 0 0 -4.8577193972050843 0.69696514499933926 0 0.69696514499933926 5.7366125076278962 0 0 0 0 -93.921344822928859 -1443.8280909332825 0 -1443.8280909332825 1418.898633509627 0 0 0 0 -356.34119255448059 -1376.3972458713688 0 -1376.3972458713688 3711.1042795341491 0 0 0 0 -1214.6348425151964 -1434.9861264964929 0 -1434.9861264964929 3717.3666290660476 0 0 0 0 -1172.8128182992969 -342.35091521540744 0 -342.35091521540744 1986.5878288094536 0 0 0 0 -637.53901379453964 613.45149746596144 0 613.45149746596144 2168.8116502139601 0 0 0 0 -1193.2008916576301 -148.35320349255198 0 -148.35320349255198 1203.6025964246692 0 0 0 0 -1660.6254572340913 -118.31159078262499 0 -118.31159078262499 2365.9526676994983 0 0 0 0 -1105.2196387837785 831.75298535686488 0 831.75298535686488 3500.0490598661563 0 0 0 0 -1301.557114969163 521.27682420097153 0 521.27682420097153 2026.1526852723109 0 0 0 0 -9.0260236984908637 2.1063321761656937 0 2.1063321761656937 9.5494334914971972 0 0 0 0 -285.02937044530063 -554.86709140829043 0 -554.86709140829043 3362.715771420153 0 0 0 0 -4.7784717481759742 -745.53232243427919 0 -745.53232243427919 2990.6153139993403 0 0 0 0 -341.42632397278106 -701.4000586501279 0 -701.4000586501279 3498.7365397436656 0 0 0 0 -104.55230182113013 215.28436197117117 0 215.28436197117117 1213.7744030040703 0 0 0 0 378.18300226717281 -1193.2563937942068 0 -1193.2563937942068 3499.9063340358698 0 0 0 0 70.72333624876228 -247.48363664715725 0 -247.48363664715725 1589.2183902393153 0 0 0 0 195.47224651328838 -551.34291312946152 0 -551.34291312946152 1982.59380358833 0 0 0 0 -73.604427089835553 -148.56707531400752 0 -148.56707531400752 1107.3512048420744 0 0 0 0 -35.165406564766045 -49.320159299291845 0 -49.320159299291845 1256.0998816109168 0 0 0 0 -122.83664626377799 51.51578277056251 0 51.51578277056251 2156.2155692689412 0 0 0 0 -247.2013385872707 -130.98608425995008 0 -130.98608425995008 1893.1862096009718 0 0 0 0 -83.514558302468686 109.14166330932494 0 109.14166330932494 1491.0927280672768 0 0 0 0 133.27468139245411 -357.68495301968505 0 -357.68495301968505 617.45651438433924 0 0 0 0 150.27205379597217 391.65010774192342 0 391.65010774192342 830.81015136286442 0 0 0 0 -250.80702569610185 -857.62556062289514 0 -857.62556062289514 -198.4701520223316 0 0 0 0 2.1616169828972041 -2.8347417656071343 0 -2.8347417656071343 4.1705315966081287 0 0 0 0 543.93717531876041 -527.62248415868453 0 -527.62248415868453 4447.9717057911912 0 0 0 0 -4.7678962943555234 454.33788412052672 0 454.33788412052672 2817.0571249323839 0 0 0 0 579.42308536880512 -463.62358552384103 0 -463.62358552384103 3499.419069145697 0 0 0 0 273.14211398024031 -1547.6111023491067 0 -1547.6111023491067 3764.051980165299 0 0 0 0 7.0659414363996484 8.301041890768829 0 8.301041890768829 11.37144245374688 0 0 0 0 762.94201689337422 -1419.985504886492 0 -1419.985504886492 2408.4361289147782 0 0 0 0 -4.7566313782101979 1.609524817707495 0 1.609524817707495 7.3951161128721878 0 0 0 0 -625.21527503898039 -64.414145490314695 0 -64.414145490314695 3446.3133516686285 0 0 0 0 -277.38095256596563 -228.44479028271417 0 -228.44479028271417 1978.3291523632943 0 0 0 0 -516.58080575594636 258.39146065735986 0 258.39146065735986 1829.046838850285 0 0 0 0 7.2747580859549803 23.56196583950998 0 23.56196583950998 36.772580118754348 0 0 0 0 47.351083106726946 -36.919248001322558 0 -36.919248001322558 1116.6984578023294 0 0 0 0 24.582110261970683 -388.96020232519368 0 -388.96020232519368 1526.7050282701675 0 0 0 0 81.533503929130291 -411.6344640422285 0 -411.6344640422285 1013.8276550695155 0 0 0 0 -331.01050237155846 132.84134339520097 0 132.84134339520097 303.1205679513514 0 0 0 0 304.30454352657625 -736.97514346532262 0 -736.97514346532262 -174.24693759777529 0 0 0 0 0.64386888334721371 2.5974093275625059 0 2.5974093275625059 1.7412790991842826 0 0 0 0 604.61299037179936 759.73665652124328 0 759.73665652124328 -333.84368679860745 0 0 0 0 -124.29269660799707 -76.906725046734209 0 -76.906725046734209 11.496919054086902 0 0 0 0 -14.417251252906041 -6.5167263424461908 0 -6.5167263424461908 9.3626597402496827 0 0 0 0 -336.41374080255264 22.911838088955847 0 22.911838088955847 166.321507209228 0 0 0 0 -18.493867841171777 -99.662143962603295 0 -99.662143962603295 109.29779459684505 0 0 0 0 -76.822518073333413 99.008326225721248 0 99.008326225721248 48.869335813637008 0 0 0 0 -215.34621379354712 150.23532704101672 0 150.23532704101672 59.167994625589927 0 0 0 0 -168.66835673040896 -55.266608433594229 0 -55.266608433594229 192.12304512571427 0 0 0 0 -62.591733390677035 -19.785612775786248 0 -19.785612775786248 56.215231499107702 0 0 0 0 -135.41287540923258 65.337998556845378 0 65.337998556845378 556.36057698348304 0 0 0 0 -727.62494054045237 280.25721178376261 0 280.25721178376261 478.53170143058378 0 0 0 0 -65.015325252317467 -1.1078009878033441 0 -1.1078009878033441 59.132252064300218 0 0 0 0 -235.42739126361812 400.00505383931431 0 400.00505383931431 249.35400263486372 0 0 0 0 -171.09555278223525 -33.461144902683372 0 -33.461144902683372 26.659737332985969 0 0 0 0 457.86461216578027 102.6529472950424 0 102.6529472950424 104.99703198535281 0 0 0 0 -81.93462435635638 -26.109524840503582 0 -26.109524840503582 19.820670258159225 0 0 0 0 -19.488482189797971 15.367788855251575 0 15.367788855251575 30.950290566252335 0 0 0 0 -375.07004456510379 42.822737729087748 0 42.822737729087748 32.168597121177299 0 0 0 0 -161.28678579027564 5.6511102315271273 0 5.6511102315271273 26.351923217427611 0 0 0 0 -336.09187962677606 399.92501520782389 0 399.92501520782389 -261.81585792290571 0 0 0 0 -1004.5890220242732 309.10707580845428 0 309.10707580845428 243.40826483408455 0 0 0 0 -604.57064362915958 161.11325421738184 0 161.11325421738184 207.87232193801901 0 0 0 0 -412.61145869926531 34.659025127097266 0 34.659025127097266 264.87299724401601 0 0 0 0 -0.98539176697888031 -6.6527401118383125 0 -6.6527401118383125 15.786532275418665 0 0 0 0 -49.902950169974702 -95.367751376828892 0 -95.367751376828892 68.379742132798128 0 0 0 0 -40.050287707192183 -147.72717952517996 0 -147.72717952517996 279.3484777094709 0 0 0 0 -29.830457802329128 -20.720902269128516 0 -20.720902269128516 2.4991593280514053 0 0 0 0 175.08047587129658 -605.69170140506321 0 -605.69170140506321 296.39977247330535 0 0 0 0 -484.55142982184771 -127.01539855010924 0 -127.01539855010924 1093.6766669311328 0 0 0 0 -1365.0417640023234 640.82766986668503 0 640.82766986668503 -311.59731411615212 0 0 0 0 -1797.2189322410095 377.86501931614202 0 377.86501931614202 -467.83751975777705 0 0 0 0 -215.83198647001427 -321.30895835172123 0 -321.30895835172123 495.08451109268935 0 0 0 0 -6.0015862755722296 -5.9651361860344281 0 -5.9651361860344281 -7.544737337029602 0 0 0 0 390.05265707055878 503.14328003937408 0 503.14328003937408 -256.18194389766722 0 0 0 0 1237.0611934782082 -39.343195724628458 0 -39.343195724628458 -282.31142947100443 0 0 0 0 -192.20622882048337 309.5181852147507 0 309.5181852147507 -460.80616388122144 0 0 0 0 1004.3811888629771 -926.27165009215241 0 -926.27165009215241 449.13313106969463 0 0 0 0 -12.994730037323471 -1.2008128464552357 0 -1.2008128464552357 0.76597472263713229 0 0 0 0 -258.04861301584606 993.62897589983913 0 993.62897589983913 -553.17827429692807 0 0 0 0 -299.91737138030476 698.65558650239836 0 698.65558650239836 -958.91180654255004 0 0 0 0 -194.17645797273872 -927.79380537169345 0 -927.79380537169345 1737.8406118584826 0 0 0 0 26.826931269681587 30.130444889727983 0 30.130444889727983 25.840250594449387 0 0 0 0 -721.23740283722873 787.54392020017985 0 787.54392020017985 -437.30603980554952 0 0 0 0 110.78533411134777 217.62084157067875 0 217.62084157067875 1557.5734604732643 0 0 0 0 -550.71668635912101 221.0904273511369 0 221.0904273511369 40.270292332876124 0 0 0 0 -124.29604138555305 -88.876325026991253 0 -88.876325026991253 -160.32711141745676 0 0 0 0 -888.77162537146251 623.70326006906544 0 623.70326006906544 -212.503149020602 0 0 0 0 -6.9031883861086225 38.275467786253643 0 38.275467786253643 66.216888484829212 0 0 0 0 -26.945661854765831 20.209906986302485 0 20.209906986302485 40.007115257409168 0 0 0 0 312.38539410670182 -255.19783658017695 0 -255.19783658017695 259.2253957381181 0 0 0 0 57.840906995715159 101.28567030212434 0 101.28567030212434 147.97410978707194 0 0 0 0 -10.915284823886935 22.531518144740033 0 22.531518144740033 39.727653497160134 0 0 0 0 35.250353631386716 39.42005198607518 0 39.42005198607518 39.767405106237206 0 0 0 0 -931.45793927787599 -345.14142266237468 0 -345.14142266237468 210.33988946447062 0 0 0 0 50.157379261307142 572.89109853013724 0 572.89109853013724 -376.76095209264895 0 0 0 0 382.53281933300423 321.74648788100603 0 321.74648788100603 233.32284066583088 0 0 0 0 6.2047116876466397 7.2192447102880255 0 7.2192447102880255 13.206237452489916 0 0 0 0 819.87402534735338 -964.99096265507978 0 -964.99096265507978 1225.0239536473237 0 0 0 0 -138.14880296396859 -195.3074455744827 0 -195.3074455744827 2703.9636839133309 0 0 0 0 597.54808462735241 -481.53243414203553 0 -481.53243414203553 2514.1027955389145 0 0 0 0 -124.41237610171538 -559.67691985473721 0 -559.67691985473721 2592.6345988538014 0 0 0 0 782.75761168807458 -337.9216475400317 0 -337.9216475400317 2042.5796618388413 0 0 0 0 -107.57625521278624 76.476455757481745 0 76.476455757481745 2198.9001654266685 0 0 0 0 695.61137851867932 -158.61238958461672 0 -158.61238958461672 1795.1023704764521 0 0 0 0 -69.753074816751564 -81.022998967770263 0 -81.022998967770263 5487.880059187024 0 0 0 0 10.201924523583365 12.219549367349515 0 12.219549367349515 12.48395265985377 0 0 0 0 -91.907792224083096 -365.70421154986252 0 -365.70421154986252 2673.586913486266 0 0 0 0 1056.2415162691987 833.889179635451 0 833.889179635451 3431.0224662470391 0 0 0 0 5.0519839976186631 1309.6297695110879 0 1309.6297695110879 4152.7865226823633 0 0 0 0 456.32777438962466 1335.0423531235865 0 1335.0423531235865 3059.4544324853705 0 0 0 0 173.01258298528535 634.49986749218851 0 634.49986749218851 1306.2341857645806 0 0 0 0 980.64708489603163 -141.63494822290158 0 -141.63494822290158 2002.9013517711392 0 0 0 0 558.03727354207513 1446.4303354094809 0 1446.4303354094809 -1151.7814731921972 0 0 0 0 615.32275135333839 2025.8318782589631 0 2025.8318782589631 2097.3071423210131 0 0 0 0 -312.54472561040166 1210.5383972422205 0 1210.5383972422205 3933.3137740819511 0 0 0 0 -286.56432136926833 1044.2378113367122 0 1044.2378113367122 2265.0933659116563 0 0 0 0 57.471045522059285 -232.3849354273043 0 -232.3849354273043 1651.1956339028568 0 0 0 0 25.877584495628071 558.11956277275749 0 558.11956277275749 1113.6339833676138 0 0 0 0 -39.204616638146945 -132.91996119966643 0 -132.91996119966643 651.00032701571763 0 0 0 0 307.6862856418602 614.87801825788847 0 614.87801825788847 1002.779825434216 0 0 0 0 268.83844384554595 995.56434399669524 0 995.56434399669524 1674.4612281953887 0 0 0 0 144.29950653220385 1166.2034444247365 0 1166.2034444247365 2170.7008266503544 0 0 0 0 75.961739434504125 956.87433913994755 0 956.87433913994755 1690.4586837435136 0 0 0 0 -102.68054238592231 1579.3852392150275 0 1579.3852392150275 3775.8610674684533 0 0 0 0 -3.466798334190571 824.70127212993248 0 824.70127212993248 2537.0631932138276 0 0 0 0 504.39080548122183 1436.660800046724 0 1436.660800046724 1546.2373886504884 0 0 0 0 255.70136174506388 1382.6698940099523 0 1382.6698940099523 1913.6820402714075 0 0 0 0 1292.6943586964917 546.5292436521122 0 546.5292436521122 1983.3699806123382 0 0 0 0 315.57250946582144 2707.6303348837373 0 2707.6303348837373 2278.3709605076001 0 0 0 0 432.62166325682392 1706.1862907428131 0 1706.1862907428131 -767.61101852576394 0 0 0 0 -142.30315270651545 292.46195340343911 0 292.46195340343911 692.43312939198222 0 0 0 0 -7.675753902532847 4.7556082932700718 0 4.7556082932700718 3.2029683035399472 0 0 0 0 -88.578959568080791 253.67428751867556 0 253.67428751867556 688.94401005020882 0 0 0 0 -91.843065358890271 251.60453646640235 0 251.60453646640235 716.43577560838958 0 0 0 0 -21.437759130315467 6.4648706510083258 0 6.4648706510083258 4.5055376832554224 0 0 0 0 194.60340433317469 440.04559688825975 0 440.04559688825975 680.81909802782866 0 0 0 0 -1922.9167212705893 428.14200363578675 0 428.14200363578675 2158.7849645527167 0 0 0 0 437.37046725851178 704.24132111036306 0 704.24132111036306 231.43530621111859 0 0 0 0 190.32502738856419 999.47330096790756 0 999.47330096790756 2225.0011647955253 0 0 0 0 818.74307278551419 560.52504431409034 0 560.52504431409034 3498.9063496992603 0 0 0 0 -10.805980376126595 -140.62840899951516 0 -140.62840899951516 1139.804047749305 0 0 0 0 0.12837725935053201 -185.69027003832161 0 -185.69027003832161 1043.671784532984 0 0 0 0 -46.843769844421587 -36.102192224434475 0 -36.102192224434475 836.96534830157179 0 0 0 0 224.22333469918249 406.25117500902707 0 406.25117500902707 265.4007649779287 0 0 0 0 0.11555046529674595 -1.1678863316020909 0 -1.1678863316020909 1.8502812796833581 0 0 0 0 -0.70024113080275019 -71.254896733469963 0 -71.254896733469963 1204.656432564414 0 0 0 0 -21.916316115387133 1202.1438558908631 0 1202.1438558908631 3784.4049329432382 0 0 0 0 -103.49811031194577 -93.906194918905385 0 -93.906194918905385 179.37892578176616 0 0 0 0 216.6444517343466 -1262.1880577420561 0 -1262.1880577420561 3924.2314340108351 0 0 0 0 -82.889101322987955 369.79775812972139 0 369.79775812972139 -20.303702987439465 0 0 0 0 4.3377088667867012 7.2335152515413199 0 7.2335152515413199 11.00934384715714 0 0 0 0 10.374818903893754 22.335047973464356 0 22.335047973464356 24.150554255589668 0 0 0 0 -93.742367966221835 70.757519927530439 0 70.757519927530439 77.910702262466657 0 0 0 0 33.665623382469676 -171.830367016737 0 -171.830367016737 535.38237455437229 0 0 0 0 -3.0100024816523692 -3.0448531299883825 0 -3.0448531299883825 0.18574346847309187 0 0 0 0 205.12235103440651 -187.04760452392736 0 -187.04760452392736 -0.98769430295214988 0 0 0 0 -97.614756874940497 -62.072430444779457 0 -62.072430444779457 706.32781319286732 0 0 0 0 112.0493124953644 -37.981534008140443 0 -37.981534008140443 168.57786910052528 0 0 0 0 -4.8391168637388091 3.4912800345919095 0 3.4912800345919095 455.40881648702634 0 0 0 0 207.52008244065314 -178.81197941933351 0 -178.81197941933351 499.823569264865 0 0 0 0 162.10417207856665 -181.65550321998307 0 -181.65550321998307 203.49642635334749 0 0 0 0 0.12907466411384627 22.426575734591438 0 22.426575734591438 25.774059755263892 0 0 0 0 90.835475208176803 119.58527638687519 0 119.58527638687519 37.422282206942327 0 0 0 0 -57.976036667849598 73.427345452975715 0 73.427345452975715 35.486593649739007 0 0 0 0 -1.2607629703205401 2.655745118980434 0 2.655745118980434 17.094314808818837 0 0 0 0 106.54330885394211 -142.14073374844156 0 -142.14073374844156 70.56009091706801 0 0 0 0 -10.125187648854965 0.22659015787411363 0 0.22659015787411363 11.941367050864514 0 0 0 0 -47.111422464973487 -128.06312111408624 0 -128.06312111408624 307.60396190491156 0 0 0 0 46.086962952255931 -338.86060075760906 0 -338.86060075760906 2188.3109355683118 0 0 0 0 -758.69749765482175 362.76002971355047 0 362.76002971355047 3499.682267618573 0 0 0 0 -137.89485893956717 -346.74196696295985 0 -346.74196696295985 2188.2129335081117 0 0 0 0 -426.99312538427148 -248.63416446006158 0 -248.63416446006158 2933.1394763933204 0 0 0 0 -244.07063820836822 472.14384449400677 0 472.14384449400677 1974.1773721261779 0 0 0 0 -413.55300509374706 -83.21559822474228 0 -83.21559822474228 1763.3316376855219 0 0 0 0 20.908124582490814 -82.320051839167718 0 -82.320051839167718 954.7894541042424 0 0 0 0 -414.85728759083912 330.81260417721933 0 330.81260417721933 2405.0072217277193 0 0 0 0 127.09991291675783 195.04954361326963 0 195.04954361326963 467.53509967208083 0 0 0 0 0.11342070413627425 117.36287553219154 0 117.36287553219154 1034.756715655185 0 0 0 0 274.28930944512013 847.45276832374657 0 847.45276832374657 1316.433213572629 0 0 0 0 -136.08704168514268 933.71740520049207 0 933.71740520049207 2541.6969149037759 0 0 0 0 1818.8483846412321 1320.1127788307786 0 1320.1127788307786 4659.2618423853855 0 0 0 0 398.085723837817 944.57344922903576 0 944.57344922903576 503.64843344817928 0 0 0 0 -64.358053766132443 447.01076379517326 0 447.01076379517326 4570.1400226844853 0 0 0 0 398.15774398773311 1332.9371784728064 0 1332.9371784728064 1949.9451487549813 0 0 0 0 334.80702869819316 452.26921401984146 0 452.26921401984146 603.52788978631725 0 0 0 0 297.89598572862542 434.50152778522897 0 434.50152778522897 649.34538670248003 0 0 0 0 236.59048877269458 16.84528221344226 0 16.84528221344226 234.59629584137292 0 0 0 0 84.240260943691965 -30.199506405326247 0 -30.199506405326247 185.29087105711005 0 0 0 0 13.11489960498659 -11.773312647499552 0 -11.773312647499552 289.36965502958628 0 0 0 0 65.908871613978931 -59.423867005687498 0 -59.423867005687498 -56.592980759458442 0 0 0 0 124.37040845742786 127.13826616378719 0 127.13826616378719 273.6033519685443 0 0 0 0 81.568553851741399 -120.04171612342179 0 -120.04171612342179 -55.675849188875873 0 0 0 0 339.87158054248175 195.98996902930594 0 195.98996902930594 259.92804435454309 0 0 0 0 -69.678744170233585 203.40278311088332 0 203.40278311088332 486.69138449681122 0 0 0 0 -99.539766486551997 -141.25351648290143 0 -141.25351648290143 604.25011279871978 0 0 0 0 -61.437957864764712 74.945961029428872 0 74.945961029428872 435.34688112494769 0 0 0 0 -10.859370070344076 15.135614770994053 0 15.135614770994053 22.101096116246936 0 0 0 0 31.139641147570728 -32.090552234411007 0 -32.090552234411007 80.717323605451384 0 0 0 0 -62.449674661485915 -70.326397702672693 0 -70.326397702672693 -0.66722385970933829 0 0 0 0 68.825435029241589 65.503867113038723 0 65.503867113038723 -101.13674828409239 0 0 0 0 -43.517751150965267 -518.77187631169363 0 -518.77187631169363 824.40063722824561 0 0 0 0 -81.713213674840517 -123.67679663152376 0 -123.67679663152376 468.11050908797188 0 0 0 0 53.543852677824624 -211.95282467592358 0 -211.95282467592358 280.65312787465518 0 0 0 0 -6.7268719981848522 0.78108661603988594 0 0.78108661603988594 13.574295925074296 0 0 0 0 113.4073917848591 -212.17051245742186 0 -212.17051245742186 314.77766881944262 0 0 0 0 141.85582668369577 -201.44356560673987 0 -201.44356560673987 613.04838259407552 0 0 0 0 4.9095992774127808 -83.46590573569847 0 -83.46590573569847 899.98426845247741 0 0 0 0 -94.096042670499628 -372.30181283022102 0 -372.30181283022102 1074.2206821415457 0 0 0 0 -311.17856579509868 -232.49780040208407 0 -232.49780040208407 1898.8211523607897 0 0 0 0 22.210792518289963 -34.144081841041043 0 -34.144081841041043 1410.6693661967583 0 0 0 0 -193.51169519388168 -555.73102223565365 0 -555.73102223565365 1666.7653921392048 0 0 0 0 -308.85491649453161 -233.16256024542963 0 -233.16256024542963 1710.4652285151788 0 0 0 0 -77.992915952151634 -262.68550505857274 0 -262.68550505857274 962.37688838221948 0 0 0 0 268.72211643904575 -661.01229809784854 0 -661.01229809784854 897.88460090450826 0 0 0 0 -155.42358358923235 -354.50139127295597 0 -354.50139127295597 1802.3885822405864 0 0 0 0 -104.13040028645355 422.39171647687908 0 422.39171647687908 1494.6583100274511 0 0 0 0 -411.4494017639613 -384.32165116412943 0 -384.32165116412943 1897.670503690606 0 0 0 0 -184.78033918727715 64.922017522287206 0 64.922017522287206 1019.3684837175533 0 0 0 0 -118.37947115391398 -512.98260781598947 0 -512.98260781598947 1248.3337122459707 0 0 0 0 -444.18627536471104 -204.37127425214203 0 -204.37127425214203 1856.0596101323317 0 0 0 0 -358.70299750034792 -257.04665427566215 0 -257.04665427566215 1888.4314310614282 0 0 0 0 -281.73769521704713 -17.164494160586401 0 -17.164494160586401 2453.9132221124164 0 0 0 0 820.08787109878904 162.33123126947612 0 162.33123126947612 1642.5493770440953 0 0 0 0 498.29080828649808 -737.13523355465804 0 -737.13523355465804 300.35696813203685 0 0 0 0 -174.4137523849306 -741.36704943929362 0 -741.36704943929362 2150.6423131203483 0 0 0 0 5.8311203979787445 -6.2475210188674453 0 -6.2475210188674453 9.2899500001543913 0 0 0 0 147.16299017707104 811.86199422748905 0 811.86199422748905 2563.5299658026051 0 0 0 0 253.7096347782923 -702.92041159099608 0 -702.92041159099608 2636.8317061710081 0 0 0 0 101.29107202470237 -248.89551415256938 0 -248.89551415256938 1490.6067145868146 0 0 0 0 61.209990366069974 -295.91012657900001 0 -295.91012657900001 1384.9239596092957 0 0 0 0 75.028982805792793 -47.907589371192444 0 -47.907589371192444 1153.5931922405143 0 0 0 0 0.19523357041362033 -138.07204524074405 0 -138.07204524074405 769.51839878995088 0 0 0 0 392.21004857588923 -250.77341238082954 0 -250.77341238082954 798.87249255907955 0 0 0 0 105.42371322828262 -485.34364996628938 0 -485.34364996628938 1210.5838572674111 0 0 0 0 -20.153714467584507 -227.94332551506886 0 -227.94332551506886 1002.766035961642 0 0 0 0 48.051123647380678 -251.01909182558302 0 -251.01909182558302 700.30083741009298 0 0 0 0 -76.034154543728391 -252.50179290529195 0 -252.50179290529195 1126.2119328685221 0 0 0 0 -14.495521204367037 -288.54171190444322 0 -288.54171190444322 954.51575823218081 0 0 0 0 -41.87860647154389 -205.49804256937932 0 -205.49804256937932 1138.1884080633918 0 0 0 0 -95.491540535430502 -302.88893810499121 0 -302.88893810499121 1483.0182868397533 0 0 0 0 -69.207486862371979 -206.25884030219459 0 -206.25884030219459 1483.9420496087841 0 0 0 0 -276.75000852365508 -21.860833337628719 0 -21.860833337628719 1534.5741320724046 0 0 0 0 -226.38447375162917 -162.8674935823874 0 -162.8674935823874 1922.6408687378935 0 0 0 0 112.90967691040984 577.60441062493101 0 577.60441062493101 968.0493576486042 0 0 0 0 -138.19234787832488 -65.355603432297357 0 -65.355603432297357 635.64314056085277 0 0 0 0 31.04950786336417 -342.55338775040582 0 -342.55338775040582 620.46982065403427 0 0 0 0 -184.77627058455414 -115.87835676370378 0 -115.87835676370378 1306.4089716025483 0 0 0 0 -138.59124144973902 92.62974506271712 0 92.62974506271712 1364.9242843195825 0 0 0 0 117.74925069091734 -78.838040162154357 0 -78.838040162154357 1269.5739529590501 0 0 0 0 -44.092486353905144 -223.73515232546197 0 -223.73515232546197 1407.6524988832825 0 0 0 0 88.142959081417359 223.38132819496968 0 223.38132819496968 1043.2055379495869 0 0 0 0 0.38527315741179824 -2.0765323113325564 0 -2.0765323113325564 5.5924317643695645 0 0 0 0 -0.13615624830027445 -99.34365052641806 0 -99.34365052641806 939.74529812320543 0 0 0 0 -93.88442217650254 -71.0597163612656 0 -71.0597163612656 1095.6883738036413 0 0 0 0 -0.16567640009735224 -184.24771404210333 0 -184.24771404210333 1214.4449791608131 0 0 0 0 -62.925621302405432 -230.84162238525641 0 -230.84162238525641 1223.3533941180503 0 0 0 0 0.18063863438555927 -194.71493672175711 0 -194.71493672175711 1085.1368838693816 0 0 0 0 -2.5676541855220005 -240.0667699263131 0 -240.0667699263131 1123.4323727721203 0 0 0 0 0.32419362915353944 65.066810675663874 0 65.066810675663874 955.66446230748988 0 0 0 0 105.06545868834462 384.06066304442356 0 384.06066304442356 531.65061427817272 0 0 0 0 119.82396455594649 65.772210882772924 0 65.772210882772924 280.72397813509815 0 0 0 0 559.61185869799203 1435.7706333108654 0 1435.7706333108654 1479.9795699817769 0 0 0 0 -347.98409156569488 369.95745358911518 0 369.95745358911518 1637.1410365716292 0 0 0 0 552.76717365562627 870.72672274651995 0 870.72672274651995 337.31388427200727 0 0 0 0 -352.59546440723852 810.25327447013115 0 810.25327447013115 2913.5602465055417 0 0 0 0 -82.610865783476711 -562.48548950649274 0 -562.48548950649274 2303.5668462690264 0 0 0 0 -285.98417454130089 206.17455245082056 0 206.17455245082056 1640.0439829367679 0 0 0 0 -136.17178595597079 294.3827288130924 0 294.3827288130924 1642.3929271002658 0 0 0 0 -0.064979264345860932 -0.30903835046706263 0 -0.30903835046706263 2.8722143096081254 0 0 0 0 0.10063099570301018 -52.848068384308135 0 -52.848068384308135 -48.185142786081997 0 0 0 0 -0.38558798441819758 -0.55295995095069372 0 -0.55295995095069372 4.894680775296024 0 0 0 0 -121.88864562394446 -40.597010997182224 0 -40.597010997182224 -3.803255392704159 0 0 0 0 71.986535719149771 221.203822481315 0 221.203822481315 -1.3643670716555789 0 0 0 0 -96.161577895287706 -95.261820840547443 0 -95.261820840547443 87.019273412923212 0 0 0 0 -0.24563080539997495 -0.098129475300794411 0 -0.098129475300794411 1.5274075455853904 0 0 0 0 51.870914549697915 -2.3746473665505619 0 -2.3746473665505619 -177.12239190703258 0 0 0 0 83.016513326287964 -13.282919163539191 0 -13.282919163539191 13.103575602275669 0 0 0 0 136.75496424859466 43.755605866754195 0 43.755605866754195 -190.13935924188991 0 0 0 0 -3.8100640755322979 3.2376843448358557 0 3.2376843448358557 5.9770059568194256 0 0 0 0 -53.899997545077554 17.200941161907394 0 17.200941161907394 -12.477136262576096 0 0 0 0 290.47067495630108 126.65473624135484 0 126.65473624135484 22.303378544514999 0 0 0 0 125.24352574729053 -238.23175795229326 0 -238.23175795229326 184.20906646223011 0 0 0 0 -0.9224929377366351 128.08081832032258 0 128.08081832032258 417.73385890088684 0 0 0 0 -93.305067334085976 -77.68498815062776 0 -77.68498815062776 87.516824990452733 0 0 0 0 -175.25026615245213 9.8380380884700571 0 9.8380380884700571 66.881751520370017 0 0 0 0 -20.868314525034975 155.70093289496435 0 155.70093289496435 201.45635530772688 0 0 0 0 -9.2092367412478779 98.697476653564081 0 98.697476653564081 -1.5807982624828583 0 0 0 0 6.1821870134005561 -7.6535936990030535 0 -7.6535936990030535 19.920057671672282 0 0 0 0 -4.0065581106567549 0.086915430933004245 0 0.086915430933004245 43.245984373861575 0 0 0 0 -1.5891322814129243 -4.3827891207900507 0 -4.3827891207900507 8.236719567730912 0 0 0 0 -3.4895823253671661 8.056652059945236 0 8.056652059945236 9.7664425764499896 0 0 0 0 275.61080082491327 -135.08256151564274 0 -135.08256151564274 -118.13328255437955 0 0 0 0 15.74952315478879 144.34031469532056 0 144.34031469532056 424.68061802227749 0 0 0 0 7.6574338573151071 -18.862953356385617 0 -18.862953356385617 25.506982945771313 0 0 0 0 -14.662198178829676 0.15573956143838075 0 0.15573956143838075 23.405659532920254 0 0 0 0 155.85255018646251 348.44086053884894 0 348.44086053884894 644.74750530986057 0 0 0 0 13.515024354648515 9.474968067203605 0 9.474968067203605 9.3044106538335996 0 0 0 0 20.369625662008275 23.805358927311318 0 23.805358927311318 18.445736775414844 0 0 0 0 147.39734293365723 -261.31368530465988 0 -261.31368530465988 66.682286881143227 0 0 0 0 49.810669954327523 398.99163712373411 0 398.99163712373411 972.08301566517912 0 0 0 0 -48.387744988019676 505.39821558218682 0 505.39821558218682 958.05658959424181 0 0 0 0 -119.3966112944255 337.72772752942547 0 337.72772752942547 1573.5631280339439 0 0 0 0 27.226119533407314 83.283325093136227 0 83.283325093136227 1498.0881757232128 0 0 0 0 -268.68171739212471 -351.33074473736633 0 -351.33074473736633 2470.2814002059122 0 0 0 0 -70.645633225593315 -135.72602531647863 0 -135.72602531647863 1010.070568878873 0 0 0 0 91.357776692785137 1059.6139470444468 0 1059.6139470444468 2538.7036616997502 0 0 0 0 1158.3375753074893 1047.3241330700985 0 1047.3241330700985 304.14770183816654 0 0 0 0 594.0188674020676 695.14359001507933 0 695.14359001507933 3622.00124197267 0 0 0 0 2.1750887672937997 -6.6908569741415249 0 -6.6908569741415249 13.111700037485605 0 0 0 0 2.2885412636331637 -4.243228782547817 0 -4.243228782547817 9.3694796521510284 0 0 0 0 246.72780074040804 -436.77396869210133 0 -436.77396869210133 168.28959635979845 0 0 0 0 112.00134808264465 784.88359534975461 0 784.88359534975461 3608.3511228606221 0 0 0 0 -299.30528387489056 -796.47540602413937 0 -796.47540602413937 1140.6429937515641 0 0 0 0 -168.85763944159135 -1038.5189119739953 0 -1038.5189119739953 -183.32463271269808 0 0 0 0 -765.7691437055073 186.17441509338096 0 186.17441509338096 134.18175982583489 0 0 0 0 254.67835723605413 16.149259617144708 0 16.149259617144708 -700.1626285182283 0 0 0 0 150.26805426362318 -62.141282680669974 0 -62.141282680669974 335.63964683806989 0 0 0 0 295.65475653293402 157.46769788958045 0 157.46769788958045 593.96285835726303 0 0 0 0 544.64515515107007 469.31982432071527 0 469.31982432071527 636.22072707167172 0 0 0 0 361.95541274143602 -65.580249383725459 0 -65.580249383725459 1021.2521412320202 0 0 0 0 358.99809772456206 -151.21833756171691 0 -151.21833756171691 89.019655533804325 0 0 0 0 211.23549861327808 422.2504477827606 0 422.2504477827606 1029.381488712701 0 0 0 0 221.17842803428846 493.34429913367057 0 493.34429913367057 904.94033826598024 0 0 0 0 340.63430129821842 319.00796765457198 0 319.00796765457198 1135.7452466262039 0 0 0 0 351.45268426517828 444.25863320143026 0 444.25863320143026 998.41029515801347 0 0 0 0 330.57068594307748 613.66297084827238 0 613.66297084827238 1197.7394985925421 0 0 0 0 2.1912045623769245 174.12384820524312 0 174.12384820524312 1466.7417017436201 0 0 0 0 15.274556248289173 439.59518294814188 0 439.59518294814188 1574.2478613106214 0 0 0 0 26.251328122718178 206.83354640859761 0 206.83354640859761 1121.0224646303632 0 0 0 0 34.12052231201541 317.4545585191654 0 317.4545585191654 1365.5117094164598 0 0 0 0 -94.521780531532499 350.95093605887087 0 350.95093605887087 1360.6356479300011 0 0 0 0 3.9699310900771252 103.03112964254251 0 103.03112964254251 1059.58182002385 0 0 0 0 -57.42204939068688 93.498197454893671 0 93.498197454893671 129.96163109636109 0 0 0 0 -29.330258324911071 6.1991319642000349 0 6.1991319642000349 7.5818258514467161 0 0 0 0 -138.10221568189945 4.4875963387821685 0 4.4875963387821685 76.014558866416337 0 0 0 0 349.71877936387909 367.89229506621632 0 367.89229506621632 330.10982893913751 0 0 0 0 -105.48071547843983 108.5195003908957 0 108.5195003908957 293.77015318016879 0 0 0 0 356.38341396547867 -103.5570017433638 0 -103.5570017433638 31.957463786959124 0 0 0 0 -12.621503729102214 5.4854519505787209 0 5.4854519505787209 -0.45963737402705718 0 0 0 0 5.0588449251568548 3.8711123755210792 0 3.8711123755210792 2.3475452592654165 0 0 0 0 33.37682792669284 559.20136730708327 0 559.20136730708327 2394.6298661787005 0 0 0 0 105.99579853532282 20.429368664306821 0 20.429368664306821 -125.70873617626057 0 0 0 0 -77.576787596797658 523.25343033940226 0 523.25343033940226 1577.7811501274118 0 0 0 0 143.81682522362644 380.15802046874887 0 380.15802046874887 1616.991512362325 0 0 0 0 -1.4171709253482732 606.68276642484852 0 606.68276642484852 1640.8151217153936 0 0 0 0 -2.430176479860183 2.8538309402094342 0 2.8538309402094342 1.2616801199057281 0 0 0 0 1.7576540072725493 -122.48736476312479 0 -122.48736476312479 392.12467305007885 0 0 0 0 116.93457100484375 637.96038107051208 0 637.96038107051208 1465.0313943042202 0 0 0 0 105.23720271948287 440.14127487194855 0 440.14127487194855 1231.3833246780705 0 0 0 0 121.33593899994844 491.45699262100607 0 491.45699262100607 1224.2154454487027 0 0 0 0 545.58822212174528 474.40038380016267 0 474.40038380016267 1311.5686280746449 0 0 0 0 181.93196002782634 469.61562963914184 0 469.61562963914184 1314.3539336963895 0 0 0 0 136.89936038126234 426.83604483889212 0 426.83604483889212 1009.1218694830695 0 0 0 0 250.34325848333378 435.37814116053414 0 435.37814116053414 878.924456358116 0 0 0 0 152.36102235098411 -51.624871657531912 0 -51.624871657531912 -157.01024935704118 0 0 0 0 9.9153245740706062 -10.835106116454853 0 -10.835106116454853 7.3259252625018121 0 0 0 0 172.36079944760331 196.03450880543096 0 196.03450880543096 684.62483766311925 0 0 0 0 -59.074637943406628 13.440811628261145 0 13.440811628261145 200.15407205571682 0 0 0 0 35.099226781592563 281.86964349254959 0 281.86964349254959 864.75212046312663 0 0 0 0 348.45999462430314 10.726493395464786 0 10.726493395464786 -458.83530667046398 0 0 0 0 3.1546016512567467 0.59393913419481237 0 0.59393913419481237 0.1779931030747548 0 0 0 0 408.77005918406769 159.06177277102688 0 159.06177277102688 108.21561151539208 0 0 0 0 45.466205616495358 8.7179609792583506 0 8.7179609792583506 91.908545831291121 0 0 0 0 32.322810118249436 33.338243300884642 0 33.338243300884642 323.13448186243477 0 0 0 0 -22.240829303151713 -4.9870594830354094 0 -4.9870594830354094 84.696101015695604 0 0 0 0 -21.425611707595181 45.368411936055054 0 45.368411936055054 198.28463259740965 0 0 0 0 -58.465405828522535 -58.633249928061559 0 -58.633249928061559 51.477737041423097 0 0 0 0 -30.49472801635693 19.421272158753709 0 19.421272158753709 116.47008248871134 0 0 0 0 -83.330213249733333 -92.014580244911485 0 -92.014580244911485 104.15096223787987 0 0 0 0 -47.611224582842169 -103.34437777419407 0 -103.34437777419407 -52.845333208242664 0 0 0 0 95.821802469996101 -75.289017347311528 0 -75.289017347311528 -161.8271993878152 0 0 0 0 128.20188051762125 332.67187218580511 0 332.67187218580511 822.78581550943636 0 0 0 0 -0.74708998449273079 -10.302509904727714 0 -10.302509904727714 7.5029799080672888 0 0 0 0 281.7256557602534 481.65706804895308 0 481.65706804895308 888.74897474284808 0 0 0 0 437.44836423612355 619.83411238537519 0 619.83411238537519 970.73780826451548 0 0 0 0 150.52170557463216 574.32401399623905 0 574.32401399623905 1002.486817381432 0 0 0 0 422.95307925453812 811.53844554178795 0 811.53844554178795 1209.0296190298832 0 0 0 0 949.86941464382562 578.41079528407136 0 578.41079528407136 675.91258770879904 0 0 0 0 489.75700754231912 461.94733869461197 0 461.94733869461197 708.70485455490416 0 0 0 0 665.8508728071688 332.23917960107065 0 332.23917960107065 18.063701457343996 0 0 0 0 54.279108805105125 203.60626705345567 0 203.60626705345567 720.36642593867145 0 0 0 0 255.96248108771329 41.13905585374232 0 41.13905585374232 24.392103619553382 0 0 0 0 711.56862781782957 525.6507258413767 0 525.6507258413767 572.9113957733789 0 0 0 0 469.82333168215155 577.92140994707734 0 577.92140994707734 1868.2888212220569 0 0 0 0 247.0656718837331 416.54770451475633 0 416.54770451475633 1131.1732807165827 0 0 0 0 1046.0043560921461 1222.5525093347169 0 1222.5525093347169 1099.2187214787409 0 0 0 0 763.24199195469669 1334.2988089453429 0 1334.2988089453429 1760.3732939624169 0 0 0 0 -1.1120304101427365 -1.5938521755236721 0 -1.5938521755236721 3.8597823310133208 0 0 0 0 -7.133372219055218 -34.852620247824234 0 -34.852620247824234 1157.1778157533336 0 0 0 0 -14.217202040401226 -3.8377378607469836 0 -3.8377378607469836 13.177195756501604 0 0 0 0 1370.7370702356579 1536.1277704476815 0 1536.1277704476815 1592.4630317622941 0 0 0 0 -139.10495397789282 -52.253055232020415 0 -52.253055232020415 56.200048721657367 0 0 0 0 -99.404233826939162 -21.568180875343387 0 -21.568180875343387 18.256684081046842 0 0 0 0 -84.55281425222347 11.498486382224655 0 11.498486382224655 106.9616950740965 0 0 0 0 -82.875509398211477 -18.364437601990403 0 -18.364437601990403 14.835756693646545 0 0 0 0 -255.78521263012863 -72.912057539004309 0 -72.912057539004309 348.47776893105765 0 0 0 0 -158.98029767380831 -1.6986594843983767 0 -1.6986594843983767 99.510215271257039 0 0 0 0 27.611858912669049 -43.855465265092789 0 -43.855465265092789 61.154861426344723 0 0 0 0 -11.823667517915837 15.386931006138205 0 15.386931006138205 49.463625053516466 0 0 0 0 -13.610593236444014 15.441043974873295 0 15.441043974873295 39.886268896480146 0 0 0 0 54.194974379209725 13.440427197345343 0 13.440427197345343 33.657319610661943 0 0 0 0 756.73024414680458 640.77608846555449 0 640.77608846555449 155.77800711661985 0 0 0 0 8.2740452660703099 2.9711714177457793 0 2.9711714177457793 6.9380983340599727 0 0 0 0 230.64456282698961 539.34169017650856 0 539.34169017650856 1069.5822092255548 0 0 0 0 265.86041167217263 235.1891246558007 0 235.1891246558007 185.08063514893729 0 0 0 0 368.21236415863495 958.81992884055217 0 958.81992884055217 781.57722325134091 0 0 0 0 311.00757952060894 931.33812866122025 0 931.33812866122025 863.61334238872223 0 0 0 0 94.819158729129867 382.03162733821955 0 382.03162733821955 842.11002752846161 0 0 0 0 321.18413878093884 286.53826772718821 0 286.53826772718821 187.66824807194644 0 0 0 0 -384.22307558191989 815.0902262185482 0 815.0902262185482 2261.0462777008215 0 0 0 0 212.35239604423282 474.85667905957598 0 474.85667905957598 789.37134917487856 0 0 0 0 0.029416125263603606 -10.458952552806295 0 -10.458952552806295 -5.0206309901550412 0 0 0 0 1192.5651174979985 1469.5792600502464 0 1469.5792600502464 970.97533355023916 0 0 0 0 -0.044436073973301474 -10.633914023422602 0 -10.633914023422602 -4.5667942838044837 0 0 0 0 -0.057392506391078256 1.9096860230299626 0 1.9096860230299626 12.397774161882012 0 0 0 0 740.38445922592007 764.75678179178431 0 764.75678179178431 483.5934691233706 0 0 0 0 -27.666361810186199 -3.3745803199526563 0 -3.3745803199526563 81.25579532473057 0 0 0 0 -428.40269212667283 83.681893803230196 0 83.681893803230196 644.28942346326221 0 0 0 0 -1.2451177844741859 -3.552278508364239 0 -3.552278508364239 28.451985574299727 0 0 0 0 -0.39987280544756948 2.0434162449117395 0 2.0434162449117395 4.4254090675053703 0 0 0 0 748.53553719582123 500.96177320381685 0 500.96177320381685 677.94851332964026 0 0 0 0 -124.19576415557958 241.61487198311079 0 241.61487198311079 933.67395192309777 0 0 0 0 -42.490635608675262 306.80080583742892 0 306.80080583742892 138.65246893839503 0 0 0 0 9.5104206081777249 -306.42656227309271 0 -306.42656227309271 -381.04637263616314 0 0 0 0 -552.73168644211705 -693.01561960252639 0 -693.01561960252639 -91.087985782971373 0 0 0 0 131.33597665465919 120.70795800560154 0 120.70795800560154 161.45422074291855 0 0 0 0 1.9572520026109412 -12.678815280407449 0 -12.678815280407449 28.129956999583555 0 0 0 0 391.79447574384403 289.52916651980922 0 289.52916651980922 348.13921275245957 0 0 0 0 -213.40389788436369 76.481258453786722 0 76.481258453786722 560.71155136480957 0 0 0 0 130.71106767800126 348.24326354226469 0 348.24326354226469 507.23418547364417 0 0 0 0 0.18966623835045235 3.5374027701859441 0 3.5374027701859441 118.539526748762 0 0 0 0 -156.51096735018939 -113.99620695202611 0 -113.99620695202611 -232.71092889946885 0 0 0 0 68.615594854022675 300.4297821650689 0 300.4297821650689 497.48958435242821 0 0 0 0 1.5957189169441053 -3.2774859907409279 0 -3.2774859907409279 -2.0274575111453146 0 0 0 0 250.4866614674462 -451.56052258106502 0 -451.56052258106502 907.3242330426292 0 0 0 0 -0.0059915734404967225 -71.332982489635469 0 -71.332982489635469 1163.1349150041424 0 0 0 0 555.7471047341495 -264.29675148952447 0 -264.29675148952447 245.57470743294107 0 0 0 0 190.36380329613394 22.240448160599044 0 22.240448160599044 356.0673382902969 0 0 0 0 233.58435722808281 56.810598938864132 0 56.810598938864132 213.40980217377364 0 0 0 0 47.156332136745505 -143.5602494042032 0 -143.5602494042032 578.08502608199342 0 0 0 0 -19.696921096651977 12.722280177546054 0 12.722280177546054 664.58022018088377 0 0 0 0 38.839908091939606 -184.64549851799529 0 -184.64549851799529 800.36314393574867 0 0 0 0 -74.264474774330779 -146.66681505279848 0 -146.66681505279848 1020.8149347303843 0 0 0 0 -79.898511484613152 -182.87088675199811 0 -182.87088675199811 832.65407782120747 0 0 0 0 2.1604022533847456 -117.23657693264249 0 -117.23657693264249 729.32977630667301 0 0 0 0 42.073534459550757 -24.122445845647576 0 -24.122445845647576 818.27393787661276 0 0 0 0 42.047703823208735 -27.467285173945129 0 -27.467285173945129 512.0735300745182 0 0 0 0 153.16515641757724 190.14270502752333 0 190.14270502752333 20.784314788783377 0 0 0 0 17.312775784880721 4.8217968850292436 0 4.8217968850292436 1.4971865812116896 0 0 0 0 221.88585920705509 284.3094164131835 0 284.3094164131835 487.14702762418165 0 0 0 0 57.669968759034418 85.073635552274936 0 85.073635552274936 596.03805896624726 0 0 0 0 28.462130476978629 7.447956792132743 0 7.447956792132743 1.9898133154058968 0 0 0 0 -37.228728742457179 -69.933329659788797 0 -69.933329659788797 822.10985804483062 0 0 0 0 344.58372369341669 61.951151995686814 0 61.951151995686814 867.50597236786416 0 0 0 0 403.59460368996156 -452.54620203376635 0 -452.54620203376635 1056.4007613870199 0 0 0 0 313.00247298415479 -23.083300234669878 0 -23.083300234669878 371.57336719082377 0 0 0 0 -22.96819727339016 -44.4774922836732 0 -44.4774922836732 939.57497052694089 0 0 0 0 30.624518023738176 7.3159405305642338 0 7.3159405305642338 2.7823627471247576 0 0 0 0 418.56657924094088 -462.51767168378137 0 -462.51767168378137 819.25696719355074 0 0 0 0 14.153709452569547 3.7270846242693665 0 3.7270846242693665 3.1203023565600176 0 0 0 0 1355.6962925642392 222.69524243757041 0 222.69524243757041 1002.3821114184102 0 0 0 0 61.953949268691304 84.16512961056651 0 84.16512961056651 1020.289283049407 0 0 0 0 485.96225709951841 540.29171674860481 0 540.29171674860481 1257.6232622582429 0 0 0 0 431.32282962970248 570.24062786918512 0 570.24062786918512 2753.0067430141826 0 0 0 0 114.33622371453657 498.34667796249414 0 498.34667796249414 1360.2996035983742 0 0 0 0 260.27443837613373 625.126910904346 0 625.126910904346 1189.2386965919322 0 0 0 0 168.48641099757583 262.97547549336196 0 262.97547549336196 580.24018057491776 0 0 0 0 14.697808570846856 -10.581490505421954 0 -10.581490505421954 6.4078562899538838 0 0 0 0 373.71241850180184 50.006376722424193 0 50.006376722424193 592.64364537834626 0 0 0 0 206.51563311315931 -282.65899941664975 0 -282.65899941664975 1467.9742907520194 0 0 0 0 5.7221817316925359 -3.7520363906148191 0 -3.7520363906148191 2.9343583355223473 0 0 0 0 353.38740081063759 -6.212034280768421 0 -6.212034280768421 -10.781665238682763 0 0 0 0 13.838504058051171 -12.794341130727844 0 -12.794341130727844 0.52233586954025668 0 0 0 0 13.705022710054664 -8.7514729972289729 0 -8.7514729972289729 5.3061438672690144 0 0 0 0 53.57498053968493 174.07261384883896 0 174.07261384883896 178.75026616482501 0 0 0 0 -62.542578871079797 78.523675238506257 0 78.523675238506257 251.53115307260305 0 0 0 0 76.279546865149996 129.37856283654401 0 129.37856283654401 203.35659901233885 0 0 0 0 77.516764475159107 140.22279302924744 0 140.22279302924744 294.42850382695906 0 0 0 0 16.778115964776163 103.20377461862881 0 103.20377461862881 262.71451218145376 0 0 0 0 52.611821182655262 166.7058272664508 0 166.7058272664508 299.24820239185647 0 0 0 0 47.5259338805281 164.15388787437405 0 164.15388787437405 301.4828587131633 0 0 0 0 37.240424142662789 173.33436682549382 0 173.33436682549382 293.95301983422542 0 0 0 0 43.886886939432884 148.31235688047673 0 148.31235688047673 332.09837579238228 0 0 0 0 88.807195126954127 43.443821956891043 0 43.443821956891043 -106.86807884873997 0 0 0 0 4.9416010536942565 54.63067032095023 0 54.63067032095023 176.36592160492728 0 0 0 0 39.746823173505049 125.78047801240609 0 125.78047801240609 165.40755940529925 0 0 0 0 21.104661852288473 148.11051442244207 0 148.11051442244207 386.53507669223472 0 0 0 0 103.21053260437878 175.24225557262253 0 175.24225557262253 217.11254077278136 0 0 0 0 12.682937279372481 86.09076667388581 0 86.09076667388581 298.59548341078334 0 0 0 0 45.48307117478123 146.61382767232135 0 146.61382767232135 200.79973176431668 0 0 0 0 141.92052975987571 206.018659005058 0 206.018659005058 331.036495676919 0 0 0 0 -16.618860761192963 202.97918726939679 0 202.97918726939679 636.85603331063612 0 0 0 0 57.482178572153089 105.22891918544337 0 105.22891918544337 390.27137732422943 0 0 0 0 59.676725937142237 55.097845158990822 0 55.097845158990822 -270.44848038940108 0 0 0 0 8.5165934591243921 3.3565638977574395 0 3.3565638977574395 -0.91762466934815734 0 0 0 0 -27.172090715053855 -10.296232696484367 0 -10.296232696484367 -72.609696043495205 0 0 0 0 -30.562170576118206 192.36999486450804 0 192.36999486450804 -114.8241884871677 0 0 0 0 109.78580345249713 176.18253814912896 0 176.18253814912896 316.38966623106535 0 0 0 0 2.4696229011024169 -1.2980654370093987 0 -1.2980654370093987 -2.6606021371179054 0 0 0 0 -17.284442001225699 137.98343622848006 0 137.98343622848006 453.34093598855543 0 0 0 0 -24.622144652038713 77.50972250839186 0 77.50972250839186 182.67699197685579 0 0 0 0 121.43383586917776 195.38530429109233 0 195.38530429109233 314.50387282273732 0 0 0 0 12.280328592314243 5.5712133434072086 0 5.5712133434072086 -0.25973597231228496 0 0 0 0 59.7947597730344 125.23385174403666 0 125.23385174403666 360.41873617799138 0 0 0 0 46.44116362820273 139.48276350628294 0 139.48276350628294 372.14469845560234 0 0 0 0 -8.1596135726390457 37.46046353852762 0 37.46046353852762 -34.787189411217696 0 0 0 0 12.950022129202807 31.702079799841158 0 31.702079799841158 -33.227420650327986 0 0 0 0 20.079838523199214 20.274802957545035 0 20.274802957545035 -60.661887746588036 0 0 0 0 9.0608509114117624 14.525775843099836 0 14.525775843099836 -26.127105388673954 0 0 0 0 15.263423294752101 31.454578117540223 0 31.454578117540223 -19.749848698440474 0 0 0 0 18.862175322580697 12.496048752494971 0 12.496048752494971 -22.713601743613253 0 0 0 0 14.882438338381309 9.2326272958183324 0 9.2326272958183324 4.5154333060312553 0 0 0 0 17.359526157515347 25.608059286696516 0 25.608059286696516 -28.237415582800168 0 0 0 0 42.228725699234701 -41.915429704400594 0 -41.915429704400594 28.22713391011348 0 0 0 0 281.03934085087462 110.84860475072492 0 110.84860475072492 203.94168727725992 0 0 0 0 1.1546703815354853 0.19639735221082333 0 0.19639735221082333 0.16182671019811323 0 0 0 0 14.485081267351489 -9.9443896603479516 0 -9.9443896603479516 18.814627332802047 0 0 0 0 40.259296802888741 22.2864926321854 0 22.2864926321854 -35.137531345972093 0 0 0 0 10.765071740277108 23.640584549269988 0 23.640584549269988 -11.631740332813933 0 0 0 0 0.33082980297640052 3.2904305381455856 0 3.2904305381455856 1.9494479968228404 0 0 0 0 80.508205407248624 122.42132578650489 0 122.42132578650489 -82.507799608094501 0 0 0 0 146.60949923348721 -35.56999782526691 0 -35.56999782526691 -43.345883531766958 0 0 0 0 59.319461369500232 241.7382062554243 0 241.7382062554243 171.17462014063494 0 0 0 0 -71.192165956859071 154.40555141570803 0 154.40555141570803 386.13836797140539 0 0 0 0 23.749468510734459 138.27977144849137 0 138.27977144849137 382.09427362695715 0 0 0 0 23.193591747796745 124.76798053931998 0 124.76798053931998 338.69513248107978 0 0 0 0 47.619519460232368 137.13259645704238 0 137.13259645704238 305.79586592398118 0 0 0 0 74.898735142339092 10.185631937845756 0 10.185631937845756 255.02363286796026 0 0 0 0 147.04155701478925 27.031635106861359 0 27.031635106861359 317.81362238626753 0 0 0 0 131.06302292202099 68.281032536164275 0 68.281032536164275 307.41470454345108 0 0 0 0 177.58036369026286 52.621462469149265 0 52.621462469149265 306.12245282816912 0 0 0 0 179.20490920937664 -132.87351325651071 0 -132.87351325651071 567.97240923343634 0 0 0 0 65.112817611663331 20.216320355408243 0 20.216320355408243 413.43641360401671 0 0 0 0 182.97878084628184 9.9032543118487411 0 9.9032543118487411 319.8684514619963 0 0 0 0 264.05623464233366 8.5575208244154055 0 8.5575208244154055 308.24978134794219 0 0 0 0 146.76475905091957 104.12517768557882 0 104.12517768557882 297.08180263558097 0 0 0 0 117.52413389146204 57.047939252566721 0 57.047939252566721 343.21835957972507 0 0 0 0 36.164050042992585 -25.33863318622025 0 -25.33863318622025 590.71093733547605 0 0 0 0 4.8630974247605536 -55.451588162075495 0 -55.451588162075495 580.54445069582653 0 0 0 0 79.775321694201011 -63.976499945485557 0 -63.976499945485557 560.93193976420298 0 0 0 0 -1.3405044575849843 66.158861454525322 0 66.158861454525322 397.72951536856999 0 0 0 0 99.016500766369745 91.468628925245866 0 91.468628925245866 243.56526148241392 0 0 0 0 -80.177157645131047 34.539542267128127 0 34.539542267128127 392.61123708194827 0 0 0 0 -34.240123794310193 -101.33420113735338 0 -101.33420113735338 262.34590313935041 0 0 0 0 47.453833142130179 68.336164663785894 0 68.336164663785894 374.05396868826938 0 0 0 0 2.6984286400213739 -0.45231455551893873 0 -0.45231455551893873 0.08402159699443601 0 0 0 0 -67.564891930386807 -34.487692137758131 0 -34.487692137758131 123.75655901040955 0 0 0 0 106.35380556493249 37.836124459372513 0 37.836124459372513 24.326704613806214 0 0 0 0 1.0323427139972838 0.019116299119616542 0 0.019116299119616542 0.30027374356996006 0 0 0 0 2.137839283475266 0.34257329338234399 0 0.34257329338234399 0.057676595578556089 0 0 0 0 141.21698336484778 35.964380848265137 0 35.964380848265137 -3.8005309684740496 0 0 0 0 4.7720345194930189 4.0517986968661717 0 4.0517986968661717 13.784704268517089 0 0 0 0 -184.714471595546 -63.723595635456149 0 -63.723595635456149 194.5605204323474 0 0 0 0 14.268627433285268 9.3093070830013005 0 9.3093070830013005 5.5586905135089069 0 0 0 0 6.3593198288305608 5.2509950107851182 0 5.2509950107851182 8.6490154892762803 0 0 0 0 3.1843243189255617 1.4987497302245174 0 1.4987497302245174 9.7656557941954816 0 0 0 0 7.1493972657219444 6.5293205189700529 0 6.5293205189700529 12.793372334621381 0 0 0 0 7.1116892401237841 6.8180437524497393 0 6.8180437524497393 11.780858535719744 0 0 0 0 18.075523610817072 27.805438972703996 0 27.805438972703996 1.9687184924732719 0 0 0 0 3.7651921264159682 18.958068560946231 0 18.958068560946231 15.962005349858373 0 0 0 0 13.822003358225972 8.6254000283155108 0 8.6254000283155108 6.7268811757547837 0 0 0 0 15.282468837768192 15.428432744112797 0 15.428432744112797 -1.6976437964913202 0 0 0 0 1.089709174924792 10.333278074824193 0 10.333278074824193 25.05294407789188 0 0 0 0 4.0275322613106255 13.749902744093561 0 13.749902744093561 25.455565196098178 0 0 0 0 1.0281959054773324 9.4283742781990441 0 9.4283742781990441 35.586518257099669 0 0 0 0 1.2629931734213642 17.356605188069807 0 17.356605188069807 49.449880999600282 0 0 0 0 11.196114579719506 9.9660276918002637 0 9.9660276918002637 18.568139260030875 0 0 0 0 0.85621725474049981 12.876468269143061 0 12.876468269143061 28.892988104664255 0 0 0 0 -2.5923542820455623 2.3538736794616852 0 2.3538736794616852 37.136487104544358 0 0 0 0 0.52105947216339565 0.50565802318573105 0 0.50565802318573105 3.2237552088034391 0 0 0 0 -2.3883797857496347 -5.8532301547382417 0 -5.8532301547382417 11.73456537788249 0 0 0 0 3.4643591213643958 7.075354672386311 0 7.075354672386311 30.141675117898558 0 0 0 0 4.7014408220256882 16.227017192635685 0 16.227017192635685 54.372415343052126 0 0 0 0 3.1853923155813391 2.2287497910219827 0 2.2287497910219827 34.310863657083246 0 0 0 0 4.1786399566753971 3.4995287824713159 0 3.4995287824713159 35.89960853781713 0 0 0 0 6.4615111466900998 -4.7818626554544608 0 -4.7818626554544608 49.299864816828631 0 0 0 0 6.2044094310560283 11.916762713369621 0 11.916762713369621 15.773522206481687 0 0 0 0 0.044014942361338072 -0.97628587980250359 0 -0.97628587980250359 8.5068664066264432 0 0 0 0 -3.4735801154802175 3.0492122253635898 0 3.0492122253635898 21.194396981081809 0 0 0 0 -1.7648210130513213 -4.5472282994396664 0 -4.5472282994396664 11.784548146896412 0 0 0 0 -29.326938880977991 -65.651476090170036 0 -65.651476090170036 11.514331312253489 0 0 0 0 -26.517239582162574 -7.1545812018521247 0 -7.1545812018521247 39.815508739106008 0 0 0 0 -16.301383866810827 -5.6804495396496861 0 -5.6804495396496861 28.45934756672915 0 0 0 0 -5.0971860927572834 -6.9577632401778828 0 -6.9577632401778828 29.840377653126779 0 0 0 0 37.063624104209453 31.92778933957743 0 31.92778933957743 24.483050126393209 0 0 0 0 -10.65576342171574 -4.5118317190280379 0 -4.5118317190280379 3.6986303636627156 0 0 0 0 30.096448391541799 2.3315250145569735 0 2.3315250145569735 -13.475468800228555 0 0 0 0 8.2703278551780386 21.60261406769132 0 21.60261406769132 -4.9651358272967627 0 0 0 0 1.5478241496159324 -0.85324869631782008 0 -0.85324869631782008 -2.8851396482688187 0 0 0 0 -5.0156052770707902 40.414910364699608 0 40.414910364699608 -42.06646354978875 0 0 0 0 56.738316019072954 -50.042629795483663 0 -50.042629795483663 40.185785279521951 0 0 0 0 79.131415104759071 88.357350158374174 0 88.357350158374174 33.682706739418791 0 0 0 0 5.8981177946607204 30.956897634387133 0 30.956897634387133 47.239587268384639 0 0 0 0 5.4853402209992055 30.927025938770385 0 30.927025938770385 72.834911098412704 0 0 0 0 16.555509475304461 42.750066087923187 0 42.750066087923187 32.155725482734852 0 0 0 0 1.3997364556823264 -0.74259933090723962 0 -0.74259933090723962 -0.27592012806134392 0 0 0 0 7.860348350483962 5.8643306357619736 0 5.8643306357619736 1.872829745419061 0 0 0 0 19.25184222327789 27.316509969328763 0 27.316509969328763 16.909552324214019 0 0 0 0 0.7425174253185105 -1.165493937645806 0 -1.165493937645806 87.728063967748312 0 0 0 0 5.7076195720273972 -12.783086887488025 0 -12.783086887488025 -1.2266970388664049 0 0 0 0 25.093394944923602 8.6944673470425187 0 8.6944673470425187 -6.4403343059238978 0 0 0 0 37.873720369456123 53.507199855390354 0 53.507199855390354 46.543303590384312 0 0 0 0 7.2726164675169684 5.4997902827117855 0 5.4997902827117855 -0.17725572963641412 0 0 0 0 1.3312714573421545 -0.85791947442339733 0 -0.85791947442339733 89.607125808826822 0 0 0 0 53.403344038037176 3.980740279526799 0 3.980740279526799 46.837424336059485 0 0 0 0 9.034186678617516 15.176213491955423 0 15.176213491955423 44.032889975431317 0 0 0 0 19.562987297990276 4.3400144162005745 0 4.3400144162005745 37.486725757160457 0 0 0 0 8.4155583720485083 27.643803857725288 0 27.643803857725288 32.728826221606141 0 0 0 0 12.758896000054847 11.047028121975018 0 11.047028121975018 40.275762607750949 0 0 0 0 16.297062545291737 31.754327724338509 0 31.754327724338509 69.392297447499004 0 0 0 0 24.088951508221271 12.05025776840921 0 12.05025776840921 18.257541769984527 0 0 0 0 8.3974261856556041 33.373995792120695 0 33.373995792120695 -7.9537108344666194 0 0 0 0 4.7172297937851226 11.642534909193273 0 11.642534909193273 0.081984799326164648 0 0 0 0 4.4394920379713767 18.307557722582715 0 18.307557722582715 29.269666636013426 0 0 0 0 19.552121285273643 10.32977395234775 0 10.32977395234775 6.8024092236883007 0 0 0 0 11.438433650887418 24.146515326923691 0 24.146515326923691 10.608755410285085 0 0 0 0 11.345163510573116 24.038398362372391 0 24.038398362372391 -1.5260536225978285 0 0 0 0 5.7183936652381817 28.05707290105056 0 28.05707290105056 14.733025437395554 0 0 0 0 13.646951567558517 16.609913486454388 0 16.609913486454388 -1.70135440712329 0 0 0 0 6.7798720445698564 17.777713735355064 0 17.777713735355064 20.696889614635438 0 0 0 0 8.9677389418582152 20.780295853450298 0 20.780295853450298 9.0267760374699719 0 0 0 0 3.8267189471202983 30.052920583315426 0 30.052920583315426 5.9327228850597749 0 0 0 0 -19.515747860301417 54.019580103944463 0 54.019580103944463 29.649315868169651 0 0 0 0 3.0977630872841928 13.538910690878765 0 13.538910690878765 44.218316488302662 0 0 0 0 -4.03196674337687 35.027163944629137 0 35.027163944629137 31.582691948271531 0 0 0 0 -15.241107133034802 6.8777406961744418 0 6.8777406961744418 61.284551071337773 0 0 0 0 -5.0972769395702926 15.745960669439228 0 15.745960669439228 56.559318495405023 0 0 0 0 -4.7265488012199057 8.7800412754004356 0 8.7800412754004356 55.622292497326271 0 0 0 0 -5.3922463947983488 8.8189638932963135 0 8.8189638932963135 61.21599547759979 0 0 0 0 1.9233687057592594 0.87689443619839835 0 0.87689443619839835 0.38917110019337997 0 0 0 0 -112.61402510896167 79.661836609231614 0 79.661836609231614 249.46523650414019 0 0 0 0 -40.794222248364633 -151.57905268667128 0 -151.57905268667128 347.5039167185605 0 0 0 0 55.8875416739711 7.5449412628295249 0 7.5449412628295249 80.931118439633792 0 0 0 0 -71.775788300760723 73.166856212214043 0 73.166856212214043 101.28561415454897 0 0 0 0 7.630474265039993 52.978638732180116 0 52.978638732180116 -61.786332139547085 0 0 0 0 9.0126952460645953 -42.748502338079561 0 -42.748502338079561 130.86307831642262 0 0 0 0 3.5400987237018553 3.6036163815932127 0 3.6036163815932127 3.0221670944779646 0 0 0 0 -39.204820618152326 30.371461610538972 0 30.371461610538972 114.92623530139099 0 0 0 0 30.603950987549126 143.74096700849623 0 143.74096700849623 -270.62975478151202 0 0 0 0 -130.79894323160079 76.622862431489921 0 76.622862431489921 6.0854982358141569 0 0 0 0 -52.978603876060788 46.885680525658245 0 46.885680525658245 -47.491482953788363 0 0 0 0 -53.856286138369001 14.909698537827353 0 14.909698537827353 -31.018342151728575 0 0 0 0 -83.245882705798294 148.26098734531661 0 148.26098734531661 -134.49244307096524 0 0 0 0 -40.915604416614769 74.241256028108182 0 74.241256028108182 -103.05029361546622 0 0 0 0 2.9126938480660556 76.689073976976943 0 76.689073976976943 -114.71667718244134 0 0 0 0 2.8751681393857007 0.86245084493626223 0 0.86245084493626223 0.085233114998203519 0 0 0 0 75.082074809602318 31.635490868444322 0 31.635490868444322 -53.539561826313729 0 0 0 0 -24.480769503458305 85.540698700126086 0 85.540698700126086 9.6181269741355209 0 0 0 0 -148.35105034467642 72.271943774547253 0 72.271943774547253 243.0599421964871 0 0 0 0 0.38558400385132074 0.11507058791374902 0 0.11507058791374902 0.18792239312686831 0 0 0 0 -2.6465198796213372 4.4383934555880842 0 4.4383934555880842 61.750600925133767 0 0 0 0 6.0704094771707506 5.8240250356069225 0 5.8240250356069225 3.1532926449193042 0 0 0 0 1.6846795676169677 11.957714493146341 0 11.957714493146341 58.372413570003118 0 0 0 0 -2.2938830625172386 11.428902049594399 0 11.428902049594399 59.199127971965936 0 0 0 0 -93.991927097137705 62.985243065166287 0 62.985243065166287 -23.129742026241729 0 0 0 0 -47.237003574846767 88.344840869511245 0 88.344840869511245 -104.61957281891955 0 0 0 0 1.2829610722966898 0.12163468648714115 0 0.12163468648714115 -0.22012258273326779 0 0 0 0 -87.854493383676527 61.196726913796738 0 61.196726913796738 -114.5466488045131 0 0 0 0 -82.589228862983873 80.551085972154397 0 80.551085972154397 -102.97456023853556 0 0 0 0 -147.21534364353192 101.40401396452944 0 101.40401396452944 -100.74171148653841 0 0 0 0 -43.566062609746041 89.267873995362606 0 89.267873995362606 -103.2755510936986 0 0 0 0 -60.626363688302263 137.39326622794033 0 137.39326622794033 13.070740758412285 0 0 0 0 -44.625963646396485 105.7922542879096 0 105.7922542879096 -100.55523329484367 0 0 0 0 -14.184008701359744 88.501066028817149 0 88.501066028817149 -186.27506145783991 0 0 0 0 -0.37576162489134646 0.4361914756315457 0 0.4361914756315457 1.6868882734068222 0 0 0 0 -29.330999997486288 39.29592815230717 0 39.29592815230717 27.854670315195108 0 0 0 0 -31.866755607170489 70.049268428454525 0 70.049268428454525 -123.78829059525742 0 0 0 0 0.55033420885682816 0.12832816773695299 0 0.12832816773695299 0.2379707723997484 0 0 0 0 96.865571862881552 161.02820592897478 0 161.02820592897478 -52.693384439306101 0 0 0 0 -93.920743416377491 127.99554511371025 0 127.99554511371025 60.591551182966214 0 0 0 0 -28.203243278714581 211.10903248836985 0 211.10903248836985 -50.048608046083245 0 0 0 0 -103.1618984210088 165.82483276616767 0 165.82483276616767 -5.9291893230110873 0 0 0 0 -119.38660165107467 -84.009906014354783 0 -84.009906014354783 417.98002111530514 0 0 0 0 -120.91689845049677 165.98311352655583 0 165.98311352655583 38.348375959758414 0 0 0 0 -61.114822592713608 -48.107918102134136 0 -48.107918102134136 76.634622609606595 0 0 0 0 126.31533204880611 -99.695777354234451 0 -99.695777354234451 216.39542625413742 0 0 0 0 23.469331255769248 28.658416265643609 0 28.658416265643609 400.6839973081369 0 0 0 0 -58.070976060046632 -69.167264329407772 0 -69.167264329407772 178.88259302056395 0 0 0 0 -75.155270242390543 -108.75306698706117 0 -108.75306698706117 374.70430235909953 0 0 0 0 70.228845748690674 -106.10052522444312 0 -106.10052522444312 38.668441969086416 0 0 0 0 -37.636185997906068 -61.36343087629939 0 -61.36343087629939 32.817133841053874 0 0 0 0 -24.128255878670643 -108.85814811780438 0 -108.85814811780438 45.610220218222821 0 0 0 0 -153.39280253858033 89.023706767577096 0 89.023706767577096 100.61544779912947 0 0 0 0 -191.64176736982608 0.7707458024378866 0 0.7707458024378866 304.9607796005439 0 0 0 0 -207.13834083531401 -57.912909410602879 0 -57.912909410602879 410.54717803715903 0 0 0 0 -81.188942532993224 -4.9137447313296434 0 -4.9137447313296434 216.22913046914618 0 0 0 0 -58.447902490971046 -19.251746409427142 0 -19.251746409427142 157.76329933942179 0 0 0 0 -38.754302280165575 -49.948651218117448 0 -49.948651218117448 100.28212480292132 0 0 0 0 0.50091924215037231 0.67575950308787469 0 0.67575950308787469 0.68798844504874523 0 0 0 0 -62.087642259710265 -1.9970291418285342 0 -1.9970291418285342 164.42014942622336 0 0 0 0 59.321737708281944 10.866141892242013 0 10.866141892242013 162.75876587328821 0 0 0 0 -64.122081791055507 -21.918236959765636 0 -21.918236959765636 287.76177081183414 0 0 0 0 -29.460023509795974 54.240444293674955 0 54.240444293674955 458.52850939293421 0 0 0 0 -25.463359308530926 3.4453580091067124 0 3.4453580091067124 -2.8643585947720567 0 0 0 0 4.8565983728358333 81.484130003853352 0 81.484130003853352 249.95729159978146 0 0 0 0 3.1197543621719888 -28.174681663960655 0 -28.174681663960655 2.289274068098166 0 0 0 0 1.203200391652036 -1.288425496827756 0 -1.288425496827756 1.1864315101167904 0 0 0 0 7.3310746868514798 -22.145596944006684 0 -22.145596944006684 162.64324827322707 0 0 0 0 -30.818100977410722 -20.796940069340053 0 -20.796940069340053 163.67510407578084 0 0 0 0 -13.104439302134779 14.825153357429372 0 14.825153357429372 216.36981998153141 0 0 0 0 11.59789602283854 -16.309339188403101 0 -16.309339188403101 3.7526369286788395 0 0 0 0 -5.0184027409579812 -1.4937641935448482 0 -1.4937641935448482 9.7736148427793523 0 0 0 0 3.1597373780746079 -3.9650664200924268 0 -3.9650664200924268 5.3775383985892518 0 0 0 0 -8.8645541853761216 -1.8707862631504213 0 -1.8707862631504213 9.5184826101240958 0 0 0 0 -103.43771772096625 -42.159452639651136 0 -42.159452639651136 19.953224710392533 0 0 0 0 -15.346994543024948 -26.787127349372895 0 -26.787127349372895 -32.633857855762471 0 0 0 0 -10.474773587116943 -15.46948321464879 0 -15.46948321464879 50.361933062333264 0 0 0 0 -35.110461314361601 1.8778890517642139 0 1.8778890517642139 38.595488767910865 0 0 0 0 -13.01747760560869 -2.6644242003603722 0 -2.6644242003603722 20.035923014234868 0 0 0 0 -9.1182006748641271 -2.1098495256189551 0 -2.1098495256189551 1.0930897265598389 0 0 0 0 -23.901469287794953 -28.304827649206345 0 -28.304827649206345 27.250482105373521 0 0 0 0 -11.780065925074704 2.0029807324754643 0 2.0029807324754643 8.3636859212142554 0 0 0 0 69.536147016898212 83.495628959790338 0 83.495628959790338 137.06120611506049 0 0 0 0 41.834617793684629 23.530517852312187 0 23.530517852312187 35.270405778326676 0 0 0 0 -0.80345339488734702 -0.53383924842046326 0 -0.53383924842046326 0.30158032505710253 0 0 0 0 49.612327785973321 96.931660754315089 0 96.931660754315089 167.50907980924239 0 0 0 0 49.943499128775329 -13.538931119554036 0 -13.538931119554036 -154.69290937001642 0 0 0 0 -82.669935509416973 -170.96529715201177 0 -170.96529715201177 -124.94301645684754 0 0 0 0 -27.918806138313812 98.192288214631844 0 98.192288214631844 189.89963125406939 0 0 0 0 8.1441892820694193 85.156986935326131 0 85.156986935326131 102.95125818566885 0 0 0 0 -35.122454757266496 11.238743324181996 0 11.238743324181996 167.10429411637233 0 0 0 0 -14.487723783616275 -11.048489087435883 0 -11.048489087435883 53.556304923666175 0 0 0 0 4.0864843736173952 62.534615696373294 0 62.534615696373294 -17.316744897543686 0 0 0 0 0.86552837848467945 -0.20597227252292782 0 -0.20597227252292782 -0.41821370132970515 0 0 0 0 -1.5030128449725453 -21.77197775215609 0 -21.77197775215609 207.00468365441338 0 0 0 0 -23.551168177443287 -18.801026904671744 0 -18.801026904671744 31.989723191771191 0 0 0 0 -38.704592470596708 -2.5547826974943746 0 -2.5547826974943746 68.075670411839383 0 0 0 0 1.8199556588842825 -27.521159577125218 0 -27.521159577125218 37.170197886996903 0 0 0 0 -1.8001308058345131 -0.53081786362949401 0 -0.53081786362949401 8.0417442263514261 0 0 0 0 -19.17591840330897 16.394896666781278 0 16.394896666781278 33.565331839636201 0 0 0 0 0.82388575315607093 10.073804843259877 0 10.073804843259877 38.979451641114736 0 0 0 0 -1.4486395097906097 -27.271652701831044 0 -27.271652701831044 77.535049020472798 0 0 0 0 9.7521638914367941 47.561361151980236 0 47.561361151980236 40.660329699363501 0 0 0 0 -12.479679864482819 26.553640745238226 0 26.553640745238226 34.287410215744785 0 0 0 0 0.38798592183590586 27.209537068989448 0 27.209537068989448 34.120174040821439 0 0 0 0 -6.7935688696390315 23.520275692501855 0 23.520275692501855 34.396789911756059 0 0 0 0 3.0899680485491721 2.6776402575759732 0 2.6776402575759732 5.54661929512406 0 0 0 0 0.441265550516448 20.306513878374972 0 20.306513878374972 27.747512820002157 0 0 0 0 14.201625587447779 10.194719944192911 0 10.194719944192911 7.9183279984936235 0 0 0 0 -0.30253322154851148 1.9472521547969279 0 1.9472521547969279 -0.42862697909056635 0 0 0 0 0.58293849309768575 0.75979398778144969 0 0.75979398778144969 14.094501918640162 0 0 0 0 9.6984961377070249 14.14760678041057 0 14.14760678041057 21.439309878107451 0 0 0 0 0.45861499732020583 2.0747612108864004 0 2.0747612108864004 2.3141912104371158 0 0 0 0 11.163806785665656 15.76581581740902 0 15.76581581740902 12.937440754911222 0 0 0 0 13.791532836106114 23.639068746124394 0 23.639068746124394 28.266641377045744 0 0 0 0 12.221177465649873 8.9228921983813052 0 8.9228921983813052 14.377866119990358 0 0 0 0 25.05937587742558 78.413965610045125 0 78.413965610045125 101.79804799817794 0 0 0 0 101.12838739372194 40.46156596691435 0 40.46156596691435 -0.086923469469184056 0 0 0 0 -68.370267664131177 -23.955577498305502 0 -23.955577498305502 151.07279051748628 0 0 0 0 0.37937234161646516 0.67702318353277491 0 0.67702318353277491 0.9110749738802042 0 0 0 0 25.045273615564895 73.877686756683033 0 73.877686756683033 160.86796631281322 0 0 0 0 84.500859894650887 1.855095120426995 0 1.855095120426995 40.533272269836743 0 0 0 0 -20.972431734088502 7.3815607216201897 0 7.3815607216201897 27.576921566171222 0 0 0 0 -0.86023348840910785 -48.722791634856549 0 -48.722791634856549 112.07594057182359 0 0 0 0 -42.28701570304375 26.011932966102904 0 26.011932966102904 149.82994390697786 0 0 0 0 -60.432379669817195 -23.471693616233097 0 -23.471693616233097 65.932500225550029 0 0 0 0 -29.656086087894835 7.3365547571811476 0 7.3365547571811476 53.813148484179692 0 0 0 0 -7.3341920265656881 1.5623698085037176 0 1.5623698085037176 56.085021542883624 0 0 0 0 -15.002526040753763 -4.060771233700649 0 -4.060771233700649 31.813708711522821 0 0 0 0 -22.94048250888136 1.2302693151286803 0 1.2302693151286803 160.91145881299599 0 0 0 0 -3.803785305212247 -4.4027647839461785 0 -4.4027647839461785 1.7467584215324337 0 0 0 0 -4.3224815483436032 150.59140244751325 0 150.59140244751325 39.922977474358049 0 0 0 0 -67.859285408332653 63.883520786301233 0 63.883520786301233 188.68083964778634 0 0 0 0 -70.63081169072575 102.72603019548114 0 102.72603019548114 -10.164445684749808 0 0 0 0 -62.962881893760823 97.848748790267564 0 97.848748790267564 -7.4957548348174896 0 0 0 0 -20.628112641067673 46.322782099843607 0 46.322782099843607 44.009563131439791 0 0 0 0 -2.0951419500909734 8.7551871394675373 0 8.7551871394675373 41.476397867654555 0 0 0 0 -2.4521945121743514 2.8916763039359097 0 2.8916763039359097 4.9536363083373374 0 0 0 0 -2.7203067332006867 28.639437215337239 0 28.639437215337239 35.136225983428176 0 0 0 0 -38.864609722773238 22.400803406333125 0 22.400803406333125 69.865224393171957 0 0 0 0 0.18580197524249983 233.65985582675057 0 233.65985582675057 -152.22009920213895 0 0 0 0 -65.840214015929888 156.78211599130736 0 156.78211599130736 -7.4158868230588268 0 0 0 0 3.6298460287175658 174.13563234901812 0 174.13563234901812 -110.26916587791129 0 0 0 0 -8.7035466053303487 -1.9248337301978609 0 -1.9248337301978609 25.222718472214183 0 0 0 0 -43.5536534601776 120.09928166189638 0 120.09928166189638 -125.14794512196386 0 0 0 0 -10.241490472817544 7.294030054603212 0 7.294030054603212 32.491427749790759 0 0 0 0 -35.593919339946297 -2.3886386023950763 0 -2.3886386023950763 -60.669912965357071 0 0 0 0 -4.1868980929138768 -7.7938477331350065 0 -7.7938477331350065 0.5542302874640086 0 0 0 0 0.0040851933952470616 2.8218480108847417 0 2.8218480108847417 13.880886617567739 0 0 0 0 14.764224719218097 86.123589866827388 0 86.123589866827388 -289.41068616551638 0 0 0 0 -0.1710890990918168 3.0235791206655449 0 3.0235791206655449 4.648861931625575 0 0 0 0 -0.01092457165611933 2.8076370111062525 0 2.8076370111062525 13.882433146922267 0 0 0 0 2.2857092864925335 -5.3929864883830305 0 -5.3929864883830305 5.8738531010358201 0 0 0 0 -0.38189713263974789 -1.1007575535591911 0 -1.1007575535591911 0.01415914883520486 0 0 0 0 39.169403583642634 19.027726630221878 0 19.027726630221878 7.0944688844174379 0 0 0 0 6.9071346458157761 -192.8443569644005 0 -192.8443569644005 876.57923639126238 0 0 0 0 0.71650345802912607 -0.20275656855302771 0 -0.20275656855302771 -2.4990576945293697 0 0 0 0 -24.751529455677428 -13.794240405179153 0 -13.794240405179153 657.28265557813575 0 0 0 0 -32.454959791271904 -53.111332677282917 0 -53.111332677282917 385.70088892050262 0 0 0 0 102.8448832450174 -17.725012654296734 0 -17.725012654296734 -44.657113599794684 0 0 0 0 -60.449693280412703 9.0760010806880018 0 9.0760010806880018 1.6348886648775078 0 0 0 0 -28.91141261733901 -26.564020118239569 0 -26.564020118239569 -43.145357805489766 0 0 0 0 -1.9705284848683806 -3.9265655514958695 0 -3.9265655514958695 -3.7739734896230175 0 0 0 0 -11.423335546852659 -0.20811027126487147 0 -0.20811027126487147 22.576922717171215 0 0 0 0 -24.550570274088237 -12.275935415015738 0 -12.275935415015738 12.093156343280725 0 0 0 0 -11.136210046099876 1.9937804106448311 0 1.9937804106448311 26.684555253392318 0 0 0 0 -69.037207359308013 -10.733632482821122 0 -10.733632482821122 28.045256977806275 0 0 0 0 0.30854625731963381 3.5835384503223224 0 3.5835384503223224 9.1585521775443652 0 0 0 0 -118.09318521886257 -118.80353654721148 0 -118.80353654721148 58.982063112780452 0 0 0 0 -52.169980255101109 56.712679047659549 0 56.712679047659549 25.863378177687991 0 0 0 0 -16.71550480708181 8.1101014543774852 0 8.1101014543774852 50.10101461967065 0 0 0 0 -41.593150735351173 43.044478453259217 0 43.044478453259217 -147.61835463898024 0 0 0 0 -80.558186451130496 1.4503875767768477 0 1.4503875767768477 72.513625579922518 0 0 0 0 -64.983501087348031 55.433255545731299 0 55.433255545731299 130.38340920077462 0 0 0 0 -39.985838984049224 101.7305496799454 0 101.7305496799454 55.091246451600455 0 0 0 0 -122.56880319515585 26.252054934360785 0 26.252054934360785 86.546661702177516 0 0 0 0 -8.8835257161999834 10.56826386127068 0 10.56826386127068 15.839064339103061 0 0 0 0 -32.354182362649908 45.778394940820363 0 45.778394940820363 98.41500078405079 0 0 0 0 -30.320032695300142 36.646068876558274 0 36.646068876558274 111.34747610573868 0 0 0 0 -135.95933571128808 35.224602632901224 0 35.224602632901224 111.79828843596624 0 0 0 0 8.9115807357822856 20.352489988163541 0 20.352489988163541 33.592011052862688 0 0 0 0 -114.94251742352299 60.910314774759172 0 60.910314774759172 125.28479418850839 0 0 0 0 -84.079842070979794 80.18636216865707 0 80.18636216865707 41.897818530211225 0 0 0 0 -12.119561647457999 -37.424770014150454 0 -37.424770014150454 66.033722387888702 0 0 0 0 -4.6172239485129509 1.263862612312721 0 1.263862612312721 9.3729808616031107 0 0 0 0 -89.262568977468504 -20.250902456453332 0 -20.250902456453332 58.328195543974289 0 0 0 0 -69.860966609981915 142.05041679854912 0 142.05041679854912 0.13453336516067793 0 0 0 0 140.61983920185185 103.43494022334198 0 103.43494022334198 133.77682013194135 0 0 0 0 146.48585551887618 69.63679996105202 0 69.63679996105202 23.169752976791642 0 0 0 0 276.90789912941318 109.38815517623152 0 109.38815517623152 45.571929794823518 0 0 0 0 367.81176356619977 74.090685280716571 0 74.090685280716571 57.661714971858601 0 0 0 0 240.06480823911033 34.513138649144821 0 34.513138649144821 181.00996652395406 0 0 0 0 266.30689279740903 130.00631146486194 0 130.00631146486194 28.637509002364823 0 0 0 0 245.36715046902549 151.16814138777045 0 151.16814138777045 105.62529588444158 0 0 0 0 193.83226731767854 82.174046677588194 0 82.174046677588194 49.652887771377209 0 0 0 0 67.94935716811051 39.12358602884342 0 39.12358602884342 71.462547870542039 0 0 0 0 113.58127017092659 113.57289848401342 0 113.57289848401342 79.166810777591309 0 0 0 0 132.08264546962573 59.859722189095919 0 59.859722189095919 57.028380697767716 0 0 0 0 41.048135868509007 85.328507937265385 0 85.328507937265385 88.187008089123992 0 0 0 0 118.63454007451082 115.17108112412461 0 115.17108112412461 104.22010763242724 0 0 0 0 35.921862334816979 34.480259786017996 0 34.480259786017996 77.776226433730699 0 0 0 0 111.26977667539114 128.1913437780222 0 128.1913437780222 94.872036250599194 0 0 0 0 286.26342984120856 74.255547040440433 0 74.255547040440433 91.686753147674608 0 0 0 0 282.93157222707259 139.21087872664793 0 139.21087872664793 67.27828718454839 0 0 0 0 162.8492121868253 129.83522995036765 0 129.83522995036765 90.076926855203055 0 0 0 0 427.76815300299995 142.02369463075593 0 142.02369463075593 27.151671333347622 0 0 0 0 285.1496037409139 273.24159433401655 0 273.24159433401655 101.32621485559503 0 0 0 0 268.38164710552428 166.15110383467982 0 166.15110383467982 23.503421663623158 0 0 0 0 320.27479722232999 191.12607065096563 0 191.12607065096563 33.199852367237327 0 0 0 0 246.03637730740985 156.00051687840823 0 156.00051687840823 37.766823193334858 0 0 0 0 237.46384168847703 247.99485872525838 0 247.99485872525838 207.38714170419553 0 0 0 0 60.597793595288124 263.90742279072583 0 263.90742279072583 58.743242734853993 0 0 0 0 71.27915478775958 207.27009912506765 0 207.27009912506765 103.43439184786985 0 0 0 0 71.029685965522162 115.27231537738407 0 115.27231537738407 217.69811315924744 0 0 0 0 10.616198507640547 -23.880254109892121 0 -23.880254109892121 -82.702123887469497 0 0 0 0 2.4710056731841021 -0.049477975426071907 0 -0.049477975426071907 -0.56908455923192491 0 0 0 0 317.8608967521875 228.32709855878056 0 228.32709855878056 -17.395074576561456 0 0 0 0 314.52292629196415 157.73176119368873 0 157.73176119368873 44.042286828553188 0 0 0 0 234.25864847501538 296.92198535514399 0 296.92198535514399 407.67666865780484 0 0 0 0 0.73101120115707952 -0.83609383449717711 0 -0.83609383449717711 -0.54092173360048434 0 0 0 0 24.119235286812 -212.16765203770774 0 -212.16765203770774 129.7556301724253 0 0 0 0 133.88878276128435 47.665180963653256 0 47.665180963653256 -137.78833426170604 0 0 0 0 0.53474184778087874 -74.03090212954703 0 -74.03090212954703 246.38895612260239 0 0 0 0 -99.082089206648106 112.95310909618274 0 112.95310909618274 191.37187499794527 0 0 0 0 -99.619763910859888 -14.385043673901237 0 -14.385043673901237 319.21266524432576 0 0 0 0 -101.82244701893116 78.764936911272343 0 78.764936911272343 260.5466281279223 0 0 0 0 2.9126134886053521 1.9140080924586869 0 1.9140080924586869 0.86849889641808886 0 0 0 0 95.947364016478048 -237.8421084586862 0 -237.8421084586862 385.27737546770368 0 0 0 0 77.076367880547878 95.66411136550596 0 95.66411136550596 -28.568419955889112 0 0 0 0 181.8347058871048 291.27390472437401 0 291.27390472437401 15.908023037260136 0 0 0 0 3.2581773957971238 4.3648653437394529 0 4.3648653437394529 6.7728057908688868 0 0 0 0 5.8760282177718182 -31.916100025970081 0 -31.916100025970081 164.61644789843558 0 0 0 0 30.158967965845932 -69.020738711493323 0 -69.020738711493323 146.84480450428964 0 0 0 0 -10.304287338944054 -1.71414807603756 0 -1.71414807603756 7.9420223237134167 0 0 0 0 -124.9675201292099 0.50250819470966235 0 0.50250819470966235 18.52475596536533 0 0 0 0 -11.929860265799675 5.7614081474712293 0 5.7614081474712293 10.757104035903467 0 0 0 0 -4.6945358093925051 -5.8501625424651138 0 -5.8501625424651138 8.7137974617216969 0 0 0 0 -6.0467140205757168 -4.8074645152885296 0 -4.8074645152885296 6.16768529054184 0 0 0 0 -10.809310231325071 -2.3623674918708275 0 -2.3623674918708275 24.982222475315211 0 0 0 0 -5.8323470252441663 0.082334864266073282 0 0.082334864266073282 2.4453612319133384 0 0 0 0 -125.95332316608663 -0.94598990662234428 0 -0.94598990662234428 161.9692392933066 0 0 0 0 -110.42193829552662 115.42521472923545 0 115.42521472923545 99.384003922372358 0 0 0 0 -173.34346134517546 -179.23200602099678 0 -179.23200602099678 -51.970856210798956 0 0 0 0 458.80596266085058 -48.204384527154616 0 -48.204384527154616 -558.68320760046481 0 0 0 0 -77.690517259045237 12.064347084065957 0 12.064347084065957 15.48903118767339 0 0 0 0 -0.52772942775938692 1.584254691936394 0 1.584254691936394 1.964674708780187 0 0 0 0 575.64951746787438 -490.73745938471257 0 -490.73745938471257 -156.76823509552923 0 0 0 0 -11.290489498052466 -252.30364151927643 0 -252.30364151927643 681.96370711449708 0 0 0 0 216.12316012645761 508.58052047624369 0 508.58052047624369 643.73434446938836 0 0 0 0 617.45862732569049 354.8973787337527 0 354.8973787337527 49.968498202288174 0 0 0 0 8.6139622169631593 216.98098213386402 0 216.98098213386402 237.06279524136335 0 0 0 0 105.66552982919313 408.06888482539944 0 408.06888482539944 260.02009554846154 0 0 0 0 301.97540601161018 317.72011323856714 0 317.72011323856714 291.43377216676163 0 0 0 0 189.9191378723724 78.277271101718725 0 78.277271101718725 -59.079528039699653 0 0 0 0 -53.293238239878519 52.240516899917566 0 52.240516899917566 124.01901196284598 0 0 0 0 -79.678834945932863 270.93733628468908 0 270.93733628468908 75.493998265395931 0 0 0 0 9.1901375349622967 14.620776282685 0 14.620776282685 22.296766166785972 0 0 0 0 -250.6880307505121 184.3228720682273 0 184.3228720682273 31.624743195861811 0 0 0 0 -136.00257990866237 -15.36724585351476 0 -15.36724585351476 155.88580865330005 0 0 0 0 3.6644953947279699 5.5901656557533954 0 5.5901656557533954 8.4495358927197799 0 0 0 0 -266.58424230531955 -42.682557524756703 0 -42.682557524756703 725.30528332384711 0 0 0 0 -101.6654642003935 568.06691556815349 0 568.06691556815349 826.59573816916964 0 0 0 0 -70.221509668352155 33.966881672437012 0 33.966881672437012 79.160977888896014 0 0 0 0 166.43637739804927 50.045083184988471 0 50.045083184988471 -116.89271485259815 0 0 0 0 179.10747185889767 211.08390612373205 0 211.08390612373205 165.44644160637108 0 0 0 0 5.9670646476840901 3.8012141976718965 0 3.8012141976718965 0.60143553442859599 0 0 0 0 -126.70510629828743 279.87382672279637 0 279.87382672279637 242.52322437276598 0 0 0 0 38.424975419484099 61.56289041164564 0 61.56289041164564 530.49568355977908 0 0 0 0 -161.30519762143228 55.272845414550829 0 55.272845414550829 946.23378138073167 0 0 0 0 62.472381571565734 -334.79044135454023 0 -334.79044135454023 523.44540859169501 0 0 0 0 258.20703776257812 -351.72698685075738 0 -351.72698685075738 276.53919651486103 0 0 0 0 2.842451420394458 1.2982690086363675 0 1.2982690086363675 1.5045101981941187 0 0 0 0 0.2654286067996327 255.53463764392654 0 255.53463764392654 589.23005268573615 0 0 0 0 -6.3396004219184761 17.849283211915463 0 17.849283211915463 358.45156365391449 0 0 0 0 -133.78379879069723 193.55479157454829 0 193.55479157454829 535.6078194681977 0 0 0 0 8.5494078617185014 83.130571143766247 0 83.130571143766247 -2.4361465552792652 0 0 0 0 -0.15035184671279878 253.86619181735296 0 253.86619181735296 225.27509503152032 0 0 0 0 -0.10027596315970649 -117.67798608797239 0 -117.67798608797239 -87.429224469931796 0 0 0 0 -115.52302598768928 -195.07856581185479 0 -195.07856581185479 -59.983135261456482 0 0 0 0 -242.16493107968469 -148.70347294049861 0 -148.70347294049861 4.2962424551078584 0 0 0 0 0.65054672827338678 -6.547104385383669 0 -6.547104385383669 25.668963872418885 0 0 0 0 -644.09664263681111 -45.528973383687116 0 -45.528973383687116 278.16638327608234 0 0 0 0 630.62844660883002 -854.80496939043405 0 -854.80496939043405 449.87344841065351 0 0 0 0 530.04663227243714 -427.42250349254027 0 -427.42250349254027 -192.83597266784636 0 0 0 0 0.8992110923530936 -3.7282366776955875 0 -3.7282366776955875 10.944337470236803 0 0 0 0 -5.3558883700237061 85.838536635048513 0 85.838536635048513 -47.616181477498685 0 0 0 0 -0.19512820373476941 -206.48885728386813 0 -206.48885728386813 749.92223609279608 0 0 0 0 -129.87257535908796 -278.67726645351286 0 -278.67726645351286 781.58049695388763 0 0 0 0 -0.2469671540334043 -331.35128725294999 0 -331.35128725294999 797.24941433999629 0 0 0 0 792.40085824288576 -408.60381478253839 0 -408.60381478253839 494.8706885920692 0 0 0 0 -355.08613157380034 55.010102094751346 0 55.010102094751346 785.741300274065 0 0 0 0 -25.5680466676896 -648.25209713932418 0 -648.25209713932418 1551.4980030536535 0 0 0 0 331.44574001821968 -864.21299107433151 0 -864.21299107433151 1335.9452864407817 0 0 0 0 369.3100072088003 -699.61134912397756 0 -699.61134912397756 577.03862972778734 0 0 0 0 125.80159821735262 -371.97208277986647 0 -371.97208277986647 539.46809986353037 0 0 0 0 235.76619709839338 0.66663247552060056 0 0.66663247552060056 1307.8541366294912 0 0 0 0 75.499906941236247 -198.17136510081218 0 -198.17136510081218 -39.993171490510576 0 0 0 0 1.3070419704287608 -0.53348797130590242 0 -0.53348797130590242 0.87667715276214153 0 0 0 0 62.426166965959737 58.14352495912317 0 58.14352495912317 996.5042393494623 0 0 0 0 479.40252409016563 -629.39306808546826 0 -629.39306808546826 393.60132937881281 0 0 0 0 526.32437317163237 -728.09484719333705 0 -728.09484719333705 464.0759543965396 0 0 0 0 399.72162405565803 -696.54299486429227 0 -696.54299486429227 575.41277442528008 0 0 0 0 410.01264901108095 -764.61052175339501 0 -764.61052175339501 785.08886338517186 0 0 0 0 334.06253353309125 34.927732624484634 0 34.927732624484634 398.6481397903699 0 0 0 0 172.93932324212608 -284.43116899064808 0 -284.43116899064808 23.90068532609439 0 0 0 0 777.38013497767076 -347.01918912749534 0 -347.01918912749534 402.1502357588106 0 0 0 0 232.44040493332548 -202.06164711933889 0 -202.06164711933889 1604.5278766065749 0 0 0 0 161.44039832239625 59.316749979989254 0 59.316749979989254 658.76962609318434 0 0 0 0 120.43056336782152 137.84960850964308 0 137.84960850964308 1038.9687857635945 0 0 0 0 5.0495376608591496 -3.8951644276485524 0 -3.8951644276485524 2.4051798864155955 0 0 0 0 488.06440861074918 -498.59919283337877 0 -498.59919283337877 -656.99279037619999 0 0 0 0 -213.27562173785964 64.760417888668599 0 64.760417888668599 185.46865154750412 0 0 0 0 117.83234754268824 26.536592255906726 0 26.536592255906726 161.66388362657744 0 0 0 0 1.3458355085236446 -3.6383023296991155 0 -3.6383023296991155 3.7629414659491545 0 0 0 0 13.313258955526408 -68.784959970522323 0 -68.784959970522323 126.1593753931229 0 0 0 0 -87.313657209965186 158.30541195280239 0 158.30541195280239 370.42018026501319 0 0 0 0 -115.73965166951706 -283.95993914721021 0 -283.95993914721021 -278.14005996023479 0 0 0 0 -56.690828449660785 39.706707008168451 0 39.706707008168451 54.622418105624092 0 0 0 0 -93.322748764462631 -18.449986528721638 0 -18.449986528721638 361.36558286070976 0 0 0 0 64.249772302081965 28.703892418881878 0 28.703892418881878 93.496069469081704 0 0 0 0 -129.96600051507244 -119.05791282214705 0 -119.05791282214705 71.082918321233592 0 0 0 0 39.536785377936667 -153.96726852941356 0 -153.96726852941356 -211.94169704055821 0 0 0 0 12.457540718285713 -16.099027955489277 0 -16.099027955489277 9.4986736861024781 0 0 0 0 -184.79078284018931 255.770431085155 0 255.770431085155 944.24009298407691 0 0 0 0 84.108370358935986 94.555565426972862 0 94.555565426972862 630.3959431326075 0 0 0 0 10.469928883703378 -11.107485576323484 0 -11.107485576323484 6.5646796046791707 0 0 0 0 136.04445982618336 255.94076932549433 0 255.94076932549433 616.54137613633065 0 0 0 0 -83.942124654099644 252.2899645507714 0 252.2899645507714 487.96954841560364 0 0 0 0 72.320918860523307 -110.27484760944571 0 -110.27484760944571 125.01624215571792 0 0 0 0 195.02170058439913 -86.912130481316126 0 -86.912130481316126 541.84059694132702 0 0 0 0 138.07250586318159 27.431680367302761 0 27.431680367302761 342.46044165425701 0 0 0 0 180.55446071013466 -378.78085498278961 0 -378.78085498278961 307.96790917837006 0 0 0 0 220.95166614558832 -297.21020837680408 0 -297.21020837680408 436.83656058252382 0 0 0 0 83.859459801912863 -340.57875125615101 0 -340.57875125615101 428.97593117189535 0 0 0 0 -3.3588628601150958 -688.38842521103288 0 -688.38842521103288 926.69291605323087 0 0 0 0 134.80865675778546 -445.05405937836622 0 -445.05405937836622 329.21695061487844 0 0 0 0 30.34142329777751 -531.78788997647644 0 -531.78788997647644 780.5884088699022 0 0 0 0 62.216939080987686 -729.87363198051753 0 -729.87363198051753 684.07582175663265 0 0 0 0 -28.223436903932793 -518.46061377380465 0 -518.46061377380465 1169.9996414482594 0 0 0 0 166.04385241895307 -338.22663436167204 0 -338.22663436167204 1128.5395895809779 0 0 0 0 -22.260834031723107 -482.97904415147059 0 -482.97904415147059 986.24311089140247 0 0 0 0 -45.307808846751414 -398.62384582114464 0 -398.62384582114464 999.20364244657685 0 0 0 0 -18.468958038643791 -400.66794280138129 0 -400.66794280138129 954.76374131132616 0 0 0 0 -14.338744285564417 -440.52532117891678 0 -440.52532117891678 1150.7140697180002 0 0 0 0 -1.6285308533697389 -339.01829915664712 0 -339.01829915664712 864.82539770986477 0 0 0 0 -47.124191434714362 -362.57595935007339 0 -362.57595935007339 881.66532940509205 0 0 0 0 -17.788842394783103 -480.38982048752951 0 -480.38982048752951 830.27795769313525 0 0 0 0 77.508346058843017 -406.51118061002489 0 -406.51118061002489 719.63037352319952 0 0 0 0 127.8001446638318 -473.78837846217994 0 -473.78837846217994 642.21885391706019 0 0 0 0 147.66715729302064 -301.1637204822473 0 -301.1637204822473 630.01772508423892 0 0 0 0 140.00450336115159 -267.82476508922264 0 -267.82476508922264 715.3303919693717 0 0 0 0 77.351159490522861 -338.92170194382317 0 -338.92170194382317 736.55332711347728 0 0 0 0 81.774235972131919 -280.21248745009507 0 -280.21248745009507 825.93548072630074 0 0 0 0 -26.069392404261521 -307.73052358151836 0 -307.73052358151836 836.13717584108235 0 0 0 0 30.364420937672129 -257.37312266884305 0 -257.37312266884305 857.62496694999572 0 0 0 0 140.20682907692685 -42.955875931002083 0 -42.955875931002083 659.72161414453512 0 0 0 0 146.563933489926 -132.82690385942669 0 -132.82690385942669 867.51787228274043 0 0 0 0 425.53284143853898 -34.392907130561071 0 -34.392907130561071 652.40072203168529 0 0 0 0 217.87998467995655 -244.39840160938274 0 -244.39840160938274 644.19043202041939 0 0 0 0 343.5986334558018 -258.47785648897479 0 -258.47785648897479 557.58563106060319 0 0 0 0 209.51817587100783 -31.685107757639344 0 -31.685107757639344 751.40130985225551 0 0 0 0 425.06312670154352 82.188118162310275 0 82.188118162310275 395.47935049844489 0 0 0 0 371.977260124113 -23.312190723772801 0 -23.312190723772801 206.41423377049796 0 0 0 0 377.62027029969795 512.80833466380136 0 512.80833466380136 462.9281546320999 0 0 0 0 169.47609989905061 93.843495476518001 0 93.843495476518001 1173.6940603695111 0 0 0 0 308.487127966564 -347.50715404501534 0 -347.50715404501534 864.74031456175726 0 0 0 0 402.37727369377239 -635.46130133207043 0 -635.46130133207043 1679.8663408959546 0 0 0 0 85.16409480195307 411.9483284822345 0 411.9483284822345 1817.4479160357878 0 0 0 0 191.58253481637985 107.21018537639611 0 107.21018537639611 954.85852278170933 0 0 0 0 94.404513362199168 428.12707306848461 0 428.12707306848461 1021.7231086007359 0 0 0 0 336.29670189731314 1338.6190526255741 0 1338.6190526255741 980.91193585051224 0 0 0 0 -302.89582066282537 933.10641698808467 0 933.10641698808467 3168.1643055474706 0 0 0 0 290.21373883565775 342.61193605911103 0 342.61193605911103 1030.1363661601445 0 0 0 0 19.412925116615952 -972.52740778239968 0 -972.52740778239968 3271.7548806506093 0 0 0 0 -487.67617785405844 1031.0075455736078 0 1031.0075455736078 -524.92747651076934 0 0 0 0 -0.23048033011146218 4.7305095463074451 0 4.7305095463074451 9.7143946105808539 0 0 0 0 -0.50695453606934993 328.49019149003288 0 328.49019149003288 2856.5185233836819 0 0 0 0 -682.69831850606772 502.11189319500409 0 502.11189319500409 3074.6788951150811 0 0 0 0 18.744069543055389 664.39254406071996 0 664.39254406071996 1559.4869641169644 0 0 0 0 -143.15463989368385 -344.97853031989507 0 -344.97853031989507 641.87662533827825 0 0 0 0 -0.46681728624213775 -0.31625849295126685 0 -0.31625849295126685 14.862148130445064 0 0 0 0 0.15905216962707419 119.60922848665359 0 119.60922848665359 -188.54927227512235 0 0 0 0 -0.22021522525675941 -4.7914486211347409 0 -4.7914486211347409 28.972350621425392 0 0 0 0 -158.39438401439813 24.117588981485824 0 24.117588981485824 -44.318172380895703 0 0 0 0 -890.21903574600515 -323.10972600627429 0 -323.10972600627429 275.40186712978175 0 0 0 0 428.24604526064195 -126.54249993364647 0 -126.54249993364647 -651.57177261785546 0 0 0 0 -0.49335908464422573 293.33845694794945 0 293.33845694794945 -50.039595504989848 0 0 0 0 -110.42551495623054 -45.693307589564938 0 -45.693307589564938 -9.649058895141934 0 0 0 0 967.6367716118159 -293.6583832440956 0 -293.6583832440956 -86.763100997020956 0 0 0 0 3.3321924584184046 -346.39806163199773 0 -346.39806163199773 744.10277252885862 0 0 0 0 123.60677508634626 -91.425302757394093 0 -91.425302757394093 19.227827424358111 0 0 0 0 96.282343633480423 -460.37911107484979 0 -460.37911107484979 745.78931214914337 0 0 0 0 -35.808454002173676 -96.24218134363764 0 -96.24218134363764 500.92156331766455 0 0 0 0 -57.908036242044147 -212.29837555226641 0 -212.29837555226641 206.69304721688968 0 0 0 0 0.26397967777679821 3.6840987745800362 0 3.6840987745800362 10.930967349026218 0 0 0 0 60.39450384454301 18.75580706189794 0 18.75580706189794 83.74486191424694 0 0 0 0 -72.314689968965723 -157.17849832143202 0 -157.17849832143202 321.02971815844649 0 0 0 0 34.425759546499762 -267.04737895580183 0 -267.04737895580183 203.94677788931585 0 0 0 0 41.993247003105125 -161.80863667408266 0 -161.80863667408266 239.53415310661512 0 0 0 0 215.76053638624012 -37.888882860643207 0 -37.888882860643207 188.79719929688144 0 0 0 0 240.50626195908922 -82.993227022081555 0 -82.993227022081555 174.62125453622139 0 0 0 0 146.32763313438045 -121.73191156557004 0 -121.73191156557004 159.78476999537088 0 0 0 0 116.91225360307612 -28.866976944504131 0 -28.866976944504131 215.93434532707033 0 0 0 0 167.13744189702183 -34.593328998382276 0 -34.593328998382276 195.57963292658678 0 0 0 0 -4.2726198604851788 -72.696028330607078 0 -72.696028330607078 307.63850668141095 0 0 0 0 66.777842888213172 -15.043942469463218 0 -15.043942469463218 316.34362357892678 0 0 0 0 48.966859262085791 -57.199265410257794 0 -57.199265410257794 261.34126413128251 0 0 0 0 30.153187250257474 -116.83913549004501 0 -116.83913549004501 295.61789660467184 0 0 0 0 27.424016581187288 -197.47540295302315 0 -197.47540295302315 299.60423964557413 0 0 0 0 -18.282559397267448 -225.28534985050283 0 -225.28534985050283 330.53964495945547 0 0 0 0 -45.141547316306287 -108.28463293716777 0 -108.28463293716777 300.40837539333006 0 0 0 0 -54.144870572241189 -157.16180634120246 0 -157.16180634120246 433.8057102245948 0 0 0 0 8.2325145880690798 23.836946715280646 0 23.836946715280646 300.65726197623735 0 0 0 0 34.108669635204251 -99.293720336718252 0 -99.293720336718252 74.171155426520272 0 0 0 0 52.955252650804823 89.079040059485123 0 89.079040059485123 28.415570722296252 0 0 0 0 -52.661439156785946 -131.9606230382924 0 -131.9606230382924 281.3608033060882 0 0 0 0 -0.20530537637258561 0.47338839411274591 0 0.47338839411274591 0.60780277080897349 0 0 0 0 -13.466140874412986 17.333373554516584 0 17.333373554516584 7.9116200558355558 0 0 0 0 20.179417315408728 -1.3397054965716961 0 -1.3397054965716961 -1.1901308897940908 0 0 0 0 -2.8581527871695016 -5.0454291836795164 0 -5.0454291836795164 4.4298337343934691 0 0 0 0 8.9972864353590012 -7.432556285726605 0 -7.432556285726605 4.2166781281375734 0 0 0 0 13.304978704274049 -1.949750903302629 0 -1.949750903302629 -0.42497211690351833 0 0 0 0 0.020402180499615952 2.2107456417106732 0 2.2107456417106732 10.831303857252351 0 0 0 0 0.55653437843820575 -0.89160759416543556 0 -0.89160759416543556 0.24871672690882463 0 0 0 0 1.5664758034344182 -1.2370139323108447 0 -1.2370139323108447 1.2840463901082018 0 0 0 0 0.92780237391338005 2.8761566364664759 0 2.8761566364664759 21.675109394200263 0 0 0 0 -0.38926491000383745 -0.3240336815903504 0 -0.3240336815903504 2.2798873305662255 0 0 0 0 -2.3865210086322577 -7.2474819861226933 0 -7.2474819861226933 14.43296281954099 0 0 0 0 -0.92421176430434571 0.03456605073006358 0 0.03456605073006358 28.324773953201657 0 0 0 0 3.1825854314465687 1.2039115301449783 0 1.2039115301449783 25.543421546637546 0 0 0 0 -0.83184252122926505 -3.4471540290726921 0 -3.4471540290726921 9.415340290212292 0 0 0 0 -0.42325165762585026 0.96963559285121903 0 0.96963559285121903 13.9547630050522 0 0 0 0 -0.91651760548393213 -2.8958355283830315 0 -2.8958355283830315 12.251442736334866 0 0 0 0 -0.68899091515274269 -2.3458708435856863 0 -2.3458708435856863 13.361627482565382 0 0 0 0 -12.59141318198499 -52.636368105311703 0 -52.636368105311703 -135.84236025430982 0 0 0 0 -0.63267909482469908 -1.2249949848277932 0 -1.2249949848277932 9.0018095696220826 0 0 0 0 7.0968209293267535 88.04022338341656 0 88.04022338341656 187.3032231212419 0 0 0 0 19.629194517264068 58.717911104735322 0 58.717911104735322 184.74693066006876 0 0 0 0 -16.519531346908479 58.169983138934185 0 58.169983138934185 528.43386219038075 0 0 0 0 22.241016743805631 10.929819964148919 0 10.929819964148919 138.98947508540004 0 0 0 0 -0.37073029725149098 1.8043901978904699 0 1.8043901978904699 6.85485088802875 0 0 0 0 85.966124752730423 -503.11438045697923 0 -503.11438045697923 814.19150851787708 0 0 0 0 295.40050390515069 -395.66324199450537 0 -395.66324199450537 501.81005228246795 0 0 0 0 -131.81523867004353 -314.46213764700587 0 -314.46213764700587 960.68207550721127 0 0 0 0 247.52473758517317 225.49312415999884 0 225.49312415999884 -442.54877282092639 0 0 0 0 -5.1045228825892082 -1.1272672194099869 0 -1.1272672194099869 37.569494991068495 0 0 0 0 201.74833135967242 -187.54041899308504 0 -187.54041899308504 46.893285002501216 0 0 0 0 -2.2062971416148383 -2.0613825358157953 0 -2.0613825358157953 12.016372863844992 0 0 0 0 -0.829082687945629 -2.3211789481865708 0 -2.3211789481865708 25.246848894516006 0 0 0 0 -5.6544876503533805 1.1061641467192089 0 1.1061641467192089 20.34695491292058 0 0 0 0 -4.0935401520510055 3.7482597984162567 0 3.7482597984162567 26.764987647852493 0 0 0 0 -4.4176913639539634 4.0761439161142334 0 4.0761439161142334 13.363156507271924 0 0 0 0 0.65351369066271492 -0.46045374279556839 0 -0.46045374279556839 17.279613042554786 0 0 0 0 -7.2388081732596792 -6.6745538853461994 0 -6.6745538853461994 10.939942070477343 0 0 0 0 -16.947951894600919 -6.300399844905769 0 -6.300399844905769 48.16453822189942 0 0 0 0 155.85821637531717 -245.56478124741989 0 -245.56478124741989 29.731826595503662 0 0 0 0 -15.200686476360532 3.8973578237673507 0 3.8973578237673507 6.6648762678598032 0 0 0 0 9.7349658274507362 -19.248438690258268 0 -19.248438690258268 10.924221106256397 0 0 0 0 -201.34579749003433 221.92324672906398 0 221.92324672906398 437.43929661736183 0 0 0 0 187.39911865569456 -413.44071648136014 0 -413.44071648136014 311.75189206906362 0 0 0 0 -22.094678590555304 -78.842640785616823 0 -78.842640785616823 53.246305062759347 0 0 0 0 -167.09097564534022 108.53444201852471 0 108.53444201852471 80.599622697453015 0 0 0 0 -110.35719788465644 148.13209275763074 0 148.13209275763074 206.07137201458681 0 0 0 0 -107.17666540710138 258.92373022449101 0 258.92373022449101 593.46076565203839 0 0 0 0 -194.306758726314 9.7462215866689803 0 9.7462215866689803 656.35840198339429 0 0 0 0 -85.058008256909488 28.041366044475581 0 28.041366044475581 581.66170640614291 0 0 0 0 -67.586796601569404 -144.14218527651246 0 -144.14218527651246 264.66935517655838 0 0 0 0 -107.93319381223682 13.429512050141057 0 13.429512050141057 118.29030580671679 0 0 0 0 213.91293218792816 -105.25612800113595 0 -105.25612800113595 -110.91308402603318 0 0 0 0 -20.012533413820805 2.733198698029554 0 2.733198698029554 3.1354299159068546 0 0 0 0 57.265224800561782 -201.76353927875607 0 -201.76353927875607 96.202751936281857 0 0 0 0 -7.7254779462141414 49.927273565393989 0 49.927273565393989 97.475688654627447 0 0 0 0 -3.5939249310432366 2.2169388373560537 0 2.2169388373560537 0.18254343394434613 0 0 0 0 13.765353294064626 -19.20549409629038 0 -19.20549409629038 10.865676755705479 0 0 0 0 190.01932965754077 -176.34399461175781 0 -176.34399461175781 534.97661542385686 0 0 0 0 -115.09567466543541 55.783241444161831 0 55.783241444161831 920.69146395250573 0 0 0 0 -0.38639872160539124 -1.1672009423054206 0 -1.1672009423054206 7.05033018387536 0 0 0 0 -267.50401666973266 324.02261627044936 0 324.02261627044936 708.7077257407509 0 0 0 0 -187.56072633677627 -470.18825020357872 0 -470.18825020357872 414.52739721334365 0 0 0 0 -57.835294963553338 61.057999021119031 0 61.057999021119031 -57.011982580559561 0 0 0 0 -250.98554731830973 226.15803415770279 0 226.15803415770279 141.59959549145424 0 0 0 0 -162.28864889463148 -279.23141901499912 0 -279.23141901499912 968.77554355836037 0 0 0 0 -167.93487630488744 -185.54905115339716 0 -185.54905115339716 254.06195278975065 0 0 0 0 6.8415398545557764 -21.758985665332148 0 -21.758985665332148 646.01334628571567 0 0 0 0 88.739855096393512 -54.288205634591577 0 -54.288205634591577 148.24987511121435 0 0 0 0 64.330486036088587 -305.87921130286122 0 -305.87921130286122 309.2188483186037 0 0 0 0 -41.678105239285287 -312.11692677409883 0 -312.11692677409883 426.36658781997176 0 0 0 0 0.39927012984229115 -1.6192691453594961 0 -1.6192691453594961 2.8751640581829747 0 0 0 0 -65.347065214115446 -450.31905886155073 0 -450.31905886155073 -101.84828846744495 0 0 0 0 7.4292914563093291 -28.960891737435304 0 -28.960891737435304 -155.67749513921808 0 0 0 0 -0.12189719176497782 -3.4133875850285733 0 -3.4133875850285733 8.1466346081931533 0 0 0 0 -375.51627720371334 -277.51344835112104 0 -277.51344835112104 74.805911558185471 0 0 0 0 -220.84989511992444 103.69272480996733 0 103.69272480996733 -29.316587157186405 0 0 0 0 -47.444491361140308 13.699169609877572 0 13.699169609877572 492.00614612145 0 0 0 0 -21.844864569147887 -72.117423373034399 0 -72.117423373034399 125.99452636913338 0 0 0 0 -639.22077199526939 -263.49540306522977 0 -263.49540306522977 200.43807641132298 0 0 0 0 -317.86910272683349 119.53225602423845 0 119.53225602423845 149.43346567221306 0 0 0 0 -0.37035191549722812 -3.1483562937543113 0 -3.1483562937543113 12.947631366021369 0 0 0 0 -396.8595708421966 -78.133213338347559 0 -78.133213338347559 167.68273017689353 0 0 0 0 -180.30881212354666 90.454612807552621 0 90.454612807552621 67.01336301099218 0 0 0 0 202.39438704414283 -286.2052362597351 0 -286.2052362597351 -343.01251038277405 0 0 0 0 0.29220694000450775 -2.173342019570363 0 -2.173342019570363 5.7558424381956002 0 0 0 0 64.818587082925205 -645.99067502181424 0 -645.99067502181424 373.83264668083575 0 0 0 0 -213.65226710914385 8.3190219404787058 0 8.3190219404787058 -79.462400960430386 0 0 0 0 -96.254559937683609 440.46865479648113 0 440.46865479648113 603.06243564795295 0 0 0 0 -0.65525428910007033 -1.675422086270018 0 -1.675422086270018 5.5258487917379 0 0 0 0 -38.081381659973346 177.71314625724699 0 177.71314625724699 1314.0612302082154 0 0 0 0 -75.061218105051921 -64.279204860853497 0 -64.279204860853497 1011.4656390712335 0 0 0 0 -108.55294472105925 8.4154007107281359 0 8.4154007107281359 1137.3162410626755 0 0 0 0 130.31934238792746 -330.8810533874057 0 -330.8810533874057 1256.8322753833781 0 0 0 0 4.9889063716160535 -276.96929802413433 0 -276.96929802413433 1707.2757870031201 0 0 0 0 -202.94209199273519 -875.45389498311852 0 -875.45389498311852 1075.19444908679 0 0 0 0 368.18132867472696 -671.73532679575874 0 -671.73532679575874 1529.7432126067433 0 0 0 0 225.98474761229977 -432.76619752311672 0 -432.76619752311672 1259.7241062937428 0 0 0 0 415.54540507432284 -201.32771348950337 0 -201.32771348950337 1176.1466410695284 0 0 0 0 -57.924106849584405 63.594235878357722 0 63.594235878357722 536.42423186414817 0 0 0 0 -69.298521692166872 200.4655258386706 0 200.4655258386706 533.77318398117495 0 0 0 0 -215.54074523391 211.23348808669834 0 211.23348808669834 430.03926480081282 0 0 0 0 74.328863049947813 4.3509836028679274 0 4.3509836028679274 -171.02752040907944 0 0 0 0 -51.816626231383452 206.86014372542923 0 206.86014372542923 634.6422662952391 0 0 0 0 -235.89139163227469 114.41784320474471 0 114.41784320474471 1023.6291231405194 0 0 0 0 -58.671230248758548 4.848081963347795 0 4.848081963347795 878.89806730162672 0 0 0 0 -48.347021219372522 101.9419318976029 0 101.9419318976029 661.60264764360909 0 0 0 0 109.94915578965674 113.72958366294915 0 113.72958366294915 570.29357732904464 0 0 0 0 24.984081394367422 178.92445352190407 0 178.92445352190407 531.75637110111711 0 0 0 0 -4.6784796598199136 95.958281488739885 0 95.958281488739885 652.57749703872105 0 0 0 0 127.56376523032577 121.744549972811 0 121.744549972811 408.12742651447479 0 0 0 0 133.23041878976824 248.41469588296241 0 248.41469588296241 485.93005084528704 0 0 0 0 30.183279823155317 185.14163405911313 0 185.14163405911313 771.15233200433431 0 0 0 0 3.6361583715447523 103.21681719103071 0 103.21681719103071 519.97157883622731 0 0 0 0 37.918705602570526 100.31674907740671 0 100.31674907740671 378.04147942699637 0 0 0 0 197.63636753561684 -305.13533411980097 0 -305.13533411980097 563.10021504177348 0 0 0 0 89.391194430250579 -142.9715949229294 0 -142.9715949229294 320.16286481097632 0 0 0 0 60.323840874011694 -281.18034176952642 0 -281.18034176952642 167.19777171223541 0 0 0 0 305.45028422236146 -10.15241529595005 0 -10.15241529595005 165.14748087647604 0 0 0 0 300.91175092056301 144.32032693606743 0 144.32032693606743 355.98222825155244 0 0 0 0 211.6718886021348 89.48262302134026 0 89.48262302134026 446.65093226617319 0 0 0 0 194.98763499938104 -45.040477120863216 0 -45.040477120863216 206.74469502871216 0 0 0 0 174.05082627030947 -198.58164064210723 0 -198.58164064210723 2.16074024244881 0 0 0 0 80.518973556048877 181.17760610921687 0 181.17760610921687 193.98767267176299 0 0 0 0 0.26341825689893206 1.3056802881545906 0 1.3056802881545906 5.0811761782449594 0 0 0 0 175.1107486897659 -424.68094149637318 0 -424.68094149637318 1222.2768697520223 0 0 0 0 221.29040662214629 147.25536917775753 0 147.25536917775753 896.67006910327473 0 0 0 0 465.62767799974245 -94.965260156197473 0 -94.965260156197473 1116.4233126739273 0 0 0 0 125.55924613907416 -12.87022844155581 0 -12.87022844155581 893.80130681869923 0 0 0 0 553.26445660045647 -458.41815523963305 0 -458.41815523963305 1354.3504309837008 0 0 0 0 551.79383444326459 -461.54676039442711 0 -461.54676039442711 1351.4358495373453 0 0 0 0 222.69701724263507 20.568521218039677 0 20.568521218039677 440.22741624349146 0 0 0 0 185.7199406674672 68.094111956248526 0 68.094111956248526 948.582553539949 0 0 0 0 -17.028557754710164 -64.53751607783488 0 -64.53751607783488 1670.2036918807134 0 0 0 0 495.72827874045015 138.32638529140968 0 138.32638529140968 958.4927445925714 0 0 0 0 -227.5466811825533 508.28260758434408 0 508.28260758434408 140.48412528907647 0 0 0 0 131.0235712389707 -673.5263161673538 0 -673.5263161673538 1141.6344631819229 0 0 0 0 -0.51633250420363863 0.69414361722586904 0 0.69414361722586904 9.1537252903308968 0 0 0 0 115.06001322790689 206.46473360837263 0 206.46473360837263 732.19307944906177 0 0 0 0 -112.27522040417966 177.42005657750997 0 177.42005657750997 867.97754647293186 0 0 0 0 43.982720144128507 314.18968944673543 0 314.18968944673543 958.58170940084165 0 0 0 0 171.91989244039269 -145.27134758750617 0 -145.27134758750617 1231.2301978085452 0 0 0 0 -3.8744149700983144 208.38222509548359 0 208.38222509548359 1056.2400186741252 0 0 0 0 164.04449539013353 17.789800426980946 0 17.789800426980946 59.968770102073904 0 0 0 0 183.15071844752629 118.23654840591917 0 118.23654840591917 352.22323056222376 0 0 0 0 105.4487117170554 416.22342508885049 0 416.22342508885049 279.5155267813825 0 0 0 0 187.75355324334345 -19.615483208850492 0 -19.615483208850492 -94.441422808507923 0 0 0 0 93.96766066243697 -406.21283980472072 0 -406.21283980472072 296.97496542839508 0 0 0 0 -29.169688808768569 68.257098889109329 0 68.257098889109329 127.38751882426004 0 0 0 0 -81.292419585408311 -321.4646806036726 0 -321.4646806036726 905.39366768063337 0 0 0 0 -51.170816159032057 -449.51719492766279 0 -449.51719492766279 962.05892740939817 0 0 0 0 119.7346441741883 -606.59967157823667 0 -606.59967157823667 769.76716715519433 0 0 0 0 -178.20406836135658 -278.15936824979872 0 -278.15936824979872 894.24948328468599 0 0 0 0 -176.48045365518283 -245.64948384591844 0 -245.64948384591844 1175.0807852133075 0 0 0 0 -28.078362044746811 -109.69219891243483 0 -109.69219891243483 724.44056219374761 0 0 0 0 39.828609430225072 -95.780410142811888 0 -95.780410142811888 485.77585730074679 0 0 0 0 9.6875526147676396 -175.65561158846504 0 -175.65561158846504 713.89435401980882 0 0 0 0 96.401880352226897 -247.03576533834348 0 -247.03576533834348 683.01155636432668 0 0 0 0 79.116638151977128 -67.408952292349568 0 -67.408952292349568 615.99010919356806 0 0 0 0 -75.552637654659506 142.80948873091165 0 142.80948873091165 1800.544241308351 0 0 0 0 -55.211166562959647 -124.01498054697004 0 -124.01498054697004 904.96085567685077 0 0 0 0 19.459036820404176 -26.375113117333058 0 -26.375113117333058 832.63346764420567 0 0 0 0 -30.048618889484004 51.048885463773331 0 51.048885463773331 954.87184278577843 0 0 0 0 -1.1981479254955514 -6.4704431216123197 0 -6.4704431216123197 5.0475898810207127 0 0 0 0 -0.44508499277285996 -2.35242645193496 0 -2.35242645193496 2.3436887706597815 0 0 0 0 -103.71646335895412 -503.27591194339038 0 -503.27591194339038 -587.96633880666195 0 0 0 0 -242.75679359914437 -173.83647143492999 0 -173.83647143492999 118.32483338890597 0 0 0 0 -183.66278242198672 -95.012853654890932 0 -95.012853654890932 -25.396070790608064 0 0 0 0 -154.79347132363844 -172.32641461844651 0 -172.32641461844651 -83.98821052936546 0 0 0 0 -73.335701495691779 -63.113379237729532 0 -63.113379237729532 35.738596888397296 0 0 0 0 -198.89466679925704 -245.70275716973993 0 -245.70275716973993 925.2486941760726 0 0 0 0 -19.896179438784429 -188.07968487717881 0 -188.07968487717881 388.33818579917715 0 0 0 0 28.355207534611964 -5.3348330000007991 0 -5.3348330000007991 1027.8310677789486 0 0 0 0 -56.294008779084322 -235.45619808412448 0 -235.45619808412448 932.30652849795297 0 0 0 0 -287.34518648042808 -509.16850289531067 0 -509.16850289531067 140.68071631183557 0 0 0 0 -154.79525883866245 38.611959602603747 0 38.611959602603747 284.92950501431187 0 0 0 0 -31.402644672001145 -40.790389454734395 0 -40.790389454734395 252.88008320632798 0 0 0 0 58.795590033410576 77.820586678455584 0 77.820586678455584 385.97315454280761 0 0 0 0 181.05663663574069 1.0342536032185308 0 1.0342536032185308 250.77390322344945 0 0 0 0 155.37080560568302 42.53444268835301 0 42.53444268835301 241.09535867573322 0 0 0 0 94.317392373057487 -6.2393983298388775 0 -6.2393983298388775 210.26749612620915 0 0 0 0 77.572155310095468 34.10037295758957 0 34.10037295758957 209.15219433522907 0 0 0 0 129.35536771744898 -0.45286173351450998 0 -0.45286173351450998 222.22130409395322 0 0 0 0 -13.917373840280788 76.921272555297037 0 76.921272555297037 232.35735316324281 0 0 0 0 63.83338508404222 26.368468895292608 0 26.368468895292608 225.85974295544111 0 0 0 0 60.465473206038496 28.782159070506168 0 28.782159070506168 242.18027710815659 0 0 0 0 -56.628645989298434 -30.620819233863585 0 -30.620819233863585 270.84623711425229 0 0 0 0 60.592184231297665 41.675180466547317 0 41.675180466547317 210.71643600871903 0 0 0 0 39.805668223186387 51.540868436626624 0 51.540868436626624 208.2350176841428 0 0 0 0 -114.12079476414124 -50.118693138218077 0 -50.118693138218077 200.54672770226898 0 0 0 0 38.366719411310669 -1.1063118023193965 0 -1.1063118023193965 205.52073262294289 0 0 0 0 -75.713394330938286 41.549367046216503 0 41.549367046216503 235.86484118060616 0 0 0 0 -174.52440916577103 -10.945386271538155 0 -10.945386271538155 188.91068501319387 0 0 0 0 -169.02042331020687 -66.012339287575742 0 -66.012339287575742 41.1884170465637 0 0 0 0 -201.45135687406565 -52.637503108358942 0 -52.637503108358942 147.38187942131481 0 0 0 0 -191.72653801720332 49.649806163113681 0 49.649806163113681 132.78617999133894 0 0 0 0 -173.76230106189854 43.503386407293874 0 43.503386407293874 79.057069972084719 0 0 0 0 -137.85693059959635 51.445161476258363 0 51.445161476258363 206.3624066436364 0 0 0 0 -171.72123444536129 15.229725710079947 0 15.229725710079947 174.660460133382 0 0 0 0 -158.59306182099021 106.36133449003682 0 106.36133449003682 124.10027590606842 0 0 0 0 -178.60680329736749 72.747137547041348 0 72.747137547041348 83.72095932339289 0 0 0 0 -184.13687610120655 126.14473284569794 0 126.14473284569794 5.4666947655205149 0 0 0 0 -94.293595277121312 86.451597891864367 0 86.451597891864367 -38.478939945413003 0 0 0 0 -1.2423200056702801 3.6699118128692447 0 3.6699118128692447 21.124816337379968 0 0 0 0 -164.54313527016842 188.56342969744219 0 188.56342969744219 -178.33126741991146 0 0 0 0 -205.86758196027574 127.59582964161564 0 127.59582964161564 23.631347700764309 0 0 0 0 -173.44545682646879 19.187214788735218 0 19.187214788735218 26.027032813435653 0 0 0 0 -333.05693508790546 113.53385635125596 0 113.53385635125596 23.639715271805471 0 0 0 0 -259.6860042447754 -16.324003483554407 0 -16.324003483554407 -61.526670443170588 0 0 0 0 -102.24974278850436 55.451174837508006 0 55.451174837508006 -30.205667647234804 0 0 0 0 -48.867827018447088 17.942107476279489 0 17.942107476279489 -62.33928140529315 0 0 0 0 -104.37974337002908 15.329437057459472 0 15.329437057459472 0.54854434472508729 0 0 0 0 -55.070616605456053 35.592177529280889 0 35.592177529280889 8.6510120948951226 0 0 0 0 -17.101464079605648 -17.840384725728654 0 -17.840384725728654 25.632744267320959 0 0 0 0 -54.682857063961706 30.840026686724741 0 30.840026686724741 2.5819159175443929 0 0 0 0 -68.425039996775467 79.56489614295424 0 79.56489614295424 -74.042363263641164 0 0 0 0 -41.19473483316392 44.61900148098357 0 44.61900148098357 -34.295069418352796 0 0 0 0 -40.413970681409637 47.880463565808896 0 47.880463565808896 -22.534174934742623 0 0 0 0 -32.583969174789672 -12.684723023266997 0 -12.684723023266997 87.734602186188567 0 0 0 0 -0.034822173389044142 0.14411904122721353 0 0.14411904122721353 0.77872189469850994 0 0 0 0 -5.6039473051610003 -34.102853407937801 0 -34.102853407937801 -24.105988927112776 0 0 0 0 18.10642033330214 -41.369957242233795 0 -41.369957242233795 70.028604903680389 0 0 0 0 32.921847018247263 10.95758472437592 0 10.95758472437592 20.006980726029724 0 0 0 0 0.22138846743445184 0.088062472335707298 0 0.088062472335707298 1.5803787653005088 0 0 0 0 35.59788996868383 77.932117523530906 0 77.932117523530906 74.945908837835304 0 0 0 0 -129.37206243182214 38.470003757900486 0 38.470003757900486 114.81977505373652 0 0 0 0 -67.155336325678945 120.52645997125364 0 120.52645997125364 221.9786838302025 0 0 0 0 -80.172761483260729 84.722764113961603 0 84.722764113961603 71.364894176804228 0 0 0 0 -53.425445108115525 12.480660762714251 0 12.480660762714251 27.39874752543983 0 0 0 0 -9.1108085554049723 -2.0675381246783218 0 -2.0675381246783218 29.193571659758163 0 0 0 0 -10.325643649170573 -0.85255794823024189 0 -0.85255794823024189 39.790800309830956 0 0 0 0 -8.830085609905467 -5.2705957419257174 0 -5.2705957419257174 52.345044238507398 0 0 0 0 -3.4060722902324301 -2.904089596864651 0 -2.904089596864651 48.114986400338239 0 0 0 0 0.71338782264035938 -17.008051150311076 0 -17.008051150311076 43.665588580141048 0 0 0 0 -0.97612767752484242 -11.929602343734587 0 -11.929602343734587 28.962345520350937 0 0 0 0 -12.277183571139631 0.71549130029598018 0 0.71549130029598018 29.393255790597323 0 0 0 0 -9.0599011324921435 2.4896727445757278 0 2.4896727445757278 29.008260415663244 0 0 0 0 -19.184255255691141 11.092846811548952 0 11.092846811548952 26.94697819335488 0 0 0 0 -7.6366990632969021 1.0645577999939633 0 1.0645577999939633 18.936192645589472 0 0 0 0 -13.960118229085793 7.1076466564572911 0 7.1076466564572911 18.692089297750499 0 0 0 0 -176.68267070855981 52.140688854542532 0 52.140688854542532 54.347123209096026 0 0 0 0 -0.16770505895602028 4.0279197627661958 0 4.0279197627661958 21.560920742717485 0 0 0 0 -73.10835080272102 -24.299963561254117 0 -24.299963561254117 20.603844824770931 0 0 0 0 -105.2736752811096 -9.5161652852766565 0 -9.5161652852766565 47.408701524242133 0 0 0 0 -1.0325793149729297 3.2808463436333 0 3.2808463436333 22.569225666564876 0 0 0 0 -10.734353378272971 14.878745330883248 0 14.878745330883248 20.579131897257867 0 0 0 0 -6.9752867283866635 11.77753360852148 0 11.77753360852148 12.418774716054031 0 0 0 0 -0.21854826399119531 19.775486242040643 0 19.775486242040643 20.984052983433685 0 0 0 0 -12.777396704237123 17.055975731163926 0 17.055975731163926 20.716517595297773 0 0 0 0 -13.267954212493748 12.144185512875993 0 12.144185512875993 36.825558156502666 0 0 0 0 -18.234641672924226 17.430126053453932 0 17.430126053453932 71.811055141908582 0 0 0 0 0.07279419220426725 0.64366764071660043 0 0.64366764071660043 -0.49812174284831201 0 0 0 0 9.6849603236311381 17.706276558845275 0 17.706276558845275 -39.31255329560372 0 0 0 0 4.576905009995528 60.314623291051248 0 60.314623291051248 16.586614274325257 0 0 0 0 75.914733421536639 150.78888268396258 0 150.78888268396258 253.44047580977713 0 0 0 0 -0.20354593915746333 1.0921722590601348 0 1.0921722590601348 0.18656656214952783 0 0 0 0 23.621553498346827 150.3562398238937 0 150.3562398238937 310.13586265587219 0 0 0 0 50.288617364242086 203.28100601669576 0 203.28100601669576 361.42462357637123 0 0 0 0 97.481412403547864 201.92655713689601 0 201.92655713689601 281.54162233031821 0 0 0 0 -1.2519526444143418 1.6382165286015891 0 1.6382165286015891 3.2940165446266434 0 0 0 0 115.16191598943888 51.435550411340955 0 51.435550411340955 106.85978677794628 0 0 0 0 11.226596387921983 71.0481279120213 0 71.0481279120213 249.46621514543949 0 0 0 0 33.931287569553803 40.02783345906937 0 40.02783345906937 243.24668491606099 0 0 0 0 7.9872646694731628 58.788919531521969 0 58.788919531521969 495.08165103979991 0 0 0 0 75.6999992649246 -98.852070835520863 0 -98.852070835520863 410.62037140806206 0 0 0 0 33.077371945084252 -84.270984808790672 0 -84.270984808790672 448.90051548693737 0 0 0 0 72.152106746267606 -57.646608456401736 0 -57.646608456401736 224.59383557466208 0 0 0 0 10.924495301602406 -84.750787998083979 0 -84.750787998083979 170.69321623398719 0 0 0 0 54.957921634722453 128.85988594038281 0 128.85988594038281 -45.400823795949691 0 0 0 0 -51.391929916516929 45.125476859226183 0 45.125476859226183 321.66559477199917 0 0 0 0 -0.81707812569851279 -7.8056008196269886 0 -7.8056008196269886 8.2972365011502518 0 0 0 0 -77.861121552217725 -23.050461112048652 0 -23.050461112048652 23.111430083394225 0 0 0 0 -0.59346130782342521 -2.076409227895752 0 -2.076409227895752 2.7581548662955697 0 0 0 0 117.99076917745356 215.26732860287302 0 215.26732860287302 209.21360398588877 0 0 0 0 -16.133912612311384 -11.27460292446267 0 -11.27460292446267 590.21262021135772 0 0 0 0 84.369076085789345 -20.628035093490325 0 -20.628035093490325 565.57384152596205 0 0 0 0 96.563197080118385 -69.747644763549033 0 -69.747644763549033 451.06301671455731 0 0 0 0 -23.284299568664352 49.792759927418956 0 49.792759927418956 608.36993500647077 0 0 0 0 33.09437828135389 -33.436307799544011 0 -33.436307799544011 455.14408722086227 0 0 0 0 -31.973431175516552 -72.695753694861196 0 -72.695753694861196 755.48402240412543 0 0 0 0 -46.068938565403528 -140.25382724771771 0 -140.25382724771771 695.57693054796255 0 0 0 0 6.800668727590061 -163.68790993986113 0 -163.68790993986113 680.91633836648543 0 0 0 0 -31.916399338566098 -73.913530273167112 0 -73.913530273167112 551.48259069806954 0 0 0 0 -63.268355104314182 -184.25929529412224 0 -184.25929529412224 676.39434455013543 0 0 0 0 -91.558327101400394 -199.12620617228094 0 -199.12620617228094 722.11356631341914 0 0 0 0 -56.270762504020098 -145.00374497351004 0 -145.00374497351004 717.49740175946499 0 0 0 0 81.360708220796255 -140.19443832088291 0 -140.19443832088291 391.07295566921675 0 0 0 0 128.86481455002138 -64.638147311739885 0 -64.638147311739885 171.15082725683169 0 0 0 0 21.707654473047533 -162.62171342071088 0 -162.62171342071088 383.7367951485212 0 0 0 0 11.869325369411719 -179.82795755157713 0 -179.82795755157713 517.21347958926344 0 0 0 0 50.603450612593363 -153.34219767690229 0 -153.34219767690229 387.2546088861709 0 0 0 0 49.096395784447417 -146.57269041437394 0 -146.57269041437394 541.38750470391096 0 0 0 0 15.411044041444438 -195.44267260654306 0 -195.44267260654306 566.50055501476891 0 0 0 0 56.483287089553926 -225.44590343483287 0 -225.44590343483287 496.28751534943876 0 0 0 0 -90.391336216671803 -277.98450749320182 0 -277.98450749320182 841.58640485701471 0 0 0 0 87.722573539971819 -323.47705338067135 0 -323.47705338067135 630.43907002241758 0 0 0 0 100.96201616212431 -215.0628361408094 0 -215.0628361408094 584.60664347816783 0 0 0 0 109.31222558680734 -285.02073321233911 0 -285.02073321233911 506.9944829011838 0 0 0 0 151.25474557450343 -197.33052547547049 0 -197.33052547547049 571.88128927536309 0 0 0 0 238.04033833671966 -102.68394618100319 0 -102.68394618100319 320.593819382324 0 0 0 0 73.318543653174174 -101.59422710096987 0 -101.59422710096987 173.44601603379124 0 0 0 0 16.841840142134629 -67.352656972325349 0 -67.352656972325349 334.26234902892975 0 0 0 0 72.562434568092272 59.255685410396836 0 59.255685410396836 169.83962803181203 0 0 0 0 120.52250855884677 -71.318681409895362 0 -71.318681409895362 313.85032375565061 0 0 0 0 16.919325195643523 49.813106143781624 0 49.813106143781624 274.83869052262162 0 0 0 0 29.229878534786394 -4.0507364649893134 0 -4.0507364649893134 193.51400048116921 0 0 0 0 63.967811545098584 69.052230007007893 0 69.052230007007893 85.966209780963254 0 0 0 0 170.29359282100114 -18.108390888983649 0 -18.108390888983649 367.97426492164959 0 0 0 0 49.381869895909404 -21.229158725414891 0 -21.229158725414891 403.37714444058292 0 0 0 0 100.20405152520448 20.010880811139941 0 20.010880811139941 205.32476424398192 0 0 0 0 79.770025702008468 70.904796427589645 0 70.904796427589645 267.97353582839423 0 0 0 0 58.221240806552487 52.112906071692123 0 52.112906071692123 192.86825893612331 0 0 0 0 69.623569204324667 52.10274321113684 0 52.10274321113684 183.85182530316524 0 0 0 0 13.591013126727375 104.16409573057172 0 104.16409573057172 162.36631997190125 0 0 0 0 34.701654478592971 57.441886206300751 0 57.441886206300751 234.39810061416938 0 0 0 0 32.365528833876851 105.98173277686874 0 105.98173277686874 156.78847519224655 0 0 0 0 17.471909256275467 84.684776363268611 0 84.684776363268611 156.19785587367369 0 0 0 0 18.336183520951636 123.56605092465907 0 123.56605092465907 144.30715075203625 0 0 0 0 14.303331479889493 126.04991162804436 0 126.04991162804436 143.08993186047883 0 0 0 0 5.4561304548042244 108.56100092528504 0 108.56100092528504 132.02901775483042 0 0 0 0 71.364622154509561 23.237892928285873 0 23.237892928285873 216.93454299857694 0 0 0 0 22.848336780448335 108.66554239175457 0 108.66554239175457 183.55217772358446 0 0 0 0 3.3742638509397693 92.497776399104623 0 92.497776399104623 177.23177283447149 0 0 0 0 0.86814528292293858 10.83139880204908 0 10.83139880204908 52.197385389008559 0 0 0 0 8.7935169153734023 80.656975249934476 0 80.656975249934476 63.538772654501372 0 0 0 0 16.448447396795473 48.062220010258898 0 48.062220010258898 102.58931863417092 0 0 0 0 8.470042675863624 112.27576085567762 0 112.27576085567762 125.05394574539969 0 0 0 0 -52.9629905132565 31.588964459297131 0 31.588964459297131 42.365338656672975 0 0 0 0 2.9939935604306811 71.057211186402128 0 71.057211186402128 20.481286182592157 0 0 0 0 -101.74116811598014 41.153511593147414 0 41.153511593147414 23.789028320703437 0 0 0 0 -103.34322669455014 -37.582926789546036 0 -37.582926789546036 -32.382579062999866 0 0 0 0 21.729763760459491 -13.210590266133295 0 -13.210590266133295 -106.57683882836136 0 0 0 0 -8.7113756058811305 -59.205105246925086 0 -59.205105246925086 -112.83785987785086 0 0 0 0 -1.8985505290675064 44.60460984299425 0 44.60460984299425 2.3417783345648786 0 0 0 0 -9.6225654601919075 114.12151780355521 0 114.12151780355521 182.82576509608771 0 0 0 0 -11.077139943323346 71.393751432027784 0 71.393751432027784 79.685547348664841 0 0 0 0 3.1257801296378602 113.76285190103226 0 113.76285190103226 127.02774091614992 0 0 0 0 7.0064044626133182 81.337005138091627 0 81.337005138091627 72.666987977470853 0 0 0 0 -20.246079867036315 76.395536799143883 0 76.395536799143883 10.649144443850673 0 0 0 0 14.906542918270134 61.559589578071609 0 61.559589578071609 16.540260986206704 0 0 0 0 -17.771418648360395 88.995326096301142 0 88.995326096301142 70.30094408171135 0 0 0 0 -7.3504749790536152 -11.107529021333903 0 -11.107529021333903 19.879966452223016 0 0 0 0 -57.58121944724553 26.698207353379985 0 26.698207353379985 165.53916322207078 0 0 0 0 4.1026455202591023 60.28415456165385 0 60.28415456165385 83.731578550825361 0 0 0 0 9.7145932461189659 44.216402157529956 0 44.216402157529956 40.831892723108467 0 0 0 0 -58.418745261790264 -24.842339208131307 0 -24.842339208131307 223.47682015144528 0 0 0 0 15.905178542002659 -15.987374904863827 0 -15.987374904863827 -3.5998580741143087 0 0 0 0 18.490622087367228 36.450103138398845 0 36.450103138398845 -11.411396486866579 0 0 0 0 -6.3256826803541886 3.8909501719681856 0 3.8909501719681856 7.4380206333358281 0 0 0 0 -2.332836103809846 1.1076335551762497 0 1.1076335551762497 7.5112103179126883 0 0 0 0 2.2149966033155124 -36.673007614197559 0 -36.673007614197559 16.017407878731319 0 0 0 0 -0.64283410426696719 -5.0451872210760484 0 -5.0451872210760484 75.804409086078522 0 0 0 0 17.134014332806146 7.2349696778546786 0 7.2349696778546786 29.556977560368978 0 0 0 0 42.387904846572042 40.905900950878276 0 40.905900950878276 54.999602877971483 0 0 0 0 81.58810548575434 31.177086924988544 0 31.177086924988544 173.69590488172253 0 0 0 0 -0.76084722173972597 0.079572717811089433 0 0.079572717811089433 -0.29115261194443143 0 0 0 0 27.240932392535115 64.419624394664424 0 64.419624394664424 71.118047838313942 0 0 0 0 -8.0181809721383388 46.741718364235567 0 46.741718364235567 74.477490509656491 0 0 0 0 -41.462593040239199 -8.3002835618681274 0 -8.3002835618681274 60.182097946555587 0 0 0 0 43.19670437932291 8.3451645408495096 0 8.3451645408495096 53.692781278263283 0 0 0 0 21.198620528099127 22.804469775874168 0 22.804469775874168 74.645388837627252 0 0 0 0 -74.827596257345249 16.919886470510392 0 16.919886470510392 172.60945866276597 0 0 0 0 75.684335914005715 25.148113388044294 0 25.148113388044294 -187.12560992609724 0 0 0 0 -2.0735295785522347 2.9596919632752474 0 2.9596919632752474 -1.0601895610411116 0 0 0 0 47.290941768377706 85.355636491629411 0 85.355636491629411 132.86758708651905 0 0 0 0 9.452267665667236 34.414157817664091 0 34.414157817664091 191.51867378674797 0 0 0 0 -28.830021820975148 87.199219394446118 0 87.199219394446118 334.00860096279212 0 0 0 0 151.7918931779227 -77.019213478022721 0 -77.019213478022721 209.26322586299648 0 0 0 0 -90.613227153352 190.54874709466822 0 190.54874709466822 383.17478356007632 0 0 0 0 -0.18699656765752737 0.42360671196051669 0 0.42360671196051669 0.44232316809629779 0 0 0 0 20.981053127560756 166.03730066138087 0 166.03730066138087 220.86089482512762 0 0 0 0 136.1168099234273 -19.785969255928649 0 -19.785969255928649 -227.577621342969 0 0 0 0 -76.643719266511653 -95.429255933217064 0 -95.429255933217064 -3.5443572922376916 0 0 0 0 75.776881985760127 19.10701325604532 0 19.10701325604532 62.74698407651158 0 0 0 0 80.982884938563529 11.149779266088444 0 11.149779266088444 65.03373435557296 0 0 0 0 -44.174285107689229 50.928487414537813 0 50.928487414537813 62.721642301033171 0 0 0 0 50.867830809975203 63.214656845244463 0 63.214656845244463 -11.945988842198858 0 0 0 0 65.040177667308114 24.1822837437212 0 24.1822837437212 -71.296662804903463 0 0 0 0 -66.722902895719358 111.47172993593767 0 111.47172993593767 -25.601496976654744 0 0 0 0 24.36582364530841 105.92303740234638 0 105.92303740234638 -142.07325055630645 0 0 0 0 -11.739513276796288 115.43871924990935 0 115.43871924990935 238.01650957309903 0 0 0 0 23.081383430610003 -22.248079890901863 0 -22.248079890901863 0.18716625226852557 0 0 0 0 71.028123519226938 398.41965109310331 0 398.41965109310331 401.59053273447353 0 0 0 0 39.153328540690381 213.63895292888128 0 213.63895292888128 218.67595200815413 0 0 0 0 0.40646540392253883 119.36242129065067 0 119.36242129065067 436.23906775577052 0 0 0 0 41.727168661931501 230.88680578228013 0 230.88680578228013 319.93946452604723 0 0 0 0 -9.3200927483303531 -41.449192472478899 0 -41.449192472478899 184.10404566836587 0 0 0 0 38.661594226754914 61.066339222780698 0 61.066339222780698 56.592921947165451 0 0 0 0 -11.167392709590786 -79.490739797549395 0 -79.490739797549395 775.37067424085399 0 0 0 0 -212.57483040896295 -38.983462013600729 0 -38.983462013600729 84.728783392589321 0 0 0 0 5.2999192451832879 24.821505566523996 0 24.821505566523996 138.44319788997461 0 0 0 0 -151.47498117033683 525.49815151134317 0 525.49815151134317 1154.5163423201011 0 0 0 0 -44.218885170270369 -54.902086712841992 0 -54.902086712841992 1068.8203442340018 0 0 0 0 7.6909334257234363 3.9555297584838875 0 3.9555297584838875 1.5549943524078884 0 0 0 0 -159.18714934180525 47.155432155506787 0 47.155432155506787 148.63875698656193 0 0 0 0 833.65755506902133 429.30219534938806 0 429.30219534938806 -1661.7981601499778 0 0 0 0 636.24633419362726 865.78179505609296 0 865.78179505609296 81.967501481674844 0 0 0 0 60.352089335236087 514.61058583736303 0 514.61058583736303 1210.7885999569698 0 0 0 0 156.58865027780848 -117.44161543863447 0 -117.44161543863447 -588.04337846509588 0 0 0 0 332.19022526768458 236.44958288107955 0 236.44958288107955 7.8247744795589824 0 0 0 0 -37.147956091310334 -174.33884602600665 0 -174.33884602600665 -58.007613765112183 0 0 0 0 -222.34667366418944 -578.91866068539457 0 -578.91866068539457 -383.19537216669414 0 0 0 0 -89.775460503546128 73.152066024864325 0 73.152066024864325 149.75745738645492 0 0 0 0 -61.946770656646549 86.465518454351695 0 86.465518454351695 155.4005000387906 0 0 0 0 -83.620447511664679 68.539869262764114 0 68.539869262764114 156.40273646831884 0 0 0 0 -101.12011225753804 81.686464383992643 0 81.686464383992643 156.4021301168541 0 0 0 0 -91.103287743199871 77.879320564243244 0 77.879320564243244 148.26531245626393 0 0 0 0 -106.05376683903705 45.568832301680231 0 45.568832301680231 126.79391791885428 0 0 0 0 -153.06127290380027 36.067279263974342 0 36.067279263974342 154.45696184807457 0 0 0 0 -132.30084569796691 65.877338676113141 0 65.877338676113141 151.28649888368091 0 0 0 0 -130.72202605043276 53.272050083665818 0 53.272050083665818 141.9348905224906 0 0 0 0 -92.890424465831529 58.774571536792791 0 58.774571536792791 139.60358571420511 0 0 0 0 -82.47125448613042 150.90335502789821 0 150.90335502789821 120.61154849578452 0 0 0 0 -56.645003142899441 100.64039451038116 0 100.64039451038116 149.85567678519874 0 0 0 0 -151.88751223066038 94.0657930809557 0 94.0657930809557 158.48097539349692 0 0 0 0 -62.450289973668987 110.87158037194604 0 110.87158037194604 158.50149260269245 0 0 0 0 52.475711291044149 128.27185564714 0 128.27185564714 119.89874480621074 0 0 0 0 13.220396576151082 125.10666413521096 0 125.10666413521096 146.90391466789879 0 0 0 0 -59.552778076939376 99.210541849613946 0 99.210541849613946 155.50425535993418 0 0 0 0 -38.952453743587284 86.095496291840391 0 86.095496291840391 148.65419248625403 0 0 0 0 -22.872812611894915 95.789815173775423 0 95.789815173775423 150.97279195105148 0 0 0 0 -24.106926603826651 97.84451785638521 0 97.84451785638521 147.84108899018611 0 0 0 0 26.470404652680372 116.50384518569626 0 116.50384518569626 145.94990908737236 0 0 0 0 -27.524586303090473 112.47035235272779 0 112.47035235272779 148.44398833431478 0 0 0 0 52.117991621180408 85.376499600606621 0 85.376499600606621 148.9259622231184 0 0 0 0 39.396049328839581 131.45934912502707 0 131.45934912502707 141.72131409108988 0 0 0 0 -40.352192410297903 90.670717497487203 0 90.670717497487203 167.53469502046937 0 0 0 0 -26.112602214676372 72.59987453060603 0 72.59987453060603 182.21739986015018 0 0 0 0 58.606356530483254 133.44067944965445 0 133.44067944965445 159.69932648052054 0 0 0 0 -78.165590388208329 -23.734742817985534 0 -23.734742817985534 96.762794759211829 0 0 0 0 -4.4557159686380876 10.432659490412199 0 10.432659490412199 3.1066388025279821 0 0 0 0 -3.9071955144071064 -4.282222474148778 0 -4.282222474148778 71.959165960216808 0 0 0 0 -132.50947010162304 -0.52648288224736461 0 -0.52648288224736461 164.24335283675828 0 0 0 0 -60.806673428199019 -4.2996201190799184 0 -4.2996201190799184 59.410165651388525 0 0 0 0 -19.498728875407323 75.398189674320747 0 75.398189674320747 116.58590090372627 0 0 0 0 2.9174080668612987 45.714158323957236 0 45.714158323957236 52.404072023149638 0 0 0 0 -15.124336032521782 44.158606779785174 0 44.158606779785174 25.499656178386299 0 0 0 0 71.339082120477542 -101.99610021234548 0 -101.99610021234548 136.35271486338752 0 0 0 0 -2.3231499014713104 -2.6235699588671153 0 -2.6235699588671153 2.5119031535298859 0 0 0 0 71.956202865068008 103.30945872356097 0 103.30945872356097 96.795944425502967 0 0 0 0 -89.00943287188602 59.24270953341329 0 59.24270953341329 163.79728886864905 0 0 0 0 -98.515559869608751 74.443280218760265 0 74.443280218760265 169.25108400647878 0 0 0 0 -51.945306680951035 76.991274354812049 0 76.991274354812049 167.00243243545992 0 0 0 0 -54.463811590418118 73.714024955639616 0 73.714024955639616 168.59281890041893 0 0 0 0 -88.958480440789572 67.721390060003614 0 67.721390060003614 168.69134115142515 0 0 0 0 -478.22444720461681 -160.3622515599609 0 -160.3622515599609 177.95753046113532 0 0 0 0 -358.80370679127736 -11.578743496644165 0 -11.578743496644165 240.98778453665727 0 0 0 0 -3.6158863279352218 27.207671567208926 0 27.207671567208926 162.07079995756993 0 0 0 0 -301.64991207700132 -204.68845628500367 0 -204.68845628500367 68.869380084433942 0 0 0 0 -22.052295464360213 -142.07558900669392 0 -142.07558900669392 -17.313849186961306 0 0 0 0 23.190097058070023 -31.285284107838379 0 -31.285284107838379 25.326339829305653 0 0 0 0 -82.544723806946422 -108.52066671046487 0 -108.52066671046487 3.0113998100678145 0 0 0 0 -26.261914180511667 -45.759478246478466 0 -45.759478246478466 72.49708128219936 0 0 0 0 -84.291550187394023 -75.914600895892363 0 -75.914600895892363 104.45022784963658 0 0 0 0 -148.41287028358056 -69.549886332621099 0 -69.549886332621099 130.45479237892141 0 0 0 0 -136.73921824760328 -55.785223144746851 0 -55.785223144746851 138.96987583654118 0 0 0 0 -76.594621612675837 35.647224762564292 0 35.647224762564292 204.95452886096245 0 0 0 0 -127.70138366125684 -40.011728982808563 0 -40.011728982808563 132.0160466224479 0 0 0 0 -303.30849364346068 -38.781311662554799 0 -38.781311662554799 199.11259883937601 0 0 0 0 -27.74612929369323 -59.634648205304984 0 -59.634648205304984 104.19329047421343 0 0 0 0 -69.827220294668223 -31.92645091873419 0 -31.92645091873419 126.96020529929956 0 0 0 0 -71.441026652043547 -49.504644316259146 0 -49.504644316259146 128.90948074313928 0 0 0 0 -11.067310190337594 -42.15091439281241 0 -42.15091439281241 128.35657596909732 0 0 0 0 -67.618980850013031 -15.674064549333707 0 -15.674064549333707 162.08524637456867 0 0 0 0 11.819649705299526 -1.1630551574926358 0 -1.1630551574926358 160.37527747626882 0 0 0 0 -5.1050910810154164 0.98643694848578889 0 0.98643694848578889 163.81367224611131 0 0 0 0 -156.52303857306833 22.687113466225128 0 22.687113466225128 207.94680158953997 0 0 0 0 -94.71463452813623 -43.010814906578162 0 -43.010814906578162 146.53847571542428 0 0 0 0 -295.15776726284093 33.593900885949552 0 33.593900885949552 249.95490810295451 0 0 0 0 -235.29504352479489 45.546194610906241 0 45.546194610906241 236.09868863106749 0 0 0 0 -26.329243058452498 -37.332417363105776 0 -37.332417363105776 25.050569416677085 0 0 0 0 -0.019795170089974334 0.39829218372670994 0 0.39829218372670994 0.8567927858310469 0 0 0 0 -97.812564779437707 14.74715265831037 0 14.74715265831037 157.80749399604247 0 0 0 0 -14.159105217964679 -13.119416916655609 0 -13.119416916655609 10.877177257227231 0 0 0 0 25.808375077718665 -68.955906880612019 0 -68.955906880612019 74.573228613269748 0 0 0 0 -31.312363254295633 10.99382855357544 0 10.99382855357544 -10.388611148055134 0 0 0 0 44.146649471585988 -50.021003516478231 0 -50.021003516478231 37.722617509803968 0 0 0 0 -70.874936535152301 6.1326819159367005 0 6.1326819159367005 178.97228593391628 0 0 0 0 2.9724414106549375 -72.202069307320926 0 -72.202069307320926 74.784097170748282 0 0 0 0 -15.209745508922424 -7.9814921557481284 0 -7.9814921557481284 12.610841333531425 0 0 0 0 5.629342365598859 -90.207168357559567 0 -90.207168357559567 106.67755105364267 0 0 0 0 -15.788890593048485 7.9715177020699244 0 7.9715177020699244 10.432390343661485 0 0 0 0 -44.607184053495985 19.478172879587873 0 19.478172879587873 119.05354442871976 0 0 0 0 -20.184889594438573 -41.717512628292752 0 -41.717512628292752 231.67362589923141 0 0 0 0 1.0912053043211927 -61.592295299131365 0 -61.592295299131365 134.74990593178518 0 0 0 0 24.752532274083933 -40.814919075040962 0 -40.814919075040962 139.71500816292246 0 0 0 0 -25.52725041967642 -64.670667046237213 0 -64.670667046237213 130.06055161137192 0 0 0 0 2.1250629149931228 -54.914152854144959 0 -54.914152854144959 133.11823633441236 0 0 0 0 5.6010529130981013 -65.594099587600795 0 -65.594099587600795 99.770260773118935 0 0 0 0 -25.602342398356996 -50.39127307626768 0 -50.39127307626768 124.8539142125519 0 0 0 0 21.21493285878023 -39.627396586482064 0 -39.627396586482064 129.56929599091563 0 0 0 0 48.144579348707339 11.357536841431283 0 11.357536841431283 35.935058781295083 0 0 0 0 -27.830111019789001 -44.387397399723341 0 -44.387397399723341 122.71797513324418 0 0 0 0 65.86081405798177 99.240702289163892 0 99.240702289163892 216.25989447261236 0 0 0 0 -47.2437133301828 4.4336563618071523 0 4.4336563618071523 123.22514510205656 0 0 0 0 -33.224016530721201 33.366208438408648 0 33.366208438408648 105.21163012261604 0 0 0 0 -56.248215429865468 31.542610463920937 0 31.542610463920937 119.61033167690402 0 0 0 0 -95.936072383503188 -2.9161512564114673 0 -2.9161512564114673 252.99454185584909 0 0 0 0 23.491634535553203 -10.179195668064494 0 -10.179195668064494 56.872251421955298 0 0 0 0 -5.2674672383345715 3.3450963052097693 0 3.3450963052097693 103.16882644678898 0 0 0 0 -64.189016366365763 -34.426859798597434 0 -34.426859798597434 345.04173013631953 0 0 0 0 -114.73360094867985 -3.3295633861780516 0 -3.3295633861780516 65.348342458688421 0 0 0 0 0.20515860625749482 9.1137940016874808 0 9.1137940016874808 125.17032453463773 0 0 0 0 35.453182631902308 -83.657358995748382 0 -83.657358995748382 52.164464377987315 0 0 0 0 77.453811241220137 75.49554191677089 0 75.49554191677089 191.04092734665028 0 0 0 0 -92.763353782196418 56.720565093361074 0 56.720565093361074 241.74450938940208 0 0 0 0 1.7924428127140792 -9.1424834159831594 0 -9.1424834159831594 49.910638120584764 0 0 0 0 -18.415512719060942 51.907237817218174 0 51.907237817218174 182.47497791174828 0 0 0 0 -52.631641703479204 -68.637108125374652 0 -68.637108125374652 57.462033112577046 0 0 0 0 189.83647872416719 81.475537162941237 0 81.475537162941237 17.88997829282016 0 0 0 0 1.1776411678571377 -5.059037936366515 0 -5.059037936366515 28.461019272108587 0 0 0 0 -507.65499860145019 -192.57596442142312 0 -192.57596442142312 210.05810183751237 0 0 0 0 -41.944618869626083 -67.559205491472312 0 -67.559205491472312 42.892548581810843 0 0 0 0 90.82820971532891 -103.21450503291771 0 -103.21450503291771 52.102909274071862 0 0 0 0 -71.756928993735301 19.924118720000479 0 19.924118720000479 136.4786600555708 0 0 0 0 -58.166134545643217 9.3943118954912279 0 9.3943118954912279 149.54648991484828 0 0 0 0 -0.18172025096186806 12.690418635405129 0 12.690418635405129 146.18853623691271 0 0 0 0 -49.925796301675291 10.018857217018194 0 10.018857217018194 135.28134203122681 0 0 0 0 -47.33368273225733 15.345800072049315 0 15.345800072049315 146.22072201373521 0 0 0 0 9.0791904473985596 68.217860263204784 0 68.217860263204784 218.30212712830325 0 0 0 0 17.671434841478629 -48.497718580805667 0 -48.497718580805667 133.27045723486299 0 0 0 0 6.9554872687281772 39.13005741975212 0 39.13005741975212 88.747847721682774 0 0 0 0 -3.7395346376829792 -3.3716515100823017 0 -3.3716515100823017 121.45592725686947 0 0 0 0 5.0762251068585886 71.525151133086638 0 71.525151133086638 139.02008593615028 0 0 0 0 42.510544328461435 84.478889171150513 0 84.478889171150513 128.34960846108152 0 0 0 0 15.611788867751386 88.71534912891002 0 88.71534912891002 154.03649417898851 0 0 0 0 23.884849403482804 91.921358555402549 0 91.921358555402549 154.64591327784001 0 0 0 0 20.250487711130859 101.76496101162047 0 101.76496101162047 181.63982888600549 0 0 0 0 98.654282911976566 130.32220185157348 0 130.32220185157348 149.81919228155311 0 0 0 0 45.115094690321015 51.994849734775926 0 51.994849734775926 79.734909364458872 0 0 0 0 62.062160688640574 -45.305299695155554 0 -45.305299695155554 65.628090099373367 0 0 0 0 131.1162004940536 40.309808880640048 0 40.309808880640048 62.640082737509147 0 0 0 0 -28.065496446364591 -39.145956454842235 0 -39.145956454842235 90.035454300872516 0 0 0 0 17.670942478227289 -49.016887757949007 0 -49.016887757949007 307.24428945318004 0 0 0 0 27.015715636844732 112.55986836753709 0 112.55986836753709 284.99336913898878 0 0 0 0 0.38453787544889417 1.1224717694417734 0 1.1224717694417734 2.1472204428492603 0 0 0 0 34.208789328829425 231.40239934642705 0 231.40239934642705 -49.225556457640778 0 0 0 0 82.94980138584549 148.62653969296662 0 148.62653969296662 65.365353545479593 0 0 0 0 131.7425815575715 79.904376413753198 0 79.904376413753198 64.187828856309352 0 0 0 0 131.40924514751407 105.725599634416 0 105.725599634416 -85.586922577123914 0 0 0 0 -104.82581307901921 23.772235431013542 0 23.772235431013542 125.03667053983372 0 0 0 0 -143.9046902018577 112.14797399460076 0 112.14797399460076 30.654531709937146 0 0 0 0 0.65718661786202803 2.5494007875929299 0 2.5494007875929299 4.6196321566542622 0 0 0 0 9.3873485022010925 -10.815121416053444 0 -10.815121416053444 40.072304891972635 0 0 0 0 29.127073173436997 -19.941969769439311 0 -19.941969769439311 41.078001806621614 0 0 0 0 14.999116422882985 -11.708607283346282 0 -11.708607283346282 18.364517315203557 0 0 0 0 2.4975746945823047 -3.6722517168745981 0 -3.6722517168745981 17.330291424901134 0 0 0 0 0.34460230479769904 1.7345650284680403 0 1.7345650284680403 7.1402956168736011 0 0 0 0 -87.591726314596372 -11.953739674395706 0 -11.953739674395706 16.030569518494303 0 0 0 0 1237.6561142007531 -371.18032245908398 0 -371.18032245908398 1029.8267530455851 0 0 0 0 2.9947484645960221 -4.5935677384060654 0 -4.5935677384060654 4.5419257666421657 0 0 0 0 -78.626016182550927 -28.382857094318751 0 -28.382857094318751 4.7245962287997827 0 0 0 0 -187.8680054287924 -246.2230215239033 0 -246.2230215239033 1094.5477185504424 0 0 0 0 -72.169081612893763 -34.419347404598739 0 -34.419347404598739 -15.771259586501401 0 0 0 0 -75.633487553469877 -37.342300482814608 0 -37.342300482814608 26.532669798805728 0 0 0 0 -113.05209071001536 -20.155529999137798 0 -20.155529999137798 110.53564152992476 0 0 0 0 -87.607136781754932 -13.726220053984946 0 -13.726220053984946 32.084714275959413 0 0 0 0 42.317375417910284 126.58273616832867 0 126.58273616832867 471.48384148397599 0 0 0 0 43.891809593824178 113.0431745965252 0 113.0431745965252 175.11842047116079 0 0 0 0 -10.297015016971841 -31.982478140336752 0 -31.982478140336752 509.23970936942351 0 0 0 0 -95.235508431080461 -440.81451270119578 0 -440.81451270119578 596.25148175989125 0 0 0 0 -50.878737731625279 -131.86040234439133 0 -131.86040234439133 276.11357414059967 0 0 0 0 -9.8717543201928493 -237.88940277444635 0 -237.88940277444635 -232.73905151883082 0 0 0 0 -113.38089224919986 -83.426523944501241 0 -83.426523944501241 47.611042461321631 0 0 0 0 -100.67925376050607 -46.584842614611262 0 -46.584842614611262 141.38463437622704 0 0 0 0 -34.552977752715833 -378.46172369000851 0 -378.46172369000851 205.05137612030558 0 0 0 0 2.3439695971311636 -2.8247541119759205 0 -2.8247541119759205 1.9547158005259462 0 0 0 0 -353.67495409583489 146.55943526940246 0 146.55943526940246 1278.9666089503662 0 0 0 0 -206.406361660877 -280.1573794489741 0 -280.1573794489741 1055.2566358462063 0 0 0 0 5.1147603558248189 4.9124088095023239 0 4.9124088095023239 3.2290429501063045 0 0 0 0 179.42263323472531 46.297215897420756 0 46.297215897420756 283.33416398262489 0 0 0 0 -43.367522743474865 -349.50734527332679 0 -349.50734527332679 371.73017963843449 0 0 0 0 69.351552877263202 56.98273188877647 0 56.98273188877647 -58.196917208230843 0 0 0 0 36.88755934382516 83.217164347945072 0 83.217164347945072 23.076984517254459 0 0 0 0 19.535605060448688 42.23519331785792 0 42.23519331785792 -56.649483008656716 0 0 0 0 3.4931085204591437 3.8172107086535902 0 3.8172107086535902 8.445005314375436 0 0 0 0 -5.457119502561909 -5.4239191964516067 0 -5.4239191964516067 68.519128251975417 0 0 0 0 175.68566396715914 106.8586244074977 0 106.8586244074977 19.782511754889128 0 0 0 0 -170.37722536097664 63.278668538016973 0 63.278668538016973 136.81034990180342 0 0 0 0 96.037140077121819 -77.65252937166224 0 -77.65252937166224 2.709703162930964 0 0 0 0 0.55498937865202236 3.3896887751902796 0 3.3896887751902796 19.840994899999828 0 0 0 0 0.40315088418163403 0.59365147403873664 0 0.59365147403873664 7.8696122673031255 0 0 0 0 94.265759325773033 -449.5495632393222 0 -449.5495632393222 698.24486306274775 0 0 0 0 -141.46031221985572 -236.45063900292735 0 -236.45063900292735 691.16125621568062 0 0 0 0 652.5948561843984 547.91015815344872 0 547.91015815344872 427.29584756880649 0 0 0 0 -343.37962678237045 1371.9409699628959 0 1371.9409699628959 608.07247376272244 0 0 0 0 -266.78561001399203 379.92448502547632 0 379.92448502547632 743.3321900460287 0 0 0 0 -65.898035884729325 30.808354732103908 0 30.808354732103908 139.37522596844155 0 0 0 0 -59.650507028070933 26.069352814505692 0 26.069352814505692 146.77850077852963 0 0 0 0 -54.977033959721666 14.566540133480885 0 14.566540133480885 149.76872851611552 0 0 0 0 -59.286272984382776 21.749947025322399 0 21.749947025322399 146.34443643055056 0 0 0 0 -53.78111000312856 12.563580184294551 0 12.563580184294551 146.88750986994455 0 0 0 0 -47.294381535710272 21.74242394058092 0 21.74242394058092 154.35719664978933 0 0 0 0 -55.208280843927923 14.836966316939652 0 14.836966316939652 155.91703248584963 0 0 0 0 -35.60747494001771 19.138454665806421 0 19.138454665806421 145.8439374014124 0 0 0 0 -29.725619499510685 9.6524350079816941 0 9.6524350079816941 146.459667142135 0 0 0 0 -52.291312083209959 13.435507428663186 0 13.435507428663186 155.96581372065339 0 0 0 0 -433.66604744852475 907.71718947312911 0 907.71718947312911 1686.350943976955 0 0 0 0 1.2144145841023932 16.655551318535068 0 16.655551318535068 157.59401380287107 0 0 0 0 1061.8319097482795 361.54738996909873 0 361.54738996909873 960.47110070605413 0 0 0 0 -626.2259044149813 462.94245522091842 0 462.94245522091842 1105.7778012944909 0 0 0 0 770.60917357810968 -120.39130720603498 0 -120.39130720603498 -479.26294885709649 0 0 0 0 1.3823156103907031 -2.2921085396343273 0 -2.2921085396343273 8.607036460685265 0 0 0 0 567.74716593171775 392.70789915136447 0 392.70789915136447 367.15925506409258 0 0 0 0 348.71710435503337 128.10082300630165 0 128.10082300630165 67.064178742904005 0 0 0 0 158.93944568204142 23.342203947584494 0 23.342203947584494 913.4107979458895 0 0 0 0 44.041395270804287 -11.136748517361411 0 -11.136748517361411 406.95083992301807 0 0 0 0 11.858152471231733 169.55413180188771 0 169.55413180188771 1051.008387971262 0 0 0 0 1.4262418821212215 2.2281610027214072 0 2.2281610027214072 2.8180977414637312 0 0 0 0 -2.2608281950581386 201.75659427612482 0 201.75659427612482 -185.12596397670859 0 0 0 0 93.609494723605394 99.148307672081501 0 99.148307672081501 -75.999905340067926 0 0 0 0 -7.772236016514853 143.79787302977638 0 143.79787302977638 -47.245924295406439 0 0 0 0 -14.874287867578005 129.56067154634366 0 129.56067154634366 4.076621603431704 0 0 0 0 -28.429271202594464 37.748959421694053 0 37.748959421694053 125.80680905743793 0 0 0 0 -196.15022306288051 200.35599827991246 0 200.35599827991246 29.07472613317077 0 0 0 0 -0.45921084443110916 22.306878726954469 0 22.306878726954469 155.01601984820491 0 0 0 0 -131.57715835967088 225.59794356025668 0 225.59794356025668 -70.868618243555829 0 0 0 0 -148.17685129696156 124.68705354404665 0 124.68705354404665 134.4633572378807 0 0 0 0 -46.248943490878446 33.793770351141575 0 33.793770351141575 174.14654156542383 0 0 0 0 -35.410546644322721 36.860149247697564 0 36.860149247697564 130.64891688994248 0 0 0 0 -493.59496726764428 -407.65567919841124 0 -407.65567919841124 -235.79501977161271 0 0 0 0 -51.961222801786789 22.043059833200459 0 22.043059833200459 174.71612377990459 0 0 0 0 -53.555850204424587 31.473597172374411 0 31.473597172374411 138.85635118628124 0 0 0 0 -32.904763518381515 48.519185525674402 0 48.519185525674402 133.77460372628411 0 0 0 0 -45.914352667763524 37.967001971010177 0 37.967001971010177 125.33300108709955 0 0 0 0 -36.058792554673346 46.159568464143376 0 46.159568464143376 116.42166066984646 0 0 0 0 -48.844136602965591 50.652930867137911 0 50.652930867137911 127.6212837454259 0 0 0 0 -48.239792082044005 58.07578430274225 0 58.07578430274225 106.80930645921399 0 0 0 0 -57.128802733387602 52.788874192578987 0 52.788874192578987 104.98872876798123 0 0 0 0 -45.118271958804144 37.30770567685795 0 37.30770567685795 110.84896129043773 0 0 0 0 -82.150040692718221 32.206513048978195 0 32.206513048978195 82.84678639590129 0 0 0 0 -66.081659049446898 31.946521504214616 0 31.946521504214616 95.069810308690649 0 0 0 0 -58.696875505423122 47.927885970409989 0 47.927885970409989 122.42806737063074 0 0 0 0 -63.994444795127492 67.873900838865666 0 67.873900838865666 91.434921838093942 0 0 0 0 -76.094249408057294 50.102001820439909 0 50.102001820439909 110.74952531877216 0 0 0 0 -65.629874055646724 33.535721333671972 0 33.535721333671972 113.06719256344741 0 0 0 0 -58.548471486266862 24.667148026190262 0 24.667148026190262 129.58900162520149 0 0 0 0 -68.1750893021499 37.617844946571495 0 37.617844946571495 132.14530717542948 0 0 0 0 -61.946274263242231 21.588078705633961 0 21.588078705633961 139.253960393944 0 0 0 0 -0.90322009346971299 0.21300558521932089 0 0.21300558521932089 113.07087168902763 0 0 0 0 79.615026287553519 -10.394399191922275 0 -10.394399191922275 -10.577927362406626 0 0 0 0 -21.401084722345704 17.755582815166484 0 17.755582815166484 97.355994799700809 0 0 0 0 -55.20481237675267 50.785234752360338 0 50.785234752360338 31.083715887969447 0 0 0 0 5.0606348016477085 -11.751029905159868 0 -11.751029905159868 27.194548788866364 0 0 0 0 -55.737089128977459 -51.256002579348205 0 -51.256002579348205 377.86344189092779 0 0 0 0 11.817520637026291 -16.737854016295387 0 -16.737854016295387 108.48185177378582 0 0 0 0 -74.045051900564431 122.68578347228686 0 122.68578347228686 37.668804680638232 0 0 0 0 -79.851481305689049 95.683748698758791 0 95.683748698758791 146.82200180232758 0 0 0 0 -53.481975095972302 83.078114351013937 0 83.078114351013937 96.360066129520419 0 0 0 0 -48.362373679521625 58.626954046376341 0 58.626954046376341 114.84658817489253 0 0 0 0 -58.225996501078043 70.292817648820346 0 70.292817648820346 125.5634020587022 0 0 0 0 -53.346766552969711 77.885184394272073 0 77.885184394272073 136.0551220101479 0 0 0 0 -60.015204531478958 69.702634586572458 0 69.702634586572458 136.38171977631282 0 0 0 0 -69.693755410879021 58.441052952213795 0 58.441052952213795 156.26854521096539 0 0 0 0 -73.442933758818526 45.480844708034056 0 45.480844708034056 119.87257816265628 0 0 0 0 -40.24848533576187 72.878610307039708 0 72.878610307039708 28.094825316646165 0 0 0 0 -56.062955809005871 27.117115688477497 0 27.117115688477497 109.42583714835928 0 0 0 0 -56.22207626996169 1.2159079374687281 0 1.2159079374687281 226.97995459093363 0 0 0 0 4.7981779048382132 16.724584110410238 0 16.724584110410238 56.674264198878262 0 0 0 0 -77.394525470877852 56.466956189189659 0 56.466956189189659 97.956504031288205 0 0 0 0 39.589968270120892 41.860070409383297 0 41.860070409383297 7.1067108178758644 0 0 0 0 -55.271368954735863 49.230011983467193 0 49.230011983467193 62.916528301946528 0 0 0 0 -86.513671765846084 50.49786879538442 0 50.49786879538442 113.09801863156463 0 0 0 0 -63.637100983554546 35.453514911846923 0 35.453514911846923 93.488826153290574 0 0 0 0 -66.771308355573638 57.505552144913963 0 57.505552144913963 115.17887683122535 0 0 0 0 -50.239966487220954 72.656304007177823 0 72.656304007177823 122.85194160312676 0 0 0 0 -11.782077177376777 106.20192338713969 0 106.20192338713969 13.663195761415409 0 0 0 0 -10.580979580447071 4.1002418600226349 0 4.1002418600226349 20.074919405915026 0 0 0 0 -54.669695868513372 46.773045552137773 0 46.773045552137773 166.62577636205242 0 0 0 0 -47.828177949488918 52.025631263645664 0 52.025631263645664 153.06475754431449 0 0 0 0 -57.430007642273267 72.740817172983952 0 72.740817172983952 169.46720310465025 0 0 0 0 15.703952839649105 59.640272678201654 0 59.640272678201654 22.661042116269527 0 0 0 0 -4.3369467596897122 39.421890792826076 0 39.421890792826076 66.826250295378316 0 0 0 0 -48.018681908775307 12.848203296358406 0 12.848203296358406 170.25287716667663 0 0 0 0 -22.866523685989023 38.023803796641005 0 38.023803796641005 65.687544141415856 0 0 0 0 88.4527182991053 1.4602198775937723 0 1.4602198775937723 45.156667257338995 0 0 0 0 61.035874554559996 -9.8112041392232641 0 -9.8112041392232641 55.715747624252799 0 0 0 0 5.4352902598207038 10.608854012578377 0 10.608854012578377 69.60737654735567 0 0 0 0 59.37904850461814 4.3785018634152948 0 4.3785018634152948 54.160502345624991 0 0 0 0 61.975548828733054 26.497920402143791 0 26.497920402143791 110.61633204069039 0 0 0 0 75.565842488789542 -18.277474110489493 0 -18.277474110489493 96.111824769017403 0 0 0 0 63.243093213237671 17.950751686270451 0 17.950751686270451 99.225652960274601 0 0 0 0 -61.331618753960811 28.899950488224931 0 28.899950488224931 64.72897135437961 0 0 0 0 -105.39988428489937 28.331633457191401 0 28.331633457191401 78.67259006976019 0 0 0 0 1.2404966425382562 5.1279408397663904 0 5.1279408397663904 78.943699391670137 0 0 0 0 -46.066824976175667 28.322685164608629 0 28.322685164608629 53.159950911263877 0 0 0 0 -24.156162077979928 15.62482703115155 0 15.62482703115155 95.776549115767907 0 0 0 0 -11.387438710139577 62.686769522141731 0 62.686769522141731 -70.759567961831863 0 0 0 0 -23.587468936675847 14.966442878601232 0 14.966442878601232 89.280974674713491 0 0 0 0 -1.0936486827788485 18.233846691597535 0 18.233846691597535 51.594758955106045 0 0 0 0 22.875684167120198 7.0118490605759689 0 7.0118490605759689 14.070208396245107 0 0 0 0 5.8857448177495826 0.98130134591337992 0 0.98130134591337992 69.626712311858682 0 0 0 0 11.815496353117396 7.7985671027170156 0 7.7985671027170156 72.802352382935624 0 0 0 0 -28.270474450911024 18.047418608271983 0 18.047418608271983 33.082673895856715 0 0 0 0 -31.250225634001708 29.436479008276365 0 29.436479008276365 69.365643913071835 0 0 0 0 -43.506563178396391 2.2087117006885819 0 2.2087117006885819 58.931849801520002 0 0 0 0 -6.4432177145700269 4.5267453299682776 0 4.5267453299682776 37.959815762092319 0 0 0 0 -33.887016900398486 12.271073350598272 0 12.271073350598272 51.971858340359177 0 0 0 0 0.41882079961471563 5.6580713835958862 0 5.6580713835958862 34.0326605992542 0 0 0 0 -2.4266501684200739 -0.29193644458362655 0 -0.29193644458362655 7.1712314709029954 0 0 0 0 -20.395376325124509 -19.036178037158606 0 -19.036178037158606 66.858193606021814 0 0 0 0 -28.777262490132671 21.623025766202773 0 21.623025766202773 33.99094778952167 0 0 0 0 -21.867523769867148 29.708313468901906 0 29.708313468901906 11.664277313102502 0 0 0 0 -26.438087723224271 43.896991411609633 0 43.896991411609633 7.7674803659901954 0 0 0 0 -22.3538502902461 18.712989944133369 0 18.712989944133369 -0.98618262304808013 0 0 0 0 -27.60115814142307 20.18379031034965 0 20.18379031034965 36.96128574780596 0 0 0 0 -36.705219154443512 36.991299024277396 0 36.991299024277396 26.99521447076404 0 0 0 0 -7.9374597216697111 52.936438872420695 0 52.936438872420695 60.442868599697249 0 0 0 0 -20.301103659406635 17.357783402359928 0 17.357783402359928 70.89507103469623 0 0 0 0 -18.586349253956627 36.549905737597001 0 36.549905737597001 43.417731148867261 0 0 0 0 -0.0098431928227000753 76.578145752519049 0 76.578145752519049 -14.525936072175682 0 0 0 0 -23.408129107502646 31.510798518291267 0 31.510798518291267 46.895680972658738 0 0 0 0 -26.652675399584041 18.440096614380309 0 18.440096614380309 55.2476580337825 0 0 0 0 -42.216734961313705 35.532177528046304 0 35.532177528046304 69.609682897760649 0 0 0 0 -33.06832013715686 25.979509850032855 0 25.979509850032855 47.15147179872443 0 0 0 0 -43.593221067159902 76.734792080122133 0 76.734792080122133 4.4590177612481057 0 0 0 0 -61.070210019614024 64.955568056440825 0 64.955568056440825 36.742091061430983 0 0 0 0 -56.13757998742949 55.386942699620704 0 55.386942699620704 60.728818934367155 0 0 0 0 -23.855812414167303 36.664711009711027 0 36.664711009711027 40.193978406704446 0 0 0 0 -60.519924598231228 38.543963132698991 0 38.543963132698991 19.380405654315837 0 0 0 0 -24.933766171748175 24.615896912146127 0 24.615896912146127 23.953645120982401 0 0 0 0 5.6674283818977678 44.986997836817096 0 44.986997836817096 36.016927807359025 0 0 0 0 -11.980613983563217 49.626403099044182 0 49.626403099044182 54.140729921229649 0 0 0 0 -0.075582021050649928 15.898022250723443 0 15.898022250723443 67.611172226032068 0 0 0 0 26.662153382569613 34.916440442379098 0 34.916440442379098 80.128095904743532 0 0 0 0 -21.392625263271839 23.247993985140056 0 23.247993985140056 85.585270005256461 0 0 0 0 11.404261021526054 41.268554095067884 0 41.268554095067884 92.841609984301613 0 0 0 0 31.520288511962463 3.6515806313655048 0 3.6515806313655048 95.718538002998685 0 0 0 0 -23.827071414226339 46.264043078626855 0 46.264043078626855 51.813729348385095 0 0 0 0 -60.476653903826445 26.185861055091664 0 26.185861055091664 92.719348347563937 0 0 0 0 -95.450411245878058 75.215951459944336 0 75.215951459944336 39.247756884600676 0 0 0 0 -67.124730239032942 48.982537055046123 0 48.982537055046123 88.019241159054218 0 0 0 0 -67.44564572958916 23.11637716183759 0 23.11637716183759 27.386579689649807 0 0 0 0 -21.968362754370403 13.428221033784745 0 13.428221033784745 41.935995293512292 0 0 0 0 -50.213189949513662 41.653394777966241 0 41.653394777966241 30.687637930153869 0 0 0 0 -23.939587136268869 -6.2351920906254321 0 -6.2351920906254321 33.872047277341238 0 0 0 0 -37.640297409834602 4.9666690400626976 0 4.9666690400626976 58.372401051063207 0 0 0 0 -31.322678498504047 -8.2267753352134605 0 -8.2267753352134605 64.693165175471222 0 0 0 0 -20.848186034011633 -21.878194261007593 0 -21.878194261007593 100.35483768692939 0 0 0 0 -2.9578394942552926 9.5790567301593867 0 9.5790567301593867 -11.124782244433646 0 0 0 0 -49.714898608860949 9.0059478253715497 0 9.0059478253715497 56.246296697412618 0 0 0 0 -36.279121180533821 4.0628491448151181 0 4.0628491448151181 40.883163169273757 0 0 0 0 -19.353044190516307 11.275111161443292 0 11.275111161443292 34.241217519221465 0 0 0 0 -19.980675163016858 -2.3051185354815544 0 -2.3051185354815544 24.145469846964069 0 0 0 0 -15.350866986495021 -0.96793202220578678 0 -0.96793202220578678 33.066016387507261 0 0 0 0 -20.95361625183741 0.98526014709388221 0 0.98526014709388221 24.553123593824694 0 0 0 0 -22.64715711902204 -8.3121522580713645 0 -8.3121522580713645 28.466805448711966 0 0 0 0 -44.883114265704535 40.171735228490434 0 40.171735228490434 18.961978536681272 0 0 0 0 -68.931890068893608 -34.82893697988402 0 -34.82893697988402 149.79397265508305 0 0 0 0 -16.916482700567784 -0.84867834174424672 0 -0.84867834174424672 52.281180051980016 0 0 0 0 -9.0597142018144048 14.327319363639162 0 14.327319363639162 48.71449343865163 0 0 0 0 -107.30728805260878 40.028703210911772 0 40.028703210911772 85.627279974181874 0 0 0 0 -63.974021139141314 5.4232199880170811 0 5.4232199880170811 74.225523250424885 0 0 0 0 -73.974975482326045 -34.88068522438698 0 -34.88068522438698 168.92158765962813 0 0 0 0 25.246944557666211 -2.6331878985220101 0 -2.6331878985220101 27.691841099353041 0 0 0 0 -53.360236081920448 -16.192876222354244 0 -16.192876222354244 185.49419256474357 0 0 0 0 -13.244875875031102 -7.205863077947356 0 -7.205863077947356 2.7094567089539794 0 0 0 0 -62.073058547512119 -9.2373224663097062 0 -9.2373224663097062 176.44212565306225 0 0 0 0 30.955353134923826 -12.870432904815971 0 -12.870432904815971 -17.133763693418587 0 0 0 0 41.70959633671373 52.61207174291485 0 52.61207174291485 186.25182749921805 0 0 0 0 -73.41540607053139 93.724473914669943 0 93.724473914669943 -59.842732766737754 0 0 0 0 -241.20535809005332 -51.016835201109643 0 -51.016835201109643 18.11031513242051 0 0 0 0 -126.97691774518512 -37.424916088235477 0 -37.424916088235477 55.931431102028 0 0 0 0 -11.762327576812575 0.70643704591978462 0 0.70643704591978462 -0.62876217995506067 0 0 0 0 20.925968706517324 43.87405897284043 0 43.87405897284043 -9.7767820438602939 0 0 0 0 -16.908986039077071 2.519324471963813 0 2.519324471963813 7.4546285183129726 0 0 0 0 -16.361751140269291 5.750780985239544 0 5.750780985239544 45.971115482858295 0 0 0 0 13.170585008574562 24.337883720334503 0 24.337883720334503 49.455359543240775 0 0 0 0 -14.645717208261431 14.74924026656663 0 14.74924026656663 49.060314657450363 0 0 0 0 0.5121979725813901 7.493846426543314 0 7.493846426543314 42.585223126661731 0 0 0 0 11.907819168101582 -25.866695282864384 0 -25.866695282864384 68.832970976654906 0 0 0 0 -0.15489527619897103 2.8461975665704813 0 2.8461975665704813 12.649750823475188 0 0 0 0 64.451331507430837 -59.822634736865439 0 -59.822634736865439 23.579764733176489 0 0 0 0 14.113859422973746 -97.74915932685326 0 -97.74915932685326 125.98868884379044 0 0 0 0 85.893462751900444 78.098736187246686 0 78.098736187246686 -68.317570383893326 0 0 0 0 -1.4729533135516135 -18.840196363045834 0 -18.840196363045834 135.15475448753568 0 0 0 0 -87.726347991724083 -101.19310922349177 0 -101.19310922349177 118.79745308934798 0 0 0 0 -21.490390873613023 -38.340508056113322 0 -38.340508056113322 52.102961516329742 0 0 0 0 4.8879805156666407 -37.356193173858628 0 -37.356193173858628 51.783054148952942 0 0 0 0 -109.39154425838933 54.205205355548969 0 54.205205355548969 129.90150117392477 0 0 0 0 -309.21491764177063 0.78109065530952648 0 0.78109065530952648 155.87648068827548 0 0 0 0 -4.4449723913310724 0.10729144592383477 0 0.10729144592383477 0.014689955436928415 0 0 0 0 -263.47467518294548 -373.70329744706032 0 -373.70329744706032 -259.02009529162024 0 0 0 0 -153.0380150867602 -191.66291288624871 0 -191.66291288624871 19.590440594271058 0 0 0 0 -213.19108892060194 3.0552594359178329 0 3.0552594359178329 56.119518739069463 0 0 0 0 -452.29352712957552 31.850481953260896 0 31.850481953260896 26.834180757912691 0 0 0 0 -554.68540013800362 -241.40592560932055 0 -241.40592560932055 23.646358183221309 0 0 0 0 -152.84858279188165 -144.95365469223543 0 -144.95365469223543 68.072840461623855 0 0 0 0 83.943492534769831 -33.574180654789416 0 -33.574180654789416 49.177296883572126 0 0 0 0 67.361726733473915 -223.69839687695639 0 -223.69839687695639 0.72332281673152465 0 0 0 0 -28.429139779501384 -163.42530093007372 0 -163.42530093007372 -11.953382643987425 0 0 0 0 274.45990124483205 -11.380118811452121 0 -11.380118811452121 -66.463452566531487 0 0 0 0 132.95310267071568 89.256566885662323 0 89.256566885662323 83.946246426552534 0 0 0 0 155.74122191664537 -15.402721990452847 0 -15.402721990452847 -118.62150999744335 0 0 0 0 -25.571069651783546 -62.201962103557889 0 -62.201962103557889 -39.00275560476075 0 0 0 0 -383.02328278906998 -242.77404035587097 0 -242.77404035587097 2.0105896949116868 0 0 0 0 -91.97599192845405 21.650019732362125 0 21.650019732362125 -122.20080948236136 0 0 0 0 0.53753613346532347 0.88817876615939895 0 0.88817876615939895 -15.57294109967188 0 0 0 0 6.1642188843698111 -1.8816267507357196 0 -1.8816267507357196 3.4337543451712236 0 0 0 0 32.504284100960604 -33.581386014542659 0 -33.581386014542659 -90.37037263849561 0 0 0 0 169.67522088033661 54.848833076443043 0 54.848833076443043 16.207786265440518 0 0 0 0 158.35219261685052 79.745411378709832 0 79.745411378709832 -6.425813431656934 0 0 0 0 120.47216589537675 22.24459563052369 0 22.24459563052369 37.337374737020582 0 0 0 0 179.86610077152363 53.79392020231171 0 53.79392020231171 -11.119109000526805 0 0 0 0 186.68167483754451 8.6938231029489543 0 8.6938231029489543 -58.778783226633095 0 0 0 0 193.41142195418297 22.60954274082178 0 22.60954274082178 30.219364457123447 0 0 0 0 70.342535499597943 -10.736256765230792 0 -10.736256765230792 12.714874751643947 0 0 0 0 0.37879395633094859 -0.6980662632710164 0 -0.6980662632710164 3.6746447072510193 0 0 0 0 22.509894660818645 54.990697220389848 0 54.990697220389848 42.680293387325946 0 0 0 0 129.66025343838191 64.76957233135181 0 64.76957233135181 15.225213498088124 0 0 0 0 -0.18296785025540885 -37.107572945635184 0 -37.107572945635184 25.208793627185514 0 0 0 0 -1.3581337996636904 -3.0187742067351024 0 -3.0187742067351024 12.253576945625014 0 0 0 0 76.272968210164663 -45.982257416828361 0 -45.982257416828361 5.1444877928006463 0 0 0 0 28.240483196087553 0.80831333416426787 0 0.80831333416426787 19.29090887221173 0 0 0 0 103.43636297807552 -45.168032067886088 0 -45.168032067886088 -17.172571575596521 0 0 0 0 -6.8834066979287121 -3.1612362157595584 0 -3.1612362157595584 -1.8509514224661814 0 0 0 0 52.749517499838021 -101.3022335095593 0 -101.3022335095593 51.849860066016845 0 0 0 0 17.124717196776601 -74.79970073455479 0 -74.79970073455479 -239.19201480274205 0 0 0 0 -127.30395296213646 -244.40094942590076 0 -244.40094942590076 -150.8496887067231 0 0 0 0 112.31117592035258 -76.792074917780155 0 -76.792074917780155 -106.56570858927444 0 0 0 0 -1.7813898584017807 -69.241396681522019 0 -69.241396681522019 -47.255878252799448 0 0 0 0 -50.004102310136659 -107.46980342845927 0 -107.46980342845927 9.2632496868391172 0 0 0 0 68.695275826065426 -52.353877314846613 0 -52.353877314846613 34.488059063089167 0 0 0 0 -374.45049658189498 -176.84870742602016 0 -176.84870742602016 139.5032236573461 0 0 0 0 -250.09193494334681 -120.4010189679102 0 -120.4010189679102 149.95562211937613 0 0 0 0 -2.9914172019415535 -1.1852953494905876 0 -1.1852953494905876 -0.10721956159426327 0 0 0 0 -207.28073715693063 -63.9198428106356 0 -63.9198428106356 182.12207617620879 0 0 0 0 -18.452070603793345 -144.61069043759926 0 -144.61069043759926 9.0232521346806607 0 0 0 0 -29.581110839036683 -276.8836709066818 0 -276.8836709066818 141.09237115831638 0 0 0 0 -220.60357739652 26.210200926278048 0 26.210200926278048 417.32113149484212 0 0 0 0 -54.441624606131541 -33.543246309583992 0 -33.543246309583992 140.18335445466801 0 0 0 0 -43.571510073854029 0.67211170374866924 0 0.67211170374866924 85.926335060670681 0 0 0 0 -14.505721169316985 -35.447977230101969 0 -35.447977230101969 133.13847473095666 0 0 0 0 -103.19264700493773 -57.252316176774912 0 -57.252316176774912 134.54606039509963 0 0 0 0 -78.466414523408389 39.134367396021844 0 39.134367396021844 19.633594056969741 0 0 0 0 -42.733375972219619 30.848258704832915 0 30.848258704832915 18.855809045577189 0 0 0 0 -85.558773001501322 92.889617634333263 0 92.889617634333263 -69.708412342777592 0 0 0 0 -0.65829461153462954 0.57443012999749499 0 0.57443012999749499 1.8623523979839263 0 0 0 0 -167.6295435861241 26.353095584636321 0 26.353095584636321 99.430424267186027 0 0 0 0 -196.41624039325279 -20.873635309089877 0 -20.873635309089877 57.22645459981868 0 0 0 0 -179.74671919090497 107.43601524882251 0 107.43601524882251 -6.2749145578200114 0 0 0 0 -148.41815768531922 105.06781325036718 0 105.06781325036718 -42.405467318807496 0 0 0 0 -175.7637474216358 72.206585998793344 0 72.206585998793344 151.47299207508331 0 0 0 0 -98.082008641543069 75.606516537778134 0 75.606516537778134 -24.169232792803086 0 0 0 0 -98.604311524908468 95.324254157859173 0 95.324254157859173 -223.73982822500693 0 0 0 0 -87.971377300110134 66.97647492618853 0 66.97647492618853 -21.068832148885122 0 0 0 0 -18.252844660134883 -3.5533383687543392 0 -3.5533383687543392 -35.857849881082075 0 0 0 0 -125.74790247561577 -7.1712092600282631 0 -7.1712092600282631 45.644858225026837 0 0 0 0 0.17464596095220186 2.0361279948728779 0 2.0361279948728779 5.9197991859631998 0 0 0 0 -15.060490339533544 53.391614088373899 0 53.391614088373899 59.441572798867128 0 0 0 0 -0.59603835704871377 -0.050512457651635145 0 -0.050512457651635145 3.8273379950822459 0 0 0 0 55.426778344728064 -181.33606438499555 0 -181.33606438499555 409.03377401828766 0 0 0 0 -147.57319170193796 -2.3050009283670079 0 -2.3050009283670079 72.111966170981759 0 0 0 0 -241.17893427502759 -34.533669036442006 0 -34.533669036442006 443.07584967438015 0 0 0 0 -236.58864454340977 -46.226162291180799 0 -46.226162291180799 16.196451715979492 0 0 0 0 -247.03045678176795 247.43624713558529 0 247.43624713558529 -27.847784340694488 0 0 0 0 -2.6069270258915291 0.81411135746364494 0 0.81411135746364494 4.2611593085898249 0 0 0 0 -19.909873730412528 -37.503964662639191 0 -37.503964662639191 218.38786706855171 0 0 0 0 -8.3124570192211991 2.5757069288301864 0 2.5757069288301864 28.794246872887015 0 0 0 0 -3.1870466324580349 -5.0801211140027505 0 -5.0801211140027505 6.3262005989858068 0 0 0 0 -69.916454857468125 12.86144490676088 0 12.86144490676088 348.28335901406535 0 0 0 0 -58.355592261630363 97.170396819259622 0 97.170396819259622 300.97983873800331 0 0 0 0 -2.6725930963518749 -2.9048852227861062 0 -2.9048852227861062 27.705482341811148 0 0 0 0 -2.4650525266047154 -5.3706019157216929 0 -5.3706019157216929 2.998712867306665 0 0 0 0 -4.7129068888430936 -5.0786284731002524 0 -5.0786284731002524 25.410443937864329 0 0 0 0 -4.2968624879955826 -6.1423406154062832 0 -6.1423406154062832 24.466499283662415 0 0 0 0 4.8021147201829422 -7.2900980354133935 0 -7.2900980354133935 11.793564350336965 0 0 0 0 173.70033308698055 107.00425988793722 0 107.00425988793722 83.552985079128121 0 0 0 0 -1.7835996338025342 -4.4492555692608278 0 -4.4492555692608278 4.9033523633055296 0 0 0 0 -0.60087283722212337 -0.17955059387895744 0 -0.17955059387895744 6.2127140014529232 0 0 0 0 61.811016436094178 -156.57252613628953 0 -156.57252613628953 427.12603622370443 0 0 0 0 -30.29840603840023 132.81657003582222 0 132.81657003582222 579.87479135231115 0 0 0 0 36.453377342581547 -21.929671289020916 0 -21.929671289020916 755.9836759429536 0 0 0 0 -200.76004913645068 -169.47248279547784 0 -169.47248279547784 771.71335512973019 0 0 0 0 253.0762256545226 -27.464677016818314 0 -27.464677016818314 128.33832022623392 0 0 0 0 11.074082840567371 -36.423899899429671 0 -36.423899899429671 144.15737642737804 0 0 0 0 -53.973030454415948 5.1364583012182266 0 5.1364583012182266 93.513714535547479 0 0 0 0 -212.00966055788672 -137.02500847886768 0 -137.02500847886768 89.863328584222472 0 0 0 0 -163.99506082610287 -54.534356059099082 0 -54.534356059099082 167.89365545553301 0 0 0 0 -134.54787412942358 110.41864140406324 0 110.41864140406324 234.23107408944634 0 0 0 0 -96.881940603543171 -64.407377617775637 0 -64.407377617775637 41.518005596215517 0 0 0 0 -31.930086711747435 97.843904852164997 0 97.843904852164997 285.66663594519196 0 0 0 0 -57.286672542536849 -49.077029326675984 0 -49.077029326675984 363.58050180828286 0 0 0 0 
</DataArray>
<DataArray type="Float64" Name="cross_section_updated" format="ascii">
1 1 1 0.010338127701055478 1 0.0098741620325841668 1 1 0.010808061350765013 1 0.0099947536597120648 1 1 1 1 1 1 1 1 1 1 1 0.012965545356151589 0.010011405317306585 1 0.011769026725511125 1 0.011139957001340177 1 1 1 1 0.0093537907397445094 1 0.011279504395810595 1 1 1 1 1 1 1 1 0.011001481285863916 1 1 1 1 1 1 1 0.0093776864700145443 1 1 1 1 1 1 0.010470646650996885 0.012249700144027606 0.0089442897938696812 1 1 0.010895838736567645 1 0.011691637667704263 1 1 1 0.0099598524438456234 1 1 1 1 1 1 1 1 1 1 1 1 1 1 1 1 1 1 1 1 1 1 1 1 1 1 1 1 1 1 0.01021957585110774 1 1 1 1 1 1 0.010015746092925593 1 1 1 1 1 0.010327263583294957 1 1 0.013396428626835578 1 1 1 0.0097932953700559846 1 1 1 1 1 0.010144476036074296 1 1 1 1 1 1 1 1 1 1 1 1 1 1 1 1 1 1 1 1 1 1 1 1 0.010257003298893393 1 1 1 1 1 0.012580266266469319 1 1 1 1 0.010611877726089444 1 1 1 1 0.010008743820540948 1 1 1 0.010310708653006571 1 0.0098122171639269205 1 1 1 1 1 0.0098786058238413531 1 1 1 0.010062849262471829 1 1 1 1 1 1 0.011159838048005659 1 1 1 1 0.013158521762748596 1 1 1 1 1 1 0.0084846694555686386 1 1 1 1 1 1 1 1 1 1 1 1 1 1 1 1 0.010810744277679786 1 1 1 1 1 1 1 1 1 1 1 1 1 1 1 1 1 1 1 1 1 0.0099598838593974812 0.0099360085335337793 1 1 1 1 1 1 1 1 0.011418300432134518 1 1 0.01029405551572779 1 1 1 1 1 0.010469055370417075 1 1 1 1 0.01087754079669353 0.0095729451365687054 1 1 1 0.013747459402353269 1 1 1 1 1 1 1 0.011286708932795791 0.014961123393799196 0.017047452304103157 1 0.015267313902296967 1 1 1 1 1 0.010257572594205797 1 1 1 0.015940570404391272 1 1 1 1 1 1 1 1 1 1 0.010748564620775516 1 1 1 1 1 1 1 0.011943868961341614 1 1 1 1 1 1 1 1 1 1 1 1 1 1 1 1 1 1 1 0.010451089901393113 1 0.010610596619115335 1 1 1 1 1 1 1 1 1 1 1 0.015658512307285842 1 1 0.014988655071341362 1 0.010778366236862878 0.015325460435088532 1 1 1 0.011287909039595249 1 1 1 0.011414093524670682 1 1 0.015494930679781561 1 1 0.011580046914277539 1 1 0.015589932327887766 1 1 1 1 1 1 1 1 1 1 1 1 1 1 1 0.010381937349254052 1 1 1 1 1 1 1 1 1 1 1 1 1 1 1 1 1 1 1 1 1 1 1 1 1 1 1 1 1 1 1 1 1 1 1 1 1 1 1 1 1 1 1 1 1 1 1 1 1 1 1 1 1 1 1 1 1 0.010226410451381965 1 1 1 1 1 1 1 1 1 1 1 1 1 1 1 1 1 1 1 1 1 1 1 1 1 1 1 0.00981580744718763 1 0.016153290934331148 1 1 1 0.015096887390859178 1 1 0.012046897321821882 1 1 1 1 1 1 1 1 1 1 1 1 1 1 1 1 1 1 1 0.010769431971932822 1 0.011947728092245417 1 1 1 1 1 1 1 0.013153842235588704 1 1 1 1 0.011386926353978401 1 1 1 1 1 1 1 1 1 0.012355219013231247 1 1 0.011176922892918648 1 1 1 1 1 1 0.011757054575175112 1 1 1 1 1 1 1 1 1 1 0.01428052455139691 1 1 1 1 0.010146707178652889 1 1 1 0.015497889590585043 1 1 1 0.010206064216119144 1 1 1 1 1 1 1 1 1 1 1 1 1 1 1 1 1 1 0.0096448213108919247 1 1 1 1 0.011474313509816633 1 0.010110040117875321 1 0.0099989258171703718 0.0090129480932751842 1 1 1 1 1 1 1 1 0.011156251849444909 1 1 0.010483916146465218 1 1 1 1 1 1 1 1 1 1 1 1 1 1 1 1 1 1 1 1 1 1 1 1 0.010336474102011668 1 1 1 1 1 1 1 1 1 1 1 1 1 1 1 1 1 1 1 1 0.010890912220524067 1 1 1 0.010001572755079059 1 1 0.010888639675565859 0.0099948170812545548 1 1 1 1 1 0.015762833567399055 1 1 1 1 1 1 1 1 1 0.014991357369274873 0.0099877563284220504 1 1 1 1 1 1 1 1 1 1 1 1 1 1 1 1 1 1 1 1 1 0.009620302432387989 1 1 0.016502919114169588 1 1 0.0089128886790807715 1 1 1 1 1 1 1 1 1 1 1 1 1 1 1 1 1 1 1 1 1 1 1 1 1 1 1 1 1 1 1 1 1 1 0.010056120983242538 1 1 1 1 1 0.014749995131761092 0.010489211571481027 1 1 0.010553220598373388 1 1 1 0.015016450260388538 1 1 1 1 1 1 1 1 0.010084642195323644 1 1 1 1 1 1 0.010048185894612535 0.010210340220361309 1 1 1 1 1 1 1 1 1 1 1 1 1 1 1 1 1 1 0.01644280545003924 1 1 0.010345865204943051 0.0099853311936466179 1 1 0.016731338018896938 1 1 1 0.015638227080475457 1 1 0.009008916684779893 1 1 1 1 0.0094504955823562654 1 1 1 1 1 1 0.010207016922586274 1 1 1 1 1 0.010350652485876782 1 1 1 1 1 1 0.0096621812713018809 1 1 1 1 1 1 0.0098598989708490424 1 1 1 1 1 1 1 1 1 1 1 1 1 1 1 1 1 1 0.0105683909140721 1 1 1 1 1 1 1 1 1 1 1 1 1 1 0.010263318830187362 1 1 1 0.010937246221131271 1 1 1 1 1 1 1 1 1 0.010306215905393695 1 1 1 1 1 1 1 1 1 1 1 1 1 1 1 1 1 1 1 0.0088909282728208347 1 0.0095458744120535746 1 1 1 0.0096646133617705951 1 1 1 1 1 0.0094668956622234457 1 1 1 1 1 1 1 1 1 1 1 1 1 1 1 1 1 1 1 1 1 1 1 1 1 1 1 1 1 1 1 1 1 1 1 1 1 1 1 1 1 1 1 1 1 1 1 1 1 1 1 1 1 1 1 0.0097959585572790549 1 1 0.0099336059204514146 1 1 1 1 1 1 1 1 1 1 1 1 1 0.010368855307059173 1 1 1 1 1 1 0.010801005634941905 1 1 0.011199851426842303 1 1 1 1 1 1 1 0.010779489516468174 1 1 1 1 1 1 1 1 1 1 1 1 0.0099702477461581923 1 1 1 1 1 1 0.0099962316924634281 1 1 1 1 1 1 0.012666266296703213 1 1 1 1 1 1 1 1 0.0087535767329198523 1 1 1 1 0.0088391095265492169 1 1 1 1 1 1 1 1 0.0092578231037440048 1 1 1 1 1 1 1 1 1 1 1 1 1 1 0.010971019391761457 1 1 1 1 1 0.012430092573242547 1 1 1 1 1 1 1 0.0097762948674648357 1 1 1 1 1 1 1 1 1 1 1 1 1 1 1 1 1 1 1 1 1 1 1 1 1 1 1 1 1 1 1 1 1 1 1 1 1 1 1 1 1 1 1 1 1 1 1 1 1 1 1 1 1 1 1 1 1 1 1 1 1 1 0.0099200112208781104 1 1 1 1 1 1 0.010707417416788408 1 1 1 1 1 1 1 1 1 1 0.011559606501243498 0.011058593158510439 1 1 1 1 1 1 0.012593500529601946 1 0.010088078498376377 1 1 1 1 1 1 1 1 1 1 1 0.012006881840758555 1 1 1 1 1 1 1 1 1 1 1 1 1 1 1 1 1 1 1 1 1 1 1 1 1 0.01084375823109588 1 1 1 1 1 0.010056901745180414 1 1 1 1 0.01017072318350936 1 1 1 1 1 1 1 1 1 1 1 1 1 1 1 1 0.010538326222958118 1 0.0099664684070068649 1 1 0.010290247223200136 0.011340969465602403 1 1 1 1 1 1 1 1 1 0.011228918234417372 1 0.010001135855960934 1 1 1 1 1 1 1 1 1 1 1 1 1 1 1 1 1 1 1 1 1 1 1 1 1 1 1 1 1 1 1 1 1 1 1 1 1 1 1 1 1 1 1 0.0099997328304112509 0.016582437203212584 1 1 1 1 1 1 0.010148891251650527 1 0.015764201491824836 1 0.012899571560417603 1 0.012571589008722595 1 1 0.012111010386588586 1 1 1 1 1 1 1 1 1 1 1 1 1 1 1 1 1 1 1 1 1 1 1 1 1 1 1 1 1 1 1 1 1 1 1 1 1 1 1 1 1 1 1 1 1 1 1 1 1 1 1 1 1 1 1 1 1 1 1 1 1 1 1 1 1 1 1 1 1 1 1 1 1 1 1 1 1 1 1 1 1 1 1 1 1 1 1 0.010386313344091066 1 1 1 0.010534797246857075 1 1 0.0099345414723198931 1 1 1 1 1 1 1 1 1 1 1 0.02236535286014275 1 1 1 1 1 1 1 1 1 1 1 1 1 1 1 1 1 1 1 1 1 1 1 0.01972811226263585 1 1 1 0.013495227734876325 1 1 1 1 0.013934582972909221 1 1 1 1 1 1 1 1 1 1 1 0.018424827209398718 1 1 1 0.0099775644680899032 1 1 0.01542534252474663 1 1 0.011157835649394194 1 1 0.013926761523018956 1 0.010274038706073556 1 1 1 0.011190506049938317 0.013050841395732354 1 0.020519249522380417 1 0.0085794659415130599 1 1 1 1 1 0.012644196685888568 1 1 1 1 1 1 1 1 1 1 1 1 1 1 1 1 1 1 1 1 0.010069757721883487 1 1 1 1 1 1 1 1 1 1 1 1 1 1 1 1 1 1 1 1 1 1 1 1 1 1 1 1 1 1 1 1 1 1 1 1 1 1 1 1 1 1 1 0.012647247718078979 1 1 1 1 1 0.011152701985648591 1 1 1 1 1 1 1 0.011736377829458952 1 1 1 1 1 1 1 1 1 1 1 1 1 1 1 1 1 1 1 1 1 1 1 1 1 1 1 1 1 1 1 1 1 1 1 1 1 1 1 1 1 1 1 1 1 1 1 1 1 1 1 0.01087276410865713 1 1 1 1 1 1 0.01259648637184374 1 1 1 0.010079749148446171 1 1 1 1 1 1 1 1 1 1 1 1 1 1 1 1 1 1 1 1 1 1 1 1 1 1 1 1 1 1 1 1 1 1 1 1 1 1 1 1 1 1 1 1 1 1 1 1 1 1 1 1 1 1 1 1 1 1 1 1 1 1 1 1 1 1 1 1 1 1 1 1 1 1 1 1 1 1 1 1 1 1 1 1 1 1 1 1 1 1 1 0.013027945876756264 0.0094795676174347157 1 1 1 1 1 1 1 1 1 1 1 1 1 0.0099241180574328944 1 1 1 1 1 1 1 1 1 1 1 1 1 1 1 1 1 1 1 1 1 1 1 1 1 1 1 1 1 1 0.0098623027817363526 0.011228611088426368 1 1 1 1 1 1 1 1 1 1 1 1 0.010867286106931983 1 1 1 1 0.010019734542469913 1 1 1 1 1 1 1 1 1 1 1 1 1 1 1 1 1 1 1 1 1 1 1 1 1 1 1 1 1 1 1 1 1 1 1 1 1 1 1 1 0.011881286707906448 1 1 1 0.010639831631110326 1 1 1 1 1 1 1 1 0.012021070293161247 1 1 0.011024046218933015 1 1 1 1 1 1 1 1 1 1 1 1 1 1 1 1 1 1 1 1 1 1 1 1 1 1 0.010887687616915678 1 1 1 1 1 1 1 1 1 0.010471912018998051 1 1 1 1 1 1 1 1 1 0.010415457925560818 1 1 1 1 0.013107528348638634 1 1 1 1 1 0.011381105402570778 1 1 1 1 1 1 1 1 1 1 1 1 1 1 1 1 1 1 1 0.01124036352980227 1 1 1 0.013402161008153803 1 1 1 1 1 1 1 1 1 1 1 1 1 1 1 1 1 1 1 1 1 1 1 1 1 1 1 1 1 1 0.015625588010682503 1 0.016716283707277894 1 1 1 1 1 1 1 1 0.01039614363518487 1 1 1 1 1 1 1 0.01503490741211993 1 1 0.010277643929736595 1 1 1 1 0.012195454949469643 1 1 1 1 1 0.011266617467891813 1 1 1 1 1 1 1 0.010396174687914228 1 1 1 1 1 1 1 0.021397810676616329 1 1 0.010930971934771308 1 1 1 1 1 1 1 1 1 1 1 1 1 1 1 1 1 1 1 1 1 0.023315907431946913 1 1 1 1 1 1 1 0.024627520027419483 1 1 1 1 1 1 1 1 1 1 1 1 1 1 1 1 1 0.0070790292184544079 1 1 1 0.010195365748199346 1 1 1 1 1 1 1 1 1 1 1 1 1 1 1 1 1 1 1 1 0.0098772234436018645 1 1 1 0.014574450537249111 1 1 1 1 1 1 1 1 1 1 1 1 1 1 1 1 1 1 1 1 1 1 0.01216987384165466 1 1 1 1 0.013098192390248814 1 1 1 1 1 0.024011958862447752 1 1 1 0.0099844898035228551 1 1 1 1 1 0.0060438938634535151 1 1 1 0.012605637638696069 1 1 1 0.01203349560521722 1 0.012544513650687849 1 1 1 1 0.010559359661776221 1 1 1 1 1 1 1 1 1 1 1 1 1 1 1 1 1 1 1 1 1 0.014086205897353465 1 1 1 1 1 0.011916332055698803 1 1 1 1 1 1 1 1 1 1 1 0.010527168400176756 1 1 1 1 1 1 1 1 1 1 1 1 1 1 1 1 1 1 1 1 1 1 1 1 1 1 1 1 1 1 1 1 1 1 1 1 1 1 1 0.011913770508564318 1 1 1 1 0.0093127889248774479 1 1 1 1 1 1 0.0060772255524897487 1 1 1 1 1 1 1 0.012733754831366642 1 1 1 1 1 1 1 1 1 0.012222428747542447 1 1 0.015238331892150472 1 1 1 1 1 0.01669867056523134 1 0.015158275014778018 1 1 0.013353160662488496 1 1 1 1 1 1 1 1 1 1 1 0.012424520183411374 1 0.012007014328528616 1 1 1 0.0088691514112514153 1 1 1 0.0085634602294496071 1 1 0.0067953378585197208 1 1 1 1 1 0.014354332492246925 1 1 0.006631070513314379 1 1 1 0.007802290139040379 1 1 1 0.010824439648225624 1 1 1 1 1 0.01275581044533306 1 1 1 1 0.0099570342885900772 1 0.01066687180940484 1 0.010961605988478812 1 1 1 1 0.011033356492473029 1 1 1 1 1 1 1 1 1 1 1 1 1 0.011085454345329062 1 1 1 1 1 1 1 1 1 1 1 1 1 1 1 1 1 1 1 1 1 1 1 1 1 1 1 0.010861805055904779 0.0103195223568223 0.012676323704102863 1 1 1 1 0.0099532256712637508 1 1 1 1 1 1 1 0.012172922258761329 1 1 1 0.012609837590834909 1 1 1 0.01199537205703388 1 0.010653553003180948 1 0.010572011624909458 1 1 1 1 1 1 1 1 1 1 1 1 0.012003002374230829 1 1 1 1 1 1 0.015136501249059776 1 1 1 1 1 0.010953209413406849 1 0.010145770282891136 1 0.0086091638407903952 1 1 1 0.018571422272544557 1 1 1 1 1 1 1 1 1 1 0.011889851328346839 1 1 1 1 1 1 1 1 1 1 1 1 1 1 0.0064607292309773467 0.0074721991051939739 1 1 1 1 1 1 1 1 1 1 1 1 1 1 1 0.0089808512433601686 1 1 1 1 1 1 1 0.014750514222873087 1 1 1 1 1 1 1 1 0.010076409986289126 1 1 1 1 0.010182196231083126 1 1 1 1 1 1 1 1 1 1 1 1 1 1 1 1 1 1 1 1 1 1 1 1 1 1 1 1 1 1 1 1 1 1 1 1 1 0.016805127018719782 1 0.010520537263413281 1 1 1 0.016266192205811287 1 1 1 1 1 1 1 0.012725115744059542 1 1 0.011866397452624857 0.010739279327203132 1 0.011498618676821226 1 1 1 1 1 1 1 1 1 1 1 1 1 1 1 1 1 1 1 1 1 1 1 1 1 1 1 0.015522466642917863 1 0.0063003653688057113 1 1 0.0071164631864446982 1 1 1 1 0.0059433033267920089 1 1 0.0077317735853443832 1 1 0.0080153552775759623 1 1 1 1 1 1 1 1 1 1 1 1 1 0.0087109567856307277 1 1 1 1 1 1 1 1 1 1 1 1 0.008247834856008017 1 1 1 1 1 1 1 1 1 1 1 1 1 1 1 1 0.0093745276681862794 0.0095968319087409541 1 1 1 1 1 1 1 1 1 1 1 0.0094396557204751291 1 1 1 1 1 1 1 0.0089081235387939751 1 1 1 1 1 1 1 1 1 1 1 1 1 1 1 1 1 1 1 1 1 1 1 0.0094684678183188584 1 1 1 1 1 1 1 0.0098161784582912366 1 1 1 1 1 1 1 1 1 1 1 0.01019879362185025 1 1 1 1 1 1 1 1 1 0.010351001365741609 0.01498781246415864 1 1 1 1 1 1 0.0097500272378138308 1 0.010007894677202886 1 1 1 1 1 1 1 0.016053532313217302 1 1 1 0.014550562894695302 1 1 0.010366408853494078 1 1 1 1 1 1 1 1 1 0.011419934735984946 1 1 1 1 1 1 1 1 1 1 1 0.014585207274195239 1 0.0094805557055170665 1 1 0.014161632623775114 1 1 1 1 1 1 1 1 1 1 1 1 1 1 1 1 1 1 1 1 1 1 1 1 0.01202164213963283 1 1 1 1 1 1 1 1 1 1 1 1 1 1 1 1 1 1 1 1 1 1 1 1 1 1 1 1 1 1 0.010225908119007544 1 1 1 1 1 1 1 1 1 1 1 1 1 0.010665693414113771 1 1 1 1 1 1 1 1 1 1 1 1 1 1 1 1 1 1 1 1 1 1 1 1 1 1 1 1 1 1 0.012114565362468256 1 1 1 1 1 1 1 1 1 1 1 1 1 1 0.010439785295106224 1 1 1 0.011266962545600431 1 1 1 0.0095879879606160963 1 0.0086525177352530513 1 1 0.013747157502487176 1 1 1 1 1 1 1 1 1 1 1 1 0.0097561479396672639 1 1 1 1 1 1 0.011415493542968461 1 1 1 1 1 1 1 1 1 1 1 1 0.012570986048156697 1 1 1 1 1 1 1 1 1 1 0.010459834269440103 1 1 1 1 1 1 1 1 1 0.010308045584366479 1 1 1 1 1 1 1 1 1 1 1 1 1 1 1 1 1 1 1 0.010373406546866861 1 1 1 0.013270582060306778 0.01592824163027793 1 1 1 1 1 1 1 1 0.017978241237514434 1 1 0.0098945268478115578 1 1 1 0.01604859576393803 1 1 1 1 1 1 0.012622189436159255 1 1 1 1 0.011194663672289265 1 1 1 1 1 0.010450100151546663 1 1 1 1 1 1 1 0.011427525763869989 1 1 1 1 1 1 1 1 1 1 1 1 1 1 1 1 0.010063796435086569 1 1 1 1 1 1 1 1 1 1 1 1 1 1 1 0.0099166709252352693 1 1 1 0.014172393567441438 1 0.011622958836322802 1 1 1 1 1 1 1 0.018228296707461691 1 1 1 0.010149721362926556 1 0.010278696114957771 1 1 1 0.015120466145824844 1 1 1 1 1 1 1 1 1 0.010791547433884361 1 1 0.01040341030562611 1 1 1 1 1 1 1 1 1 0.013110548955024202 1 0.017131417974908511 1 1 1 1 1 1 1 1 1 1 1 1 1 1 1 1 1 1 1 1 1 1 1 1 1 1 1 1 1 1 1 1 1 1 1 1 1 1 1 1 1 0.0098931316551566627 1 1 1 1 1 1 1 1 1 1 1 1 1 1 0.012844187321732136 0.022759492342826385 1 0.011268887286071037 1 1 1 0.015854098135056366 1 1 0.018469485502906641 1 1 1 1 1 1 1 1 0.010982174371519628 1 1 1 1 1 1 1 1 1 1 1 1 1 0.011399227525176858 1 1 1 0.010076966274395541 1 1 1 1 0.010019753882259654 1 0.018294900952715833 1 1 1 0.019275239566383183 1 1 1 1 1 1 1 1 0.011674918580809351 1 1 1 0.0053856479315487031 1 1 1 0.01073265188404437 1 1 1 1 1 1 0.0099724493224709696 1 1 1 1 1 0.010370050084042685 0.0054677119204426805 0.00809116888435517 1 1 1 1 1 1 1 1 1 1 1 1 1 1 1 1 1 1 1 1 1 1 1 1 1 1 1 1 0.014732480683072332 1 1 0.027194269365873689 1 1 1 1 1 1 1 0.0097932601449579552 0.008115076661779054 1 0.0060268545152463021 1 1 1 1 1 1 1 0.0096533602874800742 1 1 1 1 0.0034128248453255509 1 0.010614580985643282 1 1 1 1 1 1 1 1 1 1 1 1 1 0.0097433527513385593 1 0.009998538576083375 1 1 1 1 1 1 1 1 0.013063956366754574 1 1 1 1 1 0.015133132179647922 1 0.014944926795421542 1 1 1 1 1 1 1 1 1 1 1 1 1 1 1 1 1 1 1 1 1 1 1 1 1 1 1 1 1 1 1 1 0.015223238761872279 1 1 1 1 1 1 1 1 1 1 1 0.017400751706396364 0.023440155010169553 1 1 1 1 1 1 1 1 1 1 1 1 1 1 1 1 1 0.029368993721874855 1 1 0.01017978904377545 1 1 1 1 1 1 1 1 1 1 1 1 0.027594317032989188 1 0.010586141690224156 1 1 1 1 1 1 1 1 1 1 1 1 1 1 1 1 1 1 1 1 1 1 0.016153578691278262 1 1 1 1 1 1 1 1 1 0.012207969269462477 1 1 1 1 1 1 1 1 0.012162998697062829 1 1 1 1 1 1 1 1 1 1 1 1 1 1 1 1 1 1 1 1 1 1 1 1 1 1 1 1 1 1 1 1 0.013243403665348917 1 1 1 1 0.010880799636250011 1 1 1 1 1 1 1 1 1 1 1 1 1 0.010364572979426096 1 1 1 1 0.01281898751146333 1 1 1 0.011079774699553183 1 1 0.011090214650868509 0.010715201720127085 1 1 1 1 1 1 1 1 1 1 1 1 1 1 1 1 1 1 1 1 1 1 1 1 1 1 1 1 1 1 0.018485761348634649 0.018999022855871447 1 1 1 1 0.013209286474566236 1 0.029843695185838223 1 1 1 1 1 1 1 0.011454062876899214 1 1 1 1 1 1 1 1 1 1 0.01128219906081282 1 1 1 1 1 1 0.011125043068132622 1 0.010113339862851357 0.012888964196585535 1 1 0.0099893993651597249 1 1 1 0.010070675205889786 0.013514305018294889 1 1 1 1 0.012159149307552406 1 1 1 1 1 0.0099971315624400453 0.014021815317250393 1 1 1 1 1 1 1 1 1 1 1 0.0097337110985389955 1 1 1 1 1 1 0.0099664086599373161 1 1 1 1 1 1 1 1 1 1 1 1 1 0.0095374445842247701 1 1 0.01139304019723808 1 0.013125067686999999 1 1 1 0.0095778246346515297 1 0.011318869360390366 1 1 1 1 1 1 1 1 1 1 1 1 1 1 1 1 1 0.0082058798147890324 1 1 0.0071007956239377765 1 1 0.016084581766454026 1 1 1 0.0099429446511291666 1 0.01090794374887631 1 1 0.012382321454510599 1 1 1 1 1 1 1 1 1 1 0.010232082363233884 1 1 1 0.010157390173177131 1 1 1 1 1 1 1 1 0.0093823266635647013 1 1 1 1 1 1 1 0.011360522245503383 1 1 1 1 0.011356376598656383 1 1 1 1 1 1 1 1 1 1 1 1 1 1 1 1 1 1 1 1 1 0.010388803514396765 1 1 1 1 1 1 1 1 1 1 1 1 1 1 1 1 1 1 1 1 1 1 1 1 1 1 1 1 1 1 1 1 1 1 1 1 1 1 1 1 1 1 1 0.010182664518069392 1 1 1 1 1 1 0.0093994070525775398 1 1 1 1 1 1 1 1 0.01040412142765109 1 1 1 1 1 1 1 1 1 1 1 1 1 1 1 1 0.010025274344892287 1 1 1 1 1 1 1 1 1 1 1 1 1 1 1 1 1 1 1 1 1 1 1 0.011616938834040748 1 1 1 1 1 1 1 1 1 1 1 1 1 1 1 1 1 1 1 1 1 1 1 1 1 1 1 1 1 1 0.010068084165416467 0.010385234558865629 1 1 1 1 1 1 1 0.010317150393449149 1 1 1 1 1 1 0.010249323584861449 1 1 1 1 1 1 1 1 1 1 1 1 0.010481405948095331 1 1 1 1 1 1 1 1 1 0.010340177791866459 1 1 0.017215996974221839 1 0.015671663743072772 1 1 1 1 1 0.012250183637788837 1 1 1 1 1 1 1 1 1 1 1 1 1 1 1 1 1 1 1 1 1 1 1 1 1 0.012766309910829457 1 1 1 1 1 0.016997124089129245 1 1 1 1 1 1 1 1 1 1 1 0.010932440846053031 1 1 1 1 1 1 1 1 1 1 1 1 1 1 0.017520644214483225 1 1 0.012197612744395809 1 1 1 1 0.012024390937168165 1 0.01027826017958265 1 1 1 1 0.010616306501983225 1 1 1 0.0095946197033090416 1 1 1 1 1 1 1 1 1 1 1 1 1 0.011732376682766027 1 1 1 1 1 1 0.0096434140129225843 1 1 1 1 1 0.0068290687353104486 1 1 0.0087346026310007457 1 0.017062147895200074 1 1 1 1 1 1 1 0.014746305901243269 1 1 1 1 1 1 1 0.012854425881359662 1 1 1 1 1 1 0.0090426708317318718 1 1 1 1 1 1 1 1 1 1 1 1 1 0.017601506754051879 1 1 0.020865684666565652 1 1 1 1 1 1 1 1 1 1 1 1 1 1 1 1 1 1 1 1 1 0.0126147523153196 1 1 1 1 1 1 0.023305658876868529 0.0097171068468272573 1 1 1 0.012154727095172322 1 1 1 1 1 1 0.010776404247904416 1 1 1 1 1 1 1 1 1 1 1 1 1 1 1 1 1 1 1 1 1 1 1 1 1 1 1 1 1 1 1 1 1 1 1 1 1 1 1 1 1 1 1 1 1 1 1 1 1 1 1 1 1 1 1 1 1 1 1 1 0.01463578343829643 1 1 1 1 1 1 0.012041462525900654 1 1 1 1 1 1 1 1 1 0.010531283321034602 1 1 1 1 1 1 1 1 1 1 1 1 1 1 1 1 1 1 1 1 1 1 0.010013986927386502 1 1 0.028640022403194462 1 1 0.034285045358864175 1 0.010902985023308068 1 1 1 0.014714156980599101 1 1 0.010011859188836214 1 1 1 1 0.01011957458040744 1 1 0.0099867824880571394 1 1 1 0.015584785692756047 1 0.020722128930279922 1 0.029770651809383365 1 1 0.0063045894957383308 1 1 0.0099287020282537441 1 1 1 1 1 1 1 1 1 1 1 0.013317041851225796 1 1 1 1 1 1 1 1 1 1 1 1 1 1 1 1 0.014419237851923115 1 1 0.012774830934150973 1 1 1 1 1 1 1 1 1 1 1 1 1 1 1 1 1 1 1 0.01411511090542421 1 0.015384541510573366 1 1 1 1 1 0.010083960365387839 1 0.021734659241473657 1 1 1 1 0.010038465740760621 1 1 1 1 0.01998042607710053 0.012134902014345509 1 1 1 1 1 1 1 1 1 1 1 1 1 0.010718259252868225 1 1 1 1 1 1 1 1 1 1 1 1 1 1 1 1 1 1 0.010057405380299433 1 1 1 1 1 1 1 0.011527050260855395 1 0.012174284211098486 1 1 1 0.012724599762711284 1 1 1 0.01020897109723202 1 1 1 1 1 1 1 0.010777577730298964 0.010200838854680688 1 0.010054974795735749 1 1 1 0.010044672191340039 0.011647521818465671 1 0.010146904754566271 1 1 0.013527638523708335 1 1 1 0.0099990565670424244 1 0.011757016884826475 1 0.018022153718956199 1 1 1 1 1 0.019625593876129714 1 1 0.010277623580407369 1 1 1 0.015609904350738729 1 1 1 1 1 0.013291993015155115 1 1 1 0.0162463806170349 1 0.010047323030348408 1 1 0.016276591781554758 1 1 1 1 0.014680011453557842 1 1 1 0.01369000791103569 1 1 1 1 1 1 1 1 1 1 1 1 1 1 1 1 1 1 1 1 0.010389562992326858 1 1 1 1 0.0076546024736918392 1 1 0.01085640204262122 1 1 0.01324670343253697 1 0.011767596444721654 1 1 1 0.0098668585878601053 1 1 0.010000528448886045 1 1 1 0.0096605128469711143 1 1 0.012556972719899927 0.010091682996901181 1 1 1 0.0099963153157161932 1 1 1 1 1 0.010175425441220839 1 0.010424640119453626 1 1 0.010084059046227946 1 1 1 1 0.0099493322027333075 0.010362260424830518 1 1 0.012388472007144715 1 1 0.013016098846490616 1 1 0.010000869693141666 1 1 1 1 1 1 1 1 1 0.010736138947442601 1 1 0.0099376305900506084 0.0099606802384153478 1 1 1 0.0096200529098569715 1 1 0.011351629373041978 0.013326170194236354 1 1 0.0096227452733000114 1 1 1 0.01079794353300367 1 1 0.013251005118170137 1 0.0094461812243847205 1 0.013284010709088599 1 1 1 1 0.010003993491016668 1 1 1 1 1 1 1 1 1 1 1 0.0097863465543672028 0.010009190228492545 1 1 1 1 0.012112751384199398 1 1 1 0.010428249786379551 1 1 1 1 1 1 0.010036733962429201 0.012192967099465945 1 0.010132228731357383 1 0.01003081853375358 0.011786278017834266 0.011128894625177778 1 0.01057118083600438 1 1 1 1 1 0.0099523766495947241 1 1 1 1 0.010187574423038595 1 1 1 1 0.012172703912104283 1 1 1 1 1 0.014749003921614684 1 0.010090107893532405 1 1 1 1 1 1 1 1 0.010009644459590706 1 1 0.0099738111499521626 1 1 0.014100830722838294 1 1 0.011953619235828272 1 0.010596322152148677 1 1 0.010157733361258593 1 1 0.011352570513965744 1 1 1 1 0.01036137077470802 1 1 0.0099945985705400218 1 1 1 1 0.010010376400612066 1 1 1 0.010036948298845026 1 1 1 1 1 1 0.010416264406493889 1 0.011716036226102275 1 1 0.011452710221206391 1 0.010014737223285712 1 1 1 0.010128917749073367 1 1 1 1 0.010044934744651415 1 1 1 1 0.0084785695677710229 1 1 0.010008468358816795 1 0.008737482302420857 1 1 0.010636675393704961 1 1 1 1 1 1 1 1 1 1 1 0.012707825332309712 1 1 1 1 1 1 0.011354071746159714 1 1 1 1 1 1 1 1 1 1 1 1 1 1 1 1 1 1 1 1 1 1 1 1 1 1 1 1 1 1 1 1 1 1 1 1 1 1 1 1 1 1 1 1 1 1 1 1 1 1 1 1 1 1 1 1 0.013452004810208428 1 1 1 1 1 1 1 1 1 0.012987948497869037 1 1 1 0.011386561910559961 1 1 0.010878437628456661 1 1 1 1 1 1 1 1 1 1 1 1 1 1 1 1 1 1 1 1 1 1 0.011514630804754095 1 1 1 1 1 1 0.011772902044248058 1 1 1 0.011353753586149996 1 1 1 0.013589210407338129 1 1 1 1 1 1 1 1 1 1 1 0.011393670005969801 1 1 1 1 1 1 1 1 1 0.013660730283124936 1 0.018965812206461652 1 1 1 0.0098403583072827344 1 1 1 1 1 1 1 1 1 1 1 1 1 1 0.024714339525070361 1 1 1 0.010039497621252825 1 1 1 1 1 1 0.014080429384423773 1 1 0.022344959785208798 1 1 1 1 1 1 1 1 1 1 1 1 1 1 1 1 1 1 1 1 1 1 1 1 1 1 0.010222162611283749 1 1 1 1 0.019252958874358683 1 1 1 1 1 1 1 0.029465292971729722 1 1 0.013202002656537447 1 1 1 1 1 1 1 1 1 0.034266071345689819 1 1 1 1 1 1 0.033244595804962786 1 1 1 1 1 1 1 1 1 1 1 1 1 1 1 1 1 1 1 1 1 1 1 1 1 1 1 1 1 1 1 1 1 1 1 1 1 1 1 1 1 1 1 1 1 1 1 1 1 1 1 1 1 1 0.010638606018947755 1 1 1 1 1 1 1 1 1 1 1 1 1 1 1 1 1 1 1 1 1 1 1 1 1 1 1 1 1 0.010427753092145952 1 1 0.0096598175034900355 1 1 1 1 1 1 1 1 1 1 1 1 1 1 1 1 0.01048522864141662 1 1 1 1 0.010053770495790638 1 1 1 1 0.0095314878489317079 1 1 1 1 1 0.011628199017415464 1 1 1 1 1 1 1 1 1 1 1 1 0.0062318949201071632 1 1 1 1 1 1 1 1 1 1 1 1 1 1 1 1 1 1 1 1 1 1 0.0076828502488538045 1 1 1 1 1 1 1 1 1 1 1 1 1 1 1 0.0092198754703576059 1 1 1 1 1 1 1 0.0085515316983175854 0.01024372454345775 1 1 1 1 1 1 1 1 1 1 1 1 1 1 1 1 1 1 1 1 1 1 1 1 1 1 1 1 1 1 1 1 1 1 1 1 1 1 1 1 1 1 0.010028395188699066 1 1 0.0074297310394891699 1 1 1 1 1 1 1 1 1 1 1 1 1 1 1 1 1 1 1 1 1 1 1 1 1 1 1 1 1 1 1 1 1 1 0.010968923580282506 1 1 1 1 1 1 1 1 1 1 1 1 1 1 1 1 1 1 1 0.008418571388062724 1 1 1 1 1 0.0092778936902576832 1 0.0098341566535509461 1 1 1 1 0.021679028066348069 1 1 1 1 1 1 1 1 0.010220257474130294 1 1 0.021948852350177787 0.0078210359759549788 1 0.016888611307456832 1 1 1 1 1 1 1 1 1 1 1 1 1 1 1 1 1 1 1 0.010630257741522863 1 1 1 1 1 0.010247507497327241 0.0118295146369426 1 0.014086056123279364 1 1 1 1 1 0.0074968560121678428 1 0.015439078550405817 1 1 0.0077557767897963158 0.010014808468681941 1 1 1 0.007926339062679668 1 1 0.014028351845558307 1 0.015270373151390151 1 0.010003332886125713 1 1 0.0087981098302238169 1 1 1 1 1 1 1 0.018222498848449613 1 1 1 1 1 1 1 1 1 1 1 1 1 1 1 1 1 1 1 1 1 1 1 1 1 1 1 1 1 1 1 1 0.0099363843112373566 1 1 1 1 1 0.0097513922648466526 1 1 1 1 1 1 1 1 1 0.010015717065777061 1 1 1 0.0099848342027085892 0.010613826121141891 1 1 1 1 1 1 1 1 1 1 1 1 1 1 1 1 1 1 1 0.010024692124998794 1 1 1 1 0.010967243177809539 0.0094319229641327655 1 1 1 0.009697440856124331 0.0095625783290254479 0.010588865854992089 0.01114625243673637 1 0.0093492472587773656 1 1 1 1 1 1 1 0.011325675321567663 1 0.010917097831644587 0.0097724162115107004 1 1 1 1 1 1 1 1 1 1 1 1 1 1 1 1 1 1 1 1 1 0.010583938478967971 0.0098346539657660839 1 1 1 1 1 1 1 1 1 1 1 1 1 1 1 1 1 1 1 1 1 1 1 1 1 1 0.011275788466594079 1 1 0.01321460687229566 1 0.010104439987323669 1 1 1 0.010095426837149309 1 1 0.012409597424575316 1 0.010006193919452476 1 1 1 1 1 1 1 1 1 1 1 1 1 1 1 1 1 1 0.0099041260296918072 1 0.0099816824934767963 1 1 1 1 1 1 0.011890337567994817 1 1 1 1 0.0118303864189562 1 1 0.011406607342323986 1 1 1 1 0.010518221973248691 1 1 1 1 1 1 1 1 1 1 1 1 1 0.008723915450649395 1 1 1 1 1 1 1 0.0089508789489248022 1 1 1 0.023268120307713903 1 1 1 1 1 1 1 1 1 1 1 1 1 0.011556595719092891 1 1 1 1 1 1 0.0084654716212690054 0.024125413876011619 1 1 0.009043214140112759 1 1 0.024316473085975596 1 1 1 1 1 1 1 1 1 0.022339269749834509 1 1 1 1 1 1 1 1 1 1 1 1 1 1 0.020325945140953726 1 1 1 1 1 1 1 1 1 1 1 0.014738594620461835 1 1 1 1 1 0.0080599204093565833 1 1 1 1 1 1 1 0.01376250811877347 0.0099344219953725853 1 1 0.012526947676284782 1 1 1 1 1 1 1 1 1 0.0091997208733461261 1 1 1 1 1 1 0.0086134416969041831 1 1 1 1 1 1 1 1 1 1 1 1 0.0098311874409619839 1 1 1 1 0.0097303451892223509 1 1 1 0.009155665428829474 1 1 1 1 1 0.009741904414865013 1 0.0096610426202618574 1 1 1 0.0098942873519011869 1 1 1 1 1 1 0.01055711232870443 1 1 1 1 1 1 1 1 1 1 1 1 1 1 1 1 1 1 1 0.011550809498474573 1 1 1 1 1 1 1 1 1 1 1 1 1 1 1 1 1 1 1 1 0.010163926246575056 0.010340452947197928 1 1 1 1 1 1 1 1 1 1 1 1 0.010681896730767556 1 1 1 1 1 1 1 1 1 1 1 1 1 1 1 1 0.010306231521249728 0.010129704820626854 1 1 1 1 1 1 1 1 0.010068828929741903 1 1 1 1 1 1 1 1 1 1 1 1 1 1 1 1 1 1 1 1 1 1 1 1 1 1 1 1 1 1 1 1 1 1 1 1 1 1 0.0096941386129997028 1 1 1 1 1 0.0086388948577351202 1 1 1 0.0098853258916795101 1 1 1 1 1 1 0.0095700224900091453 1 1 1 1 1 1 1 1 1 1 1 1 1 1 1 1 1 1 1 1 1 1 1 1 1 1 0.0096426879498811707 1 1 1 1 1 1 1 1 1 1 1 1 1 1 1 0.017906395785036167 1 1 0.0098450992903887525 1 1 1 0.0099385276727583811 1 1 1 1 1 1 1 1 1 0.014546727118229356 0.0098909939185496589 1 1 0.016313260132717382 1 1 1 1 1 1 0.010473464210643761 1 1 1 1 1 1 1 1 1 1 1 1 1 1 1 1 1 1 1 1 1 1 1 1 1 1 1 1 1 1 1 1 1 0.010077005365563083 1 1 1 1 1 1 0.010438980483557696 0.010132995517252608 1 1 1 1 0.010555217005261047 0.018100486095680365 0.0090651406379656432 1 1 1 1 1 0.020512834323131057 1 1 1 1 1 1 1 1 1 1 1 1 1 1 1 1 0.022164081614248009 1 1 1 1 0.014459010352706615 1 1 1 1 1 1 1 1 1 1 0.019325254653701392 1 1 1 1 1 1 1 0.017005173731876926 1 1 1 1 1 1 1 1 1 1 1 1 1 1 1 1 1 1 1 1 1 1 1 1 1 1 1 1 1 1 1 1 1 1 1 0.010282399850939809 1 1 0.014336222025035508 1 1 1 1 1 0.01151512906794335 1 1 1 0.0099814599538945205 1 1 0.020158323467158443 1 1 1 1 1 1 1 1 0.019772410190079574 1 1 1 1 0.018968723724415423 1 1 0.010388739666595669 1 1 1 1 1 1 1 1 1 0.010139595825603474 1 1 1 1 1 1 1 1 1 1 1 1 1 1 1 1 1 1 1 1 1 0.011209909874634169 1 1 0.010397238286275047 1 1 0.011153987268251765 1 1 1 1 1 0.0094711321347371313 1 1 1 1 0.010006452488336098 1 0.010111180119682546 1 1 1 1 1 1 1 1 1 1 0.018028841931584931 0.010146874639594067 0.018083010420160452 1 1 0.0094683646141282933 1 1 1 1 0.011340483603541632 1 1 1 1 1 1 0.015339457738519332 1 1 1 1 1 0.011741792077027618 1 1 1 1 0.010929599205414094 1 0.014009409663199929 1 1 1 1 1 0.0078169580369431176 1 0.0066200521423657828 1 1 0.010020486386909564 1 1 1 1 1 1 1 1 1 1 1 1 1 0.016645451343650568 0.012263966077546323 1 1 1 0.013998761174024149 1 1 1 0.010566968895503003 1 1 1 1 1 1 1 1 0.010444662272978075 1 1 1 1 1 1 1 1 1 1 1 1 1 1 1 1 1 0.010494967044786495 1 1 1 1 1 1 1 0.015469296697608692 1 1 0.016343165558911424 1 1 1 1 1 1 1 1 1 1 1 0.010405164460371898 1 1 1 1 1 1 1 0.014313525734644762 1 0.010024580927643457 0.010215538658123233 1 1 1 1 1 1 1 1 0.014840543895041856 1 1 1 1 1 0.0097464078769738411 1 1 1 1 1 1 1 1 1 1 1 1 0.0085652716756609727 1 1 0.01399825726471794 1 1 1 1 1 1 1 1 0.0095822867833553847 1 1 0.013145253460226831 1 1 1 1 1 1 1 1 1 1 1 1 0.010189625802248664 1 1 1 1 1 1 1 1 1 1 1 0.01269433365621535 1 1 1 1 0.009401615119442739 1 0.013109357255537558 1 0.0099963683183923648 0.010132967006514474 1 1 1 0.0096749572503961549 1 1 1 0.011817298406405954 1 1 0.0088742269758781585 1 1 1 1 1 1 1 1 1 1 1 1 1 1 1 1 1 1 1 1 1 1 1 1 1 1 1 1 1 1 1 1 1 1 1 1 1 1 1 1 1 1 1 1 1 1 1 1 1 1 1 1 0.0099896382643462033 1 1 1 1 1 1 1 1 1 0.010816527098690677 1 1 0.011077258337771305 1 1 1 1 1 1 1 1 1 0.0077285031168680858 1 0.0092633486715526323 1 1 1 1 1 0.011189107706735193 1 1 1 1 1 1 1 1 1 1 1 1 1 1 0.012383863165885784 1 1 1 1 1 1 1 1 1 1 1 1 1 1 1 1 1 1 1 0.0099775012307570451 1 1 1 1 0.0164282301203044 1 1 1 1 1 1 0.019890045244141879 1 1 1 1 1 1 1 1 1 1 1 1 1 1 1 1 1 1 1 1 1 0.010531397578118919 1 1 1 1 1 1 1 1 0.023852151959459771 1 1 1 0.010082464102282591 1 1 0.015701784748524572 0.016365811169508443 0.0097624068257623348 1 1 1 0.010042551397567531 1 1 1 1 1 1 1 1 1 1 1 1 1 1 1 1 1 1 1 1 1 0.0099823598259819041 1 1 1 1 1 1 1 0.011815204506051911 0.011174318373150995 1 0.015422964325868246 0.0094128953045858801 1 1 0.010743449167268002 1 1 1 1 1 1 1 1 1 1 1 1 1 0.0099023357371498758 1 1 1 1 0.017551970918545913 1 1 1 1 0.010340821635108762 1 1 1 1 0.011138794802800688 1 1 1 0.011832168037776383 1 0.0097056439008630212 1 1 1 1 1 1 1 1 1 1 1 1 0.010744571927409893 1 1 1 1 1 1 1 1 1 1 1 1 1 1 1 1 1 1 1 1 1 1 1 1 0.021975503700158057 1 1 1 1 1 1 1 1 0.014547527266527629 1 1 1 1 1 1 1 1 1 1 1 1 1 1 1 1 1 1 1 1 0.017557317484441309 1 1 1 1 1 1 1 1 1 1 1 1 1 1 1 1 1 1 1 0.013220157946635273 1 1 1 1 1 1 1 1 1 1 1 1 1 1 1 1 1 1 1 1 1 1 1 1 1 1 1 1 1 1 1 1 1 0.0100898099944074 1 1 1 1 1 0.010183065845104498 1 0.010180065362574594 1 1 1 1 0.010003137200172374 1 1 1 1 1 1 1 1 1 1 1 1 1 1 1 1 1 1 1 1 1 1 1 1 1 1 1 1 1 1 1 1 1 1 0.0099825576638367577 1 1 1 1 1 1 0.0099363232498963401 1 1 1 0.016663671229364092 1 1 0.018636842746711284 1 1 1 1 0.020271433976446859 1 1 1 1 0.010644480447839257 1 1 0.0088732113152677813 1 1 1 1 1 1 1 0.010195457823631132 1 0.014071626785590015 0.010395987433814039 1 1 1 1 1 1 1 1 1 1 1 0.010715403077524775 1 1 1 1 1 1 0.010630057948407712 1 1 1 0.0097769789857558766 1 1 1 1 1 1 0.013664564011304454 1 1 1 0.01145467309286357 1 1 1 1 1 1 1 1 1 1 1 1 1 1 1 0.0094649340038985025 1 1 1 1 1 1 1 0.013902454709942844 0.012210383513728516 1 1 1 1 1 1 1 1 1 1 1 0.010200529610182897 1 1 1 1 1 0.016182376357262045 1 1 1 1 1 1 1 1 1 1 1 1 1 1 1 1 1 1 1 1 1 1 1 1 1 1 1 1 1 1 1 1 1 1 0.016304998330690549 1 1 1 1 1 1 1 1 1 0.014860575274538894 1 1 1 1 1 1 1 1 1 0.010601482340943651 1 1 1 1 1 1 1 1 1 1 1 1 1 1 1 1 1 1 1 1 0.010701908111189991 1 1 1 1 1 1 1 0.01228026554590997 0.010124583069363976 1 1 1 1 0.012737925596015267 1 1 1 1 1 1 0.010104361273271831 1 1 0.015743146047768719 1 1 1 1 1 1 1 1 1 0.0083141902681929444 1 1 1 0.013050855983606854 1 1 0.018128724534657387 0.010127815917185874 1 0.017043111678239624 1 1 1 1 0.014614040785272878 1 1 1 1 1 0.01187296706692919 1 1 1 1 1 1 1 1 1 1 1 1 1 1 1 1 1 1 1 1 1 1 1 1 1 1 1 1 1 1 1 1 1 1 1 1 1 1 1 1 1 1 1 1 1 1 1 1 1 1 1 1 1 0.010734418771730645 1 1 1 1 1 0.011569425783969609 1 1 1 1 0.010837157797991626 1 1 1 1 1 1 1 1 1 1 1 1 1 1 1 1 0.012361136909101851 1 1 0.021326590718995189 1 1 1 1 1 1 1 1 1 1 1 1 1 1 1 1 1 1 1 1 1 1 1 0.012150643009006742 1 1 1 1 1 1 1 1 1 0.018547968017065937 1 1 1 1 1 1 1 1 1 1 1 1 1 1 1 1 1 1 1 1 1 1 1 1 1 0.014500586869286685 1 1 1 1 0.014380374180781304 1 1 0.01359886553571333 1 1 1 1 1 1 1 0.010087600788531348 1 1 1 1 1 1 1 1 1 1 0.01024735845281698 0.010378009149233145 1 1 1 1 1 1 1 1 1 1 1 1 1 1 1 1 1 1 1 1 1 1 1 1 1 1 1 1 1 1 1 1 1 0.010011632967210474 1 1 1 1 1 1 1 1 1 1 1 1 1 1 0.013779451490753726 0.010316826250965154 1 1 1 1 1 1 1 1 1 1 1 1 1 1 1 1 1 1 1 1 1 1 1 1 1 0.010726106848074278 1 1 1 0.012684792062919784 1 1 1 1 1 1 1 1 1 1 1 1 1 1 1 1 1 1 1 1 0.019770747621188526 1 1 1 1 1 1 1 0.021595303786886261 1 0.011829466310985477 1 0.010616388304411627 1 1 1 0.0098338752285609711 1 1 1 1 1 1 1 0.0099647542352536266 1 1 1 1 1 1 1 1 0.0060630722684864146 0.0099004757126570139 1 1 1 1 1 0.010033953853405614 1 1 1 1 1 1 1 1 1 1 1 1 1 1 1 1 1 1 1 1 1 1 1 1 1 1 1 1 1 1 1 1 1 1 1 1 1 1 1 1 1 1 1 1 1 1 1 1 1 1 1 1 0.010710427011311825 1 1 1 1 1 1 1 1 1 1 1 1 1 0.010341394851309972 1 1 1 1 1 1 1 1 1 0.00747559366991455 1 1 1 1 1 1 0.0099505846402080603 1 1 1 1 1 0.010096878351448022 1 1 1 1 1 1 0.010694619297736008 1 1 1 1 1 1 1 1 1 1 1 1 0.011092733192344547 1 1 1 1 1 1 1 1 0.010626414820745386 1 1 1 1 1 1 1 1 1 1 1 1 1 1 1 1 1 1 0.012142798295859049 1 1 1 1 1 1 1 1 1 1 0.012996330458553459 1 1 1 1 1 1 1 1 1 1 1 1 1 1 1 1 1 1 1 1 1 1 0.010691671700462155 1 1 1 0.011974427917392913 1 0.010477579989908154 0.012582085429769685 1 1 1 0.01147081409043285 0.0099372960968724319 1 1 1 1 1 1 1 1 1 1 1 1 1 1 1 1 1 0.012465759230637682 1 1 1 1 1 1 1 1 1 1 1 1 1 1 1 1 1 1 1 1 1 0.010493323307022486 1 1 1 1 0.0099288594208999086 1 1 1 1 1 1 1 1 1 1 1 1 1 1 1 0.018266832728117428 1 1 0.012971901080432429 0.012978795886122938 1 1 1 1 1 1 1 1 1 1 1 1 0.015129438895129681 1 1 1 1 1 1 1 1 1 1 1 1 1 1 1 1 1 1 1 1 1 1 1 0.020761575503040711 0.0063828229113257222 1 1 1 1 0.0099525429776160385 0.009079549589277711 1 0.0090668451072324838 1 1 1 1 0.009742554331722008 1 1 1 1 1 1 1 1 1 1 1 1 1 1 1 1 1 1 0.010193240488721056 1 1 1 1 1 1 1 1 1 1 1 1 1 0.018992007904390092 1 1 1 1 1 1 1 1 0.017496484170338829 1 1 0.010405621546881577 0.022474333387632932 1 0.010289423265722585 1 1 1 1 1 1 1 1 1 1 0.010310829340810028 1 0.019088289872684301 1 1 1 1 1 1 0.013502906859967976 1 1 1 1 1 1 1 1 1 1 1 1 1 1 1 1 1 1 1 1 1 1 1 1 1 1 1 1 1 1 1 1 1 1 1 1 1 1 1 1 1 1 1 1 1 1 1 1 1 0.013880860871462293 1 1 0.0089022432443223339 1 1 1 0.011472279031445024 1 1 1 1 0.013124936115608292 1 1 1 1 1 1 1 1 1 1 1 1 1 1 1 1 1 1 1 1 1 1 1 1 0.015597517023775563 0.0066811821759539371 1 1 1 1 1 1 1 1 1 1 1 1 1 1 1 1 1 1 1 0.0095905786506246711 1 1 1 1 1 1 1 0.0093641809799568775 1 1 1 0.0095704226806539987 1 1 1 1 1 1 1 1 1 1 0.010347625896906475 0.010927589965183889 0.0099427569141372907 1 1 0.0087185980088894943 1 1 1 1 1 1 1 0.0085413366426240374 1 1 0.011766729141795027 1 1 1 0.0094599977510733194 1 1 1 1 1 1 1 1 1 1 1 1 1 1 1 1 1 1 1 1 1 1 1 0.01403252332712901 1 1 1 0.011709420117754939 1 1 1 1 1 1 1 1 1 1 1 1 1 1 0.0094854886070806395 1 0.010889531090486316 1 1 1 1 1 1 1 1 1 0.01078055961390309 1 1 1 1 1 1 1 1 1 0.009146157513002854 1 1 0.0096767565160197997 1 0.0080785362189817536 1 1 0.011950073425534134 1 1 1 1 1 1 1 1 0.011248028801824492 1 1 1 1 1 1 1 1 1 0.013067297542816977 1 1 1 1 1 1 1 1 1 1 1 1 0.017050923880066803 1 0.017918685630420088 1 0.01682923933905001 1 1 1 1 1 1 0.012801067531610979 1 1 1 1 1 1 1 0.0095536110507723759 1 1 0.025750424051447444 1 1 1 1 1 1 1 1 1 1 1 1 1 1 1 0.011859878607388111 1 0.025407573153324224 1 1 1 1 1 1 1 1 1 1 1 1 1 1 1 1 1 1 1 1 1 1 1 1 1 1 1 1 0.010292511435979227 1 1 1 0.015462235015580878 1 1 1 1 0.010632240366627972 0.018065159064943992 1 0.015506007076567586 1 1 1 1 1 1 1 1 1 1 1 1 0.014136637437285106 0.012559440755722854 1 1 1 1 1 1 0.011605031705313514 1 1 1 0.010548632624800261 1 1 1 1 1 1 1 1 1 1 1 1 0.011398961885713318 1 1 1 1 1 1 1 1 1 1 1 1 0.0057334862634722868 1 1 1 1 1 0.0084839521787549617 0.022753854046567712 1 1 1 1 1 0.017691295262143268 1 1 1 1 1 1 1 1 0.017891581313286945 1 0.015899711807610822 1 1 1 1 1 1 0.017215336130622969 1 1 1 1 1 1 1 0.0085831517743201226 1 1 1 1 1 0.01186759833894644 1 1 1 0.0097262757075329779 1 1 1 1 1 1 1 1 0.027322955827595627 1 1 1 1 1 1 1 1 0.024238924131031445 1 1 1 1 1 1 1 1 1 1 1 1 1 0.015719566318774456 1 1 1 1 1 1 1 1 1 1 1 1 1 1 1 1 1 1 1 0.010016119512088424 1 1 1 1 1 1 1 1 1 1 1 1 1 1 1 1 1 1 0.019711054578141311 1 1 1 0.015208228170726925 1 0.020551543668525324 1 1 1 1 1 1 1 0.016052334790484443 1 1 1 1 1 1 1 1 1 1 1 1 1 1 1 1 1 1 1 1 1 1 1 1 0.011562187129535145 0.012681072719989464 1 1 1 1 1 1 0.011282110834276146 1 1 1 1 1 1 1 1 1 1 1 1 1 1 1 1 1 1 1 1 0.010154602266297637 1 1 1 1 0.010097599586524848 1 1 1 1 0.010262649042708667 1 1 1 1 1 1 1 1 1 1 1 1 1 1 0.010046040237807233 1 1 1 1 1 1 1 1 1 0.0094034882280979656 1 1 1 1 0.015135039760964525 0.0098117953412511991 1 1 1 1 1 1 1 1 1 1 1 1 1 1 1 1 1 1 1 1 1 1 1 1 1 1 1 1 1 1 1 1 1 1 1 0.010943285124152437 1 1 1 1 0.012469172474294493 1 1 1 1 1 1 1 1 1 0.011164472674601451 1 1 1 1 1 1 1 1 1 1 1 0.01069737808194368 1 1 1 1 1 1 1 0.010543036585279993 1 1 1 1 1 1 1 1 1 1 1 1 1 1 1 0.010008035654869943 1 1 1 1 0.0095414626733848189 1 1 0.013284701053377056 1 1 1 1 1 1 1 0.011447781018936152 0.011228226582911408 1 1 1 1 1 1 1 1 1 1 1 1 1 1 1 0.010830353637398605 1 1 0.014429178427625354 1 1 1 1 1 1 1 1 1 1 0.010617427381537536 1 1 1 1 1 1 0.011815937266923815 1 1 1 1 1 1 1 1 0.011838257028969536 1 1 1 1 1 0.010775222987460257 1 1 1 0.0098913973027704247 1 1 1 1 1 1 1 1 1 1 1 1 1 1 1 1 0.0097064025424552294 1 1 1 1 1 1 1 1 0.010249585310990576 1 1 1 1 1 1 1 1 0.0091976765086398248 1 0.01187300009028512 1 1 1 1 1 1 1 0.006858434955059221 0.01517431054342047 1 1 1 0.0082902905557281047 1 1 1 0.012005453991877035 1 1 1 0.0094494373461530123 1 1 1 1 1 1 1 1 1 1 1 1 1 1 1 1 0.009675227465307237 1 1 1 1 1 1 1 1 1 0.0094351740119871033 1 1 1 1 1 1 1 1 1 1 1 1 1 1 1 0.010547525944362191 1 1 1 1 0.011651215260005105 1 0.0097598369386753953 1 1 1 0.01401716566350592 1 1 1 1 1 0.01024458926525362 1 1 0.010706529765096014 1 1 1 1 1 0.0094726595736474503 1 1 0.0076531250996769232 1 1 1 1 0.0082558557553062198 1 1 1 1 1 1 0.011072540004995014 1 1 0.0061760554021964825 1 1 1 1 1 0.0087756500371129562 1 1 1 1 0.008692725263807103 1 1 1 0.015274486273657116 1 1 1 1 1 0.017546354078464485 1 1 1 0.012141965734642844 0.01706233511199259 1 1 1 0.011508578257930707 1 1 1 1 1 1 1 1 0.012138926952635777 1 1 1 1 1 1 1 1 1 1 1 1 1 1 1 1 1 1 1 1 1 1 1 1 1 0.0093724087332625588 1 1 0.0080651339970696824 1 1 1 1 1 1 1 1 1 0.010048172335786143 1 1 1 1 1 0.011230160732030115 0.013324459702919924 1 1 0.0097917513687524535 1 1 1 1 1 1 0.012607068010468115 1 1 0.0098362847336046725 1 0.0090262160849196547 1 1 1 1 1 1 1 1 1 1 1 1 1 1 1 1 1 1 1 1 1 1 1 1 1 1 1 1 1 0.011059472111673498 1 1 1 1 1 1 0.0099164711184880766 1 1 1 1 1 1 1 1 1 1 1 1 1 1 1 1 1 1 1 1 1 0.011401627240593895 1 1 1 1 1 1 1 1 1 1 1 1 1 1 1 1 1 1 1 1 1 1 1 1 1 0.010614655105641614 1 1 1 1 1 1 1 1 1 1 1 1 1 1 1 1 0.010246079959462733 1 0.010415288163894702 1 1 1 0.0099796102463145884 1 1 1 0.0097953876905810186 1 1 1 1 1 1 1 1 0.012180653871710093 1 0.0098702695695519777 0.010062664714369162 1 1 0.013673392250848172 0.010761130211313523 1 0.011732596083863005 1 1 1 1 1 1 1 1 1 1 1 0.011464059687189349 0.011063537632077985 1 1 1 1 1 1 1 1 1 1 1 1 1 1 1 1 1 1 1 1 1 1 1 0.0070309492338566605 1 1 1 1 0.0087038530382219665 0.010656931834812269 1 1 1 1 1 0.0097390230652398303 1 1 1 1 1 1 1 1 1 0.011652935555290506 1 1 1 1 0.010291583675749134 1 1 1 1 1 1 1 1 1 1 1 0.010677306781998368 1 1 1 1 1 1 1 1 1 1 1 1 1 1 0.010432426917093729 1 0.0091379525844662128 1 1 1 1 1 1 1 1 0.013753076294348937 0.012845711961599053 1 1 0.010622520119031309 1 1 1 1 1 1 1 1 1 1 1 0.011055304480899621 1 1 1 0.012818742693937107 0.010011294789574883 1 1 1 1 1 1 0.012846117193515668 1 1 1 1 1 1 0.009989737755700695 1 1 1 1 1 1 1 1 1 1 1 1 1 1 0.01179415491686824 1 1 0.012942201835693961 1 1 1 1 1 0.013155718056150649 1 0.011464634552044953 1 1 1 1 1 1 1 0.012049484949235646 1 1 0.010779515714999249 1 1 0.0118322186277122 1 1 1 1 1 1 1 1 1 1 1 1 1 1 1 1 1 1 1 1 0.010732873843881791 1 1 1 0.01004567570187726 1 1 1 0.011037690694711196 1 1 1 1 1 1 1 1 0.01201679446502503 1 1 1 0.010118210729899291 1 1 1 0.0099403925887466254 1 1 1 1 1 1 1 1 1 1 1 1 1 1 1 1 1 1 1 1 1 1 1 1 1 0.010257421102070114 1 1 0.010102818835772482 0.010215810316424134 1 1 1 0.011993401501694123 1 1 1 1 1 1 0.011925909681268583 1 1 1 1 1 1 1 1 0.010043238649120113 0.01102505080774875 1 1 1 1 1 0.011581830652657048 0.010051144573963321 1 0.010929326849522965 1 1 0.011089478971200847 1 1 0.0088223383603063862 1 1 0.0099716842531556282 1 1 1 1 1 1 0.010064939681562472 0.010602364355058213 1 1 1 1 1 0.010551036289528566 1 1 1 1 1 1 1 1 1 1 1 1 1 1 1 1 1 1 1 1 1 1 1 1 1 1 0.010230076489283533 1 1 1 1 1 1 0.010652046672655223 1 1 1 1 1 1 1 1 0.010305397654267892 1 1 1 0.010043461066229123 1 0.011037335871535483 1 1 1 1 0.010112410484635662 1 1 1 1 1 1 1 0.0099541927976597236 1 1 0.010059602203291629 1 1 1 1 1 1 1 1 1 1 1 1 1 1 1 1 1 1 1 1 0.01009206027151612 1 1 1 1 1 1 1 0.010226834539406454 1 1 1 1 1 0.010693876194840711 0.0099811474396734549 1 1 1 1 1 0.0090536599593982157 1 0.010173689054733905 1 1 0.010026126580798355 1 1 1 1 1 1 1 1 0.010029660851577298 1 1 1 1 0.010063407554320508 1 0.014038728345745516 1 1 1 1 1 0.010179226836761623 1 1 0.0098586590504084574 1 1 0.010339824182915236 1 1 1 1 1 1 0.010127271034320352 1 1 1 1 1 1 1 1 0.011156340513688015 1 0.010097720297160384 1 1 1 1 1 0.014262769801732175 0.0098218819157423198 1 1 1 1 1 1 1 0.0090449902723735518 1 0.0099999514476884974 1 1 0.0098418987383033923 1 1 0.0098744979417270812 1 1 0.0098111641590727106 1 1 1 1 1 0.0093292945888237347 0.011409901764636989 0.0074530975715991366 1 1 0.0099050311544595388 1 1 0.013902794702965855 1 1 1 1 1 1 1 1 1 0.014505244068415791 1 1 1 0.010033812630496941 1 1 1 1 1 1 1 1 1 1 1 1 1 1 1 1 1 1 1 1 1 1 1 1 1 1 1 1 1 1 0.010192987169632224 1 1 1 0.010011002998004627 1 1 1 1 1 1 0.010363575887416191 1 1 1 0.010958936320527907 1 1 0.0095146579317387237 1 1 1 0.010063842845631612 1 0.0094293875538348036 1 1 1 1 1 0.0099863509035412294 1 1 1 1 1 1 1 1 1 1 0.01316581710283065 1 1 0.011208402571227606 1 1 1 1 1 0.010675834600040084 1 1 1 1 1 0.010311913421560882 1 1 1 1 1 1 1 1 0.012716885383496926 1 1 1 0.011193116093872753 1 1 1 1 1 1 1 1 1 1 1 1 0.010165458503275562 1 1 1 1 1 1 1 1 1 1 1 0.010701852068723511 1 1 1 0.010489779147203962 1 1 1 1 1 1 1 1 0.012129208245260663 1 1 0.011640241487023041 1 1 1 1 1 1 1 1 1 1 1 1 1 1 1 1 1 1 1 1 1 1 1 1 1 1 1 1 1 1 1 1 1 1 1 1 1 1 1 1 1 1 1 1 1 1 1 1 1 0.010844138108558164 1 1 1 1 0.011448858120594631 1 0.012972627410218811 1 1 1 1 1 1 1 1 1 1 1 0.011082561963383626 1 1 1 1 1 1 1 1 1 1 1 1 1 1 1 1 1 1 1 1 1 0.01004683132671259 1 1 1 1 1 1 0.010035057671900599 0.010128261032765679 1 0.010010639973130522 1 1 1 0.0098520512275388338 0.010472707477733529 1 0.011287460315509389 1 0.010873154462359241 1 1 1 1 0.010613049898450922 1 1 1 1 1 1 0.0097511611231675434 1 0.010306809061102866 0.0096486217883087061 1 0.011708776720216973 0.0098119869907604129 1 1 0.0085966255233432837 0.012071089636506487 1 1 1 1 1 1 1 1 1 1 1 0.0080907380858664044 1 1 0.010076206760142918 0.012435967715966155 1 1 0.010707413530983603 1 1 1 1 1 1 1 1 1 1 0.010353638517893886 1 1 0.010843881103178145 1 1 1 1 1 1 0.011357649162517941 1 1 1 0.010650235631534336 1 1 1 0.01049024258528424 1 1 1 1 1 1 1 1 1 1 1 1 1 1 1 1 1 1 1 1 1 1 1 1 1 1 1 1 1 1 1 1 1 1 0.0104695120649327 1 1 1 1 1 1 1 1 1 1 1 1 0.010863613720801829 1 1 1 1 1 1 1 1 1 1 1 1 1 1 1 1 1 1 1 1 1 1 1 1 1 0.010334117300726274 0.0101257775856384 1 1 1 1 1 1 1 1 1 1 1 1 1 1 1 1 1 1 1 1 1 1 1 1 1 1 1 1 1 1 1 1 1 1 1 1 1 1 0.012071658478712409 1 1 1 1 1 1 1 1 1 1 1 1 1 1 1 0.01000083945415647 1 1 1 0.010148943427184559 1 1 1 1 1 1 1 1 1 1 1 1 1 1 1 1 1 0.012147336883542305 1 1 0.012174337622506276 1 1 1 1 1 1 0.0099626340741816918 1 1 1 0.0099740432663782321 1 1 1 0.0098219989411589999 1 1 1 1 1 1 1 1 1 1 0.010481908875840881 1 0.010094319643092339 1 1 1 1 1 1 1 1 1 1 1 1 1 1 1 1 1 1 1 1 1 1 1 1 1 1 1 1 1 1 1 1 1 1 1 1 1 1 1 1 1 1 1 1 1 1 1 1 1 1 1 1 1 1 1 1 1 1 1 1 1 1 1 1 1 1 1 1 1 1 1 1 1 1 1 0.0093478194113314275 0.0097756477829236063 1 1 1 1 1 0.0099245122152830916 1 1 1 1 1 1 1 0.0097774628184226098 1 1 1 1 1 0.0099842606086933058 1 1 1 1 1 1 1 1 1 1 1 1 1 1 1 1 1 1 1 1 0.024291786494651794 1 1 0.010893938616868753 1 1 1 1 1 1 1 1 1 1 1 1 1 1 1 1 1 1 1 1 1 1 1 1 1 1 1 1 1 1 1 1 1 1 1 1 0.010046869410228212 0.017186756016740662 1 1 1 1 0.008269401688721114 1 0.01014689525958337 1 1 1 1 1 1 1 1 0.026638043940376728 1 1 1 1 1 1 1 1 1 1 1 1 1 1 1 1 1 1 1 1 1 1 0.0065741899432661824 0.0099960262816916109 1 1 1 1 1 1 1 1 1 0.0082079673461183875 1 1 1 1 1 1 1 1 1 1 1 1 1 1 1 1 1 0.020170820449561293 1 1 0.022502817891206971 1 1 1 0.01514082272594848 1 1 1 0.012927994807622346 1 1 1 1 1 0.024662637574508567 1 1 1 1 1 1 1 1 1 1 1 1 1 1 1 1 1 1 0.010255967067613121 1 1 1 1 1 1 0.010557224315190029 1 1 1 1 0.010620573943246267 1 1 0.010542137902960208 1 1 1 1 1 1 1 1 1 1 1 1 1 1 1 0.010374436133921083 1 1 0.01087495385358931 1 1 1 1 1 0.010770238882997971 1 1 1 1 0.01203031075663809 0.010791489258323378 1 1 1 1 1 1 1 1 1 1 1 1 1 1 1 1 0.025899048469397019 1 1 1 0.010905445780087139 1 1 1 1 1 0.010355984739867968 1 1 1 1 1 1 0.025812777400996231 1 1 1 1 1 1 1 1 1 1 1 1 1 1 1 1 1 1 1 1 1 1 1 1 1 0.017555094556832806 1 0.010121331078435611 1 1 1 1 1 1 1 1 1 1 1 1 1 1 0.016049551765953324 1 1 1 1 1 1 1 1 0.010003301443739215 1 1 1 1 0.014558979121079875 1 1 1 1 1 1 1 1 1 1 1 0.01786936992515014 1 0.01715976069162007 1 0.016677130298589724 1 1 1 1 1 1 1 0.013841434820838012 1 0.013479162391728625 0.009940441894320631 1 1 1 1 1 1 1 1 1 0.012677649770696032 1 1 1 1 0.010760229038185586 1 1 1 1 1 1 1 1 1 1 1 1 1 1 1 1 1 1 0.013519198631498522 1 0.0084265007143718464 1 1 1 0.010006641016046631 1 1 0.010267582834577035 0.008177623415523869 1 0.012433953488551114 1 1 1 0.013090532017661749 0.015087474056213244 1 1 1 1 1 0.0084380895027872903 1 1 1 1 1 1 0.0088287751392850371 1 0.008290343752215875 1 1 1 1 1 1 1 1 1 1 1 1 1 1 1 0.0095628717985182382 1 1 1 1 1 1 1 1 1 1 1 1 1 1 1 1 0.010673171032936708 1 1 1 1 1 1 1 1 0.01004633373325407 1 1 1 0.010820260404202434 1 1 1 0.0091627130010571971 1 1 1 1 1 1 1 1 1 0.0096589859575386145 1 1 1 1 1 1 1 1 1 1 1 0.0099237543888533626 1 1 1 1 1 1 1 1 1 1 0.010656386852047613 1 0.010322822606106591 1 1 1 1 1 0.0097452235275574412 1 1 0.010003104633318641 1 1 1 0.010062240997739719 1 1 1 1 0.010092218777715664 0.010340750554018341 1 1 1 1 1 1 1 1 1 1 1 1 1 
</DataArray>
</CellData>
</Piece>
</UnstructuredGrid>
</VTKFile>
